Al   C    O    H                        
   1.0000000000000000     
     6.0191999999999997    0.0000000000000000    0.0000000000000000
     0.0000000000000000   10.1400000000000006    0.0000000000000000
     0.0000000000000000    0.0000000000000000   15.0000000000000000
   Al   C    O    H 
     8     4     1     2
Selective dynamics
Direct
  0.4563700696369306  0.8186845421611864  0.2911994400283720   T   T   T
  0.9600017227468702  0.8217141832151474  0.2495236447328031   T   T   T
  0.4564167844402622  0.5626825894893672  0.2636373001997055   T   T   T
  0.9569513070916158  0.5631068430015739  0.2373114380599340   T   T   T
  0.4576233316348487  0.3201248665044306  0.2345560121431516   T   T   T
  0.9574264369960933  0.3211123769098875  0.2608010097750450   T   T   T
  0.4604456167477732  0.0595458758870603  0.2444204638042551   T   T   T
  0.9623603919618184  0.0642565639519216  0.2753538159358300   T   T   T
  0.2107048459853810  0.9416158740683445  0.2656079960926551   T   T   T
  0.7110672946000527  0.9430134438828326  0.2711018838127225   T   T   T
  0.2073648362029814  0.4413497324400115  0.2456310099896391   T   T   T
  0.7069002606626118  0.4415408887314102  0.2479002495057265   T   T   T
  0.5366475296449951  0.8378468082120430  0.4265544709022472   T   T   T
  0.6437437416451234  0.9050700520659397  0.4001156080064132   T   T   T
  0.4242008082846970  0.8882162086762458  0.4590208907024781   T   T   T

  0.00000000E+00  0.00000000E+00  0.00000000E+00
  0.00000000E+00  0.00000000E+00  0.00000000E+00
  0.00000000E+00  0.00000000E+00  0.00000000E+00
  0.00000000E+00  0.00000000E+00  0.00000000E+00
  0.00000000E+00  0.00000000E+00  0.00000000E+00
  0.00000000E+00  0.00000000E+00  0.00000000E+00
  0.00000000E+00  0.00000000E+00  0.00000000E+00
  0.00000000E+00  0.00000000E+00  0.00000000E+00
  0.00000000E+00  0.00000000E+00  0.00000000E+00
  0.00000000E+00  0.00000000E+00  0.00000000E+00
  0.00000000E+00  0.00000000E+00  0.00000000E+00
  0.00000000E+00  0.00000000E+00  0.00000000E+00
  0.00000000E+00  0.00000000E+00  0.00000000E+00
  0.00000000E+00  0.00000000E+00  0.00000000E+00
  0.00000000E+00  0.00000000E+00  0.00000000E+00
