Al   C    O    H                        
   1.0000000000000000     
     6.0191999999999997    0.0000000000000000    0.0000000000000000
     0.0000000000000000   10.1400000000000006    0.0000000000000000
     0.0000000000000000    0.0000000000000000   15.0000000000000000
   Al   C    O    H 
     8     4     1     2
Selective dynamics
Direct
  0.4565306156615533  0.8183081274863857  0.2909818827540437   T   T   T
  0.9602784265809827  0.8214912681797824  0.2511336654357071   T   T   T
  0.4581536026471187  0.5626460235834438  0.2630948322513715   T   T   T
  0.9587682298735802  0.5630590530924747  0.2385852278419561   T   T   T
  0.4595659138257918  0.3198782168980187  0.2356626256571066   T   T   T
  0.9592915116501082  0.3208361067776390  0.2604031558563872   T   T   T
  0.4613033014486034  0.0596313924044641  0.2458201748982474   T   T   T
  0.9628279536541473  0.0641916857628601  0.2755144227753484   T   T   T
  0.2111448075909233  0.9416073175190419  0.2657845683884515   T   T   T
  0.7115080360832486  0.9428560657005814  0.2726354831800149   T   T   T
  0.2091709414693617  0.4411653515337092  0.2455734637489245   T   T   T
  0.7087564159484659  0.4414081638742801  0.2484960318020538   T   T   T
  0.5290965477531235  0.8369607439333950  0.4269794517464458   T   T   T
  0.6380411353972797  0.9039777437088794  0.4017460933490032   T   T   T
  0.4135206778591106  0.8879719617476155  0.4571316647841902   T   T   T

  0.00000000E+00  0.00000000E+00  0.00000000E+00
  0.00000000E+00  0.00000000E+00  0.00000000E+00
  0.00000000E+00  0.00000000E+00  0.00000000E+00
  0.00000000E+00  0.00000000E+00  0.00000000E+00
  0.00000000E+00  0.00000000E+00  0.00000000E+00
  0.00000000E+00  0.00000000E+00  0.00000000E+00
  0.00000000E+00  0.00000000E+00  0.00000000E+00
  0.00000000E+00  0.00000000E+00  0.00000000E+00
  0.00000000E+00  0.00000000E+00  0.00000000E+00
  0.00000000E+00  0.00000000E+00  0.00000000E+00
  0.00000000E+00  0.00000000E+00  0.00000000E+00
  0.00000000E+00  0.00000000E+00  0.00000000E+00
  0.00000000E+00  0.00000000E+00  0.00000000E+00
  0.00000000E+00  0.00000000E+00  0.00000000E+00
  0.00000000E+00  0.00000000E+00  0.00000000E+00
