V2O5                                    
   1.0000000000000000     
    15.0000000000000000    0.0000000000000000    0.0000000000000000
     0.0000000000000000   15.0000000000000000    0.0000000000000000
     0.0000000000000000    0.0000000000000000   15.0000000000000000
   S    H 
     1     2
Selective dynamics
Direct
  0.4924439389567112  0.4924439297650736  0.4999999695686128   T   T   T
  0.5823488706432371  0.4912072007701553  0.5000000151666768   T   T   T
  0.4912071904000541  0.5823488694647736  0.5000000152647104   T   T   T

  0.00000000E+00  0.00000000E+00  0.00000000E+00
  0.00000000E+00  0.00000000E+00  0.00000000E+00
  0.00000000E+00  0.00000000E+00  0.00000000E+00
