   3   3   0   0
  0.1125000E+04  0.1500000E-08  0.1500000E-08  0.1500000E-08  0.3500000E-15
   1.0000000000000000E-004
  CAR 
 H2S                                     
      1.38474987    -19.40916547  301     -5.95810149      1.00000000
    -19.409  0.0000E+00  0.0000E+00
    -19.340  0.0000E+00  0.0000E+00
    -19.271  0.0000E+00  0.0000E+00
    -19.201  0.0000E+00  0.0000E+00
    -19.132  0.0000E+00  0.0000E+00
    -19.063  0.0000E+00  0.0000E+00
    -18.993  0.0000E+00  0.0000E+00
    -18.924  0.0000E+00  0.0000E+00
    -18.855  0.0000E+00  0.0000E+00
    -18.785  0.0000E+00  0.0000E+00
    -18.716  0.1459E-12  0.1011E-13
    -18.647  0.3404E-07  0.2360E-08
    -18.577  0.1928E-03  0.1336E-04
    -18.508  0.3042E-01  0.2122E-02
    -18.439  0.1893E+00  0.1524E-01
    -18.369  0.6758E-01  0.1992E-01
    -18.300  0.1083E-02  0.2000E-01
    -18.231  0.5179E-06  0.2000E-01
    -18.162  0.6164E-11  0.2000E-01
    -18.092  0.0000E+00  0.2000E-01
    -18.023  0.0000E+00  0.2000E-01
    -17.954  0.0000E+00  0.2000E-01
    -17.884  0.0000E+00  0.2000E-01
    -17.815  0.0000E+00  0.2000E-01
    -17.746  0.0000E+00  0.2000E-01
    -17.676  0.0000E+00  0.2000E-01
    -17.607  0.0000E+00  0.2000E-01
    -17.538  0.0000E+00  0.2000E-01
    -17.468  0.0000E+00  0.2000E-01
    -17.399  0.0000E+00  0.2000E-01
    -17.330  0.0000E+00  0.2000E-01
    -17.260  0.0000E+00  0.2000E-01
    -17.191  0.0000E+00  0.2000E-01
    -17.122  0.0000E+00  0.2000E-01
    -17.053  0.0000E+00  0.2000E-01
    -16.983  0.0000E+00  0.2000E-01
    -16.914  0.0000E+00  0.2000E-01
    -16.845  0.0000E+00  0.2000E-01
    -16.775  0.0000E+00  0.2000E-01
    -16.706  0.0000E+00  0.2000E-01
    -16.637  0.0000E+00  0.2000E-01
    -16.567  0.0000E+00  0.2000E-01
    -16.498  0.0000E+00  0.2000E-01
    -16.429  0.0000E+00  0.2000E-01
    -16.359  0.0000E+00  0.2000E-01
    -16.290  0.0000E+00  0.2000E-01
    -16.221  0.0000E+00  0.2000E-01
    -16.151  0.0000E+00  0.2000E-01
    -16.082  0.0000E+00  0.2000E-01
    -16.013  0.0000E+00  0.2000E-01
    -15.944  0.0000E+00  0.2000E-01
    -15.874  0.0000E+00  0.2000E-01
    -15.805  0.0000E+00  0.2000E-01
    -15.736  0.0000E+00  0.2000E-01
    -15.666  0.0000E+00  0.2000E-01
    -15.597  0.0000E+00  0.2000E-01
    -15.528  0.0000E+00  0.2000E-01
    -15.458  0.0000E+00  0.2000E-01
    -15.389  0.0000E+00  0.2000E-01
    -15.320  0.0000E+00  0.2000E-01
    -15.250  0.0000E+00  0.2000E-01
    -15.181  0.0000E+00  0.2000E-01
    -15.112  0.0000E+00  0.2000E-01
    -15.042  0.0000E+00  0.2000E-01
    -14.973  0.0000E+00  0.2000E-01
    -14.904  0.0000E+00  0.2000E-01
    -14.835  0.0000E+00  0.2000E-01
    -14.765  0.0000E+00  0.2000E-01
    -14.696  0.0000E+00  0.2000E-01
    -14.627  0.0000E+00  0.2000E-01
    -14.557  0.0000E+00  0.2000E-01
    -14.488  0.0000E+00  0.2000E-01
    -14.419  0.0000E+00  0.2000E-01
    -14.349  0.0000E+00  0.2000E-01
    -14.280  0.0000E+00  0.2000E-01
    -14.211  0.0000E+00  0.2000E-01
    -14.141  0.0000E+00  0.2000E-01
    -14.072  0.0000E+00  0.2000E-01
    -14.003  0.0000E+00  0.2000E-01
    -13.933  0.0000E+00  0.2000E-01
    -13.864  0.0000E+00  0.2000E-01
    -13.795  0.0000E+00  0.2000E-01
    -13.725  0.0000E+00  0.2000E-01
    -13.656  0.0000E+00  0.2000E-01
    -13.587  0.0000E+00  0.2000E-01
    -13.518  0.0000E+00  0.2000E-01
    -13.448  0.0000E+00  0.2000E-01
    -13.379  0.0000E+00  0.2000E-01
    -13.310  0.0000E+00  0.2000E-01
    -13.240  0.0000E+00  0.2000E-01
    -13.171  0.0000E+00  0.2000E-01
    -13.102  0.0000E+00  0.2000E-01
    -13.032  0.0000E+00  0.2000E-01
    -12.963  0.0000E+00  0.2000E-01
    -12.894  0.0000E+00  0.2000E-01
    -12.824  0.0000E+00  0.2000E-01
    -12.755  0.0000E+00  0.2000E-01
    -12.686  0.0000E+00  0.2000E-01
    -12.616  0.0000E+00  0.2000E-01
    -12.547  0.0000E+00  0.2000E-01
    -12.478  0.0000E+00  0.2000E-01
    -12.409  0.0000E+00  0.2000E-01
    -12.339  0.0000E+00  0.2000E-01
    -12.270  0.0000E+00  0.2000E-01
    -12.201  0.0000E+00  0.2000E-01
    -12.131  0.0000E+00  0.2000E-01
    -12.062  0.0000E+00  0.2000E-01
    -11.993  0.0000E+00  0.2000E-01
    -11.923  0.0000E+00  0.2000E-01
    -11.854  0.0000E+00  0.2000E-01
    -11.785  0.0000E+00  0.2000E-01
    -11.715  0.0000E+00  0.2000E-01
    -11.646  0.0000E+00  0.2000E-01
    -11.577  0.0000E+00  0.2000E-01
    -11.507  0.0000E+00  0.2000E-01
    -11.438  0.0000E+00  0.2000E-01
    -11.369  0.0000E+00  0.2000E-01
    -11.300  0.0000E+00  0.2000E-01
    -11.230  0.0000E+00  0.2000E-01
    -11.161  0.9611E-16  0.2000E-01
    -11.092  0.1376E-09  0.2000E-01
    -11.022  0.4663E-05  0.2000E-01
    -10.953  0.4048E-02  0.2028E-01
    -10.884  0.1134E+00  0.2814E-01
    -10.814  0.1589E+00  0.3915E-01
    -10.745  0.1216E-01  0.4000E-01
    -10.676  0.3294E-04  0.4000E-01
    -10.606  0.2371E-08  0.4000E-01
    -10.537  0.4068E-14  0.4000E-01
    -10.468  0.0000E+00  0.4000E-01
    -10.398  0.0000E+00  0.4000E-01
    -10.329  0.0000E+00  0.4000E-01
    -10.260  0.0000E+00  0.4000E-01
    -10.191  0.0000E+00  0.4000E-01
    -10.121  0.0000E+00  0.4000E-01
    -10.052  0.0000E+00  0.4000E-01
     -9.983  0.0000E+00  0.4000E-01
     -9.913  0.0000E+00  0.4000E-01
     -9.844  0.0000E+00  0.4000E-01
     -9.775  0.0000E+00  0.4000E-01
     -9.705  0.0000E+00  0.4000E-01
     -9.636  0.0000E+00  0.4000E-01
     -9.567  0.0000E+00  0.4000E-01
     -9.497  0.0000E+00  0.4000E-01
     -9.428  0.0000E+00  0.4000E-01
     -9.359  0.0000E+00  0.4000E-01
     -9.289  0.8077E-12  0.4000E-01
     -9.220  0.1192E-06  0.4000E-01
     -9.151  0.4315E-03  0.4003E-01
     -9.082  0.4478E-01  0.4313E-01
     -9.012  0.1941E+00  0.5659E-01
     -8.943  0.4867E-01  0.5996E-01
     -8.874  0.5166E-03  0.6000E-01
     -8.804  0.1583E-06  0.6000E-01
     -8.735  0.1193E-11  0.6000E-01
     -8.666  0.0000E+00  0.6000E-01
     -8.596  0.0000E+00  0.6000E-01
     -8.527  0.0000E+00  0.6000E-01
     -8.458  0.0000E+00  0.6000E-01
     -8.388  0.0000E+00  0.6000E-01
     -8.319  0.0000E+00  0.6000E-01
     -8.250  0.0000E+00  0.6000E-01
     -8.180  0.0000E+00  0.6000E-01
     -8.111  0.0000E+00  0.6000E-01
     -8.042  0.0000E+00  0.6000E-01
     -7.973  0.0000E+00  0.6000E-01
     -7.903  0.0000E+00  0.6000E-01
     -7.834  0.0000E+00  0.6000E-01
     -7.765  0.0000E+00  0.6000E-01
     -7.695  0.0000E+00  0.6000E-01
     -7.626  0.0000E+00  0.6000E-01
     -7.557  0.0000E+00  0.6000E-01
     -7.487  0.0000E+00  0.6000E-01
     -7.418  0.0000E+00  0.6000E-01
     -7.349  0.0000E+00  0.6000E-01
     -7.279  0.0000E+00  0.6000E-01
     -7.210  0.0000E+00  0.6000E-01
     -7.141  0.0000E+00  0.6000E-01
     -7.071  0.0000E+00  0.6000E-01
     -7.002  0.0000E+00  0.6000E-01
     -6.933  0.0000E+00  0.6000E-01
     -6.864  0.0000E+00  0.6000E-01
     -6.794  0.0000E+00  0.6000E-01
     -6.725  0.0000E+00  0.6000E-01
     -6.656  0.0000E+00  0.6000E-01
     -6.586  0.0000E+00  0.6000E-01
     -6.517  0.1602E-16  0.6000E-01
     -6.448  0.2623E-10  0.6000E-01
     -6.378  0.1454E-05  0.6000E-01
     -6.309  0.2031E-02  0.6014E-01
     -6.240  0.8755E-01  0.6621E-01
     -6.170  0.1784E+00  0.7857E-01
     -6.101  0.2050E-01  0.7999E-01
     -6.032  0.8825E-04  0.8000E-01
     -5.962  0.1035E-07  0.8000E-01
     -5.893  0.2918E-13  0.8000E-01
     -5.824  0.0000E+00  0.8000E-01
     -5.754  0.0000E+00  0.8000E-01
     -5.685  0.0000E+00  0.8000E-01
     -5.616  0.0000E+00  0.8000E-01
     -5.547  0.0000E+00  0.8000E-01
     -5.477  0.0000E+00  0.8000E-01
     -5.408  0.0000E+00  0.8000E-01
     -5.339  0.0000E+00  0.8000E-01
     -5.269  0.0000E+00  0.8000E-01
     -5.200  0.0000E+00  0.8000E-01
     -5.131  0.0000E+00  0.8000E-01
     -5.061  0.0000E+00  0.8000E-01
     -4.992  0.0000E+00  0.8000E-01
     -4.923  0.0000E+00  0.8000E-01
     -4.853  0.0000E+00  0.8000E-01
     -4.784  0.0000E+00  0.8000E-01
     -4.715  0.0000E+00  0.8000E-01
     -4.645  0.0000E+00  0.8000E-01
     -4.576  0.0000E+00  0.8000E-01
     -4.507  0.0000E+00  0.8000E-01
     -4.438  0.0000E+00  0.8000E-01
     -4.368  0.0000E+00  0.8000E-01
     -4.299  0.0000E+00  0.8000E-01
     -4.230  0.0000E+00  0.8000E-01
     -4.160  0.0000E+00  0.8000E-01
     -4.091  0.0000E+00  0.8000E-01
     -4.022  0.0000E+00  0.8000E-01
     -3.952  0.0000E+00  0.8000E-01
     -3.883  0.0000E+00  0.8000E-01
     -3.814  0.0000E+00  0.8000E-01
     -3.744  0.0000E+00  0.8000E-01
     -3.675  0.0000E+00  0.8000E-01
     -3.606  0.0000E+00  0.8000E-01
     -3.536  0.0000E+00  0.8000E-01
     -3.467  0.0000E+00  0.8000E-01
     -3.398  0.0000E+00  0.8000E-01
     -3.329  0.0000E+00  0.8000E-01
     -3.259  0.0000E+00  0.8000E-01
     -3.190  0.0000E+00  0.8000E-01
     -3.121  0.0000E+00  0.8000E-01
     -3.051  0.0000E+00  0.8000E-01
     -2.982  0.0000E+00  0.8000E-01
     -2.913  0.0000E+00  0.8000E-01
     -2.843  0.0000E+00  0.8000E-01
     -2.774  0.0000E+00  0.8000E-01
     -2.705  0.0000E+00  0.8000E-01
     -2.635  0.0000E+00  0.8000E-01
     -2.566  0.0000E+00  0.8000E-01
     -2.497  0.0000E+00  0.8000E-01
     -2.427  0.0000E+00  0.8000E-01
     -2.358  0.0000E+00  0.8000E-01
     -2.289  0.0000E+00  0.8000E-01
     -2.220  0.0000E+00  0.8000E-01
     -2.150  0.0000E+00  0.8000E-01
     -2.081  0.0000E+00  0.8000E-01
     -2.012  0.0000E+00  0.8000E-01
     -1.942  0.0000E+00  0.8000E-01
     -1.873  0.0000E+00  0.8000E-01
     -1.804  0.0000E+00  0.8000E-01
     -1.734  0.0000E+00  0.8000E-01
     -1.665  0.0000E+00  0.8000E-01
     -1.596  0.0000E+00  0.8000E-01
     -1.526  0.0000E+00  0.8000E-01
     -1.457  0.0000E+00  0.8000E-01
     -1.388  0.0000E+00  0.8000E-01
     -1.318  0.0000E+00  0.8000E-01
     -1.249  0.0000E+00  0.8000E-01
     -1.180  0.0000E+00  0.8000E-01
     -1.111  0.1137E-14  0.8000E-01
     -1.041  0.9088E-09  0.8000E-01
     -0.972  0.1717E-04  0.8000E-01
     -0.903  0.8505E-02  0.8059E-01
     -0.833  0.1441E+00  0.9058E-01
     -0.764  0.1298E+00  0.9958E-01
     -0.695  0.8086E-02  0.1001E+00
     -0.625  0.8758E-01  0.1062E+00
     -0.556  0.1784E+00  0.1186E+00
     -0.487  0.2049E-01  0.1200E+00
     -0.417  0.8816E-04  0.1200E+00
     -0.348  0.1033E-07  0.1200E+00
     -0.279  0.2912E-13  0.1200E+00
     -0.209  0.0000E+00  0.1200E+00
     -0.140  0.1634E-14  0.1200E+00
     -0.071  0.1194E-08  0.1200E+00
     -0.002  0.2068E-04  0.1200E+00
      0.068  0.9429E-02  0.1207E+00
      0.137  0.1484E+00  0.1309E+00
      0.206  0.1252E+00  0.1396E+00
      0.276  0.5419E-02  0.1400E+00
      0.345  0.1091E-02  0.1401E+00
      0.414  0.6758E-01  0.1448E+00
      0.484  0.1893E+00  0.1579E+00
      0.553  0.3042E-01  0.1600E+00
      0.622  0.1928E-03  0.1600E+00
      0.692  0.3404E-07  0.1600E+00
      0.761  0.1459E-12  0.1600E+00
      0.830  0.0000E+00  0.1600E+00
      0.900  0.0000E+00  0.1600E+00
      0.969  0.0000E+00  0.1600E+00
      1.038  0.0000E+00  0.1600E+00
      1.107  0.0000E+00  0.1600E+00
      1.177  0.0000E+00  0.1600E+00
      1.246  0.0000E+00  0.1600E+00
      1.315  0.0000E+00  0.1600E+00
      1.385  0.0000E+00  0.1600E+00
