    3    3  100    1
  0.1125000E+04  0.1500000E-08  0.1500000E-08  0.1500000E-08  0.3500000E-15
   1.0000000000000000E-004
  CAR 
 H2S                                     
      8      1      8

  0.1262379E-14  0.1262379E-14  0.1262379E-14  0.1000000E+01
    1      -18.463988   1.000000
    2      -10.875333   1.000000
    3       -9.045879   1.000000
    4       -6.222199   1.000000
    5       -0.835841   0.000000
    6       -0.607851   0.000000
    7        0.132921   0.000000
    8        0.439572   0.000000
