       N       E                     dE             d eps       ncg     rms          rms(c)
DAV:   1     0.355706348586E+02    0.35571E+02   -0.13672E+03    24   0.360E+02
DAV:   2    -0.329058258515E+00   -0.35900E+02   -0.35900E+02    24   0.793E+01
DAV:   3    -0.109839181195E+02   -0.10655E+02   -0.10655E+02    24   0.416E+01
DAV:   4    -0.117389106929E+02   -0.75499E+00   -0.75499E+00    24   0.885E+00
DAV:   5    -0.117403280094E+02   -0.14173E-02   -0.14173E-02    24   0.531E-01
DAV:   6    -0.117403316684E+02   -0.36590E-05   -0.36580E-05    32   0.268E-02
DAV:   7    -0.117403316697E+02   -0.12651E-08   -0.28570E-09    16   0.605E-04    0.108E+01
RMM:   8    -0.113508730779E+02    0.38946E+00   -0.43107E-01    16   0.339E+00    0.669E+00
RMM:   9    -0.112014849454E+02    0.14939E+00   -0.73011E-01    16   0.436E+00    0.704E-01
RMM:  10    -0.111878277805E+02    0.13657E-01   -0.32110E-02    16   0.119E+00    0.141E-01
RMM:  11    -0.111886910554E+02   -0.86327E-03   -0.45283E-03    16   0.411E-01    0.139E-01
RMM:  12    -0.111925447674E+02   -0.38537E-02   -0.44441E-03    16   0.328E-01    0.221E-01
RMM:  13    -0.111927124804E+02   -0.16771E-03   -0.15192E-03    16   0.229E-01    0.472E-02
RMM:  14    -0.111956124833E+02   -0.29000E-02   -0.54753E-04    16   0.136E-01    0.772E-02
RMM:  15    -0.111969034950E+02   -0.12910E-02   -0.30225E-04    15   0.767E-02    0.161E-02
RMM:  16    -0.111984210634E+02   -0.15176E-02   -0.35635E-04    15   0.738E-02    0.167E-02
RMM:  17    -0.111986769831E+02   -0.25592E-03   -0.52122E-05    15   0.297E-02    0.719E-03
RMM:  18    -0.111990674097E+02   -0.39043E-03   -0.40087E-05    15   0.308E-02    0.362E-03
RMM:  19    -0.111991220285E+02   -0.54619E-04   -0.38339E-06    12   0.107E-02    0.594E-03
RMM:  20    -0.111991699393E+02   -0.47911E-04   -0.29307E-06    11   0.934E-03    0.300E-03
RMM:  21    -0.111991839819E+02   -0.14043E-04   -0.11582E-06    11   0.688E-03    0.259E-03
RMM:  22    -0.111991931998E+02   -0.92179E-05   -0.21800E-07     9   0.454E-03
   1 F= -.11199193E+02 E0= -.11199193E+02  d E =-.111992E+02
