 vasp.5.4.4.18Apr17-6-g9f103f2a35 (build Dec  6 2019 17:49:40) complex           
 executed on             LinuxGNU date 2021.09.14  11:57:39
 running on    4 total cores
 distrk:  each k-point on    4 cores,    1 groups
 distr:  one band on NCORES_PER_BAND=   1 cores,    4 groups


--------------------------------------------------------------------------------------------------------


 INCAR:
 POTCAR:    PAW_PBE S 06Sep2000                   
 POTCAR:    PAW_PBE H 15Jun2001                   
 POTCAR:    PAW_PBE S 06Sep2000                   
   VRHFIN =S : s2p4                                                             
   LEXCH  = PE                                                                  
   EATOM  =   276.8230 eV,   20.3459 Ry                                         
                                                                                
   TITEL  = PAW_PBE S 06Sep2000                                                 
   LULTRA =        F    use ultrasoft PP ?                                      
   IUNSCR =        1    unscreen: 0-lin 1-nonlin 2-no                           
   RPACOR =    1.500    partial core radius                                     
   POMASS =   32.066; ZVAL   =    6.000    mass and valenz                      
   RCORE  =    1.900    outmost cutoff radius                                   
   RWIGS  =    2.200; RWIGS  =    1.164    wigner-seitz radius (au A)           
   ENMAX  =  258.689; ENMIN  =  194.016 eV                                      
   ICORE  =        2    local potential                                         
   LCOR   =        T    correct aug charges                                     
   LPAW   =        T    paw PP                                                  
   EAUG   =  335.092                                                            
   DEXC   =    0.000                                                            
   RMAX   =    1.942    core radius for proj-oper                               
   RAUG   =    1.300    factor for augmentation sphere                          
   RDEP   =    1.954    radius for radial grids                                 
   RDEPT  =    1.744    core radius for aug-charge                              
                                                                                
   Atomic configuration                                                         
    6 entries                                                                   
     n  l   j            E        occ.                                          
     1  0  0.50     -2405.8406   2.0000                                         
     2  0  0.50      -211.7007   2.0000                                         
     2  1  1.50      -156.4958   6.0000                                         
     3  0  0.50       -17.2562   2.0000                                         
     3  1  0.50        -7.0085   4.0000                                         
     3  2  1.50        -6.8029   0.0000                                         
   Description                                                                  
     l       E           TYP  RCUT    TYP  RCUT                                 
     0    -17.2561641     23  1.900                                             
     0    -15.8743224     23  1.900                                             
     1     -7.0085400     23  1.900                                             
     1     -2.7779785     23  1.900                                             
     2     -6.8029130     23  1.900                                             
  local pseudopotential read in
  partial core-charges read in
  partial kinetic energy density read in
  atomic valenz-charges read in
  non local Contribution for L=           0  read in
    real space projection operators read in
  non local Contribution for L=           0  read in
    real space projection operators read in
  non local Contribution for L=           1  read in
    real space projection operators read in
  non local Contribution for L=           1  read in
    real space projection operators read in
    PAW grid and wavefunctions read in

   number of l-projection  operators is LMAX  =           4
   number of lm-projection operators is LMMAX =           8

 POTCAR:    PAW_PBE H 15Jun2001                   
   VRHFIN =H: ultrasoft test                                                    
   LEXCH  = PE                                                                  
   EATOM  =    12.4884 eV,    0.9179 Ry                                         
                                                                                
   TITEL  = PAW_PBE H 15Jun2001                                                 
   LULTRA =        F    use ultrasoft PP ?                                      
   IUNSCR =        0    unscreen: 0-lin 1-nonlin 2-no                           
   RPACOR =    0.000    partial core radius                                     
   POMASS =    1.000; ZVAL   =    1.000    mass and valenz                      
   RCORE  =    1.100    outmost cutoff radius                                   
   RWIGS  =    0.700; RWIGS  =    0.370    wigner-seitz radius (au A)           
   ENMAX  =  250.000; ENMIN  =  200.000 eV                                      
   RCLOC  =    0.701    cutoff for local pot                                    
   LCOR   =        T    correct aug charges                                     
   LPAW   =        T    paw PP                                                  
   EAUG   =  400.000                                                            
   RMAX   =    1.123    core radius for proj-oper                               
   RAUG   =    1.200    factor for augmentation sphere                          
   RDEP   =    1.112    radius for radial grids                                 
   RDEPT  =    0.926    core radius for aug-charge                              
                                                                                
   Atomic configuration                                                         
    2 entries                                                                   
     n  l   j            E        occ.                                          
     1  0  0.50        -6.4927   1.0000                                         
     2  1  0.50        -3.4015   0.0000                                         
   Description                                                                  
     l       E           TYP  RCUT    TYP  RCUT                                 
     0     -6.4927494     23  1.100                                             
     0      6.8029130     23  1.100                                             
     1     -4.0817478     23  1.100                                             
  local pseudopotential read in
  atomic valenz-charges read in
  non local Contribution for L=           0  read in
    real space projection operators read in
  non local Contribution for L=           0  read in
    real space projection operators read in
  non local Contribution for L=           1  read in
    real space projection operators read in
    PAW grid and wavefunctions read in

   number of l-projection  operators is LMAX  =           3
   number of lm-projection operators is LMMAX =           5


 ----------------------------------------------------------------------------- 
|                                                                             |
|  ADVICE TO THIS USER RUNNING 'VASP/VAMP'   (HEAR YOUR MASTER'S VOICE ...):  |
|                                                                             |
|      You have a (more or less) 'small supercell' and for smaller cells      |
|      it is recommended  to use the reciprocal-space projection scheme!      |
|      The real space optimization is not  efficient for small cells and it   |
|      is also less accurate ...                                              |
|      Therefore set LREAL=.FALSE. in the  INCAR file                         |
|                                                                             |
 ----------------------------------------------------------------------------- 

 Optimization of the real space projectors (new method)

 maximal supplied QI-value         = 19.84
 optimisation between [QCUT,QGAM] = [ 10.71, 21.63] = [ 32.15,130.99] Ry 
 Optimized for a Real-space Cutoff    1.23 Angstroem

   l    n(q)    QCUT    max X(q) W(low)/X(q) W(high)/X(q)  e(spline) 
   0      8    10.715   187.594    0.17E-03    0.39E-04    0.63E-07
   0      8    10.715   164.243    0.17E-03    0.39E-04    0.62E-07
   1      7    10.715    67.533    0.17E-03    0.42E-03    0.88E-07
   1      7    10.715    50.729    0.17E-03    0.42E-03    0.86E-07
 Optimization of the real space projectors (new method)

 maximal supplied QI-value         = 34.20
 optimisation between [QCUT,QGAM] = [ 10.60, 21.55] = [ 31.48,130.03] Ry 
 Optimized for a Real-space Cutoff    1.30 Angstroem

   l    n(q)    QCUT    max X(q) W(low)/X(q) W(high)/X(q)  e(spline) 
   0      8    10.603    19.460    0.19E-03    0.32E-03    0.30E-06
   0      8    10.603    12.209    0.17E-03    0.30E-03    0.29E-06
   1      8    10.603     4.655    0.20E-04    0.16E-03    0.37E-06
  PAW_PBE S 06Sep2000                   :
 energy of atom  1       EATOM= -276.8230
 kinetic energy error for atom=    0.0033 (will be added to EATOM!!)
  PAW_PBE H 15Jun2001                   :
 energy of atom  2       EATOM=  -12.4884
 kinetic energy error for atom=    0.0045 (will be added to EATOM!!)


 POSCAR: V2O5                                    
  positions in direct lattice
  velocities in cartesian coordinates
 exchange correlation table for  LEXCH =        8
   RHO(1)=    0.500       N(1)  =     2000
   RHO(2)=  100.500       N(2)  =     4000

 VTST: version 3.2, (02/03/18)

 CHAIN: initializing optimizer
 
 OPT: Using VASP Conjugate-Gradient optimizer
 CHAIN: Read ICHAIN            0

 POSCAR: V2O5                                    
  positions in direct lattice
  velocities in cartesian coordinates



--------------------------------------------------------------------------------------------------------


 ion  position               nearest neighbor table
   1  0.492  0.492  0.500-   2 1.35   3 1.35
   2  0.582  0.491  0.500-   1 1.35
   3  0.491  0.582  0.500-   1 1.35


IMPORTANT INFORMATION: All symmetrisations will be switched off!
NOSYMM: (Re-)initialisation of all symmetry stuff for point group C_1.



 KPOINTS: Automatic mesh                          

Automatic generation of k-mesh.
Space group operators:
 irot       det(A)        alpha          n_x          n_y          n_z        tau_x        tau_y        tau_z
    1     1.000000     0.000000     1.000000     0.000000     0.000000     0.000000     0.000000     0.000000
 
 Subroutine IBZKPT returns following result:
 ===========================================
 
 Found      1 irreducible k-points:
 
 Following reciprocal coordinates:
            Coordinates               Weight
  0.000000  0.000000  0.000000      1.000000
 
 Following cartesian coordinates:
            Coordinates               Weight
  0.000000  0.000000  0.000000      1.000000
 


--------------------------------------------------------------------------------------------------------




 Dimension of arrays:
   k-points           NKPTS =      1   k-points in BZ     NKDIM =      1   number of bands    NBANDS=      8
   number of dos      NEDOS =    301   number of ions     NIONS =      3
   non local maximal  LDIM  =      4   non local SUM 2l+1 LMDIM =      8
   total plane-waves  NPLWV = ******
   max r-space proj   IRMAX =   3497   max aug-charges    IRDMAX=  11957
   dimension x,y,z NGX =   108 NGY =  108 NGZ =  108
   dimension x,y,z NGXF=   216 NGYF=  216 NGZF=  216
   support grid    NGXF=   216 NGYF=  216 NGZF=  216
   ions per type =               1   2
   NGX,Y,Z   is equivalent  to a cutoff of  11.97, 11.97, 11.97 a.u.
   NGXF,Y,Z  is equivalent  to a cutoff of  23.94, 23.94, 23.94 a.u.

 SYSTEM =  H2S                                     
 POSCAR =  V2O5                                    

 Startparameter for this run:
   NWRITE =      2    write-flag & timer
   PREC   = accura    normal or accurate (medium, high low for compatibility)
   ISTART =      0    job   : 0-new  1-cont  2-samecut
   ICHARG =      2    charge: 1-file 2-atom 10-const
   ISPIN  =      1    spin polarized calculation?
   LNONCOLLINEAR =      F non collinear calculations
   LSORBIT =      F    spin-orbit coupling
   INIWAV =      1    electr: 0-lowe 1-rand  2-diag
   LASPH  =      F    aspherical Exc in radial PAW
   METAGGA=      F    non-selfconsistent MetaGGA calc.

 Electronic Relaxation 1
   ENCUT  =  450.0 eV  33.07 Ry    5.75 a.u.  25.95 25.95 25.95*2*pi/ulx,y,z
   ENINI  =  450.0     initial cutoff
   ENAUG  =  400.0 eV  augmentation charge cutoff
   NELM   =    300;   NELMIN=  2; NELMDL= -7     # of ELM steps 
   EDIFF  = 0.1E-04   stopping-criterion for ELM
   LREAL  =      T    real-space projection
   NLSPLINE    = F    spline interpolate recip. space projectors
   LCOMPAT=      F    compatible to vasp.4.4
   GGA_COMPAT  = T    GGA compatible to vasp.4.4-vasp.4.6
   LMAXPAW     = -100 max onsite density
   LMAXMIX     =    2 max onsite mixed and CHGCAR
   VOSKOWN=      0    Vosko Wilk Nusair interpolation
   ROPT   =   -0.00020  -0.00020
 Ionic relaxation
   EDIFFG = -.1E-01   stopping-criterion for IOM
   NSW    =    100    number of steps for IOM
   NBLOCK =      1;   KBLOCK =    100    inner block; outer block 
   IBRION =      2    ionic relax: 0-MD 1-quasi-New 2-CG
   NFREE  =      1    steps in history (QN), initial steepest desc. (CG)
   ISIF   =      2    stress and relaxation
   IWAVPR =     11    prediction:  0-non 1-charg 2-wave 3-comb
   ISYM   =      0    0-nonsym 1-usesym 2-fastsym
   LCORR  =      T    Harris-Foulkes like correction to forces

   POTIM  = 0.3500    time-step for ionic-motion
   TEIN   =    0.0    initial temperature
   TEBEG  =    0.0;   TEEND  =   0.0 temperature during run
   SMASS  =  -3.00    Nose mass-parameter (am)
   estimated Nose-frequenzy (Omega)   =  0.10E-29 period in steps =****** mass=  -0.514E-26a.u.
   SCALEE = 1.0000    scale energy and forces
   NPACO  =    256;   APACO  = 16.0  distance and # of slots for P.C.
   PSTRESS=    0.0 pullay stress

  Mass of Ions in am
   POMASS =  32.07  1.00
  Ionic Valenz
   ZVAL   =   6.00  1.00
  Atomic Wigner-Seitz radii
   RWIGS  =  -1.00 -1.00
  virtual crystal weights 
   VCA    =   1.00  1.00
   NELECT =       8.0000    total number of electrons
   NUPDOWN=      -1.0000    fix difference up-down

 DOS related values:
   EMIN   =  10.00;   EMAX   =-10.00  energy-range for DOS
   EFERMI =   0.00
   ISMEAR =     0;   SIGMA  =   0.05  broadening in eV -4-tet -1-fermi 0-gaus

 Electronic relaxation 2 (details)
   IALGO  =     68    algorithm
   LDIAG  =      T    sub-space diagonalisation (order eigenvalues)
   LSUBROT=      F    optimize rotation matrix (better conditioning)
   TURBO    =      0    0=normal 1=particle mesh
   IRESTART =      0    0=no restart 2=restart with 2 vectors
   NREBOOT  =      0    no. of reboots
   NMIN     =      0    reboot dimension
   EREF     =   0.00    reference energy to select bands
   IMIX   =      4    mixing-type and parameters
     AMIX     =   0.40;   BMIX     =  1.00
     AMIX_MAG =   1.60;   BMIX_MAG =  1.00
     AMIN     =   0.10
     WC   =   100.;   INIMIX=   1;  MIXPRE=   1;  MAXMIX= -45

 Intra band minimization:
   WEIMIN = 0.0010     energy-eigenvalue tresh-hold
   EBREAK =  0.31E-06  absolut break condition
   DEPER  =   0.30     relativ break condition  

   TIME   =   0.40     timestep for ELM

  volume/ion in A,a.u.               =    1125.00      7591.87
  Fermi-wavevector in a.u.,A,eV,Ry     =   0.218280  0.412489  0.648264  0.047646
  Thomas-Fermi vector in A             =   0.996232

 Write flags
   LWAVE        =      F    write WAVECAR
   LDOWNSAMPLE  =      F    k-point downsampling of WAVECAR
   LCHARG       =      F    write CHGCAR
   LVTOT        =      F    write LOCPOT, total local potential
   LVHAR        =      F    write LOCPOT, Hartree potential only
   LELF         =      F    write electronic localiz. function (ELF)
   LORBIT       =      0    0 simple, 1 ext, 2 COOP (PROOUT), +10 PAW based schemes


 Dipole corrections
   LMONO  =      F    monopole corrections only (constant potential shift)
   LDIPOL =      F    correct potential (dipole corrections)
   IDIPOL =      0    1-x, 2-y, 3-z, 4-all directions 
   EPSILON=  1.0000000 bulk dielectric constant

 Exchange correlation treatment:
   GGA     =    PE    GGA type
   LEXCH   =     8    internal setting for exchange type
   VOSKOWN=      0    Vosko Wilk Nusair interpolation
   LHFCALC =     F    Hartree Fock is set to
   LHFONE  =     F    Hartree Fock one center treatment
   AEXX    =    0.0000 exact exchange contribution

 Linear response parameters
   LEPSILON=     F    determine dielectric tensor
   LRPA    =     F    only Hartree local field effects (RPA)
   LNABLA  =     F    use nabla operator in PAW spheres
   LVEL    =     F    velocity operator in full k-point grid
   LINTERFAST=   F  fast interpolation
   KINTER  =     0    interpolate to denser k-point grid
   CSHIFT  =0.1000    complex shift for real part using Kramers Kronig
   OMEGAMAX=  -1.0    maximum frequency
   DEG_THRESHOLD= 0.2000000E-02 threshold for treating states as degnerate
   RTIME   =   -0.100 relaxation time in fs
  (WPLASMAI=    0.000 imaginary part of plasma frequency in eV, 0.658/RTIME)
   DFIELD  = 0.0000000 0.0000000 0.0000000 field for delta impulse in time

 Orbital magnetization related:
   ORBITALMAG=     F  switch on orbital magnetization
   LCHIMAG   =     F  perturbation theory with respect to B field
   DQ        =  0.001000  dq finite difference perturbation B field
   LLRAUG    =     F  two centre corrections for induced B field



--------------------------------------------------------------------------------------------------------


 conjugate gradient relaxation of ions
   using selective dynamics as specified on POSCAR
 charge density and potential will be updated during run
 non-spin polarized calculation
 RMM-DIIS sequential band-by-band and
  variant of blocked Davidson during initial phase
 perform sub-space diagonalisation
    before iterative eigenvector-optimisation
 modified Broyden-mixing scheme, WC =      100.0
 initial mixing is a Kerker type mixing with AMIX =  0.4000 and BMIX =      1.0000
 Hartree-type preconditioning will be used
 using additional bands            4
 real space projection scheme for non local part
 use partial core corrections
 calculate Harris-corrections to forces   (improved forces if not selfconsistent)
 use gradient corrections 
 use of overlap-Matrix (Vanderbilt PP)
 Gauss-broadening in eV      SIGMA  =   0.05


--------------------------------------------------------------------------------------------------------


  energy-cutoff  :      450.00
  volume of cell :     3375.00
      direct lattice vectors                 reciprocal lattice vectors
    15.000000000  0.000000000  0.000000000     0.066666667  0.000000000  0.000000000
     0.000000000 15.000000000  0.000000000     0.000000000  0.066666667  0.000000000
     0.000000000  0.000000000 15.000000000     0.000000000  0.000000000  0.066666667

  length of vectors
    15.000000000 15.000000000 15.000000000     0.066666667  0.066666667  0.066666667



 k-points in units of 2pi/SCALE and weight: Automatic mesh                          
   0.00000000  0.00000000  0.00000000       1.000

 k-points in reciprocal lattice and weights: Automatic mesh                          
   0.00000000  0.00000000  0.00000000       1.000

 position of ions in fractional coordinates (direct lattice) 
   0.49244394  0.49244393  0.49999997
   0.58234887  0.49120720  0.50000002
   0.49120719  0.58234887  0.50000002

 position of ions in cartesian coordinates  (Angst):
   7.38665908  7.38665895  7.49999954
   8.73523306  7.36810801  7.50000023
   7.36810786  8.73523304  7.50000023



--------------------------------------------------------------------------------------------------------


 k-point  1 :   0.0000 0.0000 0.0000  plane waves:   72935

 maximum and minimum number of plane-waves per node :     72935    72935

 maximum number of plane-waves:     72935
 maximum index in each direction: 
   IXMAX=   25   IYMAX=   25   IZMAX=   25
   IXMIN=  -25   IYMIN=  -25   IZMIN=  -25


 serial   3D FFT for wavefunctions
 parallel 3D FFT for charge:
    minimum data exchange during FFTs selected (reduces bandwidth)


 total amount of memory used by VASP MPI-rank0   315952. kBytes
=======================================================================

   base      :      30000. kBytes
   nonlr-proj:        665. kBytes
   fftplans  :      90349. kBytes
   grid      :     192595. kBytes
   one-center:          9. kBytes
   wavefun   :       2334. kBytes

     INWAV:  cpu time    0.0001: real time    0.0009
 Broyden mixing: mesh for mixing (old mesh)
   NGX = 51   NGY = 51   NGZ = 51
  (NGX  =216   NGY  =216   NGZ  =216)
  gives a total of 132651 points

 initial charge density was supplied:
 charge density of overlapping atoms calculated
 number of electron       8.0000000 magnetization 
 keeping initial charge density in first step


--------------------------------------------------------------------------------------------------------


 Maximum index for non-local projection operator         3336
 Maximum index for augmentation-charges         2821 (set IRDMAX)


--------------------------------------------------------------------------------------------------------


 First call to EWALD:  gamma=   0.118
 Maximum number of real-space cells 3x 3x 3
 Maximum number of reciprocal cells 3x 3x 3

    FEWALD:  cpu time    0.0022: real time    0.0022


--------------------------------------- Iteration      1(   1)  ---------------------------------------


    POTLOK:  cpu time    7.6507: real time    7.6688
    SETDIJ:  cpu time    0.0060: real time    0.0060
     EDDAV:  cpu time    3.0231: real time    3.0319
       DOS:  cpu time    0.0005: real time    0.0005
    --------------------------------------------
      LOOP:  cpu time   10.6803: real time   10.7072

 eigenvalue-minimisations  :    24
 total energy-change (2. order) : 0.3557063E+02  (-0.1367212E+03)
 number of electron       8.0000000 magnetization 
 augmentation part        8.0000000 magnetization 

 Free energy of the ion-electron system (eV)
  ---------------------------------------------------
  alpha Z        PSCENC =         0.07118216
  Ewald energy   TEWEN  =        48.63930974
  -Hartree energ DENC   =      -278.09726769
  -exchange      EXHF   =         0.00000000
  -V(xc)+E(xc)   XCENC  =        16.43071665
  PAW double counting   =       221.75218686     -218.57961389
  entropy T*S    EENTRO =        -0.00000000
  eigenvalues    EBANDS =       -56.43336445
  atomic energy  EATOM  =       301.78748547
  Solvation  Ediel_sol  =         0.00000000
  ---------------------------------------------------
  free energy    TOTEN  =        35.57063486 eV

  energy without entropy =       35.57063486  energy(sigma->0) =       35.57063486


--------------------------------------------------------------------------------------------------------




--------------------------------------- Iteration      1(   2)  ---------------------------------------


     EDDAV:  cpu time    3.0202: real time    3.0284
       DOS:  cpu time    0.0003: real time    0.0003
    --------------------------------------------
      LOOP:  cpu time    3.0205: real time    3.0286

 eigenvalue-minimisations  :    24
 total energy-change (2. order) :-0.3589969E+02  (-0.3589969E+02)
 number of electron       8.0000000 magnetization 
 augmentation part        8.0000000 magnetization 

 Free energy of the ion-electron system (eV)
  ---------------------------------------------------
  alpha Z        PSCENC =         0.07118216
  Ewald energy   TEWEN  =        48.63930974
  -Hartree energ DENC   =      -278.09726769
  -exchange      EXHF   =         0.00000000
  -V(xc)+E(xc)   XCENC  =        16.43071665
  PAW double counting   =       221.75218686     -218.57961389
  entropy T*S    EENTRO =        -0.00000000
  eigenvalues    EBANDS =       -92.33305757
  atomic energy  EATOM  =       301.78748547
  Solvation  Ediel_sol  =         0.00000000
  ---------------------------------------------------
  free energy    TOTEN  =        -0.32905826 eV

  energy without entropy =       -0.32905826  energy(sigma->0) =       -0.32905826


--------------------------------------------------------------------------------------------------------




--------------------------------------- Iteration      1(   3)  ---------------------------------------


     EDDAV:  cpu time    3.0430: real time    3.0509
       DOS:  cpu time    0.0003: real time    0.0004
    --------------------------------------------
      LOOP:  cpu time    3.0434: real time    3.0512

 eigenvalue-minimisations  :    24
 total energy-change (2. order) :-0.1065486E+02  (-0.1065486E+02)
 number of electron       8.0000000 magnetization 
 augmentation part        8.0000000 magnetization 

 Free energy of the ion-electron system (eV)
  ---------------------------------------------------
  alpha Z        PSCENC =         0.07118216
  Ewald energy   TEWEN  =        48.63930974
  -Hartree energ DENC   =      -278.09726769
  -exchange      EXHF   =         0.00000000
  -V(xc)+E(xc)   XCENC  =        16.43071665
  PAW double counting   =       221.75218686     -218.57961389
  entropy T*S    EENTRO =        -0.00000000
  eigenvalues    EBANDS =      -102.98791743
  atomic energy  EATOM  =       301.78748547
  Solvation  Ediel_sol  =         0.00000000
  ---------------------------------------------------
  free energy    TOTEN  =       -10.98391812 eV

  energy without entropy =      -10.98391812  energy(sigma->0) =      -10.98391812


--------------------------------------------------------------------------------------------------------




--------------------------------------- Iteration      1(   4)  ---------------------------------------


     EDDAV:  cpu time    3.0273: real time    3.0342
       DOS:  cpu time    0.0002: real time    0.0002
    --------------------------------------------
      LOOP:  cpu time    3.0275: real time    3.0345

 eigenvalue-minimisations  :    24
 total energy-change (2. order) :-0.7549926E+00  (-0.7549926E+00)
 number of electron       8.0000000 magnetization 
 augmentation part        8.0000000 magnetization 

 Free energy of the ion-electron system (eV)
  ---------------------------------------------------
  alpha Z        PSCENC =         0.07118216
  Ewald energy   TEWEN  =        48.63930974
  -Hartree energ DENC   =      -278.09726769
  -exchange      EXHF   =         0.00000000
  -V(xc)+E(xc)   XCENC  =        16.43071665
  PAW double counting   =       221.75218686     -218.57961389
  entropy T*S    EENTRO =        -0.00000000
  eigenvalues    EBANDS =      -103.74291000
  atomic energy  EATOM  =       301.78748547
  Solvation  Ediel_sol  =         0.00000000
  ---------------------------------------------------
  free energy    TOTEN  =       -11.73891069 eV

  energy without entropy =      -11.73891069  energy(sigma->0) =      -11.73891069


--------------------------------------------------------------------------------------------------------




--------------------------------------- Iteration      1(   5)  ---------------------------------------


     EDDAV:  cpu time    3.0305: real time    3.0407
       DOS:  cpu time    0.0003: real time    0.0003
    --------------------------------------------
      LOOP:  cpu time    3.0307: real time    3.0410

 eigenvalue-minimisations  :    24
 total energy-change (2. order) :-0.1417317E-02  (-0.1417316E-02)
 number of electron       8.0000000 magnetization 
 augmentation part        8.0000000 magnetization 

 Free energy of the ion-electron system (eV)
  ---------------------------------------------------
  alpha Z        PSCENC =         0.07118216
  Ewald energy   TEWEN  =        48.63930974
  -Hartree energ DENC   =      -278.09726769
  -exchange      EXHF   =         0.00000000
  -V(xc)+E(xc)   XCENC  =        16.43071665
  PAW double counting   =       221.75218686     -218.57961389
  entropy T*S    EENTRO =        -0.00000000
  eigenvalues    EBANDS =      -103.74432732
  atomic energy  EATOM  =       301.78748547
  Solvation  Ediel_sol  =         0.00000000
  ---------------------------------------------------
  free energy    TOTEN  =       -11.74032801 eV

  energy without entropy =      -11.74032801  energy(sigma->0) =      -11.74032801


--------------------------------------------------------------------------------------------------------




--------------------------------------- Iteration      1(   6)  ---------------------------------------


     EDDAV:  cpu time    3.8741: real time    3.8847
       DOS:  cpu time    0.0002: real time    0.0003
    --------------------------------------------
      LOOP:  cpu time    3.8743: real time    3.8850

 eigenvalue-minimisations  :    32
 total energy-change (2. order) :-0.3659014E-05  (-0.3658016E-05)
 number of electron       8.0000000 magnetization 
 augmentation part        8.0000000 magnetization 

 Free energy of the ion-electron system (eV)
  ---------------------------------------------------
  alpha Z        PSCENC =         0.07118216
  Ewald energy   TEWEN  =        48.63930974
  -Hartree energ DENC   =      -278.09726769
  -exchange      EXHF   =         0.00000000
  -V(xc)+E(xc)   XCENC  =        16.43071665
  PAW double counting   =       221.75218686     -218.57961389
  entropy T*S    EENTRO =        -0.00000000
  eigenvalues    EBANDS =      -103.74433098
  atomic energy  EATOM  =       301.78748547
  Solvation  Ediel_sol  =         0.00000000
  ---------------------------------------------------
  free energy    TOTEN  =       -11.74033167 eV

  energy without entropy =      -11.74033167  energy(sigma->0) =      -11.74033167


--------------------------------------------------------------------------------------------------------




--------------------------------------- Iteration      1(   7)  ---------------------------------------


     EDDAV:  cpu time    2.2092: real time    2.2148
       DOS:  cpu time    0.0003: real time    0.0003
    CHARGE:  cpu time    0.8833: real time    0.8861
    MIXING:  cpu time    0.1625: real time    0.1627
    --------------------------------------------
      LOOP:  cpu time    3.2553: real time    3.2639

 eigenvalue-minimisations  :    16
 total energy-change (2. order) :-0.1265107E-08  (-0.2856986E-09)
 number of electron       8.0000000 magnetization 
 augmentation part       -0.8163481 magnetization 

 Broyden mixing:
  rms(total) = 0.10767E+01    rms(broyden)= 0.10766E+01
  rms(prec ) = 0.11025E+01
  weight for this iteration     100.00

 Free energy of the ion-electron system (eV)
  ---------------------------------------------------
  alpha Z        PSCENC =         0.07118216
  Ewald energy   TEWEN  =        48.63930974
  -Hartree energ DENC   =      -278.09726769
  -exchange      EXHF   =         0.00000000
  -V(xc)+E(xc)   XCENC  =        16.43071665
  PAW double counting   =       221.75218686     -218.57961389
  entropy T*S    EENTRO =        -0.00000000
  eigenvalues    EBANDS =      -103.74433098
  atomic energy  EATOM  =       301.78748547
  Solvation  Ediel_sol  =         0.00000000
  ---------------------------------------------------
  free energy    TOTEN  =       -11.74033167 eV

  energy without entropy =      -11.74033167  energy(sigma->0) =      -11.74033167


--------------------------------------------------------------------------------------------------------




--------------------------------------- Iteration      1(   8)  ---------------------------------------


    POTLOK:  cpu time    7.3778: real time    7.3956
    SETDIJ:  cpu time    0.0058: real time    0.0058
    EDDIAG:  cpu time    0.5228: real time    0.5241
  RMM-DIIS:  cpu time    1.9633: real time    1.9747
    ORTHCH:  cpu time    0.0287: real time    0.0288
       DOS:  cpu time    0.0004: real time    0.0005
    CHARGE:  cpu time    0.8631: real time    0.8654
    MIXING:  cpu time    0.1659: real time    0.1661
    --------------------------------------------
      LOOP:  cpu time   10.9277: real time   10.9609

 eigenvalue-minimisations  :    16
 total energy-change (2. order) : 0.3894586E+00  (-0.4310681E-01)
 number of electron       8.0000000 magnetization 
 augmentation part       -0.7987741 magnetization 

 Broyden mixing:
  rms(total) = 0.66924E+00    rms(broyden)= 0.66924E+00
  rms(prec ) = 0.68199E+00
  weight for this iteration     100.00

 eigenvalues of (default mixing * dielectric matrix)
  average eigenvalue GAMMA=   2.5681
  2.5681

 Free energy of the ion-electron system (eV)
  ---------------------------------------------------
  alpha Z        PSCENC =         0.07118216
  Ewald energy   TEWEN  =        48.63930974
  -Hartree energ DENC   =      -284.19645953
  -exchange      EXHF   =         0.00000000
  -V(xc)+E(xc)   XCENC  =        16.85954915
  PAW double counting   =       395.77823703     -392.73965400
  entropy T*S    EENTRO =        -0.00000000
  eigenvalues    EBANDS =       -97.55052311
  atomic energy  EATOM  =       301.78748547
  Solvation  Ediel_sol  =         0.00000000
  ---------------------------------------------------
  free energy    TOTEN  =       -11.35087308 eV

  energy without entropy =      -11.35087308  energy(sigma->0) =      -11.35087308


--------------------------------------------------------------------------------------------------------




--------------------------------------- Iteration      1(   9)  ---------------------------------------


    POTLOK:  cpu time    7.4145: real time    7.4340
    SETDIJ:  cpu time    0.0055: real time    0.0055
    EDDIAG:  cpu time    0.5224: real time    0.5239
  RMM-DIIS:  cpu time    1.9611: real time    1.9713
    ORTHCH:  cpu time    0.0283: real time    0.0283
       DOS:  cpu time    0.0004: real time    0.0005
    CHARGE:  cpu time    0.8609: real time    0.8639
    MIXING:  cpu time    0.1677: real time    0.1681
    --------------------------------------------
      LOOP:  cpu time   10.9609: real time   10.9955

 eigenvalue-minimisations  :    16
 total energy-change (2. order) : 0.1493881E+00  (-0.7301125E-01)
 number of electron       8.0000000 magnetization 
 augmentation part       -0.7798228 magnetization 

 Broyden mixing:
  rms(total) = 0.70418E-01    rms(broyden)= 0.70416E-01
  rms(prec ) = 0.82173E-01
  weight for this iteration     100.00

 eigenvalues of (default mixing * dielectric matrix)
  average eigenvalue GAMMA=   2.0505
  2.3381  1.7630

 Free energy of the ion-electron system (eV)
  ---------------------------------------------------
  alpha Z        PSCENC =         0.07118216
  Ewald energy   TEWEN  =        48.63930974
  -Hartree energ DENC   =      -292.91963095
  -exchange      EXHF   =         0.00000000
  -V(xc)+E(xc)   XCENC  =        17.57014280
  PAW double counting   =       818.03380759     -815.15283773
  entropy T*S    EENTRO =        -0.00000000
  eigenvalues    EBANDS =       -89.23094402
  atomic energy  EATOM  =       301.78748547
  Solvation  Ediel_sol  =         0.00000000
  ---------------------------------------------------
  free energy    TOTEN  =       -11.20148495 eV

  energy without entropy =      -11.20148495  energy(sigma->0) =      -11.20148495


--------------------------------------------------------------------------------------------------------




--------------------------------------- Iteration      1(  10)  ---------------------------------------


    POTLOK:  cpu time    7.4227: real time    7.4461
    SETDIJ:  cpu time    0.0056: real time    0.0056
    EDDIAG:  cpu time    0.5192: real time    0.5212
  RMM-DIIS:  cpu time    1.9864: real time    1.9949
    ORTHCH:  cpu time    0.0285: real time    0.0286
       DOS:  cpu time    0.0005: real time    0.0005
    CHARGE:  cpu time    0.8598: real time    0.8634
    MIXING:  cpu time    0.1706: real time    0.1710
    --------------------------------------------
      LOOP:  cpu time   10.9933: real time   11.0311

 eigenvalue-minimisations  :    16
 total energy-change (2. order) : 0.1365716E-01  (-0.3211025E-02)
 number of electron       8.0000000 magnetization 
 augmentation part       -0.7845512 magnetization 

 Broyden mixing:
  rms(total) = 0.14141E-01    rms(broyden)= 0.14141E-01
  rms(prec ) = 0.22934E-01
  weight for this iteration     100.00

 eigenvalues of (default mixing * dielectric matrix)
  average eigenvalue GAMMA=   1.7233
  2.1316  2.1316  0.9067

 Free energy of the ion-electron system (eV)
  ---------------------------------------------------
  alpha Z        PSCENC =         0.07118216
  Ewald energy   TEWEN  =        48.63930974
  -Hartree energ DENC   =      -291.93399414
  -exchange      EXHF   =         0.00000000
  -V(xc)+E(xc)   XCENC  =        17.51441588
  PAW double counting   =       823.79626737     -820.86686145
  entropy T*S    EENTRO =        -0.00000000
  eigenvalues    EBANDS =       -90.19563283
  atomic energy  EATOM  =       301.78748547
  Solvation  Ediel_sol  =         0.00000000
  ---------------------------------------------------
  free energy    TOTEN  =       -11.18782778 eV

  energy without entropy =      -11.18782778  energy(sigma->0) =      -11.18782778


--------------------------------------------------------------------------------------------------------




--------------------------------------- Iteration      1(  11)  ---------------------------------------


    POTLOK:  cpu time    7.4250: real time    7.4459
    SETDIJ:  cpu time    0.0051: real time    0.0051
    EDDIAG:  cpu time    0.5219: real time    0.5245
  RMM-DIIS:  cpu time    1.9607: real time    1.9691
    ORTHCH:  cpu time    0.0291: real time    0.0291
       DOS:  cpu time    0.0004: real time    0.0005
    CHARGE:  cpu time    0.8619: real time    0.8648
    MIXING:  cpu time    0.1737: real time    0.1743
    --------------------------------------------
      LOOP:  cpu time   10.9778: real time   11.0134

 eigenvalue-minimisations  :    16
 total energy-change (2. order) :-0.8632749E-03  (-0.4528306E-03)
 number of electron       8.0000000 magnetization 
 augmentation part       -0.7860254 magnetization 

 Broyden mixing:
  rms(total) = 0.13877E-01    rms(broyden)= 0.13877E-01
  rms(prec ) = 0.19525E-01
  weight for this iteration     100.00

 eigenvalues of (default mixing * dielectric matrix)
  average eigenvalue GAMMA=   1.9682
  1.0206  2.2124  2.3200  2.3200

 Free energy of the ion-electron system (eV)
  ---------------------------------------------------
  alpha Z        PSCENC =         0.07118216
  Ewald energy   TEWEN  =        48.63930974
  -Hartree energ DENC   =      -291.98281275
  -exchange      EXHF   =         0.00000000
  -V(xc)+E(xc)   XCENC  =        17.51483224
  PAW double counting   =       821.70611390     -818.76912449
  entropy T*S    EENTRO =        -0.00000000
  eigenvalues    EBANDS =       -90.15567732
  atomic energy  EATOM  =       301.78748547
  Solvation  Ediel_sol  =         0.00000000
  ---------------------------------------------------
  free energy    TOTEN  =       -11.18869106 eV

  energy without entropy =      -11.18869106  energy(sigma->0) =      -11.18869106


--------------------------------------------------------------------------------------------------------




--------------------------------------- Iteration      1(  12)  ---------------------------------------


    POTLOK:  cpu time    7.4093: real time    7.4294
    SETDIJ:  cpu time    0.0061: real time    0.0061
    EDDIAG:  cpu time    0.5178: real time    0.5194
  RMM-DIIS:  cpu time    1.9748: real time    1.9825
    ORTHCH:  cpu time    0.0284: real time    0.0285
       DOS:  cpu time    0.0004: real time    0.0005
    CHARGE:  cpu time    0.8626: real time    0.8649
    MIXING:  cpu time    0.1796: real time    0.1798
    --------------------------------------------
      LOOP:  cpu time   10.9790: real time   11.0111

 eigenvalue-minimisations  :    16
 total energy-change (2. order) :-0.3853712E-02  (-0.4444113E-03)
 number of electron       8.0000000 magnetization 
 augmentation part       -0.7845908 magnetization 

 Broyden mixing:
  rms(total) = 0.22072E-01    rms(broyden)= 0.22072E-01
  rms(prec ) = 0.24174E-01
  weight for this iteration     100.00

 eigenvalues of (default mixing * dielectric matrix)
  average eigenvalue GAMMA=   1.9128
  3.2945  2.4177  1.9439  0.9131  0.9949

 Free energy of the ion-electron system (eV)
  ---------------------------------------------------
  alpha Z        PSCENC =         0.07118216
  Ewald energy   TEWEN  =        48.63930974
  -Hartree energ DENC   =      -292.65035645
  -exchange      EXHF   =         0.00000000
  -V(xc)+E(xc)   XCENC  =        17.53660240
  PAW double counting   =       796.48380737     -793.55180431
  entropy T*S    EENTRO =        -0.00000000
  eigenvalues    EBANDS =       -89.50877115
  atomic energy  EATOM  =       301.78748547
  Solvation  Ediel_sol  =         0.00000000
  ---------------------------------------------------
  free energy    TOTEN  =       -11.19254477 eV

  energy without entropy =      -11.19254477  energy(sigma->0) =      -11.19254477


--------------------------------------------------------------------------------------------------------




--------------------------------------- Iteration      1(  13)  ---------------------------------------


    POTLOK:  cpu time    7.3850: real time    7.4254
    SETDIJ:  cpu time    0.0060: real time    0.0060
    EDDIAG:  cpu time    0.5209: real time    0.5232
  RMM-DIIS:  cpu time    1.9965: real time    2.0041
    ORTHCH:  cpu time    0.0288: real time    0.0288
       DOS:  cpu time    0.0004: real time    0.0008
    CHARGE:  cpu time    0.8642: real time    0.8678
    MIXING:  cpu time    0.1834: real time    0.1839
    --------------------------------------------
      LOOP:  cpu time   10.9853: real time   11.0401

 eigenvalue-minimisations  :    16
 total energy-change (2. order) :-0.1677130E-03  (-0.1519180E-03)
 number of electron       8.0000000 magnetization 
 augmentation part       -0.7855886 magnetization 

 Broyden mixing:
  rms(total) = 0.47160E-02    rms(broyden)= 0.47159E-02
  rms(prec ) = 0.68823E-02
  weight for this iteration     100.00

 eigenvalues of (default mixing * dielectric matrix)
  average eigenvalue GAMMA=   1.9598
  3.0510  2.5108  2.5108  1.6433  1.0214  1.0214

 Free energy of the ion-electron system (eV)
  ---------------------------------------------------
  alpha Z        PSCENC =         0.07118216
  Ewald energy   TEWEN  =        48.63930974
  -Hartree energ DENC   =      -292.74441800
  -exchange      EXHF   =         0.00000000
  -V(xc)+E(xc)   XCENC  =        17.54350485
  PAW double counting   =       804.21558455     -801.27475233
  entropy T*S    EENTRO =        -0.00000000
  eigenvalues    EBANDS =       -89.43060893
  atomic energy  EATOM  =       301.78748547
  Solvation  Ediel_sol  =         0.00000000
  ---------------------------------------------------
  free energy    TOTEN  =       -11.19271248 eV

  energy without entropy =      -11.19271248  energy(sigma->0) =      -11.19271248


--------------------------------------------------------------------------------------------------------




--------------------------------------- Iteration      1(  14)  ---------------------------------------


    POTLOK:  cpu time    7.3562: real time    7.3837
    SETDIJ:  cpu time    0.0054: real time    0.0054
    EDDIAG:  cpu time    0.5201: real time    0.5223
  RMM-DIIS:  cpu time    1.9887: real time    2.0075
    ORTHCH:  cpu time    0.0282: real time    0.0284
       DOS:  cpu time    0.0004: real time    0.0008
    CHARGE:  cpu time    0.8636: real time    0.8686
    MIXING:  cpu time    0.1891: real time    0.1897
    --------------------------------------------
      LOOP:  cpu time   10.9517: real time   11.0065

 eigenvalue-minimisations  :    16
 total energy-change (2. order) :-0.2900003E-02  (-0.5475258E-04)
 number of electron       8.0000000 magnetization 
 augmentation part       -0.7858474 magnetization 

 Broyden mixing:
  rms(total) = 0.77216E-02    rms(broyden)= 0.77215E-02
  rms(prec ) = 0.83605E-02
  weight for this iteration     100.00

 eigenvalues of (default mixing * dielectric matrix)
  average eigenvalue GAMMA=   1.9884
  4.1739  2.7605  1.9597  1.9597  0.9777  1.0437  1.0437

 Free energy of the ion-electron system (eV)
  ---------------------------------------------------
  alpha Z        PSCENC =         0.07118216
  Ewald energy   TEWEN  =        48.63930974
  -Hartree energ DENC   =      -292.88006598
  -exchange      EXHF   =         0.00000000
  -V(xc)+E(xc)   XCENC  =        17.54776337
  PAW double counting   =       810.33071558     -807.38929803
  entropy T*S    EENTRO =        -0.00000000
  eigenvalues    EBANDS =       -89.30270479
  atomic energy  EATOM  =       301.78748547
  Solvation  Ediel_sol  =         0.00000000
  ---------------------------------------------------
  free energy    TOTEN  =       -11.19561248 eV

  energy without entropy =      -11.19561248  energy(sigma->0) =      -11.19561248


--------------------------------------------------------------------------------------------------------




--------------------------------------- Iteration      1(  15)  ---------------------------------------


    POTLOK:  cpu time    7.3137: real time    7.3473
    SETDIJ:  cpu time    0.0054: real time    0.0054
    EDDIAG:  cpu time    0.5185: real time    0.5219
  RMM-DIIS:  cpu time    1.8669: real time    1.8836
    ORTHCH:  cpu time    0.0297: real time    0.0299
       DOS:  cpu time    0.0004: real time    0.0008
    CHARGE:  cpu time    0.8625: real time    0.8677
    MIXING:  cpu time    0.1960: real time    0.1970
    --------------------------------------------
      LOOP:  cpu time   10.7930: real time   10.8536

 eigenvalue-minimisations  :    15
 total energy-change (2. order) :-0.1291012E-02  (-0.3022540E-04)
 number of electron       8.0000000 magnetization 
 augmentation part       -0.7858104 magnetization 

 Broyden mixing:
  rms(total) = 0.16107E-02    rms(broyden)= 0.16107E-02
  rms(prec ) = 0.24820E-02
  weight for this iteration     100.00

 eigenvalues of (default mixing * dielectric matrix)
  average eigenvalue GAMMA=   2.3026
  5.8242  3.1500  2.7462  1.9846  1.4413  1.2236  1.0005  1.0505

 Free energy of the ion-electron system (eV)
  ---------------------------------------------------
  alpha Z        PSCENC =         0.07118216
  Ewald energy   TEWEN  =        48.63930974
  -Hartree energ DENC   =      -292.93302338
  -exchange      EXHF   =         0.00000000
  -V(xc)+E(xc)   XCENC  =        17.54361664
  PAW double counting   =       803.09907166     -800.15696111
  entropy T*S    EENTRO =        -0.00000000
  eigenvalues    EBANDS =       -89.24758468
  atomic energy  EATOM  =       301.78748547
  Solvation  Ediel_sol  =         0.00000000
  ---------------------------------------------------
  free energy    TOTEN  =       -11.19690350 eV

  energy without entropy =      -11.19690350  energy(sigma->0) =      -11.19690350


--------------------------------------------------------------------------------------------------------




--------------------------------------- Iteration      1(  16)  ---------------------------------------


    POTLOK:  cpu time    7.2321: real time    7.2499
    SETDIJ:  cpu time    0.0055: real time    0.0055
    EDDIAG:  cpu time    0.5156: real time    0.5176
  RMM-DIIS:  cpu time    1.8601: real time    1.8656
    ORTHCH:  cpu time    0.0291: real time    0.0291
       DOS:  cpu time    0.0004: real time    0.0009
    CHARGE:  cpu time    0.8668: real time    0.8698
    MIXING:  cpu time    0.2041: real time    0.2044
    --------------------------------------------
      LOOP:  cpu time   10.7136: real time   10.7427

 eigenvalue-minimisations  :    15
 total energy-change (2. order) :-0.1517568E-02  (-0.3563501E-04)
 number of electron       8.0000000 magnetization 
 augmentation part       -0.7857407 magnetization 

 Broyden mixing:
  rms(total) = 0.16651E-02    rms(broyden)= 0.16651E-02
  rms(prec ) = 0.18367E-02
  weight for this iteration     100.00

 eigenvalues of (default mixing * dielectric matrix)
  average eigenvalue GAMMA=   2.2582
  6.4726  3.2436  2.5413  1.7643  1.7643  1.4460  1.0867  1.0366  0.9681

 Free energy of the ion-electron system (eV)
  ---------------------------------------------------
  alpha Z        PSCENC =         0.07118216
  Ewald energy   TEWEN  =        48.63930974
  -Hartree energ DENC   =      -292.99691113
  -exchange      EXHF   =         0.00000000
  -V(xc)+E(xc)   XCENC  =        17.54446561
  PAW double counting   =       806.55152775     -803.61015475
  entropy T*S    EENTRO =        -0.00000000
  eigenvalues    EBANDS =       -89.18532591
  atomic energy  EATOM  =       301.78748547
  Solvation  Ediel_sol  =         0.00000000
  ---------------------------------------------------
  free energy    TOTEN  =       -11.19842106 eV

  energy without entropy =      -11.19842106  energy(sigma->0) =      -11.19842106


--------------------------------------------------------------------------------------------------------




--------------------------------------- Iteration      1(  17)  ---------------------------------------


    POTLOK:  cpu time    7.2222: real time    7.2657
    SETDIJ:  cpu time    0.0053: real time    0.0053
    EDDIAG:  cpu time    0.5200: real time    0.5210
  RMM-DIIS:  cpu time    1.9881: real time    1.9924
    ORTHCH:  cpu time    0.0281: real time    0.0282
       DOS:  cpu time    0.0004: real time    0.0004
    CHARGE:  cpu time    0.8673: real time    0.8690
    MIXING:  cpu time    0.2140: real time    0.2147
    --------------------------------------------
      LOOP:  cpu time   10.8452: real time   10.8967

 eigenvalue-minimisations  :    15
 total energy-change (2. order) :-0.2559197E-03  (-0.5212239E-05)
 number of electron       8.0000000 magnetization 
 augmentation part       -0.7856811 magnetization 

 Broyden mixing:
  rms(total) = 0.71892E-03    rms(broyden)= 0.71892E-03
  rms(prec ) = 0.10079E-02
  weight for this iteration     100.00

 eigenvalues of (default mixing * dielectric matrix)
  average eigenvalue GAMMA=   2.3359
  7.1688  3.3468  2.8927  2.1751  2.1751  1.3341  1.2773  1.0474  0.9710  0.9710

 Free energy of the ion-electron system (eV)
  ---------------------------------------------------
  alpha Z        PSCENC =         0.07118216
  Ewald energy   TEWEN  =        48.63930974
  -Hartree energ DENC   =      -292.99728391
  -exchange      EXHF   =         0.00000000
  -V(xc)+E(xc)   XCENC  =        17.54372595
  PAW double counting   =       805.34116680     -802.39992471
  entropy T*S    EENTRO =        -0.00000000
  eigenvalues    EBANDS =       -89.18433849
  atomic energy  EATOM  =       301.78748547
  Solvation  Ediel_sol  =         0.00000000
  ---------------------------------------------------
  free energy    TOTEN  =       -11.19867698 eV

  energy without entropy =      -11.19867698  energy(sigma->0) =      -11.19867698


--------------------------------------------------------------------------------------------------------




--------------------------------------- Iteration      1(  18)  ---------------------------------------


    POTLOK:  cpu time    7.1933: real time    7.2092
    SETDIJ:  cpu time    0.0051: real time    0.0051
    EDDIAG:  cpu time    0.5167: real time    0.5180
  RMM-DIIS:  cpu time    1.8833: real time    1.8872
    ORTHCH:  cpu time    0.0280: real time    0.0280
       DOS:  cpu time    0.0004: real time    0.0005
    CHARGE:  cpu time    0.8642: real time    0.8661
    MIXING:  cpu time    0.2248: real time    0.2252
    --------------------------------------------
      LOOP:  cpu time   10.7158: real time   10.7393

 eigenvalue-minimisations  :    15
 total energy-change (2. order) :-0.3904265E-03  (-0.4008699E-05)
 number of electron       8.0000000 magnetization 
 augmentation part       -0.7857639 magnetization 

 Broyden mixing:
  rms(total) = 0.36167E-03    rms(broyden)= 0.36167E-03
  rms(prec ) = 0.45523E-03
  weight for this iteration     100.00

 eigenvalues of (default mixing * dielectric matrix)
  average eigenvalue GAMMA=   2.4196
  7.9443  4.5097  2.8278  2.4379  2.0065  1.5565  1.5565  0.9777  1.0236  1.0236
  0.7514

 Free energy of the ion-electron system (eV)
  ---------------------------------------------------
  alpha Z        PSCENC =         0.07118216
  Ewald energy   TEWEN  =        48.63930974
  -Hartree energ DENC   =      -292.97016022
  -exchange      EXHF   =         0.00000000
  -V(xc)+E(xc)   XCENC  =        17.54148286
  PAW double counting   =       804.81397285     -801.87211902
  entropy T*S    EENTRO =        -0.00000000
  eigenvalues    EBANDS =       -89.21022126
  atomic energy  EATOM  =       301.78748547
  Solvation  Ediel_sol  =         0.00000000
  ---------------------------------------------------
  free energy    TOTEN  =       -11.19906741 eV

  energy without entropy =      -11.19906741  energy(sigma->0) =      -11.19906741


--------------------------------------------------------------------------------------------------------




--------------------------------------- Iteration      1(  19)  ---------------------------------------


    POTLOK:  cpu time    7.1609: real time   14.6489
    SETDIJ:  cpu time    0.0050: real time    0.0050
    EDDIAG:  cpu time    0.5096: real time    0.5138
  RMM-DIIS:  cpu time    1.5279: real time    1.5333
    ORTHCH:  cpu time    0.0270: real time    0.0295
       DOS:  cpu time    0.0004: real time    0.0005
    CHARGE:  cpu time    0.8671: real time    0.8688
    MIXING:  cpu time    0.2339: real time    0.2369
    --------------------------------------------
      LOOP:  cpu time   10.3320: real time   17.8367

 eigenvalue-minimisations  :    12
 total energy-change (2. order) :-0.5461880E-04  (-0.3833922E-06)
 number of electron       8.0000000 magnetization 
 augmentation part       -0.7857734 magnetization 

 Broyden mixing:
  rms(total) = 0.59429E-03    rms(broyden)= 0.59429E-03
  rms(prec ) = 0.62354E-03
  weight for this iteration     100.00

 eigenvalues of (default mixing * dielectric matrix)
  average eigenvalue GAMMA=   2.3998
  8.3252  4.5829  2.7214  2.7214  1.9295  1.9295  1.6742  1.1449  0.9722  0.9722
  0.9123  0.9123

 Free energy of the ion-electron system (eV)
  ---------------------------------------------------
  alpha Z        PSCENC =         0.07118216
  Ewald energy   TEWEN  =        48.63930974
  -Hartree energ DENC   =      -292.96487119
  -exchange      EXHF   =         0.00000000
  -V(xc)+E(xc)   XCENC  =        17.54091634
  PAW double counting   =       804.48846403     -801.54660909
  entropy T*S    EENTRO =        -0.00000000
  eigenvalues    EBANDS =       -89.21499949
  atomic energy  EATOM  =       301.78748547
  Solvation  Ediel_sol  =         0.00000000
  ---------------------------------------------------
  free energy    TOTEN  =       -11.19912203 eV

  energy without entropy =      -11.19912203  energy(sigma->0) =      -11.19912203


--------------------------------------------------------------------------------------------------------




--------------------------------------- Iteration      1(  20)  ---------------------------------------


    POTLOK:  cpu time    7.1220: real time    7.1656
    SETDIJ:  cpu time    0.0050: real time    0.0050
    EDDIAG:  cpu time    0.5050: real time    0.5063
  RMM-DIIS:  cpu time    1.4575: real time    1.4678
    ORTHCH:  cpu time    0.0314: real time    0.0314
       DOS:  cpu time    0.0003: real time    0.0004
    CHARGE:  cpu time    0.8629: real time    0.8677
    MIXING:  cpu time    0.2459: real time    0.2466
    --------------------------------------------
      LOOP:  cpu time   10.2300: real time   10.2908

 eigenvalue-minimisations  :    11
 total energy-change (2. order) :-0.4791083E-04  (-0.2930711E-06)
 number of electron       8.0000000 magnetization 
 augmentation part       -0.7857771 magnetization 

 Broyden mixing:
  rms(total) = 0.30001E-03    rms(broyden)= 0.30001E-03
  rms(prec ) = 0.31824E-03
  weight for this iteration     100.00

 eigenvalues of (default mixing * dielectric matrix)
  average eigenvalue GAMMA=   2.4273
  8.8674  5.1272  3.1328  2.5721  2.1119  2.1119  1.4285  1.4285  1.0297  1.0297
  0.9769  0.8693  0.8693

 Free energy of the ion-electron system (eV)
  ---------------------------------------------------
  alpha Z        PSCENC =         0.07118216
  Ewald energy   TEWEN  =        48.63930974
  -Hartree energ DENC   =      -292.96282243
  -exchange      EXHF   =         0.00000000
  -V(xc)+E(xc)   XCENC  =        17.54082129
  PAW double counting   =       804.68066279     -801.73882199
  entropy T*S    EENTRO =        -0.00000000
  eigenvalues    EBANDS =       -89.21698697
  atomic energy  EATOM  =       301.78748547
  Solvation  Ediel_sol  =         0.00000000
  ---------------------------------------------------
  free energy    TOTEN  =       -11.19916994 eV

  energy without entropy =      -11.19916994  energy(sigma->0) =      -11.19916994


--------------------------------------------------------------------------------------------------------




--------------------------------------- Iteration      1(  21)  ---------------------------------------


    POTLOK:  cpu time    7.1340: real time    7.1721
    SETDIJ:  cpu time    0.0050: real time    0.0050
    EDDIAG:  cpu time    0.5058: real time    0.5095
  RMM-DIIS:  cpu time    1.4702: real time    1.4753
    ORTHCH:  cpu time    0.0283: real time    0.0283
       DOS:  cpu time    0.0003: real time    0.0004
    CHARGE:  cpu time    0.8636: real time    0.8684
    MIXING:  cpu time    0.2586: real time    0.2591
    --------------------------------------------
      LOOP:  cpu time   10.2658: real time   10.3181

 eigenvalue-minimisations  :    11
 total energy-change (2. order) :-0.1404258E-04  (-0.1158158E-06)
 number of electron       8.0000000 magnetization 
 augmentation part       -0.7857865 magnetization 

 Broyden mixing:
  rms(total) = 0.25879E-03    rms(broyden)= 0.25879E-03
  rms(prec ) = 0.27387E-03
  weight for this iteration     100.00

 eigenvalues of (default mixing * dielectric matrix)
  average eigenvalue GAMMA=   2.3310
  8.8386  5.1202  2.9746  2.6010  2.0148  2.0148  1.6850  1.6850  1.0779  1.0779
  0.9772  0.9120  0.9120  0.7432

 Free energy of the ion-electron system (eV)
  ---------------------------------------------------
  alpha Z        PSCENC =         0.07118216
  Ewald energy   TEWEN  =        48.63930974
  -Hartree energ DENC   =      -292.96324356
  -exchange      EXHF   =         0.00000000
  -V(xc)+E(xc)   XCENC  =        17.54099158
  PAW double counting   =       804.98841091     -802.04655187
  entropy T*S    EENTRO =        -0.00000000
  eigenvalues    EBANDS =       -89.21676842
  atomic energy  EATOM  =       301.78748547
  Solvation  Ediel_sol  =         0.00000000
  ---------------------------------------------------
  free energy    TOTEN  =       -11.19918398 eV

  energy without entropy =      -11.19918398  energy(sigma->0) =      -11.19918398


--------------------------------------------------------------------------------------------------------




--------------------------------------- Iteration      1(  22)  ---------------------------------------


    POTLOK:  cpu time    7.1842: real time    7.2509
    SETDIJ:  cpu time    0.0052: real time    0.0052
    EDDIAG:  cpu time    0.5038: real time    0.5072
  RMM-DIIS:  cpu time    1.3644: real time    1.3715
    ORTHCH:  cpu time    0.0287: real time    0.0287
       DOS:  cpu time    0.0004: real time    0.0004
    --------------------------------------------
      LOOP:  cpu time    9.0866: real time    9.1640

 eigenvalue-minimisations  :     9
 total energy-change (2. order) :-0.9217917E-05  (-0.2179993E-07)
 number of electron       8.0000000 magnetization 
 augmentation part       -0.7857865 magnetization 

 Free energy of the ion-electron system (eV)
  ---------------------------------------------------
  alpha Z        PSCENC =         0.07118216
  Ewald energy   TEWEN  =        48.63930974
  -Hartree energ DENC   =      -292.96526630
  -exchange      EXHF   =         0.00000000
  -V(xc)+E(xc)   XCENC  =        17.54106053
  PAW double counting   =       804.92041111     -801.97857799
  entropy T*S    EENTRO =        -0.00000000
  eigenvalues    EBANDS =       -89.21479793
  atomic energy  EATOM  =       301.78748547
  Solvation  Ediel_sol  =         0.00000000
  ---------------------------------------------------
  free energy    TOTEN  =       -11.19919320 eV

  energy without entropy =      -11.19919320  energy(sigma->0) =      -11.19919320


--------------------------------------------------------------------------------------------------------




 average (electrostatic) potential at core
  the test charge radii are     0.9698  0.5201
  (the norm of the test charge is              1.0000)
       1 -96.2766       2 -43.2134       3 -43.2134



 E-fermi :  -5.9581     XC(G=0):  -0.2733     alpha+bet : -0.0770


 k-point     1 :       0.0000    0.0000    0.0000
  band No.  band energies     occupation 
      1     -18.4640      2.00000
      2     -10.8753      2.00000
      3      -9.0459      2.00000
      4      -6.2222      2.00000
      5      -0.8358      0.00000
      6      -0.6079      0.00000
      7       0.1329      0.00000
      8       0.4396      0.00000


--------------------------------------------------------------------------------------------------------


 soft charge-density along one line, spin component           1
         0         1         2         3         4         5         6         7         8         9
 total charge-density along one line

 pseudopotential strength for first ion, spin component:           1
 42.658  48.995   0.042   0.000   0.042   0.057   0.000   0.057
 48.995  56.275   0.048   0.000   0.048   0.065   0.000   0.065
  0.042   0.048   8.781   0.000  -0.004  11.893   0.000  -0.005
  0.000   0.000   0.000   8.751   0.000   0.000  11.854   0.000
  0.042   0.048  -0.004   0.000   8.781  -0.005   0.000  11.893
  0.057   0.065  11.893   0.000  -0.005  16.129   0.000  -0.007
  0.000   0.000   0.000  11.854   0.000   0.000  16.077   0.000
  0.057   0.065  -0.005   0.000  11.893  -0.007   0.000  16.129
 total augmentation occupancy for first ion, spin component:           1
 15.743 -10.813   4.995   0.000   4.995  -2.040  -0.000  -2.040
-10.813   8.298  -4.320  -0.000  -4.320   1.628   0.000   1.628
  4.995  -4.320   5.104   0.000  -0.118  -1.884  -0.000   0.127
  0.000  -0.000   0.000   2.584   0.000  -0.000  -0.290  -0.000
  4.995  -4.320  -0.118   0.000   5.104   0.127  -0.000  -1.884
 -2.040   1.628  -1.884  -0.000   0.127   0.711   0.000  -0.064
 -0.000   0.000  -0.000  -0.290  -0.000   0.000   0.032   0.000
 -2.040   1.628   0.127  -0.000  -1.884  -0.064   0.000   0.711


------------------------ aborting loop because EDIFF is reached ----------------------------------------


    CHARGE:  cpu time    0.8632: real time    0.8682
    FORLOC:  cpu time    0.3096: real time    0.3124
    FORNL :  cpu time    0.6737: real time    0.6754
    STRESS:  cpu time    2.6071: real time    2.6205
    FORCOR:  cpu time    7.3139: real time    7.3436
    FORHAR:  cpu time    2.1107: real time    2.1180
    MIXING:  cpu time    0.2675: real time    0.2708
    OFIELD:  cpu time    0.0000: real time    0.0000

  FORCE on cell =-STRESS in cart. coord.  units (eV):
  Direction    XX          YY          ZZ          XY          YZ          ZX
  --------------------------------------------------------------------------------------
  Alpha Z     0.07118     0.07118     0.07118
  Ewald      38.90352    38.90352   -29.16774    -5.42767     0.00003     0.00003
  Hartree   102.47778   102.47778    88.01122    -1.74660     0.00001     0.00001
  E(xc)     -26.81181   -26.81181   -27.09052    -0.01195     0.00000     0.00000
  Local    -257.42471  -257.42470  -195.72902     4.43757    -0.00003    -0.00003
  n-local    68.61786    68.61786    68.35407     0.20453     0.00000     0.00000
  augment   -16.56428   -16.56428   -18.13085    -0.30241     0.00000     0.00000
  Kinetic    90.66830    90.66830   113.60949     2.84332    -0.00001    -0.00001
  Fock        0.00000     0.00000     0.00000     0.00000     0.00000     0.00000
  -------------------------------------------------------------------------------------
  Total      -0.06216    -0.06216    -0.07217    -0.00321    -0.00000     0.00000
  in kB      -0.02951    -0.02951    -0.03426    -0.00153    -0.00000     0.00000
  external pressure =       -0.03 kB  Pullay stress =        0.00 kB


 VOLUME and BASIS-vectors are now :
 -----------------------------------------------------------------------------
  energy-cutoff  :      450.00
  volume of cell :     3375.00
      direct lattice vectors                 reciprocal lattice vectors
    15.000000000  0.000000000  0.000000000     0.066666667  0.000000000  0.000000000
     0.000000000 15.000000000  0.000000000     0.000000000  0.066666667  0.000000000
     0.000000000  0.000000000 15.000000000     0.000000000  0.000000000  0.066666667

  length of vectors
    15.000000000 15.000000000 15.000000000     0.066666667  0.066666667  0.066666667


 FORCES acting on ions
    electron-ion (+dipol)            ewald-force                    non-local-force                 convergence-correction
 -----------------------------------------------------------------------------------------------
   0.429E+02 0.429E+02 0.442E-04   -.467E+02 -.467E+02 -.481E-04   0.384E+01 0.384E+01 0.442E-05   0.494E-04 0.500E-04 0.193E-07
   -.456E+02 0.328E+01 -.218E-04   0.500E+02 -.335E+01 0.240E-04   -.441E+01 0.659E-01 -.224E-05   0.252E-03 -.414E-05 0.389E-08
   0.328E+01 -.456E+02 -.218E-04   -.335E+01 0.500E+02 0.241E-04   0.659E-01 -.441E+01 -.224E-05   -.419E-05 0.252E-03 0.949E-09
 -----------------------------------------------------------------------------------------------
   0.500E+00 0.500E+00 0.530E-06   0.000E+00 0.000E+00 0.552E-17   -.500E+00 -.500E+00 -.555E-07   0.298E-03 0.298E-03 0.241E-07


 POSITION                                       TOTAL-FORCE (eV/Angst)
 -----------------------------------------------------------------------------------
      7.38666      7.38666      7.50000         0.001494      0.001497      0.000000
      8.73523      7.36811      7.50000         0.002524     -0.004018     -0.000000
      7.36811      8.73523      7.50000        -0.004018      0.002521     -0.000000
 -----------------------------------------------------------------------------------
    total drift:                               -0.000463     -0.000462      0.000000


--------------------------------------------------------------------------------------------------------



  FREE ENERGIE OF THE ION-ELECTRON SYSTEM (eV)
  ---------------------------------------------------
  free  energy   TOTEN  =       -11.19919320 eV

  energy  without entropy=      -11.19919320  energy(sigma->0) =      -11.19919320



--------------------------------------------------------------------------------------------------------


    POTLOK:  cpu time    7.2897: real time    7.3176


--------------------------------------------------------------------------------------------------------


 stress matrix after NEB project (eV)
     -0.06216     -0.00321      0.00000
     -0.00321     -0.06216     -0.00000
      0.00000     -0.00000     -0.07217
  FORCES: max atom, RMS     0.004745    0.004062
  FORCE total and by dimension    0.007035    0.004018
  Stress total and by dimension    0.113827    0.072170


--------------------------------------------------------------------------------------------------------


  
 reached required accuracy - stopping structural energy minimisation
     LOOP+:  cpu time  211.1406: real time  220.2407
    4ORBIT:  cpu time    0.0000: real time    0.0000

 total amount of memory used by VASP MPI-rank0   315952. kBytes
=======================================================================

   base      :      30000. kBytes
   nonlr-proj:        665. kBytes
   fftplans  :      90349. kBytes
   grid      :     192595. kBytes
   one-center:          9. kBytes
   wavefun   :       2334. kBytes

  
  
 General timing and accounting informations for this job:
 ========================================================
  
                  Total CPU time used (sec):      219.044
                            User time (sec):      205.054
                          System time (sec):       13.990
                         Elapsed time (sec):      230.589
  
                   Maximum memory used (kb):      427452.
                   Average memory used (kb):           0.
  
                          Minor page faults:      1650422
                          Major page faults:            5
                 Voluntary context switches:         1417
