V2O5                                    
   1.0000000000000000     
    15.0000000000000000    0.0000000000000000    0.0000000000000000
     0.0000000000000000   15.0000000000000000    0.0000000000000000
     0.0000000000000000    0.0000000000000000   15.0000000000000000
   S    H 
     1     2
Selective dynamics
Direct
  0.4924439389567125  0.4924439297650725  0.4999999695686121   T   T   T
  0.5823488706432394  0.4912072007701533  0.5000000151666790   T   T   T
  0.4912071904000506  0.5823488694647767  0.5000000152647088   T   T   T

  0.00000000E+00  0.00000000E+00  0.00000000E+00
  0.00000000E+00  0.00000000E+00  0.00000000E+00
  0.00000000E+00  0.00000000E+00  0.00000000E+00
