<?xml version="1.0" encoding="ISO-8859-1"?>
<modeling>
 <generator>
  <i name="program" type="string">vasp </i>
  <i name="version" type="string">5.4.4.18Apr17-6-g9f103f2a35  </i>
  <i name="subversion" type="string">(build Dec  6 2019 17:49:40) complex            parallel </i>
  <i name="platform" type="string">LinuxGNU </i>
  <i name="date" type="string">2021 09 14 </i>
  <i name="time" type="string">11:57:39 </i>
 </generator>
 <incar>
  <i type="string" name="SYSTEM"> H2S</i>
  <i type="int" name="ISTART">     0</i>
  <i type="string" name="PREC">accurate</i>
  <i type="string" name="ALGO"> Fast</i>
  <i type="int" name="NSIM">     4</i>
  <i type="int" name="NELM">   300</i>
  <i type="int" name="NELMDL">    -7</i>
  <i type="int" name="IBRION">     2</i>
  <i name="EDIFF">      0.00001000</i>
  <i name="EDIFFG">     -0.01000000</i>
  <i type="int" name="NSW">   100</i>
  <i type="int" name="ISIF">     2</i>
  <i type="int" name="ISYM">     0</i>
  <i name="ENCUT">    450.00000000</i>
  <i name="POTIM">      0.35000000</i>
  <i type="string" name="LREAL"> auto</i>
  <v name="ROPT">     -0.00020000     -0.00020000      0.00000000</v>
  <i type="logical" name="LPLANE"> T  </i>
  <i type="int" name="ISMEAR">     0</i>
  <i name="SIGMA">      0.05000000</i>
  <i type="int" name="NWRITE">     2</i>
  <i type="logical" name="LWAVE"> F  </i>
  <i type="logical" name="LCHARG"> F  </i>
  <i type="logical" name="LSCALU"> F  </i>
  <v type="int" name="KPOINT_BSE">    -1     0     0     0</v>
  <i type="int" name="NELM">   300</i>
  <i type="string" name="GGA"> PE</i>
 </incar>
 <structure name="primitive_cell" >
  <crystal>
   <varray name="basis" >
    <v>      15.00000000       0.00000000       0.00000000 </v>
    <v>       0.00000000      15.00000000       0.00000000 </v>
    <v>       0.00000000       0.00000000      15.00000000 </v>
   </varray>
   <i name="volume">   3375.00000000 </i>
   <varray name="rec_basis" >
    <v>       0.06666667       0.00000000       0.00000000 </v>
    <v>       0.00000000       0.06666667       0.00000000 </v>
    <v>       0.00000000       0.00000000       0.06666667 </v>
   </varray>
  </crystal>
  <varray name="positions" >
   <v>       0.49244394       0.49244393       0.49999997 </v>
   <v>      -0.41765113       0.49120720      -0.49999998 </v>
   <v>       0.49120719      -0.41765113      -0.49999998 </v>
  </varray>
 </structure>
 <varray name="primitive_index" >
  <v type="int" >        1 </v>
  <v type="int" >        2 </v>
  <v type="int" >        3 </v>
 </varray>
 <kpoints>
  <generation param="Gamma">
   <v type="int" name="divisions">       1        1        1 </v>
   <v name="usershift">      0.00000000       0.00000000       0.00000000 </v>
   <v name="genvec1">      1.00000000       0.00000000       0.00000000 </v>
   <v name="genvec2">      0.00000000       1.00000000       0.00000000 </v>
   <v name="genvec3">      0.00000000       0.00000000       1.00000000 </v>
   <v name="shift">      0.00000000       0.00000000       0.00000000 </v>
  </generation>
  <varray name="kpointlist" >
   <v>       0.00000000       0.00000000       0.00000000 </v>
  </varray>
  <varray name="weights" >
   <v>       1.00000000 </v>
  </varray>
 </kpoints>
 <parameters>
  <separator name="general" >
   <i type="string" name="SYSTEM">H2S</i>
   <i type="logical" name="LCOMPAT"> F  </i>
  </separator>
  <separator name="electronic" >
   <i type="string" name="PREC">accura</i>
   <i name="ENMAX">    450.00000000</i>
   <i name="ENAUG">    400.00000000</i>
   <i name="EDIFF">      0.00001000</i>
   <i type="int" name="IALGO">    68</i>
   <i type="int" name="IWAVPR">    11</i>
   <i type="int" name="NBANDS">     8</i>
   <i name="NELECT">      8.00000000</i>
   <i type="int" name="TURBO">     0</i>
   <i type="int" name="IRESTART">     0</i>
   <i type="int" name="NREBOOT">     0</i>
   <i type="int" name="NMIN">     0</i>
   <i name="EREF">      0.00000000</i>
   <separator name="electronic smearing" >
    <i type="int" name="ISMEAR">     0</i>
    <i name="SIGMA">      0.05000000</i>
    <i name="KSPACING">      0.50000000</i>
    <i type="logical" name="KGAMMA"> T  </i>
   </separator>
   <separator name="electronic projectors" >
    <i type="logical" name="LREAL"> T  </i>
    <v name="ROPT">     -0.00020000     -0.00020000</v>
    <i type="int" name="LMAXPAW">  -100</i>
    <i type="int" name="LMAXMIX">     2</i>
    <i type="logical" name="NLSPLINE"> F  </i>
   </separator>
   <separator name="electronic startup" >
    <i type="int" name="ISTART">     0</i>
    <i type="int" name="ICHARG">     2</i>
    <i type="int" name="INIWAV">     1</i>
   </separator>
   <separator name="electronic spin" >
    <i type="int" name="ISPIN">     1</i>
    <i type="logical" name="LNONCOLLINEAR"> F  </i>
    <v name="MAGMOM">      1.00000000      1.00000000      1.00000000</v>
    <i name="NUPDOWN">     -1.00000000</i>
    <i type="logical" name="LSORBIT"> F  </i>
    <v name="SAXIS">      0.00000000      0.00000000      1.00000000</v>
    <i type="logical" name="LSPIRAL"> F  </i>
    <v name="QSPIRAL">      0.00000000      0.00000000      0.00000000</v>
    <i type="logical" name="LZEROZ"> F  </i>
   </separator>
   <separator name="electronic exchange-correlation" >
    <i type="logical" name="LASPH"> F  </i>
    <i type="logical" name="LMETAGGA"> F  </i>
   </separator>
   <separator name="electronic convergence" >
    <i type="int" name="NELM">   300</i>
    <i type="int" name="NELMDL">    -7</i>
    <i type="int" name="NELMIN">     2</i>
    <i name="ENINI">    450.00000000</i>
    <separator name="electronic convergence detail" >
     <i type="logical" name="LDIAG"> T  </i>
     <i type="logical" name="LSUBROT"> F  </i>
     <i name="WEIMIN">      0.00100000</i>
     <i name="EBREAK">      0.00000031</i>
     <i name="DEPER">      0.30000000</i>
     <i type="int" name="NRMM">     4</i>
     <i name="TIME">      0.40000000</i>
    </separator>
   </separator>
   <separator name="electronic mixer" >
    <i name="AMIX">      0.40000000</i>
    <i name="BMIX">      1.00000000</i>
    <i name="AMIN">      0.10000000</i>
    <i name="AMIX_MAG">      1.60000000</i>
    <i name="BMIX_MAG">      1.00000000</i>
    <separator name="electronic mixer details" >
     <i type="int" name="IMIX">     4</i>
     <i type="logical" name="MIXFIRST"> F  </i>
     <i type="int" name="MAXMIX">   -45</i>
     <i name="WC">    100.00000000</i>
     <i type="int" name="INIMIX">     1</i>
     <i type="int" name="MIXPRE">     1</i>
     <i type="int" name="MREMOVE">     5</i>
    </separator>
   </separator>
   <separator name="electronic dipolcorrection" >
    <i type="logical" name="LDIPOL"> F  </i>
    <i type="logical" name="LMONO"> F  </i>
    <i type="int" name="IDIPOL">     0</i>
    <i name="EPSILON">      1.00000000</i>
    <v name="DIPOL">   -100.00000000   -100.00000000   -100.00000000</v>
    <i name="EFIELD">      0.00000000</i>
   </separator>
  </separator>
  <separator name="grids" >
   <i type="int" name="NGX">   108</i>
   <i type="int" name="NGY">   108</i>
   <i type="int" name="NGZ">   108</i>
   <i type="int" name="NGXF">   216</i>
   <i type="int" name="NGYF">   216</i>
   <i type="int" name="NGZF">   216</i>
   <i type="logical" name="ADDGRID"> F  </i>
  </separator>
  <separator name="ionic" >
   <i type="int" name="NSW">   100</i>
   <i type="int" name="IBRION">     2</i>
   <i type="int" name="MDALGO">     0</i>
   <i type="int" name="ISIF">     2</i>
   <i name="PSTRESS">      0.00000000</i>
   <i name="EDIFFG">     -0.01000000</i>
   <i type="int" name="NFREE">     1</i>
   <i name="POTIM">      0.35000000</i>
   <i name="SMASS">     -3.00000000</i>
   <i name="SCALEE">      1.00000000</i>
  </separator>
  <separator name="ionic md" >
   <i name="TEBEG">      0.00010000</i>
   <i name="TEEND">      0.00010000</i>
   <i type="int" name="NBLOCK">     1</i>
   <i type="int" name="KBLOCK">   100</i>
   <i type="int" name="NPACO">   256</i>
   <i name="APACO">     16.00000000</i>
  </separator>
  <separator name="symmetry" >
   <i type="int" name="ISYM">     0</i>
   <i name="SYMPREC">      0.00001000</i>
  </separator>
  <separator name="dos" >
   <i type="int" name="LORBIT">     0</i>
   <v name="RWIGS">     -1.00000000     -1.00000000</v>
   <i type="int" name="NEDOS">   301</i>
   <i name="EMIN">     10.00000000</i>
   <i name="EMAX">    -10.00000000</i>
   <i name="EFERMI">      0.00000000</i>
  </separator>
  <separator name="writing" >
   <i type="int" name="NWRITE">     2</i>
   <i type="logical" name="LWAVE"> F  </i>
   <i type="logical" name="LDOWNSAMPLE"> F  </i>
   <i type="logical" name="LCHARG"> F  </i>
   <i type="logical" name="LPARD"> F  </i>
   <i type="logical" name="LVTOT"> F  </i>
   <i type="logical" name="LVHAR"> F  </i>
   <i type="logical" name="LELF"> F  </i>
   <i type="logical" name="LOPTICS"> F  </i>
   <v name="STM">      0.00000000      0.00000000      0.00000000      0.00000000      0.00000000      0.00000000      0.00000000</v>
  </separator>
  <separator name="performance" >
   <i type="int" name="NPAR">     4</i>
   <i type="int" name="NSIM">     4</i>
   <i type="int" name="NBLK">    -1</i>
   <i type="logical" name="LPLANE"> T  </i>
   <i type="logical" name="LSCALAPACK"> T  </i>
   <i type="logical" name="LSCAAWARE"> F  </i>
   <i type="logical" name="LSCALU"> F  </i>
   <i type="logical" name="LASYNC"> F  </i>
   <i type="logical" name="LORBITALREAL"> F  </i>
  </separator>
  <separator name="miscellaneous" >
   <i type="int" name="IDIOT">     3</i>
   <i type="int" name="ISPECIAL">     0</i>
   <i type="logical" name="LMUSIC"> F  </i>
   <v name="POMASS">     32.06600000      1.00000000</v>
   <v name="DARWINR">      0.00000000      0.00000000</v>
   <v name="DARWINV">      1.00000000      1.00000000</v>
   <i type="logical" name="LCORR"> T  </i>
  </separator>
  <i type="logical" name="GGA_COMPAT"> T  </i>
  <i type="logical" name="LBERRY"> F  </i>
  <i type="int" name="ICORELEVEL">     0</i>
  <i type="logical" name="LDAU"> F  </i>
  <i type="int" name="I_CONSTRAINED_M">     0</i>
  <separator name="electronic exchange-correlation" >
   <i type="string" name="GGA">PE</i>
   <i type="int" name="VOSKOWN">     0</i>
   <i type="logical" name="LHFCALC"> F  </i>
   <i type="string" name="PRECFOCK"></i>
   <i type="logical" name="LSYMGRAD"> F  </i>
   <i type="logical" name="LHFONE"> F  </i>
   <i type="logical" name="LRHFCALC"> F  </i>
   <i type="logical" name="LTHOMAS"> F  </i>
   <i type="logical" name="LMODELHF"> F  </i>
   <i name="ENCUT4O">     -1.00000000</i>
   <i type="int" name="EXXOEP">     0</i>
   <i type="int" name="FOURORBIT">     0</i>
   <i name="AEXX">      0.00000000</i>
   <i name="HFALPHA">      0.00000000</i>
   <i name="MCALPHA">      0.00000000</i>
   <i name="ALDAX">      1.00000000</i>
   <i name="AGGAX">      1.00000000</i>
   <i name="ALDAC">      1.00000000</i>
   <i name="AGGAC">      1.00000000</i>
   <i type="int" name="NKREDX">     1</i>
   <i type="int" name="NKREDY">     1</i>
   <i type="int" name="NKREDZ">     1</i>
   <i type="logical" name="SHIFTRED"> F  </i>
   <i type="logical" name="ODDONLY"> F  </i>
   <i type="logical" name="EVENONLY"> F  </i>
   <i type="int" name="LMAXFOCK">     0</i>
   <i type="int" name="NMAXFOCKAE">     0</i>
   <i type="logical" name="LFOCKAEDFT"> F  </i>
   <i name="HFSCREEN">      0.00000000</i>
   <i name="HFSCREENC">      0.00000000</i>
   <i type="int" name="NBANDSGWLOW">     0</i>
  </separator>
  <separator name="vdW DFT" >
   <i type="logical" name="LUSE_VDW"> F  </i>
   <i name="Zab_VDW">     -0.84910000</i>
   <i name="PARAM1">      0.12340000</i>
   <i name="PARAM2">      1.00000000</i>
   <i name="PARAM3">      0.00000000</i>
  </separator>
  <separator name="model GW" >
   <i type="int" name="MODEL_GW">     0</i>
   <i name="MODEL_EPS0">    675.00000000</i>
   <i name="MODEL_ALPHA">      1.00000000</i>
  </separator>
  <separator name="linear response parameters" >
   <i type="logical" name="LEPSILON"> F  </i>
   <i type="logical" name="LRPA"> F  </i>
   <i type="logical" name="LNABLA"> F  </i>
   <i type="logical" name="LVEL"> F  </i>
   <i type="int" name="KINTER">     0</i>
   <i name="CSHIFT">      0.10000000</i>
   <i name="OMEGAMAX">     -1.00000000</i>
   <i name="DEG_THRESHOLD">      0.00200000</i>
   <i name="RTIME">     -0.10000000</i>
   <i name="WPLASMAI">      0.00000000</i>
   <v name="DFIELD">      0.00000000      0.00000000      0.00000000</v>
   <v name="WPLASMA">      0.00000000      0.00000000      0.00000000      0.00000000      0.00000000      0.00000000      0.00000000      0.00000000      0.00000000</v>
  </separator>
  <separator name="orbital magnetization" >
   <i type="logical" name="NUCIND"> F  </i>
   <v name="MAGPOS">      0.00000000      0.00000000      0.00000000</v>
   <i type="logical" name="LNICSALL"> T  </i>
   <i type="logical" name="ORBITALMAG"> F  </i>
   <i type="logical" name="LMAGBLOCH"> F  </i>
   <i type="logical" name="LCHIMAG"> F  </i>
   <i type="logical" name="LGAUGE"> T  </i>
   <i type="int" name="MAGATOM">     0</i>
   <v name="MAGDIPOL">      0.00000000      0.00000000      0.00000000</v>
   <v name="AVECCONST">      0.00000000      0.00000000      0.00000000</v>
  </separator>
  <separator name="response functions" >
   <i type="logical" name="LADDER"> F  </i>
   <i type="logical" name="LRPAFORCE"> F  </i>
   <i type="logical" name="LFXC"> F  </i>
   <i type="logical" name="LHARTREE"> T  </i>
   <i type="int" name="IBSE">     0</i>
   <v type="int" name="KPOINT">    -1     0     0     0</v>
   <i type="logical" name="LTCTE"> F  </i>
   <i type="logical" name="LTETE"> F  </i>
   <i type="logical" name="LTRIPLET"> F  </i>
   <i type="logical" name="LFXCEPS"> F  </i>
   <i type="logical" name="LFXHEG"> F  </i>
   <i type="int" name="NATURALO">     2</i>
   <i type="logical" name="L2ORDER"> F  </i>
   <i type="logical" name="LMP2LT"> F  </i>
   <i type="logical" name="LUSEW"> F  </i>
   <i name="ENCUTGW">     -2.00000000</i>
   <i name="ENCUTGWSOFT">     -2.00000000</i>
   <i name="ENCUTLF">     -1.00000000</i>
   <i type="int" name="LMAXMP2">    -1</i>
   <i name="SCISSOR">      0.00000000</i>
   <i type="int" name="NOMEGA">     0</i>
   <i type="int" name="NOMEGAR">     0</i>
   <i type="int" name="NBANDSGW">    -1</i>
   <i type="int" name="NBANDSO">    -1</i>
   <i type="int" name="NBANDSV">    -1</i>
   <i type="int" name="NELM">   300</i>
   <i type="int" name="NELMHF">     1</i>
   <i type="int" name="DIM">     3</i>
   <i type="int" name="ANTIRES">     0</i>
   <i name="OMEGAMAX">    -30.00000000</i>
   <i name="OMEGAMIN">    -30.00000000</i>
   <i name="OMEGATL">   -200.00000000</i>
   <i type="int" name="OMEGAGRID">   140</i>
   <i name="CSHIFT">     -0.10000000</i>
   <i type="logical" name="SELFENERGY"> F  </i>
   <i type="logical" name="LSPECTRAL"> F  </i>
   <i type="logical" name="LSPECTRALGW"> F  </i>
   <i type="logical" name="LSINGLES"> F  </i>
   <i type="logical" name="LFERMIGW"> F  </i>
   <i type="logical" name="ODDONLYGW"> F  </i>
   <i type="logical" name="EVENONLYGW"> F  </i>
   <i type="int" name="NKREDLFX">     1</i>
   <i type="int" name="NKREDLFY">     1</i>
   <i type="int" name="NKREDLFZ">     1</i>
   <i type="int" name="MAXMEM">  2800</i>
   <i type="int" name="TELESCOPE">     0</i>
   <i type="int" name="TAUPAR">     1</i>
   <i type="int" name="OMEGAPAR">    -1</i>
   <i name="LAMBDA">      1.00000000</i>
  </separator>
  <separator name="External order field" >
   <i name="OFIELD_KAPPA">      0.00000000</i>
   <v name="OFIELD_K">      0.00000000      0.00000000      0.00000000</v>
   <i name="OFIELD_Q6_NEAR">      0.00000000</i>
   <i name="OFIELD_Q6_FAR">      0.00000000</i>
   <i name="OFIELD_A">      0.00000000</i>
  </separator>
 </parameters>
 <atominfo>
  <atoms>       3 </atoms>
  <types>       2 </types>
  <array name="atoms" >
   <dimension dim="1">ion</dimension>
   <field type="string">element</field>
   <field type="int">atomtype</field>
   <set>
    <rc><c>S </c><c>   1</c></rc>
    <rc><c>H </c><c>   2</c></rc>
    <rc><c>H </c><c>   2</c></rc>
   </set>
  </array>
  <array name="atomtypes" >
   <dimension dim="1">type</dimension>
   <field type="int">atomspertype</field>
   <field type="string">element</field>
   <field>mass</field>
   <field>valence</field>
   <field type="string">pseudopotential</field>
   <set>
    <rc><c>   1</c><c>S </c><c>     32.06600000</c><c>      6.00000000</c><c>  PAW_PBE S 06Sep2000                   </c></rc>
    <rc><c>   2</c><c>H </c><c>      1.00000000</c><c>      1.00000000</c><c>  PAW_PBE H 15Jun2001                   </c></rc>
   </set>
  </array>
 </atominfo>
 <structure name="initialpos" >
  <crystal>
   <varray name="basis" >
    <v>      15.00000000       0.00000000       0.00000000 </v>
    <v>       0.00000000      15.00000000       0.00000000 </v>
    <v>       0.00000000       0.00000000      15.00000000 </v>
   </varray>
   <i name="volume">   3375.00000000 </i>
   <varray name="rec_basis" >
    <v>       0.06666667       0.00000000       0.00000000 </v>
    <v>       0.00000000       0.06666667       0.00000000 </v>
    <v>       0.00000000       0.00000000       0.06666667 </v>
   </varray>
  </crystal>
  <varray name="positions" >
   <v>       0.49244394       0.49244393       0.49999997 </v>
   <v>       0.58234887       0.49120720       0.50000002 </v>
   <v>       0.49120719       0.58234887       0.50000002 </v>
  </varray>
  <varray name="selective"  type="logical" >
   <v type="logical" >  T  T  T </v>
   <v type="logical" >  T  T  T </v>
   <v type="logical" >  T  T  T </v>
  </varray>
  <nose>
   <v>      -3.00000000       0.00000000       0.00010000       0.00010000 </v>
  </nose>
 </structure>
 <calculation>
  <scstep>
   <time name="dav">    3.02    3.03</time>
   <time name="total">   10.68   10.71</time>
   <energy>
    <i name="alphaZ">      0.07118216 </i>
    <i name="ewald">     48.63930974 </i>
    <i name="hartreedc">   -278.09726769 </i>
    <i name="XCdc">     16.43071665 </i>
    <i name="pawpsdc">    221.75218686 </i>
    <i name="pawaedc">   -218.57961389 </i>
    <i name="eentropy">     -0.00000000 </i>
    <i name="bandstr">    -56.43336445 </i>
    <i name="atom">    301.78748547 </i>
    <i name="e_fr_energy">     35.57063486 </i>
    <i name="e_wo_entrp">     35.57063486 </i>
    <i name="e_0_energy">     35.57063486 </i>
   </energy>
  </scstep>
  <scstep>
   <time name="dav">    3.02    3.03</time>
   <time name="total">    3.02    3.03</time>
   <energy>
    <i name="e_fr_energy">     -0.32905826 </i>
    <i name="e_wo_entrp">     -0.32905826 </i>
    <i name="e_0_energy">     -0.32905826 </i>
   </energy>
  </scstep>
  <scstep>
   <time name="dav">    3.04    3.05</time>
   <time name="total">    3.04    3.05</time>
   <energy>
    <i name="e_fr_energy">    -10.98391812 </i>
    <i name="e_wo_entrp">    -10.98391812 </i>
    <i name="e_0_energy">    -10.98391812 </i>
   </energy>
  </scstep>
  <scstep>
   <time name="dav">    3.03    3.03</time>
   <time name="total">    3.03    3.03</time>
   <energy>
    <i name="e_fr_energy">    -11.73891069 </i>
    <i name="e_wo_entrp">    -11.73891069 </i>
    <i name="e_0_energy">    -11.73891069 </i>
   </energy>
  </scstep>
  <scstep>
   <time name="dav">    3.03    3.04</time>
   <time name="total">    3.03    3.04</time>
   <energy>
    <i name="e_fr_energy">    -11.74032801 </i>
    <i name="e_wo_entrp">    -11.74032801 </i>
    <i name="e_0_energy">    -11.74032801 </i>
   </energy>
  </scstep>
  <scstep>
   <time name="dav">    3.87    3.88</time>
   <time name="total">    3.87    3.88</time>
   <energy>
    <i name="e_fr_energy">    -11.74033167 </i>
    <i name="e_wo_entrp">    -11.74033167 </i>
    <i name="e_0_energy">    -11.74033167 </i>
   </energy>
  </scstep>
  <scstep>
   <time name="dav">    2.21    2.21</time>
   <time name="total">    3.26    3.26</time>
   <energy>
    <i name="e_fr_energy">    -11.74033167 </i>
    <i name="e_wo_entrp">    -11.74033167 </i>
    <i name="e_0_energy">    -11.74033167 </i>
   </energy>
  </scstep>
  <scstep>
   <time name="diag">    0.52    0.52</time>
   <time name="diis">    1.96    1.97</time>
   <time name="orth">    0.03    0.03</time>
   <time name="total">   10.93   10.96</time>
   <energy>
    <i name="e_fr_energy">    -11.35087308 </i>
    <i name="e_wo_entrp">    -11.35087308 </i>
    <i name="e_0_energy">    -11.35087308 </i>
   </energy>
  </scstep>
  <scstep>
   <time name="diag">    0.52    0.52</time>
   <time name="diis">    1.96    1.97</time>
   <time name="orth">    0.03    0.03</time>
   <time name="total">   10.96   11.00</time>
   <energy>
    <i name="e_fr_energy">    -11.20148495 </i>
    <i name="e_wo_entrp">    -11.20148495 </i>
    <i name="e_0_energy">    -11.20148495 </i>
   </energy>
  </scstep>
  <scstep>
   <time name="diag">    0.52    0.52</time>
   <time name="diis">    1.99    1.99</time>
   <time name="orth">    0.03    0.03</time>
   <time name="total">   10.99   11.03</time>
   <energy>
    <i name="e_fr_energy">    -11.18782778 </i>
    <i name="e_wo_entrp">    -11.18782778 </i>
    <i name="e_0_energy">    -11.18782778 </i>
   </energy>
  </scstep>
  <scstep>
   <time name="diag">    0.52    0.52</time>
   <time name="diis">    1.96    1.97</time>
   <time name="orth">    0.03    0.03</time>
   <time name="total">   10.98   11.01</time>
   <energy>
    <i name="e_fr_energy">    -11.18869106 </i>
    <i name="e_wo_entrp">    -11.18869106 </i>
    <i name="e_0_energy">    -11.18869106 </i>
   </energy>
  </scstep>
  <scstep>
   <time name="diag">    0.52    0.52</time>
   <time name="diis">    1.97    1.98</time>
   <time name="orth">    0.03    0.03</time>
   <time name="total">   10.98   11.01</time>
   <energy>
    <i name="e_fr_energy">    -11.19254477 </i>
    <i name="e_wo_entrp">    -11.19254477 </i>
    <i name="e_0_energy">    -11.19254477 </i>
   </energy>
  </scstep>
  <scstep>
   <time name="diag">    0.52    0.52</time>
   <time name="diis">    2.00    2.00</time>
   <time name="orth">    0.03    0.03</time>
   <time name="total">   10.99   11.04</time>
   <energy>
    <i name="e_fr_energy">    -11.19271248 </i>
    <i name="e_wo_entrp">    -11.19271248 </i>
    <i name="e_0_energy">    -11.19271248 </i>
   </energy>
  </scstep>
  <scstep>
   <time name="diag">    0.52    0.52</time>
   <time name="diis">    1.99    2.01</time>
   <time name="orth">    0.03    0.03</time>
   <time name="total">   10.95   11.01</time>
   <energy>
    <i name="e_fr_energy">    -11.19561248 </i>
    <i name="e_wo_entrp">    -11.19561248 </i>
    <i name="e_0_energy">    -11.19561248 </i>
   </energy>
  </scstep>
  <scstep>
   <time name="diag">    0.52    0.52</time>
   <time name="diis">    1.87    1.88</time>
   <time name="orth">    0.03    0.03</time>
   <time name="total">   10.79   10.85</time>
   <energy>
    <i name="e_fr_energy">    -11.19690350 </i>
    <i name="e_wo_entrp">    -11.19690350 </i>
    <i name="e_0_energy">    -11.19690350 </i>
   </energy>
  </scstep>
  <scstep>
   <time name="diag">    0.52    0.52</time>
   <time name="diis">    1.86    1.87</time>
   <time name="orth">    0.03    0.03</time>
   <time name="total">   10.71   10.74</time>
   <energy>
    <i name="e_fr_energy">    -11.19842106 </i>
    <i name="e_wo_entrp">    -11.19842106 </i>
    <i name="e_0_energy">    -11.19842106 </i>
   </energy>
  </scstep>
  <scstep>
   <time name="diag">    0.52    0.52</time>
   <time name="diis">    1.99    1.99</time>
   <time name="orth">    0.03    0.03</time>
   <time name="total">   10.85   10.90</time>
   <energy>
    <i name="e_fr_energy">    -11.19867698 </i>
    <i name="e_wo_entrp">    -11.19867698 </i>
    <i name="e_0_energy">    -11.19867698 </i>
   </energy>
  </scstep>
  <scstep>
   <time name="diag">    0.52    0.52</time>
   <time name="diis">    1.88    1.89</time>
   <time name="orth">    0.03    0.03</time>
   <time name="total">   10.72   10.74</time>
   <energy>
    <i name="e_fr_energy">    -11.19906741 </i>
    <i name="e_wo_entrp">    -11.19906741 </i>
    <i name="e_0_energy">    -11.19906741 </i>
   </energy>
  </scstep>
  <scstep>
   <time name="diag">    0.51    0.51</time>
   <time name="diis">    1.53    1.53</time>
   <time name="orth">    0.03    0.03</time>
   <time name="total">   10.33   17.84</time>
   <energy>
    <i name="e_fr_energy">    -11.19912203 </i>
    <i name="e_wo_entrp">    -11.19912203 </i>
    <i name="e_0_energy">    -11.19912203 </i>
   </energy>
  </scstep>
  <scstep>
   <time name="diag">    0.50    0.51</time>
   <time name="diis">    1.46    1.47</time>
   <time name="orth">    0.03    0.03</time>
   <time name="total">   10.23   10.29</time>
   <energy>
    <i name="e_fr_energy">    -11.19916994 </i>
    <i name="e_wo_entrp">    -11.19916994 </i>
    <i name="e_0_energy">    -11.19916994 </i>
   </energy>
  </scstep>
  <scstep>
   <time name="diag">    0.51    0.51</time>
   <time name="diis">    1.47    1.48</time>
   <time name="orth">    0.03    0.03</time>
   <time name="total">   10.27   10.32</time>
   <energy>
    <i name="e_fr_energy">    -11.19918398 </i>
    <i name="e_wo_entrp">    -11.19918398 </i>
    <i name="e_0_energy">    -11.19918398 </i>
   </energy>
  </scstep>
  <scstep>
   <time name="diag">    0.50    0.51</time>
   <time name="diis">    1.36    1.37</time>
   <time name="orth">    0.03    0.03</time>
   <time name="total">    9.09    9.16</time>
   <energy>
    <i name="alphaZ">      0.07118216 </i>
    <i name="ewald">     48.63930974 </i>
    <i name="hartreedc">   -292.96526630 </i>
    <i name="XCdc">     17.54106053 </i>
    <i name="pawpsdc">    804.92041111 </i>
    <i name="pawaedc">   -801.97857799 </i>
    <i name="eentropy">     -0.00000000 </i>
    <i name="bandstr">    -89.21479793 </i>
    <i name="atom">    301.78748547 </i>
    <i name="e_fr_energy">    -11.19919320 </i>
    <i name="e_wo_entrp">    -11.19919320 </i>
    <i name="e_0_energy">    -11.19919320 </i>
   </energy>
  </scstep>
  <structure>
   <crystal>
    <varray name="basis" >
     <v>      15.00000000       0.00000000       0.00000000 </v>
     <v>       0.00000000      15.00000000       0.00000000 </v>
     <v>       0.00000000       0.00000000      15.00000000 </v>
    </varray>
    <i name="volume">   3375.00000000 </i>
    <varray name="rec_basis" >
     <v>       0.06666667       0.00000000       0.00000000 </v>
     <v>       0.00000000       0.06666667       0.00000000 </v>
     <v>       0.00000000       0.00000000       0.06666667 </v>
    </varray>
   </crystal>
   <varray name="positions" >
    <v>       0.49244394       0.49244393       0.49999997 </v>
    <v>       0.58234887       0.49120720       0.50000002 </v>
    <v>       0.49120719       0.58234887       0.50000002 </v>
   </varray>
  </structure>
  <varray name="forces" >
   <v>       0.00149355       0.00149709       0.00000036 </v>
   <v>       0.00252436      -0.00401804      -0.00000019 </v>
   <v>      -0.00401791       0.00252095      -0.00000017 </v>
  </varray>
  <varray name="stress" >
   <v>      -0.02950686      -0.00152570       0.00000002 </v>
   <v>      -0.00152569      -0.02950886      -0.00000002 </v>
   <v>       0.00000002      -0.00000003      -0.03426045 </v>
  </varray>
  <energy>
   <i name="e_fr_energy">    -11.19919320 </i>
   <i name="e_wo_entrp">    -11.19919320 </i>
   <i name="e_0_energy">     -0.00000000 </i>
  </energy>
  <time name="totalsc">  211.14  220.24</time>
  <eigenvalues>
   <array>
    <dimension dim="1">band</dimension>
    <dimension dim="2">kpoint</dimension>
    <dimension dim="3">spin</dimension>
    <field>eigene</field>
    <field>occ</field>
    <set>
     <set comment="spin 1">
      <set comment="kpoint 1">
       <r>  -18.4640    1.0000 </r>
       <r>  -10.8753    1.0000 </r>
       <r>   -9.0459    1.0000 </r>
       <r>   -6.2222    1.0000 </r>
       <r>   -0.8358    0.0000 </r>
       <r>   -0.6079    0.0000 </r>
       <r>    0.1329    0.0000 </r>
       <r>    0.4396    0.0000 </r>
      </set>
     </set>
    </set>
   </array>
  </eigenvalues>
  <separator name="orbital magnetization" >
   <v name="MAGDIPOLOUT">      0.00000000      0.00000000      0.00000000</v>
  </separator>
  <dos>
   <i name="efermi">     -5.95810149 </i>
   <total>
    <array>
     <dimension dim="1">gridpoints</dimension>
     <dimension dim="2">spin</dimension>
     <field>energy</field>
     <field>total</field>
     <field>integrated</field>
     <set>
      <set comment="spin 1">
       <r>   -19.4092     0.0000     0.0000 </r>
       <r>   -19.3399     0.0000     0.0000 </r>
       <r>   -19.2705     0.0000     0.0000 </r>
       <r>   -19.2012     0.0000     0.0000 </r>
       <r>   -19.1319     0.0000     0.0000 </r>
       <r>   -19.0626     0.0000     0.0000 </r>
       <r>   -18.9933     0.0000     0.0000 </r>
       <r>   -18.9240     0.0000     0.0000 </r>
       <r>   -18.8547     0.0000     0.0000 </r>
       <r>   -18.7853     0.0000     0.0000 </r>
       <r>   -18.7160     0.0000     0.0000 </r>
       <r>   -18.6467     0.0000     0.0000 </r>
       <r>   -18.5774     0.0193     0.0013 </r>
       <r>   -18.5081     3.0420     0.2122 </r>
       <r>   -18.4388    18.9272     1.5241 </r>
       <r>   -18.3695     6.7577     1.9925 </r>
       <r>   -18.3002     0.1083     2.0000 </r>
       <r>   -18.2308     0.0001     2.0000 </r>
       <r>   -18.1615     0.0000     2.0000 </r>
       <r>   -18.0922     0.0000     2.0000 </r>
       <r>   -18.0229     0.0000     2.0000 </r>
       <r>   -17.9536     0.0000     2.0000 </r>
       <r>   -17.8843     0.0000     2.0000 </r>
       <r>   -17.8150     0.0000     2.0000 </r>
       <r>   -17.7457     0.0000     2.0000 </r>
       <r>   -17.6763     0.0000     2.0000 </r>
       <r>   -17.6070     0.0000     2.0000 </r>
       <r>   -17.5377     0.0000     2.0000 </r>
       <r>   -17.4684     0.0000     2.0000 </r>
       <r>   -17.3991     0.0000     2.0000 </r>
       <r>   -17.3298     0.0000     2.0000 </r>
       <r>   -17.2605     0.0000     2.0000 </r>
       <r>   -17.1911     0.0000     2.0000 </r>
       <r>   -17.1218     0.0000     2.0000 </r>
       <r>   -17.0525     0.0000     2.0000 </r>
       <r>   -16.9832     0.0000     2.0000 </r>
       <r>   -16.9139     0.0000     2.0000 </r>
       <r>   -16.8446     0.0000     2.0000 </r>
       <r>   -16.7753     0.0000     2.0000 </r>
       <r>   -16.7060     0.0000     2.0000 </r>
       <r>   -16.6366     0.0000     2.0000 </r>
       <r>   -16.5673     0.0000     2.0000 </r>
       <r>   -16.4980     0.0000     2.0000 </r>
       <r>   -16.4287     0.0000     2.0000 </r>
       <r>   -16.3594     0.0000     2.0000 </r>
       <r>   -16.2901     0.0000     2.0000 </r>
       <r>   -16.2208     0.0000     2.0000 </r>
       <r>   -16.1515     0.0000     2.0000 </r>
       <r>   -16.0821     0.0000     2.0000 </r>
       <r>   -16.0128     0.0000     2.0000 </r>
       <r>   -15.9435     0.0000     2.0000 </r>
       <r>   -15.8742     0.0000     2.0000 </r>
       <r>   -15.8049     0.0000     2.0000 </r>
       <r>   -15.7356     0.0000     2.0000 </r>
       <r>   -15.6663     0.0000     2.0000 </r>
       <r>   -15.5969     0.0000     2.0000 </r>
       <r>   -15.5276     0.0000     2.0000 </r>
       <r>   -15.4583     0.0000     2.0000 </r>
       <r>   -15.3890     0.0000     2.0000 </r>
       <r>   -15.3197     0.0000     2.0000 </r>
       <r>   -15.2504     0.0000     2.0000 </r>
       <r>   -15.1811     0.0000     2.0000 </r>
       <r>   -15.1118     0.0000     2.0000 </r>
       <r>   -15.0424     0.0000     2.0000 </r>
       <r>   -14.9731     0.0000     2.0000 </r>
       <r>   -14.9038     0.0000     2.0000 </r>
       <r>   -14.8345     0.0000     2.0000 </r>
       <r>   -14.7652     0.0000     2.0000 </r>
       <r>   -14.6959     0.0000     2.0000 </r>
       <r>   -14.6266     0.0000     2.0000 </r>
       <r>   -14.5573     0.0000     2.0000 </r>
       <r>   -14.4879     0.0000     2.0000 </r>
       <r>   -14.4186     0.0000     2.0000 </r>
       <r>   -14.3493     0.0000     2.0000 </r>
       <r>   -14.2800     0.0000     2.0000 </r>
       <r>   -14.2107     0.0000     2.0000 </r>
       <r>   -14.1414     0.0000     2.0000 </r>
       <r>   -14.0721     0.0000     2.0000 </r>
       <r>   -14.0027     0.0000     2.0000 </r>
       <r>   -13.9334     0.0000     2.0000 </r>
       <r>   -13.8641     0.0000     2.0000 </r>
       <r>   -13.7948     0.0000     2.0000 </r>
       <r>   -13.7255     0.0000     2.0000 </r>
       <r>   -13.6562     0.0000     2.0000 </r>
       <r>   -13.5869     0.0000     2.0000 </r>
       <r>   -13.5176     0.0000     2.0000 </r>
       <r>   -13.4482     0.0000     2.0000 </r>
       <r>   -13.3789     0.0000     2.0000 </r>
       <r>   -13.3096     0.0000     2.0000 </r>
       <r>   -13.2403     0.0000     2.0000 </r>
       <r>   -13.1710     0.0000     2.0000 </r>
       <r>   -13.1017     0.0000     2.0000 </r>
       <r>   -13.0324     0.0000     2.0000 </r>
       <r>   -12.9631     0.0000     2.0000 </r>
       <r>   -12.8937     0.0000     2.0000 </r>
       <r>   -12.8244     0.0000     2.0000 </r>
       <r>   -12.7551     0.0000     2.0000 </r>
       <r>   -12.6858     0.0000     2.0000 </r>
       <r>   -12.6165     0.0000     2.0000 </r>
       <r>   -12.5472     0.0000     2.0000 </r>
       <r>   -12.4779     0.0000     2.0000 </r>
       <r>   -12.4085     0.0000     2.0000 </r>
       <r>   -12.3392     0.0000     2.0000 </r>
       <r>   -12.2699     0.0000     2.0000 </r>
       <r>   -12.2006     0.0000     2.0000 </r>
       <r>   -12.1313     0.0000     2.0000 </r>
       <r>   -12.0620     0.0000     2.0000 </r>
       <r>   -11.9927     0.0000     2.0000 </r>
       <r>   -11.9234     0.0000     2.0000 </r>
       <r>   -11.8540     0.0000     2.0000 </r>
       <r>   -11.7847     0.0000     2.0000 </r>
       <r>   -11.7154     0.0000     2.0000 </r>
       <r>   -11.6461     0.0000     2.0000 </r>
       <r>   -11.5768     0.0000     2.0000 </r>
       <r>   -11.5075     0.0000     2.0000 </r>
       <r>   -11.4382     0.0000     2.0000 </r>
       <r>   -11.3689     0.0000     2.0000 </r>
       <r>   -11.2995     0.0000     2.0000 </r>
       <r>   -11.2302     0.0000     2.0000 </r>
       <r>   -11.1609     0.0000     2.0000 </r>
       <r>   -11.0916     0.0000     2.0000 </r>
       <r>   -11.0223     0.0005     2.0000 </r>
       <r>   -10.9530     0.4048     2.0281 </r>
       <r>   -10.8837    11.3356     2.8138 </r>
       <r>   -10.8143    15.8941     3.9155 </r>
       <r>   -10.7450     1.2164     3.9998 </r>
       <r>   -10.6757     0.0033     4.0000 </r>
       <r>   -10.6064     0.0000     4.0000 </r>
       <r>   -10.5371     0.0000     4.0000 </r>
       <r>   -10.4678     0.0000     4.0000 </r>
       <r>   -10.3985     0.0000     4.0000 </r>
       <r>   -10.3292     0.0000     4.0000 </r>
       <r>   -10.2598     0.0000     4.0000 </r>
       <r>   -10.1905     0.0000     4.0000 </r>
       <r>   -10.1212     0.0000     4.0000 </r>
       <r>   -10.0519     0.0000     4.0000 </r>
       <r>    -9.9826     0.0000     4.0000 </r>
       <r>    -9.9133     0.0000     4.0000 </r>
       <r>    -9.8440     0.0000     4.0000 </r>
       <r>    -9.7747     0.0000     4.0000 </r>
       <r>    -9.7053     0.0000     4.0000 </r>
       <r>    -9.6360     0.0000     4.0000 </r>
       <r>    -9.5667     0.0000     4.0000 </r>
       <r>    -9.4974     0.0000     4.0000 </r>
       <r>    -9.4281     0.0000     4.0000 </r>
       <r>    -9.3588     0.0000     4.0000 </r>
       <r>    -9.2895     0.0000     4.0000 </r>
       <r>    -9.2201     0.0000     4.0000 </r>
       <r>    -9.1508     0.0432     4.0030 </r>
       <r>    -9.0815     4.4785     4.3134 </r>
       <r>    -9.0122    19.4146     5.6591 </r>
       <r>    -8.9429     4.8667     5.9964 </r>
       <r>    -8.8736     0.0517     6.0000 </r>
       <r>    -8.8043     0.0000     6.0000 </r>
       <r>    -8.7350     0.0000     6.0000 </r>
       <r>    -8.6656     0.0000     6.0000 </r>
       <r>    -8.5963     0.0000     6.0000 </r>
       <r>    -8.5270     0.0000     6.0000 </r>
       <r>    -8.4577     0.0000     6.0000 </r>
       <r>    -8.3884     0.0000     6.0000 </r>
       <r>    -8.3191     0.0000     6.0000 </r>
       <r>    -8.2498     0.0000     6.0000 </r>
       <r>    -8.1805     0.0000     6.0000 </r>
       <r>    -8.1111     0.0000     6.0000 </r>
       <r>    -8.0418     0.0000     6.0000 </r>
       <r>    -7.9725     0.0000     6.0000 </r>
       <r>    -7.9032     0.0000     6.0000 </r>
       <r>    -7.8339     0.0000     6.0000 </r>
       <r>    -7.7646     0.0000     6.0000 </r>
       <r>    -7.6953     0.0000     6.0000 </r>
       <r>    -7.6259     0.0000     6.0000 </r>
       <r>    -7.5566     0.0000     6.0000 </r>
       <r>    -7.4873     0.0000     6.0000 </r>
       <r>    -7.4180     0.0000     6.0000 </r>
       <r>    -7.3487     0.0000     6.0000 </r>
       <r>    -7.2794     0.0000     6.0000 </r>
       <r>    -7.2101     0.0000     6.0000 </r>
       <r>    -7.1408     0.0000     6.0000 </r>
       <r>    -7.0714     0.0000     6.0000 </r>
       <r>    -7.0021     0.0000     6.0000 </r>
       <r>    -6.9328     0.0000     6.0000 </r>
       <r>    -6.8635     0.0000     6.0000 </r>
       <r>    -6.7942     0.0000     6.0000 </r>
       <r>    -6.7249     0.0000     6.0000 </r>
       <r>    -6.6556     0.0000     6.0000 </r>
       <r>    -6.5863     0.0000     6.0000 </r>
       <r>    -6.5169     0.0000     6.0000 </r>
       <r>    -6.4476     0.0000     6.0000 </r>
       <r>    -6.3783     0.0001     6.0000 </r>
       <r>    -6.3090     0.2031     6.0141 </r>
       <r>    -6.2397     8.7546     6.6209 </r>
       <r>    -6.1704    17.8383     7.8573 </r>
       <r>    -6.1011     2.0497     7.9994 </r>
       <r>    -6.0317     0.0088     8.0000 </r>
       <r>    -5.9624     0.0000     8.0000 </r>
       <r>    -5.8931     0.0000     8.0000 </r>
       <r>    -5.8238     0.0000     8.0000 </r>
       <r>    -5.7545     0.0000     8.0000 </r>
       <r>    -5.6852     0.0000     8.0000 </r>
       <r>    -5.6159     0.0000     8.0000 </r>
       <r>    -5.5466     0.0000     8.0000 </r>
       <r>    -5.4772     0.0000     8.0000 </r>
       <r>    -5.4079     0.0000     8.0000 </r>
       <r>    -5.3386     0.0000     8.0000 </r>
       <r>    -5.2693     0.0000     8.0000 </r>
       <r>    -5.2000     0.0000     8.0000 </r>
       <r>    -5.1307     0.0000     8.0000 </r>
       <r>    -5.0614     0.0000     8.0000 </r>
       <r>    -4.9921     0.0000     8.0000 </r>
       <r>    -4.9227     0.0000     8.0000 </r>
       <r>    -4.8534     0.0000     8.0000 </r>
       <r>    -4.7841     0.0000     8.0000 </r>
       <r>    -4.7148     0.0000     8.0000 </r>
       <r>    -4.6455     0.0000     8.0000 </r>
       <r>    -4.5762     0.0000     8.0000 </r>
       <r>    -4.5069     0.0000     8.0000 </r>
       <r>    -4.4375     0.0000     8.0000 </r>
       <r>    -4.3682     0.0000     8.0000 </r>
       <r>    -4.2989     0.0000     8.0000 </r>
       <r>    -4.2296     0.0000     8.0000 </r>
       <r>    -4.1603     0.0000     8.0000 </r>
       <r>    -4.0910     0.0000     8.0000 </r>
       <r>    -4.0217     0.0000     8.0000 </r>
       <r>    -3.9524     0.0000     8.0000 </r>
       <r>    -3.8830     0.0000     8.0000 </r>
       <r>    -3.8137     0.0000     8.0000 </r>
       <r>    -3.7444     0.0000     8.0000 </r>
       <r>    -3.6751     0.0000     8.0000 </r>
       <r>    -3.6058     0.0000     8.0000 </r>
       <r>    -3.5365     0.0000     8.0000 </r>
       <r>    -3.4672     0.0000     8.0000 </r>
       <r>    -3.3979     0.0000     8.0000 </r>
       <r>    -3.3285     0.0000     8.0000 </r>
       <r>    -3.2592     0.0000     8.0000 </r>
       <r>    -3.1899     0.0000     8.0000 </r>
       <r>    -3.1206     0.0000     8.0000 </r>
       <r>    -3.0513     0.0000     8.0000 </r>
       <r>    -2.9820     0.0000     8.0000 </r>
       <r>    -2.9127     0.0000     8.0000 </r>
       <r>    -2.8433     0.0000     8.0000 </r>
       <r>    -2.7740     0.0000     8.0000 </r>
       <r>    -2.7047     0.0000     8.0000 </r>
       <r>    -2.6354     0.0000     8.0000 </r>
       <r>    -2.5661     0.0000     8.0000 </r>
       <r>    -2.4968     0.0000     8.0000 </r>
       <r>    -2.4275     0.0000     8.0000 </r>
       <r>    -2.3582     0.0000     8.0000 </r>
       <r>    -2.2888     0.0000     8.0000 </r>
       <r>    -2.2195     0.0000     8.0000 </r>
       <r>    -2.1502     0.0000     8.0000 </r>
       <r>    -2.0809     0.0000     8.0000 </r>
       <r>    -2.0116     0.0000     8.0000 </r>
       <r>    -1.9423     0.0000     8.0000 </r>
       <r>    -1.8730     0.0000     8.0000 </r>
       <r>    -1.8037     0.0000     8.0000 </r>
       <r>    -1.7343     0.0000     8.0000 </r>
       <r>    -1.6650     0.0000     8.0000 </r>
       <r>    -1.5957     0.0000     8.0000 </r>
       <r>    -1.5264     0.0000     8.0000 </r>
       <r>    -1.4571     0.0000     8.0000 </r>
       <r>    -1.3878     0.0000     8.0000 </r>
       <r>    -1.3185     0.0000     8.0000 </r>
       <r>    -1.2491     0.0000     8.0000 </r>
       <r>    -1.1798     0.0000     8.0000 </r>
       <r>    -1.1105     0.0000     8.0000 </r>
       <r>    -1.0412     0.0000     8.0000 </r>
       <r>    -0.9719     0.0017     8.0001 </r>
       <r>    -0.9026     0.8505     8.0591 </r>
       <r>    -0.8333    14.4123     9.0580 </r>
       <r>    -0.7640    12.9839     9.9580 </r>
       <r>    -0.6946     0.8086    10.0140 </r>
       <r>    -0.6253     8.7580    10.6211 </r>
       <r>    -0.5560    17.8367    11.8574 </r>
       <r>    -0.4867     2.0487    11.9994 </r>
       <r>    -0.4174     0.0088    12.0000 </r>
       <r>    -0.3481     0.0000    12.0000 </r>
       <r>    -0.2788     0.0000    12.0000 </r>
       <r>    -0.2095     0.0000    12.0000 </r>
       <r>    -0.1401     0.0000    12.0000 </r>
       <r>    -0.0708     0.0000    12.0000 </r>
       <r>    -0.0015     0.0021    12.0001 </r>
       <r>     0.0678     0.9429    12.0655 </r>
       <r>     0.1371    14.8447    13.0944 </r>
       <r>     0.2064    12.5224    13.9624 </r>
       <r>     0.2757     0.5419    14.0000 </r>
       <r>     0.3451     0.1091    14.0075 </r>
       <r>     0.4144     6.7577    14.4759 </r>
       <r>     0.4837    18.9272    15.7878 </r>
       <r>     0.5530     3.0420    15.9987 </r>
       <r>     0.6223     0.0193    16.0000 </r>
       <r>     0.6916     0.0000    16.0000 </r>
       <r>     0.7609     0.0000    16.0000 </r>
       <r>     0.8302     0.0000    16.0000 </r>
       <r>     0.8996     0.0000    16.0000 </r>
       <r>     0.9689     0.0000    16.0000 </r>
       <r>     1.0382     0.0000    16.0000 </r>
       <r>     1.1075     0.0000    16.0000 </r>
       <r>     1.1768     0.0000    16.0000 </r>
       <r>     1.2461     0.0000    16.0000 </r>
       <r>     1.3154     0.0000    16.0000 </r>
       <r>     1.3847     0.0000    16.0000 </r>
      </set>
     </set>
    </array>
   </total>
  </dos>
 </calculation>
 <structure name="finalpos" >
  <crystal>
   <varray name="basis" >
    <v>      15.00000000       0.00000000       0.00000000 </v>
    <v>       0.00000000      15.00000000       0.00000000 </v>
    <v>       0.00000000       0.00000000      15.00000000 </v>
   </varray>
   <i name="volume">   3375.00000000 </i>
   <varray name="rec_basis" >
    <v>       0.06666667       0.00000000       0.00000000 </v>
    <v>       0.00000000       0.06666667       0.00000000 </v>
    <v>       0.00000000       0.00000000       0.06666667 </v>
   </varray>
  </crystal>
  <varray name="positions" >
   <v>       0.49244394       0.49244393       0.49999997 </v>
   <v>       0.58234887       0.49120720       0.50000002 </v>
   <v>       0.49120719       0.58234887       0.50000002 </v>
  </varray>
  <varray name="selective"  type="logical" >
   <v type="logical" >  T  T  T </v>
   <v type="logical" >  T  T  T </v>
   <v type="logical" >  T  T  T </v>
  </varray>
  <nose>
   <v>      -3.00000000       0.00000000       0.00010000       0.00010000 </v>
  </nose>
 </structure>
</modeling>
