  15  15   0   0
  0.6103469E+02  0.6019200E-09  0.1014000E-08  0.1500000E-08  0.3500000E-15
   1.0000000000000000E-004
  CAR 
 Al2C                                    
      3.52432334    -16.78271388  301     -2.02415152      1.00000000
    -16.783  0.0000E+00  0.0000E+00
    -16.715  0.0000E+00  0.0000E+00
    -16.647  0.0000E+00  0.0000E+00
    -16.580  0.0000E+00  0.0000E+00
    -16.512  0.0000E+00  0.0000E+00
    -16.444  0.0000E+00  0.0000E+00
    -16.377  0.0000E+00  0.0000E+00
    -16.309  0.0000E+00  0.0000E+00
    -16.241  0.0000E+00  0.0000E+00
    -16.174  0.0000E+00  0.0000E+00
    -16.106  0.8473E-11  0.5735E-12
    -16.038  0.1224E-05  0.8289E-07
    -15.970  0.5527E-02  0.3742E-03
    -15.903  0.9954E+00  0.6776E-01
    -15.835  0.1155E+02  0.8493E+00
    -15.767  0.1478E+02  0.1850E+01
    -15.700  0.2199E+01  0.1999E+01
    -15.632  0.2180E-01  0.2000E+01
    -15.564  0.8175E-05  0.2000E+01
    -15.497  0.9394E-10  0.2000E+01
    -15.429  0.3366E-06  0.2000E+01
    -15.361  0.1494E-02  0.2000E+01
    -15.294  0.2528E+00  0.2017E+01
    -15.226  0.2743E+01  0.2203E+01
    -15.158  0.4490E+01  0.2507E+01
    -15.090  0.9943E+01  0.3180E+01
    -15.023  0.8891E+01  0.3782E+01
    -14.955  0.7239E+01  0.4272E+01
    -14.887  0.1849E+01  0.4397E+01
    -14.820  0.1081E+00  0.4404E+01
    -14.752  0.2303E+01  0.4560E+01
    -14.684  0.7658E+01  0.5078E+01
    -14.617  0.7390E+01  0.5579E+01
    -14.549  0.5579E+01  0.5956E+01
    -14.481  0.6405E+00  0.6000E+01
    -14.414  0.5244E-02  0.6000E+01
    -14.346  0.1645E-05  0.6000E+01
    -14.278  0.2388E-04  0.6000E+01
    -14.210  0.3097E-01  0.6002E+01
    -14.143  0.1806E+01  0.6124E+01
    -14.075  0.7650E+01  0.6642E+01
    -14.007  0.7262E+01  0.7134E+01
    -13.940  0.6171E+01  0.7551E+01
    -13.872  0.7112E+00  0.7600E+01
    -13.804  0.5382E-02  0.7600E+01
    -13.737  0.1619E-05  0.7600E+01
    -13.669  0.1485E-10  0.7600E+01
    -13.601  0.6456E-08  0.7600E+01
    -13.534  0.1401E-03  0.7600E+01
    -13.466  0.1048E+00  0.7607E+01
    -13.398  0.3476E+01  0.7842E+01
    -13.331  0.8403E+01  0.8411E+01
    -13.263  0.8366E+01  0.8977E+01
    -13.195  0.3199E+01  0.9194E+01
    -13.127  0.8891E-01  0.9200E+01
    -13.060  0.4613E-01  0.9203E+01
    -12.992  0.1735E+01  0.9321E+01
    -12.924  0.4576E+01  0.9630E+01
    -12.857  0.4373E+01  0.9926E+01
    -12.789  0.1072E+01  0.9999E+01
    -12.721  0.1554E-01  0.1000E+02
    -12.654  0.8516E-05  0.1000E+02
    -12.586  0.1489E-09  0.1000E+02
    -12.518  0.0000E+00  0.1000E+02
    -12.451  0.0000E+00  0.1000E+02
    -12.383  0.0000E+00  0.1000E+02
    -12.315  0.0000E+00  0.1000E+02
    -12.247  0.0000E+00  0.1000E+02
    -12.180  0.0000E+00  0.1000E+02
    -12.112  0.0000E+00  0.1000E+02
    -12.044  0.0000E+00  0.1000E+02
    -11.977  0.0000E+00  0.1000E+02
    -11.909  0.0000E+00  0.1000E+02
    -11.841  0.0000E+00  0.1000E+02
    -11.774  0.0000E+00  0.1000E+02
    -11.706  0.0000E+00  0.1000E+02
    -11.638  0.0000E+00  0.1000E+02
    -11.571  0.0000E+00  0.1000E+02
    -11.503  0.0000E+00  0.1000E+02
    -11.435  0.0000E+00  0.1000E+02
    -11.368  0.0000E+00  0.1000E+02
    -11.300  0.0000E+00  0.1000E+02
    -11.232  0.0000E+00  0.1000E+02
    -11.164  0.0000E+00  0.1000E+02
    -11.097  0.0000E+00  0.1000E+02
    -11.029  0.0000E+00  0.1000E+02
    -10.961  0.0000E+00  0.1000E+02
    -10.894  0.0000E+00  0.1000E+02
    -10.826  0.0000E+00  0.1000E+02
    -10.758  0.0000E+00  0.1000E+02
    -10.691  0.0000E+00  0.1000E+02
    -10.623  0.0000E+00  0.1000E+02
    -10.555  0.0000E+00  0.1000E+02
    -10.488  0.0000E+00  0.1000E+02
    -10.420  0.0000E+00  0.1000E+02
    -10.352  0.0000E+00  0.1000E+02
    -10.284  0.0000E+00  0.1000E+02
    -10.217  0.0000E+00  0.1000E+02
    -10.149  0.0000E+00  0.1000E+02
    -10.081  0.0000E+00  0.1000E+02
    -10.014  0.0000E+00  0.1000E+02
     -9.946  0.0000E+00  0.1000E+02
     -9.878  0.9935E-10  0.1000E+02
     -9.811  0.5260E-05  0.1000E+02
     -9.743  0.8322E-02  0.1000E+02
     -9.675  0.5100E+00  0.1004E+02
     -9.608  0.2753E+01  0.1022E+02
     -9.540  0.2436E+01  0.1039E+02
     -9.472  0.5607E+00  0.1042E+02
     -9.404  0.2978E+01  0.1063E+02
     -9.337  0.3485E+01  0.1086E+02
     -9.269  0.1165E+01  0.1094E+02
     -9.201  0.2025E+01  0.1108E+02
     -9.134  0.1767E+01  0.1120E+02
     -9.066  0.1606E+01  0.1131E+02
     -8.998  0.5965E+01  0.1171E+02
     -8.931  0.8281E+01  0.1227E+02
     -8.863  0.6382E+01  0.1270E+02
     -8.795  0.5127E+01  0.1305E+02
     -8.728  0.8753E+01  0.1364E+02
     -8.660  0.3282E+01  0.1386E+02
     -8.592  0.2712E+01  0.1405E+02
     -8.525  0.5083E+01  0.1439E+02
     -8.457  0.9094E+01  0.1501E+02
     -8.389  0.1224E+02  0.1584E+02
     -8.321  0.5801E+01  0.1623E+02
     -8.254  0.2462E+01  0.1639E+02
     -8.186  0.1244E+00  0.1640E+02
     -8.118  0.1408E+01  0.1650E+02
     -8.051  0.2390E+01  0.1666E+02
     -7.983  0.3802E+01  0.1692E+02
     -7.915  0.7381E+01  0.1742E+02
     -7.848  0.5114E+01  0.1776E+02
     -7.780  0.3310E+01  0.1799E+02
     -7.712  0.1742E+01  0.1811E+02
     -7.645  0.3677E+01  0.1835E+02
     -7.577  0.6085E+01  0.1877E+02
     -7.509  0.6446E+01  0.1920E+02
     -7.441  0.7189E+01  0.1969E+02
     -7.374  0.1445E+02  0.2067E+02
     -7.306  0.8706E+01  0.2126E+02
     -7.238  0.1177E+01  0.2134E+02
     -7.171  0.2519E+01  0.2151E+02
     -7.103  0.7440E+01  0.2201E+02
     -7.035  0.2428E+01  0.2218E+02
     -6.968  0.1297E+01  0.2226E+02
     -6.900  0.1956E+01  0.2240E+02
     -6.832  0.3728E+01  0.2265E+02
     -6.765  0.2266E+01  0.2280E+02
     -6.697  0.3442E+01  0.2303E+02
     -6.629  0.4768E+01  0.2336E+02
     -6.562  0.5970E+01  0.2376E+02
     -6.494  0.5549E+01  0.2414E+02
     -6.426  0.1824E+01  0.2426E+02
     -6.358  0.1486E+01  0.2436E+02
     -6.291  0.2318E+01  0.2452E+02
     -6.223  0.1063E+01  0.2459E+02
     -6.155  0.2585E+01  0.2476E+02
     -6.088  0.6528E+00  0.2481E+02
     -6.020  0.2381E+01  0.2497E+02
     -5.952  0.6609E+01  0.2542E+02
     -5.885  0.5335E+01  0.2578E+02
     -5.817  0.2842E+01  0.2597E+02
     -5.749  0.8753E+00  0.2603E+02
     -5.682  0.4506E+01  0.2633E+02
     -5.614  0.4746E+01  0.2666E+02
     -5.546  0.7774E+01  0.2718E+02
     -5.478  0.6417E+01  0.2762E+02
     -5.411  0.5713E+01  0.2800E+02
     -5.343  0.3074E+01  0.2821E+02
     -5.275  0.3048E+01  0.2842E+02
     -5.208  0.6941E+01  0.2889E+02
     -5.140  0.8361E+01  0.2945E+02
     -5.072  0.5531E+01  0.2983E+02
     -5.005  0.9313E+01  0.3046E+02
     -4.937  0.1009E+02  0.3114E+02
     -4.869  0.9523E+01  0.3179E+02
     -4.802  0.5780E+01  0.3218E+02
     -4.734  0.4741E+01  0.3250E+02
     -4.666  0.5156E+00  0.3253E+02
     -4.598  0.4290E+00  0.3256E+02
     -4.531  0.5555E+01  0.3294E+02
     -4.463  0.1260E+02  0.3379E+02
     -4.395  0.1299E+02  0.3467E+02
     -4.328  0.7059E+01  0.3515E+02
     -4.260  0.5635E+01  0.3553E+02
     -4.192  0.8885E+01  0.3613E+02
     -4.125  0.2027E+01  0.3627E+02
     -4.057  0.2549E+01  0.3644E+02
     -3.989  0.1033E+02  0.3714E+02
     -3.922  0.1478E+02  0.3814E+02
     -3.854  0.7323E+01  0.3864E+02
     -3.786  0.5270E+01  0.3899E+02
     -3.719  0.1871E+02  0.4026E+02
     -3.651  0.1089E+02  0.4100E+02
     -3.583  0.1102E+01  0.4107E+02
     -3.515  0.2440E+01  0.4124E+02
     -3.448  0.7218E+01  0.4173E+02
     -3.380  0.3914E+01  0.4199E+02
     -3.312  0.2900E+01  0.4219E+02
     -3.245  0.7949E+01  0.4272E+02
     -3.177  0.1258E+02  0.4358E+02
     -3.109  0.8233E+01  0.4413E+02
     -3.042  0.6639E+01  0.4458E+02
     -2.974  0.6144E+01  0.4500E+02
     -2.906  0.6120E+01  0.4541E+02
     -2.839  0.5558E+01  0.4579E+02
     -2.771  0.7583E+01  0.4630E+02
     -2.703  0.3273E+01  0.4652E+02
     -2.635  0.1341E+01  0.4662E+02
     -2.568  0.3838E+01  0.4687E+02
     -2.500  0.9580E+00  0.4694E+02
     -2.432  0.1921E+01  0.4707E+02
     -2.365  0.4277E+01  0.4736E+02
     -2.297  0.6890E+01  0.4783E+02
     -2.229  0.2497E+01  0.4799E+02
     -2.162  0.8027E-01  0.4800E+02
     -2.094  0.1260E-03  0.4800E+02
     -2.026  0.6957E-08  0.4800E+02
     -1.959  0.1181E-13  0.4800E+02
     -1.891  0.0000E+00  0.4800E+02
     -1.823  0.0000E+00  0.4800E+02
     -1.756  0.0000E+00  0.4800E+02
     -1.688  0.0000E+00  0.4800E+02
     -1.620  0.0000E+00  0.4800E+02
     -1.552  0.0000E+00  0.4800E+02
     -1.485  0.0000E+00  0.4800E+02
     -1.417  0.0000E+00  0.4800E+02
     -1.349  0.0000E+00  0.4800E+02
     -1.282  0.0000E+00  0.4800E+02
     -1.214  0.0000E+00  0.4800E+02
     -1.146  0.5467E-15  0.4800E+02
     -1.079  0.6142E-09  0.4800E+02
     -1.011  0.1934E-04  0.4800E+02
     -0.943  0.1887E-01  0.4800E+02
     -0.876  0.8165E+00  0.4806E+02
     -0.808  0.3342E+01  0.4828E+02
     -0.740  0.1670E+01  0.4840E+02
     -0.672  0.2266E+00  0.4841E+02
     -0.605  0.2104E+01  0.4855E+02
     -0.537  0.2537E+01  0.4873E+02
     -0.469  0.6483E+01  0.4916E+02
     -0.402  0.4243E+01  0.4945E+02
     -0.334  0.7099E+00  0.4950E+02
     -0.266  0.1271E+01  0.4959E+02
     -0.199  0.5704E+00  0.4962E+02
     -0.131  0.3950E+01  0.4989E+02
     -0.063  0.3360E+01  0.5012E+02
      0.004  0.2633E+00  0.5014E+02
      0.072  0.1440E+01  0.5023E+02
      0.140  0.2321E+01  0.5039E+02
      0.208  0.3074E+01  0.5060E+02
      0.275  0.1018E+02  0.5129E+02
      0.343  0.5485E+01  0.5166E+02
      0.411  0.4255E+01  0.5195E+02
      0.478  0.7661E+01  0.5247E+02
      0.546  0.5812E+01  0.5286E+02
      0.614  0.4198E+01  0.5314E+02
      0.681  0.6136E+01  0.5356E+02
      0.749  0.1051E+02  0.5427E+02
      0.817  0.1056E+02  0.5499E+02
      0.884  0.7984E+01  0.5553E+02
      0.952  0.1184E+02  0.5633E+02
      1.020  0.7680E+01  0.5685E+02
      1.087  0.7553E+01  0.5736E+02
      1.155  0.9540E+01  0.5800E+02
      1.223  0.1191E+02  0.5881E+02
      1.291  0.5184E+01  0.5916E+02
      1.358  0.8003E+01  0.5970E+02
      1.426  0.8912E+01  0.6031E+02
      1.494  0.3235E+01  0.6053E+02
      1.561  0.1781E+01  0.6065E+02
      1.629  0.6457E+01  0.6108E+02
      1.697  0.9834E+01  0.6175E+02
      1.764  0.6426E+01  0.6218E+02
      1.832  0.3615E+01  0.6243E+02
      1.900  0.4963E+01  0.6276E+02
      1.967  0.3984E+01  0.6303E+02
      2.035  0.2271E+01  0.6319E+02
      2.103  0.2399E+00  0.6320E+02
      2.171  0.1469E+01  0.6330E+02
      2.238  0.2214E+01  0.6345E+02
      2.306  0.4569E+00  0.6348E+02
      2.374  0.2324E+01  0.6364E+02
      2.441  0.1322E+01  0.6373E+02
      2.509  0.5877E-01  0.6373E+02
      2.577  0.9401E+00  0.6380E+02
      2.644  0.2542E+01  0.6397E+02
      2.712  0.4360E+00  0.6400E+02
      2.780  0.3408E-02  0.6400E+02
      2.847  0.8818E-06  0.6400E+02
      2.915  0.6605E-11  0.6400E+02
      2.983  0.0000E+00  0.6400E+02
      3.050  0.0000E+00  0.6400E+02
      3.118  0.0000E+00  0.6400E+02
      3.186  0.0000E+00  0.6400E+02
      3.254  0.0000E+00  0.6400E+02
      3.321  0.0000E+00  0.6400E+02
      3.389  0.0000E+00  0.6400E+02
      3.457  0.0000E+00  0.6400E+02
      3.524  0.0000E+00  0.6400E+02
