   15   15    1    1
  0.6103469E+02  0.6019200E-09  0.1014000E-08  0.1500000E-08  0.3500000E-15
   1.0000000000000000E-004
  CAR 
 Al2C                                    
     48      8     32

  0.3742002E-15  0.3742002E-15  0.1262379E-14  0.6666667E-01
    1      -15.859667   1.000000
    2      -15.248578   1.000000
    3      -15.093004   1.000000
    4      -12.980622   1.000000
    5      -12.881051   1.000000
    6       -9.649726   1.000000
    7       -9.376202   1.000000
    8       -9.346520   1.000000
    9       -8.430437   1.000000
   10       -7.435657   1.000000
   11       -7.019475   1.000000
   12       -6.478814   1.000000
   13       -6.031303   1.000000
   14       -5.475704   1.000000
   15       -5.218965   1.000000
   16       -4.902294   1.000000
   17       -4.547603   1.000000
   18       -4.383153   1.000000
   19       -3.422208   1.000000
   20       -3.226683   1.000000
   21       -3.189906   1.000000
   22       -2.615558   1.000000
   23       -2.367143   1.000000
   24       -2.299404   1.000000
   25       -0.859954   0.000000
   26       -0.309801   0.000000
   27        0.240835   0.000000
   28        0.625197   0.000000
   29        0.785265   0.000000
   30        0.959006   0.000000
   31        1.145810   0.000000
   32        1.429471   0.000000

  0.2000000E+00  0.3742002E-15  0.1262379E-14  0.1333333E+00
    1      -15.836220   1.000000
    2      -15.123234   1.000000
    3      -14.968196   1.000000
    4      -13.391669   1.000000
    5      -13.271011   1.000000
    6       -9.205082   1.000000
    7       -9.000137   1.000000
    8       -8.729951   1.000000
    9       -8.447157   1.000000
   10       -7.448417   1.000000
   11       -6.896462   1.000000
   12       -6.829060   1.000000
   13       -6.345089   1.000000
   14       -5.472834   1.000000
   15       -5.206010   1.000000
   16       -4.789646   1.000000
   17       -4.456569   1.000000
   18       -3.992548   1.000000
   19       -3.941819   1.000000
   20       -3.898880   1.000000
   21       -3.778635   1.000000
   22       -3.017180   1.000000
   23       -2.767008   1.000000
   24       -2.342805   1.000000
   25       -0.816397   0.000000
   26        0.431248   0.000000
   27        0.686975   0.000000
   28        0.844528   0.000000
   29        1.043958   0.000000
   30        1.082093   0.000000
   31        1.180022   0.000000
   32        1.864622   0.000000

  0.4000000E+00  0.3742002E-15  0.1262379E-14  0.1333333E+00
    1      -15.802855   1.000000
    2      -14.742263   1.000000
    3      -14.587783   1.000000
    4      -14.123200   1.000000
    5      -13.978756   1.000000
    6       -8.748488   1.000000
    7       -8.462791   1.000000
    8       -7.945247   1.000000
    9       -7.702388   1.000000
   10       -7.387208   1.000000
   11       -7.159479   1.000000
   12       -6.531935   1.000000
   13       -6.194684   1.000000
   14       -5.999300   1.000000
   15       -5.560178   1.000000
   16       -5.275870   1.000000
   17       -5.054417   1.000000
   18       -4.785092   1.000000
   19       -4.449481   1.000000
   20       -4.212679   1.000000
   21       -3.742337   1.000000
   22       -3.454633   1.000000
   23       -2.871627   1.000000
   24       -2.431423   1.000000
   25       -0.462030   0.000000
   26        0.247932   0.000000
   27        0.930923   0.000000
   28        1.370394   0.000000
   29        1.420615   0.000000
   30        1.659826   0.000000
   31        2.180726   0.000000
   32        2.601276   0.000000

  0.3742002E-15  0.3333333E+00  0.1262379E-14  0.1333333E+00
    1      -15.858326   1.000000
    2      -15.215498   1.000000
    3      -15.132230   1.000000
    4      -12.969616   1.000000
    5      -12.892945   1.000000
    6       -9.597548   1.000000
    7       -9.424658   1.000000
    8       -9.053230   1.000000
    9       -8.448639   1.000000
   10       -8.106618   1.000000
   11       -7.404143   1.000000
   12       -5.860259   1.000000
   13       -5.469818   1.000000
   14       -5.368567   1.000000
   15       -5.105725   1.000000
   16       -5.040413   1.000000
   17       -4.441309   1.000000
   18       -4.227499   1.000000
   19       -3.727373   1.000000
   20       -3.319023   1.000000
   21       -3.222029   1.000000
   22       -3.192510   1.000000
   23       -2.600769   1.000000
   24       -2.314761   1.000000
   25       -0.611360   0.000000
   26        0.083085   0.000000
   27        0.260339   0.000000
   28        0.457191   0.000000
   29        0.702158   0.000000
   30        0.893226   0.000000
   31        1.174677   0.000000
   32        1.585498   0.000000

  0.2000000E+00  0.3333333E+00  0.1262379E-14  0.1333333E+00
    1      -15.835416   1.000000
    2      -15.087595   1.000000
    3      -15.009199   1.000000
    4      -13.373240   1.000000
    5      -13.291059   1.000000
    6       -8.970073   1.000000
    7       -8.894117   1.000000
    8       -8.787452   1.000000
    9       -8.445038   1.000000
   10       -7.979429   1.000000
   11       -7.405064   1.000000
   12       -6.581113   1.000000
   13       -5.942283   1.000000
   14       -5.191470   1.000000
   15       -4.993816   1.000000
   16       -4.879109   1.000000
   17       -4.386286   1.000000
   18       -3.979110   1.000000
   19       -3.930026   1.000000
   20       -3.753515   1.000000
   21       -3.698886   1.000000
   22       -3.243682   1.000000
   23       -2.952558   1.000000
   24       -2.801047   1.000000
   25       -0.480132   0.000000
   26        0.212961   0.000000
   27        0.606090   0.000000
   28        0.783869   0.000000
   29        0.905657   0.000000
   30        1.146312   0.000000
   31        1.331307   0.000000
   32        1.684261   0.000000

  0.4000000E+00  0.3333333E+00  0.1262379E-14  0.1333333E+00
    1      -15.802623   1.000000
    2      -14.707596   1.000000
    3      -14.626593   1.000000
    4      -14.095038   1.000000
    5      -14.009911   1.000000
    6       -8.579016   1.000000
    7       -8.330902   1.000000
    8       -7.870584   1.000000
    9       -7.606117   1.000000
   10       -7.529804   1.000000
   11       -7.340507   1.000000
   12       -7.133444   1.000000
   13       -6.691378   1.000000
   14       -5.688703   1.000000
   15       -5.586603   1.000000
   16       -4.949917   1.000000
   17       -4.524348   1.000000
   18       -4.472914   1.000000
   19       -4.265607   1.000000
   20       -4.040025   1.000000
   21       -3.745709   1.000000
   22       -3.479494   1.000000
   23       -3.162006   1.000000
   24       -3.063797   1.000000
   25       -0.123019   0.000000
   26        0.365743   0.000000
   27        0.750721   0.000000
   28        1.082333   0.000000
   29        1.203644   0.000000
   30        1.706577   0.000000
   31        1.787283   0.000000
   32        2.359574   0.000000

 -0.4000000E+00  0.3333333E+00  0.1262379E-14  0.1333333E+00
    1      -15.802620   1.000000
    2      -14.707488   1.000000
    3      -14.626696   1.000000
    4      -14.094997   1.000000
    5      -14.009956   1.000000
    6       -8.576022   1.000000
    7       -8.345478   1.000000
    8       -7.836311   1.000000
    9       -7.619619   1.000000
   10       -7.531464   1.000000
   11       -7.350867   1.000000
   12       -7.131079   1.000000
   13       -6.691463   1.000000
   14       -5.696965   1.000000
   15       -5.584346   1.000000
   16       -4.938036   1.000000
   17       -4.541275   1.000000
   18       -4.472026   1.000000
   19       -4.251760   1.000000
   20       -4.036299   1.000000
   21       -3.732112   1.000000
   22       -3.510042   1.000000
   23       -3.154353   1.000000
   24       -3.060290   1.000000
   25       -0.147663   0.000000
   26        0.475303   0.000000
   27        0.718074   0.000000
   28        0.934840   0.000000
   29        1.315614   0.000000
   30        1.680600   0.000000
   31        1.898845   0.000000
   32        1.976020   0.000000

 -0.2000000E+00  0.3333333E+00  0.1262379E-14  0.1333333E+00
    1      -15.835413   1.000000
    2      -15.087495   1.000000
    3      -15.009285   1.000000
    4      -13.373192   1.000000
    5      -13.291115   1.000000
    6       -8.973012   1.000000
    7       -8.891780   1.000000
    8       -8.786611   1.000000
    9       -8.450195   1.000000
   10       -7.968268   1.000000
   11       -7.409765   1.000000
   12       -6.578768   1.000000
   13       -5.954043   1.000000
   14       -5.182394   1.000000
   15       -5.003223   1.000000
   16       -4.887047   1.000000
   17       -4.361042   1.000000
   18       -3.973641   1.000000
   19       -3.930939   1.000000
   20       -3.765603   1.000000
   21       -3.689596   1.000000
   22       -3.265155   1.000000
   23       -2.927478   1.000000
   24       -2.811891   1.000000
   25       -0.503001   0.000000
   26        0.274617   0.000000
   27        0.527078   0.000000
   28        0.791581   0.000000
   29        0.976948   0.000000
   30        1.218565   0.000000
   31        1.376018   0.000000
   32        1.594886   0.000000
