       N       E                     dE             d eps       ncg     rms          ort
DAV:   1     0.556938896247E+03    0.55694E+03   -0.11515E+04   256   0.962E+02
DAV:   2     0.271550961259E+03   -0.28539E+03   -0.26858E+03   256   0.257E+02
DAV:   3     0.135325802730E+03   -0.13623E+03   -0.12799E+03   256   0.193E+02
DAV:   4     0.638200299448E+02   -0.71506E+02   -0.67932E+02   256   0.152E+02
DAV:   5     0.254482799730E+02   -0.38372E+02   -0.36658E+02   256   0.106E+02
DAV:   6     0.464372267150E+01   -0.20805E+02   -0.19809E+02   256   0.766E+01
DAV:   7    -0.661840738469E+01   -0.11262E+02   -0.10857E+02   256   0.536E+01
SDA:   8    -0.545946028401E+02   -0.47976E+02   -0.37565E+02   256   0.939E+02 0.000E+00
DMP:   9    -0.724148423685E+02   -0.17820E+02   -0.60753E+01   256   0.169E+02-0.439E+01
DMP:  10    -0.757344204062E+02   -0.33196E+01   -0.48289E+01   256   0.117E+02 0.110E+01
DMP:  11    -0.785176449385E+02   -0.27832E+01   -0.12619E+01   256   0.249E+01 0.173E+01
DMP:  12    -0.792087442548E+02   -0.69110E+00   -0.72701E+00   256   0.176E+01 0.144E+00
DMP:  13    -0.797318242133E+02   -0.52308E+00   -0.36647E+00   256   0.643E+00 0.716E+00
DMP:  14    -0.799638436945E+02   -0.23202E+00   -0.13243E+00   256   0.252E+00 0.206E+00
DMP:  15    -0.800598870495E+02   -0.96043E-01   -0.68195E-01   256   0.118E+00 0.137E+00
DMP:  16    -0.801084201426E+02   -0.48533E-01   -0.26724E-01   256   0.407E-01 0.683E-01
DMP:  17    -0.801280190524E+02   -0.19599E-01   -0.13012E-01   256   0.212E-01 0.297E-01
DMP:  18    -0.801378923127E+02   -0.98733E-02   -0.59196E-02   256   0.862E-02 0.162E-01
DMP:  19    -0.801422528691E+02   -0.43606E-02   -0.23439E-02   256   0.330E-02 0.669E-02
DMP:  20    -0.801440833167E+02   -0.18304E-02   -0.10812E-02   256   0.150E-02 0.315E-02
DMP:  21    -0.801449419449E+02   -0.85863E-03   -0.47212E-03   256   0.600E-03 0.152E-02
DMP:  22    -0.801453233002E+02   -0.38136E-03   -0.22330E-03   256   0.294E-03 0.692E-03
DMP:  23    -0.801455083376E+02   -0.18504E-03   -0.11257E-03   256   0.148E-03 0.350E-03
DMP:  24    -0.801456019695E+02   -0.93632E-04   -0.55201E-04   256   0.700E-04 0.178E-03
DMP:  25    -0.801456491856E+02   -0.47216E-04   -0.28458E-04   256   0.356E-04 0.930E-04
DMP:  26    -0.801456742526E+02   -0.25067E-04   -0.15458E-04   256   0.191E-04 0.512E-04
DMP:  27    -0.801456881258E+02   -0.13873E-04   -0.89316E-05   256   0.112E-04 0.291E-04
DMP:  28    -0.801456962781E+02   -0.81523E-05   -0.55398E-05   256   0.711E-05 0.176E-04
   1 F= -.80145696E+02 E0= -.80145696E+02  d E =-.565333E-13
