--------------------------------------------------------------------------
[[35429,1],0]: A high-performance Open MPI point-to-point messaging module
was unable to find any relevant network interfaces:

Module: OpenFabrics (openib)
  Host: compute-0-1

Another transport will be used instead, although this may result in
lower performance.
--------------------------------------------------------------------------
 running on    4 total cores
 distrk:  each k-point on    4 cores,    1 groups
 distr:  one band on    1 cores,    4 groups
 using from now: INCAR     
 vasp.5.4.4.18Apr17-6-g9f103f2a35 (build Dec  6 2019 17:49:40) complex           
 POSCAR found type information on POSCAR  Al C  Te H 
 POSCAR found :  4 types and      15 ions
 scaLAPACK will be used
 LDA part: xc-table for Pade appr. of Perdew
 POSCAR found type information on POSCAR  Al C  Te H 
 POSCAR found :  4 types and      15 ions
 POSCAR, INCAR and KPOINTS ok, starting setup
 FFT: planning ...
[compute-0-1.cluster.gsc.inifta.unlp.edu.ar:14876] 3 more processes have sent help message help-mpi-btl-base.txt / btl:no-nics
[compute-0-1.cluster.gsc.inifta.unlp.edu.ar:14876] Set MCA parameter "orte_base_help_aggregate" to 0 to see all help / error messages
 WAVECAR not read
 entering main loop
       N       E                     dE             d eps       ncg     rms          ort
DAV:   1     0.556938896247E+03    0.55694E+03   -0.11515E+04   256   0.962E+02
DAV:   2     0.271550961259E+03   -0.28539E+03   -0.26858E+03   256   0.257E+02
DAV:   3     0.135325802730E+03   -0.13623E+03   -0.12799E+03   256   0.193E+02
DAV:   4     0.638200299448E+02   -0.71506E+02   -0.67932E+02   256   0.152E+02
DAV:   5     0.254482799730E+02   -0.38372E+02   -0.36658E+02   256   0.106E+02
DAV:   6     0.464372267150E+01   -0.20805E+02   -0.19809E+02   256   0.766E+01
DAV:   7    -0.661840738469E+01   -0.11262E+02   -0.10857E+02   256   0.536E+01
 gam= 0.000 g(H,U,f)=  0.885E+02 0.538E+01 0.484E-08 ort(H,U,f) = 0.000E+00 0.000E+00 0.000E+00
SDA:   8    -0.545946028401E+02   -0.47976E+02   -0.37565E+02   256   0.939E+02 0.000E+00
 gam= 0.382 g(H,U,f)=  0.165E+02 0.397E+00 0.177E-12 ort(H,U,f) =-0.512E+01 0.738E+00-0.543E-12
DMP:   9    -0.724148423685E+02   -0.17820E+02   -0.60753E+01   256   0.169E+02-0.439E+01
 gam= 0.382 g(H,U,f)=  0.112E+02 0.482E+00 0.627E-13 ort(H,U,f) = 0.928E+00 0.171E+00-0.632E-14
DMP:  10    -0.757344204062E+02   -0.33196E+01   -0.48289E+01   256   0.117E+02 0.110E+01
 gam= 0.382 g(H,U,f)=  0.212E+01 0.371E+00 0.854E-12 ort(H,U,f) = 0.122E+01 0.505E+00 0.187E-11
DMP:  11    -0.785176449385E+02   -0.27832E+01   -0.12619E+01   256   0.249E+01 0.173E+01
 gam= 0.382 g(H,U,f)=  0.150E+01 0.264E+00 0.948E-27 ort(H,U,f) =-0.301E+00 0.446E+00 0.328E-26
DMP:  12    -0.792087442548E+02   -0.69110E+00   -0.72701E+00   256   0.176E+01 0.144E+00
 gam= 0.382 g(H,U,f)=  0.499E+00 0.144E+00 0.117E-24 ort(H,U,f) = 0.406E+00 0.310E+00 0.206E-24
DMP:  13    -0.797318242133E+02   -0.52308E+00   -0.36647E+00   256   0.643E+00 0.716E+00
 gam= 0.382 g(H,U,f)=  0.184E+00 0.683E-01 0.502E-14 ort(H,U,f) = 0.370E-01 0.169E+00 0.745E-14
DMP:  14    -0.799638436945E+02   -0.23202E+00   -0.13243E+00   256   0.252E+00 0.206E+00
 gam= 0.382 g(H,U,f)=  0.864E-01 0.319E-01-0.224E-33 ort(H,U,f) = 0.498E-01 0.869E-01-0.424E-33
DMP:  15    -0.800598870495E+02   -0.96043E-01   -0.68195E-01   256   0.118E+00 0.137E+00
 gam= 0.382 g(H,U,f)=  0.256E-01 0.151E-01 0.354E-13 ort(H,U,f) = 0.243E-01 0.440E-01 0.100E-12
DMP:  16    -0.801084201426E+02   -0.48533E-01   -0.26724E-01   256   0.407E-01 0.683E-01
 gam= 0.382 g(H,U,f)=  0.138E-01 0.735E-02 0.216E-13 ort(H,U,f) = 0.786E-02 0.218E-01 0.734E-13
DMP:  17    -0.801280190524E+02   -0.19599E-01   -0.13012E-01   256   0.212E-01 0.297E-01
 gam= 0.382 g(H,U,f)=  0.542E-02 0.320E-02 0.144E-17 ort(H,U,f) = 0.586E-02 0.103E-01 0.470E-17
DMP:  18    -0.801378923127E+02   -0.98733E-02   -0.59196E-02   256   0.862E-02 0.162E-01
 gam= 0.382 g(H,U,f)=  0.198E-02 0.132E-02 0.960E-13 ort(H,U,f) = 0.220E-02 0.449E-02 0.279E-12
DMP:  19    -0.801422528691E+02   -0.43606E-02   -0.23439E-02   256   0.330E-02 0.669E-02
 gam= 0.382 g(H,U,f)=  0.928E-03 0.573E-03 0.248E-13 ort(H,U,f) = 0.119E-02 0.196E-02 0.734E-13
DMP:  20    -0.801440833167E+02   -0.18304E-02   -0.10812E-02   256   0.150E-02 0.315E-02
 gam= 0.382 g(H,U,f)=  0.347E-03 0.253E-03 0.148E-15 ort(H,U,f) = 0.643E-03 0.877E-03 0.586E-15
DMP:  21    -0.801449419449E+02   -0.85863E-03   -0.47212E-03   256   0.600E-03 0.152E-02
 gam= 0.382 g(H,U,f)=  0.181E-03 0.113E-03 0.562E-14 ort(H,U,f) = 0.302E-03 0.390E-03 0.237E-13
DMP:  22    -0.801453233002E+02   -0.38136E-03   -0.22330E-03   256   0.294E-03 0.692E-03
 gam= 0.382 g(H,U,f)=  0.983E-04 0.494E-04 0.164E-17 ort(H,U,f) = 0.178E-03 0.172E-03 0.773E-17
DMP:  23    -0.801455083376E+02   -0.18504E-03   -0.11257E-03   256   0.148E-03 0.350E-03
 gam= 0.382 g(H,U,f)=  0.485E-04 0.214E-04 0.596E-16 ort(H,U,f) = 0.103E-03 0.748E-04 0.166E-15
DMP:  24    -0.801456019695E+02   -0.93632E-04   -0.55201E-04   256   0.700E-04 0.178E-03
 gam= 0.382 g(H,U,f)=  0.259E-04 0.967E-05 0.171E-16 ort(H,U,f) = 0.601E-04 0.329E-04 0.903E-16
DMP:  25    -0.801456491856E+02   -0.47216E-04   -0.28458E-04   256   0.356E-04 0.930E-04
 gam= 0.382 g(H,U,f)=  0.146E-04 0.447E-05 0.883E-16 ort(H,U,f) = 0.363E-04 0.149E-04 0.521E-15
DMP:  26    -0.801456742526E+02   -0.25067E-04   -0.15458E-04   256   0.191E-04 0.512E-04
 gam= 0.382 g(H,U,f)=  0.909E-05 0.211E-05 0.338E-19 ort(H,U,f) = 0.222E-04 0.690E-05 0.198E-18
DMP:  27    -0.801456881258E+02   -0.13873E-04   -0.89316E-05   256   0.112E-04 0.291E-04
 gam= 0.382 g(H,U,f)=  0.608E-05 0.103E-05 0.271E-19 ort(H,U,f) = 0.144E-04 0.327E-05 0.300E-18
DMP:  28    -0.801456962781E+02   -0.81523E-05   -0.55398E-05   256   0.711E-05 0.176E-04
 final diagonalization
   1 F= -.80145696E+02 E0= -.80145696E+02  d E =-.565333E-13
