<?xml version="1.0" encoding="ISO-8859-1"?>
<modeling>
 <generator>
  <i name="program" type="string">vasp </i>
  <i name="version" type="string">5.4.4.18Apr17-6-g9f103f2a35  </i>
  <i name="subversion" type="string">(build Dec  6 2019 17:49:40) complex            parallel </i>
  <i name="platform" type="string">LinuxGNU </i>
  <i name="date" type="string">2021 12 01 </i>
  <i name="time" type="string">03:01:08 </i>
 </generator>
 <incar>
  <i type="string" name="SYSTEM"> Al2C</i>
  <i type="int" name="ISTART">     0</i>
  <i type="string" name="PREC">accurate</i>
  <i type="string" name="ALGO">Damped</i>
  <i type="int" name="NSIM">     4</i>
  <i type="int" name="NELM">   300</i>
  <i type="int" name="NELMDL">    -7</i>
  <i type="int" name="IBRION">    -1</i>
  <i name="EDIFF">      0.00001000</i>
  <i name="EDIFFG">     -0.01000000</i>
  <i type="int" name="NSW">     0</i>
  <i type="int" name="ISIF">     2</i>
  <i type="int" name="ISYM">     0</i>
  <i name="ENCUT">    450.00000000</i>
  <i name="POTIM">      0.35000000</i>
  <i type="string" name="LREAL"> auto</i>
  <v name="ROPT">     -0.00020000     -0.00020000     -0.00020000     -0.00020000</v>
  <i type="logical" name="LPLANE"> T  </i>
  <i name="TIME">      0.40000000</i>
  <i type="int" name="ISMEAR">     0</i>
  <i name="SIGMA">      0.05000000</i>
  <i type="int" name="NWRITE">     2</i>
  <i type="logical" name="LWAVE"> F  </i>
  <i type="logical" name="LCHARG"> T  </i>
  <i type="logical" name="LSCALU"> F  </i>
  <v type="int" name="KPOINT_BSE">    -1     0     0     0</v>
  <i type="int" name="NELM">   300</i>
  <i type="logical" name="LHFCALC"> T  </i>
  <i type="string" name="GGA"> PE</i>
  <i name="HFSCREEN">      0.20000000</i>
 </incar>
 <structure name="primitive_cell" >
  <crystal>
   <varray name="basis" >
    <v>       6.01920000       0.00000000       0.00000000 </v>
    <v>       0.00000000      10.14000000       0.00000000 </v>
    <v>       0.00000000       0.00000000      15.00000000 </v>
   </varray>
   <i name="volume">    915.52032000 </i>
   <varray name="rec_basis" >
    <v>       0.16613503       0.00000000       0.00000000 </v>
    <v>       0.00000000       0.09861933       0.00000000 </v>
    <v>       0.00000000       0.00000000       0.06666667 </v>
   </varray>
  </crystal>
  <varray name="positions" >
   <v>       0.43225351      -0.12241990       0.23922953 </v>
   <v>      -0.31796220      -0.00186772       0.25006763 </v>
   <v>       0.18208911      -0.00195517       0.24952566 </v>
   <v>       0.43186417       0.11893190       0.26120264 </v>
   <v>       0.43263840      -0.38219317       0.24098817 </v>
   <v>      -0.06789434      -0.12216132       0.26043615 </v>
   <v>      -0.06800941       0.11874131       0.24087642 </v>
   <v>      -0.06658596      -0.38037652       0.26671042 </v>
   <v>       0.18277786       0.49851994       0.25587114 </v>
   <v>      -0.31738485       0.49894844       0.25910959 </v>
   <v>       0.43116853       0.37652621       0.27382487 </v>
   <v>      -0.44245616       0.43527780       0.46571239 </v>
   <v>      -0.06699126       0.37825774       0.24383564 </v>
   <v>      -0.19150575       0.36767880       0.46192924 </v>
   <v>      -0.49323080       0.34998516      -0.43991950 </v>
  </varray>
 </structure>
 <varray name="primitive_index" >
  <v type="int" >        1 </v>
  <v type="int" >       10 </v>
  <v type="int" >        9 </v>
  <v type="int" >        7 </v>
  <v type="int" >        3 </v>
  <v type="int" >        2 </v>
  <v type="int" >        8 </v>
  <v type="int" >        4 </v>
  <v type="int" >       11 </v>
  <v type="int" >       12 </v>
  <v type="int" >        5 </v>
  <v type="int" >       13 </v>
  <v type="int" >        6 </v>
  <v type="int" >       14 </v>
  <v type="int" >       15 </v>
 </varray>
 <kpoints>
  <generation param="Gamma">
   <v type="int" name="divisions">       5        3        1 </v>
   <v name="usershift">      0.00000000       0.00000000       0.00000000 </v>
   <v name="genvec1">      0.20000000       0.00000000       0.00000000 </v>
   <v name="genvec2">      0.00000000       0.33333333       0.00000000 </v>
   <v name="genvec3">      0.00000000       0.00000000       1.00000000 </v>
   <v name="shift">      0.00000000       0.00000000       0.00000000 </v>
  </generation>
  <varray name="kpointlist" >
   <v>       0.00000000       0.00000000       0.00000000 </v>
   <v>       0.20000000       0.00000000       0.00000000 </v>
   <v>       0.40000000       0.00000000       0.00000000 </v>
   <v>       0.00000000       0.33333333       0.00000000 </v>
   <v>       0.20000000       0.33333333       0.00000000 </v>
   <v>       0.40000000       0.33333333       0.00000000 </v>
   <v>      -0.40000000       0.33333333       0.00000000 </v>
   <v>      -0.20000000       0.33333333       0.00000000 </v>
  </varray>
  <varray name="weights" >
   <v>       0.06666667 </v>
   <v>       0.13333333 </v>
   <v>       0.13333333 </v>
   <v>       0.13333333 </v>
   <v>       0.13333333 </v>
   <v>       0.13333333 </v>
   <v>       0.13333333 </v>
   <v>       0.13333333 </v>
  </varray>
 </kpoints>
 <parameters>
  <separator name="general" >
   <i type="string" name="SYSTEM">Al2C</i>
   <i type="logical" name="LCOMPAT"> F  </i>
  </separator>
  <separator name="electronic" >
   <i type="string" name="PREC">accura</i>
   <i name="ENMAX">    450.00000000</i>
   <i name="ENAUG">    644.87300000</i>
   <i name="EDIFF">      0.00001000</i>
   <i type="int" name="IALGO">    53</i>
   <i type="int" name="IWAVPR">    10</i>
   <i type="int" name="NBANDS">    32</i>
   <i name="NELECT">     48.00000000</i>
   <i type="int" name="TURBO">     0</i>
   <i type="int" name="IRESTART">     0</i>
   <i type="int" name="NREBOOT">     0</i>
   <i type="int" name="NMIN">     0</i>
   <i name="EREF">      0.00000000</i>
   <separator name="electronic smearing" >
    <i type="int" name="ISMEAR">     0</i>
    <i name="SIGMA">      0.05000000</i>
    <i name="KSPACING">      0.50000000</i>
    <i type="logical" name="KGAMMA"> T  </i>
   </separator>
   <separator name="electronic projectors" >
    <i type="logical" name="LREAL"> T  </i>
    <v name="ROPT">     -0.00020000     -0.00020000     -0.00020000     -0.00020000</v>
    <i type="int" name="LMAXPAW">  -100</i>
    <i type="int" name="LMAXMIX">     2</i>
    <i type="logical" name="NLSPLINE"> F  </i>
   </separator>
   <separator name="electronic startup" >
    <i type="int" name="ISTART">     0</i>
    <i type="int" name="ICHARG">     2</i>
    <i type="int" name="INIWAV">     1</i>
   </separator>
   <separator name="electronic spin" >
    <i type="int" name="ISPIN">     1</i>
    <i type="logical" name="LNONCOLLINEAR"> F  </i>
    <v name="MAGMOM">      1.00000000      1.00000000      1.00000000      1.00000000      1.00000000      1.00000000      1.00000000      1.00000000      1.00000000      1.00000000      1.00000000      1.00000000      1.00000000      1.00000000      1.00000000</v>
    <i name="NUPDOWN">     -1.00000000</i>
    <i type="logical" name="LSORBIT"> F  </i>
    <v name="SAXIS">      0.00000000      0.00000000      1.00000000</v>
    <i type="logical" name="LSPIRAL"> F  </i>
    <v name="QSPIRAL">      0.00000000      0.00000000      0.00000000</v>
    <i type="logical" name="LZEROZ"> F  </i>
   </separator>
   <separator name="electronic exchange-correlation" >
    <i type="logical" name="LASPH"> F  </i>
    <i type="logical" name="LMETAGGA"> F  </i>
   </separator>
   <separator name="electronic convergence" >
    <i type="int" name="NELM">   300</i>
    <i type="int" name="NELMDL">    -7</i>
    <i type="int" name="NELMIN">     2</i>
    <i name="ENINI">    450.00000000</i>
    <separator name="electronic convergence detail" >
     <i type="logical" name="LDIAG"> T  </i>
     <i type="logical" name="LSUBROT"> F  </i>
     <i name="WEIMIN">      0.00000000</i>
     <i name="EBREAK">      0.00000008</i>
     <i name="DEPER">      0.30000000</i>
     <i type="int" name="NRMM">     4</i>
     <i name="TIME">      0.40000000</i>
    </separator>
   </separator>
   <separator name="electronic mixer" >
    <i name="AMIX">      0.40000000</i>
    <i name="BMIX">      1.00000000</i>
    <i name="AMIN">      0.10000000</i>
    <i name="AMIX_MAG">      1.60000000</i>
    <i name="BMIX_MAG">      1.00000000</i>
    <separator name="electronic mixer details" >
     <i type="int" name="IMIX">     4</i>
     <i type="logical" name="MIXFIRST"> F  </i>
     <i type="int" name="MAXMIX">   -45</i>
     <i name="WC">    100.00000000</i>
     <i type="int" name="INIMIX">     1</i>
     <i type="int" name="MIXPRE">     1</i>
     <i type="int" name="MREMOVE">     5</i>
    </separator>
   </separator>
   <separator name="electronic dipolcorrection" >
    <i type="logical" name="LDIPOL"> F  </i>
    <i type="logical" name="LMONO"> F  </i>
    <i type="int" name="IDIPOL">     0</i>
    <i name="EPSILON">      1.00000000</i>
    <v name="DIPOL">   -100.00000000   -100.00000000   -100.00000000</v>
    <i name="EFIELD">      0.00000000</i>
   </separator>
  </separator>
  <separator name="grids" >
   <i type="int" name="NGX">    42</i>
   <i type="int" name="NGY">    70</i>
   <i type="int" name="NGZ">   108</i>
   <i type="int" name="NGXF">    84</i>
   <i type="int" name="NGYF">   140</i>
   <i type="int" name="NGZF">   216</i>
   <i type="logical" name="ADDGRID"> F  </i>
  </separator>
  <separator name="ionic" >
   <i type="int" name="NSW">     0</i>
   <i type="int" name="IBRION">    -1</i>
   <i type="int" name="MDALGO">     0</i>
   <i type="int" name="ISIF">     2</i>
   <i name="PSTRESS">      0.00000000</i>
   <i name="EDIFFG">     -0.01000000</i>
   <i type="int" name="NFREE">     0</i>
   <i name="POTIM">      0.35000000</i>
   <i name="SMASS">     -3.00000000</i>
   <i name="SCALEE">      1.00000000</i>
  </separator>
  <separator name="ionic md" >
   <i name="TEBEG">      0.00010000</i>
   <i name="TEEND">      0.00010000</i>
   <i type="int" name="NBLOCK">     1</i>
   <i type="int" name="KBLOCK">     1</i>
   <i type="int" name="NPACO">   256</i>
   <i name="APACO">     16.00000000</i>
  </separator>
  <separator name="symmetry" >
   <i type="int" name="ISYM">     0</i>
   <i name="SYMPREC">      0.00001000</i>
  </separator>
  <separator name="dos" >
   <i type="int" name="LORBIT">     0</i>
   <v name="RWIGS">     -1.00000000     -1.00000000     -1.00000000     -1.00000000</v>
   <i type="int" name="NEDOS">   301</i>
   <i name="EMIN">     10.00000000</i>
   <i name="EMAX">    -10.00000000</i>
   <i name="EFERMI">      0.00000000</i>
  </separator>
  <separator name="writing" >
   <i type="int" name="NWRITE">     2</i>
   <i type="logical" name="LWAVE"> F  </i>
   <i type="logical" name="LDOWNSAMPLE"> F  </i>
   <i type="logical" name="LCHARG"> T  </i>
   <i type="logical" name="LPARD"> F  </i>
   <i type="logical" name="LVTOT"> F  </i>
   <i type="logical" name="LVHAR"> F  </i>
   <i type="logical" name="LELF"> F  </i>
   <i type="logical" name="LOPTICS"> F  </i>
   <v name="STM">      0.00000000      0.00000000      0.00000000      0.00000000      0.00000000      0.00000000      0.00000000</v>
  </separator>
  <separator name="performance" >
   <i type="int" name="NPAR">     4</i>
   <i type="int" name="NSIM">     4</i>
   <i type="int" name="NBLK">    -1</i>
   <i type="logical" name="LPLANE"> T  </i>
   <i type="logical" name="LSCALAPACK"> T  </i>
   <i type="logical" name="LSCAAWARE"> F  </i>
   <i type="logical" name="LSCALU"> F  </i>
   <i type="logical" name="LASYNC"> F  </i>
   <i type="logical" name="LORBITALREAL"> F  </i>
  </separator>
  <separator name="miscellaneous" >
   <i type="int" name="IDIOT">     3</i>
   <i type="int" name="ISPECIAL">     0</i>
   <i type="logical" name="LMUSIC"> F  </i>
   <v name="POMASS">     26.98200000     12.01100000    127.60000000      1.00000000</v>
   <v name="DARWINR">      0.00000000      0.00000000      0.00000000      0.00000000</v>
   <v name="DARWINV">      1.00000000      1.00000000      1.00000000      1.00000000</v>
   <i type="logical" name="LCORR"> T  </i>
  </separator>
  <i type="logical" name="GGA_COMPAT"> T  </i>
  <i type="logical" name="LBERRY"> F  </i>
  <i type="int" name="ICORELEVEL">     0</i>
  <i type="logical" name="LDAU"> F  </i>
  <i type="int" name="I_CONSTRAINED_M">     0</i>
  <separator name="electronic exchange-correlation" >
   <i type="string" name="GGA">PE</i>
   <i type="int" name="VOSKOWN">     0</i>
   <i type="logical" name="LHFCALC"> T  </i>
   <i type="string" name="PRECFOCK">normal</i>
   <i type="logical" name="LSYMGRAD"> F  </i>
   <i type="logical" name="LHFONE"> F  </i>
   <i type="logical" name="LRHFCALC"> F  </i>
   <i type="logical" name="LTHOMAS"> F  </i>
   <i type="logical" name="LMODELHF"> F  </i>
   <i name="ENCUT4O">     -1.00000000</i>
   <i type="int" name="EXXOEP">     0</i>
   <i type="int" name="FOURORBIT">     0</i>
   <i name="AEXX">      0.25000000</i>
   <i name="HFALPHA">     -1.00000000</i>
   <i name="MCALPHA">      0.00000000</i>
   <i name="ALDAX">      0.75000000</i>
   <i name="AGGAX">      0.75000000</i>
   <i name="ALDAC">      1.00000000</i>
   <i name="AGGAC">      1.00000000</i>
   <i type="int" name="NKREDX">     1</i>
   <i type="int" name="NKREDY">     1</i>
   <i type="int" name="NKREDZ">     1</i>
   <i type="logical" name="SHIFTRED"> F  </i>
   <i type="logical" name="ODDONLY"> F  </i>
   <i type="logical" name="EVENONLY"> F  </i>
   <i type="int" name="LMAXFOCK">     4</i>
   <i type="int" name="NMAXFOCKAE">     1</i>
   <i type="logical" name="LFOCKAEDFT"> F  </i>
   <i name="HFSCREEN">      0.20000000</i>
   <i name="HFSCREENC">      0.20000000</i>
   <i type="int" name="NBANDSGWLOW">     1</i>
  </separator>
  <separator name="vdW DFT" >
   <i type="logical" name="LUSE_VDW"> F  </i>
   <i name="Zab_VDW">     -0.84910000</i>
   <i name="PARAM1">      0.12340000</i>
   <i name="PARAM2">      1.00000000</i>
   <i name="PARAM3">      0.00000000</i>
  </separator>
  <separator name="model GW" >
   <i type="int" name="MODEL_GW">     0</i>
   <i name="MODEL_EPS0">     36.62081280</i>
   <i name="MODEL_ALPHA">      1.00000000</i>
  </separator>
  <separator name="linear response parameters" >
   <i type="logical" name="LEPSILON"> F  </i>
   <i type="logical" name="LRPA"> F  </i>
   <i type="logical" name="LNABLA"> F  </i>
   <i type="logical" name="LVEL"> F  </i>
   <i type="int" name="KINTER">     0</i>
   <i name="CSHIFT">      0.10000000</i>
   <i name="OMEGAMAX">     -1.00000000</i>
   <i name="DEG_THRESHOLD">      0.00200000</i>
   <i name="RTIME">     -0.10000000</i>
   <i name="WPLASMAI">      0.00000000</i>
   <v name="DFIELD">      0.00000000      0.00000000      0.00000000</v>
   <v name="WPLASMA">      0.00000000      0.00000000      0.00000000      0.00000000      0.00000000      0.00000000      0.00000000      0.00000000      0.00000000</v>
  </separator>
  <separator name="orbital magnetization" >
   <i type="logical" name="NUCIND"> F  </i>
   <v name="MAGPOS">      0.00000000      0.00000000      0.00000000</v>
   <i type="logical" name="LNICSALL"> T  </i>
   <i type="logical" name="ORBITALMAG"> F  </i>
   <i type="logical" name="LMAGBLOCH"> F  </i>
   <i type="logical" name="LCHIMAG"> F  </i>
   <i type="logical" name="LGAUGE"> T  </i>
   <i type="int" name="MAGATOM">     0</i>
   <v name="MAGDIPOL">      0.00000000      0.00000000      0.00000000</v>
   <v name="AVECCONST">      0.00000000      0.00000000      0.00000000</v>
  </separator>
  <separator name="response functions" >
   <i type="logical" name="LADDER"> F  </i>
   <i type="logical" name="LRPAFORCE"> F  </i>
   <i type="logical" name="LFXC"> F  </i>
   <i type="logical" name="LHARTREE"> T  </i>
   <i type="int" name="IBSE">     0</i>
   <v type="int" name="KPOINT">    -1     0     0     0</v>
   <i type="logical" name="LTCTE"> F  </i>
   <i type="logical" name="LTETE"> F  </i>
   <i type="logical" name="LTRIPLET"> F  </i>
   <i type="logical" name="LFXCEPS"> F  </i>
   <i type="logical" name="LFXHEG"> F  </i>
   <i type="int" name="NATURALO">     2</i>
   <i type="logical" name="L2ORDER"> F  </i>
   <i type="logical" name="LMP2LT"> F  </i>
   <i type="logical" name="LUSEW"> F  </i>
   <i name="ENCUTGW">     -2.00000000</i>
   <i name="ENCUTGWSOFT">     -2.00000000</i>
   <i name="ENCUTLF">     -1.00000000</i>
   <i type="int" name="LMAXMP2">    -1</i>
   <i name="SCISSOR">      0.00000000</i>
   <i type="int" name="NOMEGA">     0</i>
   <i type="int" name="NOMEGAR">     0</i>
   <i type="int" name="NBANDSGW">    -1</i>
   <i type="int" name="NBANDSO">    -1</i>
   <i type="int" name="NBANDSV">    -1</i>
   <i type="int" name="NELM">   300</i>
   <i type="int" name="NELMHF">     1</i>
   <i type="int" name="DIM">     3</i>
   <i type="int" name="ANTIRES">     0</i>
   <i name="OMEGAMAX">    -30.00000000</i>
   <i name="OMEGAMIN">    -30.00000000</i>
   <i name="OMEGATL">   -200.00000000</i>
   <i type="int" name="OMEGAGRID">   140</i>
   <i name="CSHIFT">     -0.10000000</i>
   <i type="logical" name="SELFENERGY"> F  </i>
   <i type="logical" name="LSPECTRAL"> F  </i>
   <i type="logical" name="LSPECTRALGW"> F  </i>
   <i type="logical" name="LSINGLES"> F  </i>
   <i type="logical" name="LFERMIGW"> F  </i>
   <i type="logical" name="ODDONLYGW"> F  </i>
   <i type="logical" name="EVENONLYGW"> F  </i>
   <i type="int" name="NKREDLFX">     1</i>
   <i type="int" name="NKREDLFY">     1</i>
   <i type="int" name="NKREDLFZ">     1</i>
   <i type="int" name="MAXMEM">  2800</i>
   <i type="int" name="TELESCOPE">     0</i>
   <i type="int" name="TAUPAR">     1</i>
   <i type="int" name="OMEGAPAR">    -1</i>
   <i name="LAMBDA">      1.00000000</i>
  </separator>
  <separator name="External order field" >
   <i name="OFIELD_KAPPA">      0.00000000</i>
   <v name="OFIELD_K">      0.00000000      0.00000000      0.00000000</v>
   <i name="OFIELD_Q6_NEAR">      0.00000000</i>
   <i name="OFIELD_Q6_FAR">      0.00000000</i>
   <i name="OFIELD_A">      0.00000000</i>
  </separator>
 </parameters>
 <atominfo>
  <atoms>      15 </atoms>
  <types>       4 </types>
  <array name="atoms" >
   <dimension dim="1">ion</dimension>
   <field type="string">element</field>
   <field type="int">atomtype</field>
   <set>
    <rc><c>Al</c><c>   1</c></rc>
    <rc><c>Al</c><c>   1</c></rc>
    <rc><c>Al</c><c>   1</c></rc>
    <rc><c>Al</c><c>   1</c></rc>
    <rc><c>Al</c><c>   1</c></rc>
    <rc><c>Al</c><c>   1</c></rc>
    <rc><c>Al</c><c>   1</c></rc>
    <rc><c>Al</c><c>   1</c></rc>
    <rc><c>C </c><c>   2</c></rc>
    <rc><c>C </c><c>   2</c></rc>
    <rc><c>C </c><c>   2</c></rc>
    <rc><c>C </c><c>   2</c></rc>
    <rc><c>Te</c><c>   3</c></rc>
    <rc><c>H </c><c>   4</c></rc>
    <rc><c>H </c><c>   4</c></rc>
   </set>
  </array>
  <array name="atomtypes" >
   <dimension dim="1">type</dimension>
   <field type="int">atomspertype</field>
   <field type="string">element</field>
   <field>mass</field>
   <field>valence</field>
   <field type="string">pseudopotential</field>
   <set>
    <rc><c>   8</c><c>Al</c><c>     26.98200000</c><c>      3.00000000</c><c>  PAW Al_GW 19Mar2012                   </c></rc>
    <rc><c>   4</c><c>C </c><c>     12.01100000</c><c>      4.00000000</c><c>  PAW C_GW 28Sep2005                    </c></rc>
    <rc><c>   1</c><c>Te</c><c>    127.60000000</c><c>      6.00000000</c><c>  PAW Te_GW 22Mar2012                   </c></rc>
    <rc><c>   2</c><c>H </c><c>      1.00000000</c><c>      1.00000000</c><c>  PAW H_GW 21Apr2008                    </c></rc>
   </set>
  </array>
 </atominfo>
 <structure name="initialpos" >
  <crystal>
   <varray name="basis" >
    <v>       6.01920000       0.00000000       0.00000000 </v>
    <v>       0.00000000      10.14000000       0.00000000 </v>
    <v>       0.00000000       0.00000000      15.00000000 </v>
   </varray>
   <i name="volume">    915.52032000 </i>
   <varray name="rec_basis" >
    <v>       0.16613503       0.00000000       0.00000000 </v>
    <v>       0.00000000       0.09861933       0.00000000 </v>
    <v>       0.00000000       0.00000000       0.06666667 </v>
   </varray>
  </crystal>
  <varray name="positions" >
   <v>       0.43225351       0.87758010       0.23922953 </v>
   <v>       0.93210566       0.87783868       0.26043615 </v>
   <v>       0.43263840       0.61780683       0.24098817 </v>
   <v>       0.93341404       0.61962348       0.26671042 </v>
   <v>       0.43116853       0.37652621       0.27382487 </v>
   <v>       0.93300874       0.37825774       0.24383564 </v>
   <v>       0.43186417       0.11893190       0.26120264 </v>
   <v>       0.93199059       0.11874131       0.24087642 </v>
   <v>       0.18208911       0.99804483       0.24952566 </v>
   <v>       0.68203780       0.99813228       0.25006763 </v>
   <v>       0.18277786       0.49851994       0.25587114 </v>
   <v>       0.68261515       0.49894844       0.25910959 </v>
   <v>       0.55754384       0.43527780       0.46571239 </v>
   <v>       0.80849425       0.36767880       0.46192924 </v>
   <v>       0.50676920       0.34998516       0.56008050 </v>
  </varray>
  <varray name="selective"  type="logical" >
   <v type="logical" >  T  T  T </v>
   <v type="logical" >  T  T  T </v>
   <v type="logical" >  T  T  T </v>
   <v type="logical" >  T  T  T </v>
   <v type="logical" >  T  T  T </v>
   <v type="logical" >  T  T  T </v>
   <v type="logical" >  T  T  T </v>
   <v type="logical" >  T  T  T </v>
   <v type="logical" >  T  T  T </v>
   <v type="logical" >  T  T  T </v>
   <v type="logical" >  T  T  T </v>
   <v type="logical" >  T  T  T </v>
   <v type="logical" >  T  T  T </v>
   <v type="logical" >  T  T  T </v>
   <v type="logical" >  T  T  T </v>
  </varray>
  <nose>
   <v>      -3.00000000       0.00000000       0.00010000       0.00010000 </v>
  </nose>
 </structure>
 <calculation>
  <scstep>
   <time name="total">   13.84   13.87</time>
   <energy>
    <i name="alphaZ">     13.10177784 </i>
    <i name="ewald">   1366.62330681 </i>
    <i name="hartreedc">  -2339.92592686 </i>
    <i name="XCdc">   -148.22050246 </i>
    <i name="pawpsdc">   1131.56821490 </i>
    <i name="pawaedc">   -901.58210649 </i>
    <i name="eentropy">     -0.00428872 </i>
    <i name="bandstr">    184.18518859 </i>
    <i name="atom">   1251.19323263 </i>
    <i name="e_fr_energy">    556.93889625 </i>
    <i name="e_wo_entrp">    556.94318497 </i>
    <i name="e_0_energy">    556.94104061 </i>
   </energy>
  </scstep>
  <scstep>
   <time name="total">   15.18   15.23</time>
   <energy>
    <i name="e_fr_energy">    271.55096126 </i>
    <i name="e_wo_entrp">    271.56073605 </i>
    <i name="e_0_energy">    271.55584865 </i>
   </energy>
  </scstep>
  <scstep>
   <time name="total">   15.23   15.27</time>
   <energy>
    <i name="e_fr_energy">    135.32580273 </i>
    <i name="e_wo_entrp">    135.34008831 </i>
    <i name="e_0_energy">    135.33294552 </i>
   </energy>
  </scstep>
  <scstep>
   <time name="total">   15.24   15.25</time>
   <energy>
    <i name="e_fr_energy">     63.82002994 </i>
    <i name="e_wo_entrp">     63.82466211 </i>
    <i name="e_0_energy">     63.82234603 </i>
   </energy>
  </scstep>
  <scstep>
   <time name="total">   15.26   15.28</time>
   <energy>
    <i name="e_fr_energy">     25.44827997 </i>
    <i name="e_wo_entrp">     25.44853009 </i>
    <i name="e_0_energy">     25.44840503 </i>
   </energy>
  </scstep>
  <scstep>
   <time name="total">   15.19   15.22</time>
   <energy>
    <i name="e_fr_energy">      4.64372267 </i>
    <i name="e_wo_entrp">      4.64818226 </i>
    <i name="e_0_energy">      4.64595246 </i>
   </energy>
  </scstep>
  <scstep>
   <time name="total">   15.81   15.85</time>
   <energy>
    <i name="e_fr_energy">     -6.61840738 </i>
    <i name="e_wo_entrp">     -6.61840738 </i>
    <i name="e_0_energy">     -6.61840738 </i>
   </energy>
  </scstep>
  <scstep>
   <time name="total">  291.75  292.17</time>
   <energy>
    <i name="e_fr_energy">    -54.59460284 </i>
    <i name="e_wo_entrp">    -54.59460284 </i>
    <i name="e_0_energy">    -54.59460284 </i>
   </energy>
  </scstep>
  <scstep>
   <time name="total">  290.82  291.25</time>
   <energy>
    <i name="e_fr_energy">    -72.41484237 </i>
    <i name="e_wo_entrp">    -72.41484237 </i>
    <i name="e_0_energy">    -72.41484237 </i>
   </energy>
  </scstep>
  <scstep>
   <time name="total">  290.89  291.29</time>
   <energy>
    <i name="e_fr_energy">    -75.73442041 </i>
    <i name="e_wo_entrp">    -75.73442041 </i>
    <i name="e_0_energy">    -75.73442041 </i>
   </energy>
  </scstep>
  <scstep>
   <time name="total">  289.93  290.92</time>
   <energy>
    <i name="e_fr_energy">    -78.51764494 </i>
    <i name="e_wo_entrp">    -78.51764494 </i>
    <i name="e_0_energy">    -78.51764494 </i>
   </energy>
  </scstep>
  <scstep>
   <time name="total">  289.93  290.91</time>
   <energy>
    <i name="e_fr_energy">    -79.20874425 </i>
    <i name="e_wo_entrp">    -79.20874425 </i>
    <i name="e_0_energy">    -79.20874425 </i>
   </energy>
  </scstep>
  <scstep>
   <time name="total">  290.37  291.29</time>
   <energy>
    <i name="e_fr_energy">    -79.73182421 </i>
    <i name="e_wo_entrp">    -79.73182421 </i>
    <i name="e_0_energy">    -79.73182421 </i>
   </energy>
  </scstep>
  <scstep>
   <time name="total">  290.23  290.99</time>
   <energy>
    <i name="e_fr_energy">    -79.96384369 </i>
    <i name="e_wo_entrp">    -79.96384369 </i>
    <i name="e_0_energy">    -79.96384369 </i>
   </energy>
  </scstep>
  <scstep>
   <time name="total">  290.44  291.13</time>
   <energy>
    <i name="e_fr_energy">    -80.05988705 </i>
    <i name="e_wo_entrp">    -80.05988705 </i>
    <i name="e_0_energy">    -80.05988705 </i>
   </energy>
  </scstep>
  <scstep>
   <time name="total">  290.77  291.51</time>
   <energy>
    <i name="e_fr_energy">    -80.10842014 </i>
    <i name="e_wo_entrp">    -80.10842014 </i>
    <i name="e_0_energy">    -80.10842014 </i>
   </energy>
  </scstep>
  <scstep>
   <time name="total">  291.09  291.46</time>
   <energy>
    <i name="e_fr_energy">    -80.12801905 </i>
    <i name="e_wo_entrp">    -80.12801905 </i>
    <i name="e_0_energy">    -80.12801905 </i>
   </energy>
  </scstep>
  <scstep>
   <time name="total">  290.93  291.24</time>
   <energy>
    <i name="e_fr_energy">    -80.13789231 </i>
    <i name="e_wo_entrp">    -80.13789231 </i>
    <i name="e_0_energy">    -80.13789231 </i>
   </energy>
  </scstep>
  <scstep>
   <time name="total">  290.29  291.39</time>
   <energy>
    <i name="e_fr_energy">    -80.14225287 </i>
    <i name="e_wo_entrp">    -80.14225287 </i>
    <i name="e_0_energy">    -80.14225287 </i>
   </energy>
  </scstep>
  <scstep>
   <time name="total">  290.54  291.35</time>
   <energy>
    <i name="e_fr_energy">    -80.14408332 </i>
    <i name="e_wo_entrp">    -80.14408332 </i>
    <i name="e_0_energy">    -80.14408332 </i>
   </energy>
  </scstep>
  <scstep>
   <time name="total">  291.03  291.57</time>
   <energy>
    <i name="e_fr_energy">    -80.14494194 </i>
    <i name="e_wo_entrp">    -80.14494194 </i>
    <i name="e_0_energy">    -80.14494194 </i>
   </energy>
  </scstep>
  <scstep>
   <time name="total">  291.08  291.53</time>
   <energy>
    <i name="e_fr_energy">    -80.14532330 </i>
    <i name="e_wo_entrp">    -80.14532330 </i>
    <i name="e_0_energy">    -80.14532330 </i>
   </energy>
  </scstep>
  <scstep>
   <time name="total">  290.45  290.70</time>
   <energy>
    <i name="e_fr_energy">    -80.14550834 </i>
    <i name="e_wo_entrp">    -80.14550834 </i>
    <i name="e_0_energy">    -80.14550834 </i>
   </energy>
  </scstep>
  <scstep>
   <time name="total">  290.93  291.54</time>
   <energy>
    <i name="e_fr_energy">    -80.14560197 </i>
    <i name="e_wo_entrp">    -80.14560197 </i>
    <i name="e_0_energy">    -80.14560197 </i>
   </energy>
  </scstep>
  <scstep>
   <time name="total">  290.34  291.11</time>
   <energy>
    <i name="e_fr_energy">    -80.14564919 </i>
    <i name="e_wo_entrp">    -80.14564919 </i>
    <i name="e_0_energy">    -80.14564919 </i>
   </energy>
  </scstep>
  <scstep>
   <time name="total">  290.95  291.70</time>
   <energy>
    <i name="e_fr_energy">    -80.14567425 </i>
    <i name="e_wo_entrp">    -80.14567425 </i>
    <i name="e_0_energy">    -80.14567425 </i>
   </energy>
  </scstep>
  <scstep>
   <time name="total">  290.54  291.37</time>
   <energy>
    <i name="e_fr_energy">    -80.14568813 </i>
    <i name="e_wo_entrp">    -80.14568813 </i>
    <i name="e_0_energy">    -80.14568813 </i>
   </energy>
  </scstep>
  <scstep>
   <time name="total">  573.42  575.07</time>
   <energy>
    <i name="alphaZ">     13.10177784 </i>
    <i name="ewald">   1366.62330681 </i>
    <i name="hartreedc">  -2513.92494884 </i>
    <i name="XCdc">   -142.06912172 </i>
    <i name="pawpsdc">   1715.83760816 </i>
    <i name="pawaedc">  -1486.71175187 </i>
    <i name="eentropy">     -0.00000000 </i>
    <i name="bandstr">   -359.60397558 </i>
    <i name="atom">   1251.19323263 </i>
    <i name="e_fr_energy">    -80.14569628 </i>
    <i name="e_wo_entrp">    -80.14569628 </i>
    <i name="e_0_energy">    -80.14569628 </i>
   </energy>
  </scstep>
  <structure>
   <crystal>
    <varray name="basis" >
     <v>       6.01920000       0.00000000       0.00000000 </v>
     <v>       0.00000000      10.14000000       0.00000000 </v>
     <v>       0.00000000       0.00000000      15.00000000 </v>
    </varray>
    <i name="volume">    915.52032000 </i>
    <varray name="rec_basis" >
     <v>       0.16613503       0.00000000       0.00000000 </v>
     <v>       0.00000000       0.09861933       0.00000000 </v>
     <v>       0.00000000       0.00000000       0.06666667 </v>
    </varray>
   </crystal>
   <varray name="positions" >
    <v>       0.43225351       0.87758010       0.23922953 </v>
    <v>       0.93210566       0.87783868       0.26043615 </v>
    <v>       0.43263840       0.61780683       0.24098817 </v>
    <v>       0.93341404       0.61962348       0.26671042 </v>
    <v>       0.43116853       0.37652621       0.27382487 </v>
    <v>       0.93300874       0.37825774       0.24383564 </v>
    <v>       0.43186417       0.11893190       0.26120264 </v>
    <v>       0.93199059       0.11874131       0.24087642 </v>
    <v>       0.18208911       0.99804483       0.24952566 </v>
    <v>       0.68203780       0.99813228       0.25006763 </v>
    <v>       0.18277786       0.49851994       0.25587114 </v>
    <v>       0.68261515       0.49894844       0.25910959 </v>
    <v>       0.55754384       0.43527780       0.46571239 </v>
    <v>       0.80849425       0.36767880       0.46192924 </v>
    <v>       0.50676920       0.34998516       0.56008050 </v>
   </varray>
  </structure>
  <varray name="forces" >
   <v>      -0.00155385       0.00449707       0.00621383 </v>
   <v>      -0.00195105      -0.00184316      -0.00001958 </v>
   <v>      -0.00211439       0.00535841      -0.00083888 </v>
   <v>      -0.00217196      -0.00397729      -0.00452829 </v>
   <v>       0.00487577      -0.00214100      -0.00062111 </v>
   <v>       0.00451395       0.00634509       0.00123209 </v>
   <v>       0.00119274      -0.00260115      -0.00206368 </v>
   <v>       0.00149641       0.00306102       0.00181148 </v>
   <v>       0.00608023       0.00209211       0.00260970 </v>
   <v>      -0.00534959       0.00207846       0.00231175 </v>
   <v>      -0.00896331       0.00007215       0.00295369 </v>
   <v>       0.00743441       0.00029206      -0.00160996 </v>
   <v>      -0.00600102      -0.00410632      -0.00275902 </v>
   <v>       0.00137677      -0.00162672      -0.00225041 </v>
   <v>       0.00113490      -0.00750072      -0.00244161 </v>
  </varray>
  <varray name="stress" >
   <v>      -0.73849621       0.13263463      -0.01257493 </v>
   <v>       0.13263468      -8.14852953      -0.09532481 </v>
   <v>      -0.01257498      -0.09532482      -1.16475934 </v>
  </varray>
  <energy>
   <i name="e_fr_energy">    -80.14569628 </i>
   <i name="e_wo_entrp">    -80.14569628 </i>
   <i name="e_0_energy">     -0.00000000 </i>
  </energy>
  <time name="totalsc"> 6989.62 7009.50</time>
  <eigenvalues>
   <array>
    <dimension dim="1">band</dimension>
    <dimension dim="2">kpoint</dimension>
    <dimension dim="3">spin</dimension>
    <field>eigene</field>
    <field>occ</field>
    <set>
     <set comment="spin 1">
      <set comment="kpoint 1">
       <r>  -15.8597    1.0000 </r>
       <r>  -15.2486    1.0000 </r>
       <r>  -15.0930    1.0000 </r>
       <r>  -12.9806    1.0000 </r>
       <r>  -12.8811    1.0000 </r>
       <r>   -9.6497    1.0000 </r>
       <r>   -9.3762    1.0000 </r>
       <r>   -9.3465    1.0000 </r>
       <r>   -8.4304    1.0000 </r>
       <r>   -7.4357    1.0000 </r>
       <r>   -7.0195    1.0000 </r>
       <r>   -6.4788    1.0000 </r>
       <r>   -6.0313    1.0000 </r>
       <r>   -5.4757    1.0000 </r>
       <r>   -5.2190    1.0000 </r>
       <r>   -4.9023    1.0000 </r>
       <r>   -4.5476    1.0000 </r>
       <r>   -4.3832    1.0000 </r>
       <r>   -3.4222    1.0000 </r>
       <r>   -3.2267    1.0000 </r>
       <r>   -3.1899    1.0000 </r>
       <r>   -2.6156    1.0000 </r>
       <r>   -2.3671    1.0000 </r>
       <r>   -2.2994    1.0000 </r>
       <r>   -0.8600    0.0000 </r>
       <r>   -0.3098    0.0000 </r>
       <r>    0.2408    0.0000 </r>
       <r>    0.6252    0.0000 </r>
       <r>    0.7853    0.0000 </r>
       <r>    0.9590    0.0000 </r>
       <r>    1.1458    0.0000 </r>
       <r>    1.4295    0.0000 </r>
      </set>
      <set comment="kpoint 2">
       <r>  -15.8362    1.0000 </r>
       <r>  -15.1232    1.0000 </r>
       <r>  -14.9682    1.0000 </r>
       <r>  -13.3917    1.0000 </r>
       <r>  -13.2710    1.0000 </r>
       <r>   -9.2051    1.0000 </r>
       <r>   -9.0001    1.0000 </r>
       <r>   -8.7300    1.0000 </r>
       <r>   -8.4472    1.0000 </r>
       <r>   -7.4484    1.0000 </r>
       <r>   -6.8965    1.0000 </r>
       <r>   -6.8291    1.0000 </r>
       <r>   -6.3451    1.0000 </r>
       <r>   -5.4728    1.0000 </r>
       <r>   -5.2060    1.0000 </r>
       <r>   -4.7896    1.0000 </r>
       <r>   -4.4566    1.0000 </r>
       <r>   -3.9925    1.0000 </r>
       <r>   -3.9418    1.0000 </r>
       <r>   -3.8989    1.0000 </r>
       <r>   -3.7786    1.0000 </r>
       <r>   -3.0172    1.0000 </r>
       <r>   -2.7670    1.0000 </r>
       <r>   -2.3428    1.0000 </r>
       <r>   -0.8164    0.0000 </r>
       <r>    0.4312    0.0000 </r>
       <r>    0.6870    0.0000 </r>
       <r>    0.8445    0.0000 </r>
       <r>    1.0440    0.0000 </r>
       <r>    1.0821    0.0000 </r>
       <r>    1.1800    0.0000 </r>
       <r>    1.8646    0.0000 </r>
      </set>
      <set comment="kpoint 3">
       <r>  -15.8029    1.0000 </r>
       <r>  -14.7423    1.0000 </r>
       <r>  -14.5878    1.0000 </r>
       <r>  -14.1232    1.0000 </r>
       <r>  -13.9788    1.0000 </r>
       <r>   -8.7485    1.0000 </r>
       <r>   -8.4628    1.0000 </r>
       <r>   -7.9452    1.0000 </r>
       <r>   -7.7024    1.0000 </r>
       <r>   -7.3872    1.0000 </r>
       <r>   -7.1595    1.0000 </r>
       <r>   -6.5319    1.0000 </r>
       <r>   -6.1947    1.0000 </r>
       <r>   -5.9993    1.0000 </r>
       <r>   -5.5602    1.0000 </r>
       <r>   -5.2759    1.0000 </r>
       <r>   -5.0544    1.0000 </r>
       <r>   -4.7851    1.0000 </r>
       <r>   -4.4495    1.0000 </r>
       <r>   -4.2127    1.0000 </r>
       <r>   -3.7423    1.0000 </r>
       <r>   -3.4546    1.0000 </r>
       <r>   -2.8716    1.0000 </r>
       <r>   -2.4314    1.0000 </r>
       <r>   -0.4620    0.0000 </r>
       <r>    0.2479    0.0000 </r>
       <r>    0.9309    0.0000 </r>
       <r>    1.3704    0.0000 </r>
       <r>    1.4206    0.0000 </r>
       <r>    1.6598    0.0000 </r>
       <r>    2.1807    0.0000 </r>
       <r>    2.6013    0.0000 </r>
      </set>
      <set comment="kpoint 4">
       <r>  -15.8583    1.0000 </r>
       <r>  -15.2155    1.0000 </r>
       <r>  -15.1322    1.0000 </r>
       <r>  -12.9696    1.0000 </r>
       <r>  -12.8929    1.0000 </r>
       <r>   -9.5975    1.0000 </r>
       <r>   -9.4247    1.0000 </r>
       <r>   -9.0532    1.0000 </r>
       <r>   -8.4486    1.0000 </r>
       <r>   -8.1066    1.0000 </r>
       <r>   -7.4041    1.0000 </r>
       <r>   -5.8603    1.0000 </r>
       <r>   -5.4698    1.0000 </r>
       <r>   -5.3686    1.0000 </r>
       <r>   -5.1057    1.0000 </r>
       <r>   -5.0404    1.0000 </r>
       <r>   -4.4413    1.0000 </r>
       <r>   -4.2275    1.0000 </r>
       <r>   -3.7274    1.0000 </r>
       <r>   -3.3190    1.0000 </r>
       <r>   -3.2220    1.0000 </r>
       <r>   -3.1925    1.0000 </r>
       <r>   -2.6008    1.0000 </r>
       <r>   -2.3148    1.0000 </r>
       <r>   -0.6114    0.0000 </r>
       <r>    0.0831    0.0000 </r>
       <r>    0.2603    0.0000 </r>
       <r>    0.4572    0.0000 </r>
       <r>    0.7022    0.0000 </r>
       <r>    0.8932    0.0000 </r>
       <r>    1.1747    0.0000 </r>
       <r>    1.5855    0.0000 </r>
      </set>
      <set comment="kpoint 5">
       <r>  -15.8354    1.0000 </r>
       <r>  -15.0876    1.0000 </r>
       <r>  -15.0092    1.0000 </r>
       <r>  -13.3732    1.0000 </r>
       <r>  -13.2911    1.0000 </r>
       <r>   -8.9701    1.0000 </r>
       <r>   -8.8941    1.0000 </r>
       <r>   -8.7875    1.0000 </r>
       <r>   -8.4450    1.0000 </r>
       <r>   -7.9794    1.0000 </r>
       <r>   -7.4051    1.0000 </r>
       <r>   -6.5811    1.0000 </r>
       <r>   -5.9423    1.0000 </r>
       <r>   -5.1915    1.0000 </r>
       <r>   -4.9938    1.0000 </r>
       <r>   -4.8791    1.0000 </r>
       <r>   -4.3863    1.0000 </r>
       <r>   -3.9791    1.0000 </r>
       <r>   -3.9300    1.0000 </r>
       <r>   -3.7535    1.0000 </r>
       <r>   -3.6989    1.0000 </r>
       <r>   -3.2437    1.0000 </r>
       <r>   -2.9526    1.0000 </r>
       <r>   -2.8010    1.0000 </r>
       <r>   -0.4801    0.0000 </r>
       <r>    0.2130    0.0000 </r>
       <r>    0.6061    0.0000 </r>
       <r>    0.7839    0.0000 </r>
       <r>    0.9057    0.0000 </r>
       <r>    1.1463    0.0000 </r>
       <r>    1.3313    0.0000 </r>
       <r>    1.6843    0.0000 </r>
      </set>
      <set comment="kpoint 6">
       <r>  -15.8026    1.0000 </r>
       <r>  -14.7076    1.0000 </r>
       <r>  -14.6266    1.0000 </r>
       <r>  -14.0950    1.0000 </r>
       <r>  -14.0099    1.0000 </r>
       <r>   -8.5790    1.0000 </r>
       <r>   -8.3309    1.0000 </r>
       <r>   -7.8706    1.0000 </r>
       <r>   -7.6061    1.0000 </r>
       <r>   -7.5298    1.0000 </r>
       <r>   -7.3405    1.0000 </r>
       <r>   -7.1334    1.0000 </r>
       <r>   -6.6914    1.0000 </r>
       <r>   -5.6887    1.0000 </r>
       <r>   -5.5866    1.0000 </r>
       <r>   -4.9499    1.0000 </r>
       <r>   -4.5243    1.0000 </r>
       <r>   -4.4729    1.0000 </r>
       <r>   -4.2656    1.0000 </r>
       <r>   -4.0400    1.0000 </r>
       <r>   -3.7457    1.0000 </r>
       <r>   -3.4795    1.0000 </r>
       <r>   -3.1620    1.0000 </r>
       <r>   -3.0638    1.0000 </r>
       <r>   -0.1230    0.0000 </r>
       <r>    0.3657    0.0000 </r>
       <r>    0.7507    0.0000 </r>
       <r>    1.0823    0.0000 </r>
       <r>    1.2036    0.0000 </r>
       <r>    1.7066    0.0000 </r>
       <r>    1.7873    0.0000 </r>
       <r>    2.3596    0.0000 </r>
      </set>
      <set comment="kpoint 7">
       <r>  -15.8026    1.0000 </r>
       <r>  -14.7075    1.0000 </r>
       <r>  -14.6267    1.0000 </r>
       <r>  -14.0950    1.0000 </r>
       <r>  -14.0100    1.0000 </r>
       <r>   -8.5760    1.0000 </r>
       <r>   -8.3455    1.0000 </r>
       <r>   -7.8363    1.0000 </r>
       <r>   -7.6196    1.0000 </r>
       <r>   -7.5315    1.0000 </r>
       <r>   -7.3509    1.0000 </r>
       <r>   -7.1311    1.0000 </r>
       <r>   -6.6915    1.0000 </r>
       <r>   -5.6970    1.0000 </r>
       <r>   -5.5843    1.0000 </r>
       <r>   -4.9380    1.0000 </r>
       <r>   -4.5413    1.0000 </r>
       <r>   -4.4720    1.0000 </r>
       <r>   -4.2518    1.0000 </r>
       <r>   -4.0363    1.0000 </r>
       <r>   -3.7321    1.0000 </r>
       <r>   -3.5100    1.0000 </r>
       <r>   -3.1544    1.0000 </r>
       <r>   -3.0603    1.0000 </r>
       <r>   -0.1477    0.0000 </r>
       <r>    0.4753    0.0000 </r>
       <r>    0.7181    0.0000 </r>
       <r>    0.9348    0.0000 </r>
       <r>    1.3156    0.0000 </r>
       <r>    1.6806    0.0000 </r>
       <r>    1.8988    0.0000 </r>
       <r>    1.9760    0.0000 </r>
      </set>
      <set comment="kpoint 8">
       <r>  -15.8354    1.0000 </r>
       <r>  -15.0875    1.0000 </r>
       <r>  -15.0093    1.0000 </r>
       <r>  -13.3732    1.0000 </r>
       <r>  -13.2911    1.0000 </r>
       <r>   -8.9730    1.0000 </r>
       <r>   -8.8918    1.0000 </r>
       <r>   -8.7866    1.0000 </r>
       <r>   -8.4502    1.0000 </r>
       <r>   -7.9683    1.0000 </r>
       <r>   -7.4098    1.0000 </r>
       <r>   -6.5788    1.0000 </r>
       <r>   -5.9540    1.0000 </r>
       <r>   -5.1824    1.0000 </r>
       <r>   -5.0032    1.0000 </r>
       <r>   -4.8870    1.0000 </r>
       <r>   -4.3610    1.0000 </r>
       <r>   -3.9736    1.0000 </r>
       <r>   -3.9309    1.0000 </r>
       <r>   -3.7656    1.0000 </r>
       <r>   -3.6896    1.0000 </r>
       <r>   -3.2652    1.0000 </r>
       <r>   -2.9275    1.0000 </r>
       <r>   -2.8119    1.0000 </r>
       <r>   -0.5030    0.0000 </r>
       <r>    0.2746    0.0000 </r>
       <r>    0.5271    0.0000 </r>
       <r>    0.7916    0.0000 </r>
       <r>    0.9769    0.0000 </r>
       <r>    1.2186    0.0000 </r>
       <r>    1.3760    0.0000 </r>
       <r>    1.5949    0.0000 </r>
      </set>
     </set>
    </set>
   </array>
  </eigenvalues>
  <separator name="orbital magnetization" >
   <v name="MAGDIPOLOUT">      0.00000000      0.00000000      0.00000000</v>
  </separator>
  <dos>
   <i name="efermi">     -2.02415152 </i>
   <total>
    <array>
     <dimension dim="1">gridpoints</dimension>
     <dimension dim="2">spin</dimension>
     <field>energy</field>
     <field>total</field>
     <field>integrated</field>
     <set>
      <set comment="spin 1">
       <r>   -16.7827     0.0000     0.0000 </r>
       <r>   -16.7150     0.0000     0.0000 </r>
       <r>   -16.6473     0.0000     0.0000 </r>
       <r>   -16.5796     0.0000     0.0000 </r>
       <r>   -16.5120     0.0000     0.0000 </r>
       <r>   -16.4443     0.0000     0.0000 </r>
       <r>   -16.3766     0.0000     0.0000 </r>
       <r>   -16.3089     0.0000     0.0000 </r>
       <r>   -16.2412     0.0000     0.0000 </r>
       <r>   -16.1735     0.0000     0.0000 </r>
       <r>   -16.1058     0.0000     0.0000 </r>
       <r>   -16.0381     0.0000     0.0000 </r>
       <r>   -15.9704     0.0055     0.0004 </r>
       <r>   -15.9027     0.9954     0.0678 </r>
       <r>   -15.8351    11.5458     0.8493 </r>
       <r>   -15.7674    14.7793     1.8497 </r>
       <r>   -15.6997     2.1986     1.9985 </r>
       <r>   -15.6320     0.0218     2.0000 </r>
       <r>   -15.5643     0.0000     2.0000 </r>
       <r>   -15.4966     0.0000     2.0000 </r>
       <r>   -15.4289     0.0000     2.0000 </r>
       <r>   -15.3612     0.0015     2.0001 </r>
       <r>   -15.2935     0.2528     2.0172 </r>
       <r>   -15.2258     2.7434     2.2029 </r>
       <r>   -15.1582     4.4896     2.5068 </r>
       <r>   -15.0905     9.9435     3.1799 </r>
       <r>   -15.0228     8.8908     3.7817 </r>
       <r>   -14.9551     7.2389     4.2717 </r>
       <r>   -14.8874     1.8492     4.3969 </r>
       <r>   -14.8197     0.1081     4.4042 </r>
       <r>   -14.7520     2.3027     4.5601 </r>
       <r>   -14.6843     7.6576     5.0784 </r>
       <r>   -14.6166     7.3902     5.5787 </r>
       <r>   -14.5489     5.5787     5.9563 </r>
       <r>   -14.4812     0.6405     5.9996 </r>
       <r>   -14.4136     0.0052     6.0000 </r>
       <r>   -14.3459     0.0000     6.0000 </r>
       <r>   -14.2782     0.0000     6.0000 </r>
       <r>   -14.2105     0.0310     6.0021 </r>
       <r>   -14.1428     1.8064     6.1244 </r>
       <r>   -14.0751     7.6499     6.6422 </r>
       <r>   -14.0074     7.2625     7.1338 </r>
       <r>   -13.9397     6.1708     7.5515 </r>
       <r>   -13.8720     0.7112     7.5996 </r>
       <r>   -13.8043     0.0054     7.6000 </r>
       <r>   -13.7367     0.0000     7.6000 </r>
       <r>   -13.6690     0.0000     7.6000 </r>
       <r>   -13.6013     0.0000     7.6000 </r>
       <r>   -13.5336     0.0001     7.6000 </r>
       <r>   -13.4659     0.1048     7.6071 </r>
       <r>   -13.3982     3.4756     7.8424 </r>
       <r>   -13.3305     8.4030     8.4112 </r>
       <r>   -13.2628     8.3659     8.9775 </r>
       <r>   -13.1951     3.1986     9.1940 </r>
       <r>   -13.1274     0.0889     9.2000 </r>
       <r>   -13.0598     0.0461     9.2031 </r>
       <r>   -12.9921     1.7354     9.3206 </r>
       <r>   -12.9244     4.5763     9.6304 </r>
       <r>   -12.8567     4.3733     9.9264 </r>
       <r>   -12.7890     1.0720     9.9989 </r>
       <r>   -12.7213     0.0155    10.0000 </r>
       <r>   -12.6536     0.0000    10.0000 </r>
       <r>   -12.5859     0.0000    10.0000 </r>
       <r>   -12.5182     0.0000    10.0000 </r>
       <r>   -12.4505     0.0000    10.0000 </r>
       <r>   -12.3829     0.0000    10.0000 </r>
       <r>   -12.3152     0.0000    10.0000 </r>
       <r>   -12.2475     0.0000    10.0000 </r>
       <r>   -12.1798     0.0000    10.0000 </r>
       <r>   -12.1121     0.0000    10.0000 </r>
       <r>   -12.0444     0.0000    10.0000 </r>
       <r>   -11.9767     0.0000    10.0000 </r>
       <r>   -11.9090     0.0000    10.0000 </r>
       <r>   -11.8413     0.0000    10.0000 </r>
       <r>   -11.7736     0.0000    10.0000 </r>
       <r>   -11.7060     0.0000    10.0000 </r>
       <r>   -11.6383     0.0000    10.0000 </r>
       <r>   -11.5706     0.0000    10.0000 </r>
       <r>   -11.5029     0.0000    10.0000 </r>
       <r>   -11.4352     0.0000    10.0000 </r>
       <r>   -11.3675     0.0000    10.0000 </r>
       <r>   -11.2998     0.0000    10.0000 </r>
       <r>   -11.2321     0.0000    10.0000 </r>
       <r>   -11.1644     0.0000    10.0000 </r>
       <r>   -11.0967     0.0000    10.0000 </r>
       <r>   -11.0291     0.0000    10.0000 </r>
       <r>   -10.9614     0.0000    10.0000 </r>
       <r>   -10.8937     0.0000    10.0000 </r>
       <r>   -10.8260     0.0000    10.0000 </r>
       <r>   -10.7583     0.0000    10.0000 </r>
       <r>   -10.6906     0.0000    10.0000 </r>
       <r>   -10.6229     0.0000    10.0000 </r>
       <r>   -10.5552     0.0000    10.0000 </r>
       <r>   -10.4875     0.0000    10.0000 </r>
       <r>   -10.4198     0.0000    10.0000 </r>
       <r>   -10.3522     0.0000    10.0000 </r>
       <r>   -10.2845     0.0000    10.0000 </r>
       <r>   -10.2168     0.0000    10.0000 </r>
       <r>   -10.1491     0.0000    10.0000 </r>
       <r>   -10.0814     0.0000    10.0000 </r>
       <r>   -10.0137     0.0000    10.0000 </r>
       <r>    -9.9460     0.0000    10.0000 </r>
       <r>    -9.8783     0.0000    10.0000 </r>
       <r>    -9.8106     0.0000    10.0000 </r>
       <r>    -9.7429     0.0083    10.0006 </r>
       <r>    -9.6753     0.5100    10.0351 </r>
       <r>    -9.6076     2.7525    10.2214 </r>
       <r>    -9.5399     2.4363    10.3863 </r>
       <r>    -9.4722     0.5607    10.4243 </r>
       <r>    -9.4045     2.9782    10.6259 </r>
       <r>    -9.3368     3.4846    10.8617 </r>
       <r>    -9.2691     1.1653    10.9406 </r>
       <r>    -9.2014     2.0247    11.0777 </r>
       <r>    -9.1337     1.7666    11.1973 </r>
       <r>    -9.0660     1.6056    11.3059 </r>
       <r>    -8.9983     5.9652    11.7097 </r>
       <r>    -8.9307     8.2812    12.2703 </r>
       <r>    -8.8630     6.3818    12.7023 </r>
       <r>    -8.7953     5.1271    13.0493 </r>
       <r>    -8.7276     8.7526    13.6418 </r>
       <r>    -8.6599     3.2816    13.8639 </r>
       <r>    -8.5922     2.7124    14.0475 </r>
       <r>    -8.5245     5.0830    14.3916 </r>
       <r>    -8.4568     9.0935    15.0071 </r>
       <r>    -8.3891    12.2382    15.8355 </r>
       <r>    -8.3214     5.8010    16.2282 </r>
       <r>    -8.2538     2.4619    16.3949 </r>
       <r>    -8.1861     0.1244    16.4033 </r>
       <r>    -8.1184     1.4083    16.4986 </r>
       <r>    -8.0507     2.3899    16.6604 </r>
       <r>    -7.9830     3.8025    16.9178 </r>
       <r>    -7.9153     7.3810    17.4174 </r>
       <r>    -7.8476     5.1140    17.7635 </r>
       <r>    -7.7799     3.3103    17.9876 </r>
       <r>    -7.7122     1.7421    18.1055 </r>
       <r>    -7.6445     3.6774    18.3545 </r>
       <r>    -7.5769     6.0855    18.7664 </r>
       <r>    -7.5092     6.4465    19.2028 </r>
       <r>    -7.4415     7.1885    19.6893 </r>
       <r>    -7.3738    14.4549    20.6678 </r>
       <r>    -7.3061     8.7057    21.2571 </r>
       <r>    -7.2384     1.1767    21.3367 </r>
       <r>    -7.1707     2.5194    21.5073 </r>
       <r>    -7.1030     7.4397    22.0109 </r>
       <r>    -7.0353     2.4279    22.1752 </r>
       <r>    -6.9676     1.2973    22.2630 </r>
       <r>    -6.9000     1.9560    22.3954 </r>
       <r>    -6.8323     3.7280    22.6478 </r>
       <r>    -6.7646     2.2657    22.8012 </r>
       <r>    -6.6969     3.4418    23.0341 </r>
       <r>    -6.6292     4.7682    23.3569 </r>
       <r>    -6.5615     5.9700    23.7610 </r>
       <r>    -6.4938     5.5495    24.1367 </r>
       <r>    -6.4261     1.8242    24.2601 </r>
       <r>    -6.3584     1.4861    24.3607 </r>
       <r>    -6.2907     2.3181    24.5176 </r>
       <r>    -6.2231     1.0625    24.5896 </r>
       <r>    -6.1554     2.5851    24.7646 </r>
       <r>    -6.0877     0.6528    24.8087 </r>
       <r>    -6.0200     2.3808    24.9699 </r>
       <r>    -5.9523     6.6088    25.4172 </r>
       <r>    -5.8846     5.3345    25.7783 </r>
       <r>    -5.8169     2.8418    25.9707 </r>
       <r>    -5.7492     0.8753    26.0300 </r>
       <r>    -5.6815     4.5056    26.3349 </r>
       <r>    -5.6138     4.7458    26.6562 </r>
       <r>    -5.5462     7.7735    27.1824 </r>
       <r>    -5.4785     6.4165    27.6167 </r>
       <r>    -5.4108     5.7125    28.0034 </r>
       <r>    -5.3431     3.0738    28.2115 </r>
       <r>    -5.2754     3.0482    28.4178 </r>
       <r>    -5.2077     6.9407    28.8876 </r>
       <r>    -5.1400     8.3607    29.4535 </r>
       <r>    -5.0723     5.5309    29.8279 </r>
       <r>    -5.0046     9.3131    30.4583 </r>
       <r>    -4.9369    10.0938    31.1416 </r>
       <r>    -4.8693     9.5235    31.7862 </r>
       <r>    -4.8016     5.7803    32.1775 </r>
       <r>    -4.7339     4.7405    32.4984 </r>
       <r>    -4.6662     0.5156    32.5333 </r>
       <r>    -4.5985     0.4290    32.5623 </r>
       <r>    -4.5308     5.5547    32.9383 </r>
       <r>    -4.4631    12.6012    33.7913 </r>
       <r>    -4.3954    12.9877    34.6704 </r>
       <r>    -4.3277     7.0585    35.1482 </r>
       <r>    -4.2600     5.6355    35.5297 </r>
       <r>    -4.1924     8.8849    36.1311 </r>
       <r>    -4.1247     2.0272    36.2683 </r>
       <r>    -4.0570     2.5494    36.4409 </r>
       <r>    -3.9893    10.3345    37.1405 </r>
       <r>    -3.9216    14.7846    38.1412 </r>
       <r>    -3.8539     7.3233    38.6369 </r>
       <r>    -3.7862     5.2697    38.9936 </r>
       <r>    -3.7185    18.7127    40.2603 </r>
       <r>    -3.6508    10.8865    40.9972 </r>
       <r>    -3.5831     1.1020    41.0718 </r>
       <r>    -3.5154     2.4397    41.2370 </r>
       <r>    -3.4478     7.2184    41.7256 </r>
       <r>    -3.3801     3.9138    41.9905 </r>
       <r>    -3.3124     2.9000    42.1868 </r>
       <r>    -3.2447     7.9491    42.7249 </r>
       <r>    -3.1770    12.5789    43.5763 </r>
       <r>    -3.1093     8.2327    44.1336 </r>
       <r>    -3.0416     6.6388    44.5830 </r>
       <r>    -2.9739     6.1438    44.9989 </r>
       <r>    -2.9062     6.1198    45.4131 </r>
       <r>    -2.8385     5.5582    45.7893 </r>
       <r>    -2.7709     7.5833    46.3027 </r>
       <r>    -2.7032     3.2732    46.5242 </r>
       <r>    -2.6355     1.3413    46.6150 </r>
       <r>    -2.5678     3.8376    46.8748 </r>
       <r>    -2.5001     0.9580    46.9396 </r>
       <r>    -2.4324     1.9210    47.0697 </r>
       <r>    -2.3647     4.2765    47.3591 </r>
       <r>    -2.2970     6.8903    47.8256 </r>
       <r>    -2.2293     2.4968    47.9946 </r>
       <r>    -2.1616     0.0803    48.0000 </r>
       <r>    -2.0940     0.0001    48.0000 </r>
       <r>    -2.0263     0.0000    48.0000 </r>
       <r>    -1.9586     0.0000    48.0000 </r>
       <r>    -1.8909     0.0000    48.0000 </r>
       <r>    -1.8232     0.0000    48.0000 </r>
       <r>    -1.7555     0.0000    48.0000 </r>
       <r>    -1.6878     0.0000    48.0000 </r>
       <r>    -1.6201     0.0000    48.0000 </r>
       <r>    -1.5524     0.0000    48.0000 </r>
       <r>    -1.4847     0.0000    48.0000 </r>
       <r>    -1.4171     0.0000    48.0000 </r>
       <r>    -1.3494     0.0000    48.0000 </r>
       <r>    -1.2817     0.0000    48.0000 </r>
       <r>    -1.2140     0.0000    48.0000 </r>
       <r>    -1.1463     0.0000    48.0000 </r>
       <r>    -1.0786     0.0000    48.0000 </r>
       <r>    -1.0109     0.0000    48.0000 </r>
       <r>    -0.9432     0.0189    48.0013 </r>
       <r>    -0.8755     0.8165    48.0565 </r>
       <r>    -0.8078     3.3422    48.2828 </r>
       <r>    -0.7402     1.6703    48.3958 </r>
       <r>    -0.6725     0.2266    48.4112 </r>
       <r>    -0.6048     2.1044    48.5536 </r>
       <r>    -0.5371     2.5373    48.7254 </r>
       <r>    -0.4694     6.4833    49.1642 </r>
       <r>    -0.4017     4.2433    49.4515 </r>
       <r>    -0.3340     0.7099    49.4995 </r>
       <r>    -0.2663     1.2706    49.5855 </r>
       <r>    -0.1986     0.5704    49.6241 </r>
       <r>    -0.1309     3.9500    49.8915 </r>
       <r>    -0.0633     3.3599    50.1189 </r>
       <r>     0.0044     0.2633    50.1368 </r>
       <r>     0.0721     1.4397    50.2342 </r>
       <r>     0.1398     2.3213    50.3914 </r>
       <r>     0.2075     3.0737    50.5994 </r>
       <r>     0.2752    10.1820    51.2886 </r>
       <r>     0.3429     5.4851    51.6599 </r>
       <r>     0.4106     4.2547    51.9479 </r>
       <r>     0.4783     7.6606    52.4665 </r>
       <r>     0.5460     5.8125    52.8599 </r>
       <r>     0.6136     4.1977    53.1441 </r>
       <r>     0.6813     6.1360    53.5594 </r>
       <r>     0.7490    10.5055    54.2705 </r>
       <r>     0.8167    10.5613    54.9854 </r>
       <r>     0.8844     7.9845    55.5259 </r>
       <r>     0.9521    11.8354    56.3270 </r>
       <r>     1.0198     7.6797    56.8469 </r>
       <r>     1.0875     7.5528    57.3581 </r>
       <r>     1.1552     9.5397    58.0039 </r>
       <r>     1.2229    11.9133    58.8103 </r>
       <r>     1.2905     5.1836    59.1611 </r>
       <r>     1.3582     8.0030    59.7029 </r>
       <r>     1.4259     8.9124    60.3061 </r>
       <r>     1.4936     3.2350    60.5251 </r>
       <r>     1.5613     1.7810    60.6457 </r>
       <r>     1.6290     6.4573    61.0828 </r>
       <r>     1.6967     9.8337    61.7484 </r>
       <r>     1.7644     6.4258    62.1834 </r>
       <r>     1.8321     3.6147    62.4281 </r>
       <r>     1.8998     4.9626    62.7640 </r>
       <r>     1.9675     3.9841    63.0337 </r>
       <r>     2.0351     2.2710    63.1874 </r>
       <r>     2.1028     0.2399    63.2036 </r>
       <r>     2.1705     1.4687    63.3030 </r>
       <r>     2.2382     2.2136    63.4529 </r>
       <r>     2.3059     0.4569    63.4838 </r>
       <r>     2.3736     2.3236    63.6411 </r>
       <r>     2.4413     1.3216    63.7306 </r>
       <r>     2.5090     0.0588    63.7345 </r>
       <r>     2.5767     0.9401    63.7982 </r>
       <r>     2.6444     2.5422    63.9703 </r>
       <r>     2.7120     0.4360    63.9998 </r>
       <r>     2.7797     0.0034    64.0000 </r>
       <r>     2.8474     0.0000    64.0000 </r>
       <r>     2.9151     0.0000    64.0000 </r>
       <r>     2.9828     0.0000    64.0000 </r>
       <r>     3.0505     0.0000    64.0000 </r>
       <r>     3.1182     0.0000    64.0000 </r>
       <r>     3.1859     0.0000    64.0000 </r>
       <r>     3.2536     0.0000    64.0000 </r>
       <r>     3.3213     0.0000    64.0000 </r>
       <r>     3.3889     0.0000    64.0000 </r>
       <r>     3.4566     0.0000    64.0000 </r>
       <r>     3.5243     0.0000    64.0000 </r>
      </set>
     </set>
    </array>
   </total>
  </dos>
 </calculation>
 <structure name="finalpos" >
  <crystal>
   <varray name="basis" >
    <v>       6.01920000       0.00000000       0.00000000 </v>
    <v>       0.00000000      10.14000000       0.00000000 </v>
    <v>       0.00000000       0.00000000      15.00000000 </v>
   </varray>
   <i name="volume">    915.52032000 </i>
   <varray name="rec_basis" >
    <v>       0.16613503       0.00000000       0.00000000 </v>
    <v>       0.00000000       0.09861933       0.00000000 </v>
    <v>       0.00000000       0.00000000       0.06666667 </v>
   </varray>
  </crystal>
  <varray name="positions" >
   <v>       0.43225351       0.87758010       0.23922953 </v>
   <v>       0.93210566       0.87783868       0.26043615 </v>
   <v>       0.43263840       0.61780683       0.24098817 </v>
   <v>       0.93341404       0.61962348       0.26671042 </v>
   <v>       0.43116853       0.37652621       0.27382487 </v>
   <v>       0.93300874       0.37825774       0.24383564 </v>
   <v>       0.43186417       0.11893190       0.26120264 </v>
   <v>       0.93199059       0.11874131       0.24087642 </v>
   <v>       0.18208911       0.99804483       0.24952566 </v>
   <v>       0.68203780       0.99813228       0.25006763 </v>
   <v>       0.18277786       0.49851994       0.25587114 </v>
   <v>       0.68261515       0.49894844       0.25910959 </v>
   <v>       0.55754384       0.43527780       0.46571239 </v>
   <v>       0.80849425       0.36767880       0.46192924 </v>
   <v>       0.50676920       0.34998516       0.56008050 </v>
  </varray>
  <varray name="selective"  type="logical" >
   <v type="logical" >  T  T  T </v>
   <v type="logical" >  T  T  T </v>
   <v type="logical" >  T  T  T </v>
   <v type="logical" >  T  T  T </v>
   <v type="logical" >  T  T  T </v>
   <v type="logical" >  T  T  T </v>
   <v type="logical" >  T  T  T </v>
   <v type="logical" >  T  T  T </v>
   <v type="logical" >  T  T  T </v>
   <v type="logical" >  T  T  T </v>
   <v type="logical" >  T  T  T </v>
   <v type="logical" >  T  T  T </v>
   <v type="logical" >  T  T  T </v>
   <v type="logical" >  T  T  T </v>
   <v type="logical" >  T  T  T </v>
  </varray>
  <nose>
   <v>      -3.00000000       0.00000000       0.00010000       0.00010000 </v>
  </nose>
 </structure>
</modeling>
