Al2C                                    
   1.0000000000000000     
     6.0191999999999997    0.0000000000000000    0.0000000000000000
     0.0000000000000000   10.1400000000000006    0.0000000000000000
     0.0000000000000000    0.0000000000000000   15.0000000000000000
   Al   C    S    H 
     8     4     1     2
Selective dynamics
Direct
  0.4338723206008908  0.8772550479591388  0.2517561711081555   T   T   T
  0.9336698735282525  0.8775689188260358  0.2354445032460788   T   T   T
  0.4347325494642078  0.6200399013466438  0.2698654319645613   T   T   T
  0.9335280895781679  0.6181322037520616  0.2407046883606299   T   T   T
  0.4332617129635210  0.3793471941835378  0.2364790621047277   T   T   T
  0.9329250464533061  0.3771223820211560  0.2603244637544151   T   T   T
  0.4336126958776347  0.1194379565669053  0.2335603937276787   T   T   T
  0.9336287262338772  0.1190897949488345  0.2515737289333089   T   T   T
  0.1837627472285703  0.9985209745107326  0.2427752863323960   T   T   T
  0.6836389363854991  0.9986143482639278  0.2420362438433870   T   T   T
  0.1834989121505188  0.4977937877340466  0.2549302866735559   T   T   T
  0.6831656279483767  0.4978680102519490  0.2521350028561145   T   T   T
  0.4334517416490158  0.6166400762958517  0.4581567056405902   T   T   T
  0.2605813024884540  0.6952750990709760  0.4781747920470494   T   T   T
  0.2974405840100403  0.5181877953924428  0.4320832394073264   T   T   T

  0.00000000E+00  0.00000000E+00  0.00000000E+00
  0.00000000E+00  0.00000000E+00  0.00000000E+00
  0.00000000E+00  0.00000000E+00  0.00000000E+00
  0.00000000E+00  0.00000000E+00  0.00000000E+00
  0.00000000E+00  0.00000000E+00  0.00000000E+00
  0.00000000E+00  0.00000000E+00  0.00000000E+00
  0.00000000E+00  0.00000000E+00  0.00000000E+00
  0.00000000E+00  0.00000000E+00  0.00000000E+00
  0.00000000E+00  0.00000000E+00  0.00000000E+00
  0.00000000E+00  0.00000000E+00  0.00000000E+00
  0.00000000E+00  0.00000000E+00  0.00000000E+00
  0.00000000E+00  0.00000000E+00  0.00000000E+00
  0.00000000E+00  0.00000000E+00  0.00000000E+00
  0.00000000E+00  0.00000000E+00  0.00000000E+00
  0.00000000E+00  0.00000000E+00  0.00000000E+00
