   15   15    1    1
  0.6103469E+02  0.6019200E-09  0.1014000E-08  0.1500000E-08  0.3500000E-15
   1.0000000000000000E-004
  CAR 
 Al2C                                    
     48      8     32

  0.3742002E-15  0.3742002E-15  0.1262379E-14  0.6666667E-01
    1      -19.205684   1.000000
    2      -15.352394   1.000000
    3      -15.179385   1.000000
    4      -13.013248   1.000000
    5      -12.938621   1.000000
    6      -10.704101   1.000000
    7       -9.655400   1.000000
    8       -9.439511   1.000000
    9       -9.372636   1.000000
   10       -8.709240   1.000000
   11       -7.192112   1.000000
   12       -6.754397   1.000000
   13       -6.283661   1.000000
   14       -6.077857   1.000000
   15       -5.266393   1.000000
   16       -5.234075   1.000000
   17       -4.789009   1.000000
   18       -4.601099   1.000000
   19       -3.483735   1.000000
   20       -3.273875   1.000000
   21       -3.237746   1.000000
   22       -2.532876   1.000000
   23       -2.420217   1.000000
   24       -2.353505   1.000000
   25       -1.011928   0.000000
   26       -0.363911   0.000000
   27        0.239558   0.000000
   28        0.616742   0.000000
   29        0.822553   0.000000
   30        0.912636   0.000000
   31        1.412546   0.000000
   32        1.418395   0.000000

  0.2000000E+00  0.3742002E-15  0.1262379E-14  0.1333333E+00
    1      -19.204857   1.000000
    2      -15.214403   1.000000
    3      -15.044979   1.000000
    4      -13.430531   1.000000
    5      -13.327225   1.000000
    6      -10.684467   1.000000
    7       -9.277376   1.000000
    8       -9.010307   1.000000
    9       -8.777162   1.000000
   10       -8.694625   1.000000
   11       -7.140717   1.000000
   12       -6.922162   1.000000
   13       -6.586292   1.000000
   14       -6.112243   1.000000
   15       -5.493640   1.000000
   16       -5.070147   1.000000
   17       -4.671930   1.000000
   18       -4.035837   1.000000
   19       -4.016799   1.000000
   20       -3.978930   1.000000
   21       -3.857365   1.000000
   22       -3.045594   1.000000
   23       -2.799232   1.000000
   24       -2.398968   1.000000
   25       -0.936008   0.000000
   26        0.540989   0.000000
   27        0.658007   0.000000
   28        0.880064   0.000000
   29        0.925634   0.000000
   30        1.070141   0.000000
   31        1.271958   0.000000
   32        2.143282   0.000000

  0.4000000E+00  0.3742002E-15  0.1262379E-14  0.1333333E+00
    1      -19.203519   1.000000
    2      -14.809284   1.000000
    3      -14.651101   1.000000
    4      -14.173335   1.000000
    5      -14.036064   1.000000
    6      -10.671055   1.000000
    7       -8.877810   1.000000
    8       -8.676159   1.000000
    9       -7.979122   1.000000
   10       -7.591790   1.000000
   11       -7.340111   1.000000
   12       -6.774703   1.000000
   13       -6.454303   1.000000
   14       -6.112740   1.000000
   15       -5.906508   1.000000
   16       -5.592821   1.000000
   17       -5.309811   1.000000
   18       -4.939524   1.000000
   19       -4.628548   1.000000
   20       -4.281407   1.000000
   21       -3.879525   1.000000
   22       -3.566458   1.000000
   23       -2.926740   1.000000
   24       -2.485602   1.000000
   25       -0.535373   0.000000
   26        0.239696   0.000000
   27        1.069350   0.000000
   28        1.289655   0.000000
   29        1.435002   0.000000
   30        1.462449   0.000000
   31        1.756915   0.000000
   32        2.215910   0.000000

  0.3742002E-15  0.3333333E+00  0.1262379E-14  0.1333333E+00
    1      -19.205711   1.000000
    2      -15.311835   1.000000
    3      -15.224798   1.000000
    4      -12.995386   1.000000
    5      -12.957382   1.000000
    6      -10.704619   1.000000
    7       -9.593755   1.000000
    8       -9.456505   1.000000
    9       -9.121163   1.000000
   10       -8.708239   1.000000
   11       -8.213935   1.000000
   12       -6.578902   1.000000
   13       -5.904994   1.000000
   14       -5.501969   1.000000
   15       -5.238226   1.000000
   16       -5.151836   1.000000
   17       -4.789048   1.000000
   18       -4.358876   1.000000
   19       -3.805580   1.000000
   20       -3.376902   1.000000
   21       -3.271460   1.000000
   22       -3.240397   1.000000
   23       -2.510308   1.000000
   24       -2.378386   1.000000
   25       -0.720597   0.000000
   26        0.080349   0.000000
   27        0.191184   0.000000
   28        0.421817   0.000000
   29        0.755976   0.000000
   30        0.923694   0.000000
   31        1.297177   0.000000
   32        1.635048   0.000000

  0.2000000E+00  0.3333333E+00  0.1262379E-14  0.1333333E+00
    1      -19.204823   1.000000
    2      -15.174617   1.000000
    3      -15.089411   1.000000
    4      -13.405652   1.000000
    5      -13.353739   1.000000
    6      -10.684762   1.000000
    7       -9.012937   1.000000
    8       -8.934164   1.000000
    9       -8.826503   1.000000
   10       -8.694651   1.000000
   11       -8.068805   1.000000
   12       -6.802450   1.000000
   13       -6.373732   1.000000
   14       -5.918935   1.000000
   15       -5.080219   1.000000
   16       -5.017308   1.000000
   17       -4.682619   1.000000
   18       -4.031092   1.000000
   19       -3.980538   1.000000
   20       -3.824534   1.000000
   21       -3.770216   1.000000
   22       -3.309317   1.000000
   23       -2.962916   1.000000
   24       -2.854497   1.000000
   25       -0.589185   0.000000
   26        0.249493   0.000000
   27        0.554168   0.000000
   28        0.798476   0.000000
   29        1.043715   0.000000
   30        1.102240   0.000000
   31        1.335998   0.000000
   32        1.857964   0.000000

  0.4000000E+00  0.3333333E+00  0.1262379E-14  0.1333333E+00
    1      -19.203468   1.000000
    2      -14.771933   1.000000
    3      -14.692469   1.000000
    4      -14.140603   1.000000
    5      -14.071787   1.000000
    6      -10.671281   1.000000
    7       -8.813324   1.000000
    8       -8.441482   1.000000
    9       -7.812537   1.000000
   10       -7.636340   1.000000
   11       -7.569367   1.000000
   12       -7.291021   1.000000
   13       -6.823287   1.000000
   14       -6.262608   1.000000
   15       -5.714175   1.000000
   16       -5.607702   1.000000
   17       -4.617035   1.000000
   18       -4.554597   1.000000
   19       -4.363448   1.000000
   20       -4.102608   1.000000
   21       -3.840350   1.000000
   22       -3.625916   1.000000
   23       -3.219935   1.000000
   24       -3.126027   1.000000
   25       -0.201168   0.000000
   26        0.449410   0.000000
   27        0.684276   0.000000
   28        1.087868   0.000000
   29        1.363494   0.000000
   30        1.449267   0.000000
   31        1.703234   0.000000
   32        1.832201   0.000000

 -0.4000000E+00  0.3333333E+00  0.1262379E-14  0.1333333E+00
    1      -19.203463   1.000000
    2      -14.771873   1.000000
    3      -14.692530   1.000000
    4      -14.140655   1.000000
    5      -14.071735   1.000000
    6      -10.671327   1.000000
    7       -8.810653   1.000000
    8       -8.448852   1.000000
    9       -7.796361   1.000000
   10       -7.637089   1.000000
   11       -7.573909   1.000000
   12       -7.302147   1.000000
   13       -6.815340   1.000000
   14       -6.268756   1.000000
   15       -5.711190   1.000000
   16       -5.608052   1.000000
   17       -4.622258   1.000000
   18       -4.554658   1.000000
   19       -4.354813   1.000000
   20       -4.104535   1.000000
   21       -3.836797   1.000000
   22       -3.628356   1.000000
   23       -3.219836   1.000000
   24       -3.127594   1.000000
   25       -0.192837   0.000000
   26        0.419600   0.000000
   27        0.668425   0.000000
   28        1.141747   0.000000
   29        1.346512   0.000000
   30        1.484804   0.000000
   31        1.740069   0.000000
   32        2.609928   0.000000

 -0.2000000E+00  0.3333333E+00  0.1262379E-14  0.1333333E+00
    1      -19.204816   1.000000
    2      -15.174585   1.000000
    3      -15.089442   1.000000
    4      -13.405706   1.000000
    5      -13.353687   1.000000
    6      -10.684841   1.000000
    7       -9.007189   1.000000
    8       -8.936305   1.000000
    9       -8.832698   1.000000
   10       -8.693591   1.000000
   11       -8.065970   1.000000
   12       -6.801406   1.000000
   13       -6.377877   1.000000
   14       -5.919441   1.000000
   15       -5.080816   1.000000
   16       -5.017307   1.000000
   17       -4.680138   1.000000
   18       -4.031605   1.000000
   19       -3.980819   1.000000
   20       -3.822370   1.000000
   21       -3.770130   1.000000
   22       -3.304185   1.000000
   23       -2.961671   1.000000
   24       -2.860001   1.000000
   25       -0.586981   0.000000
   26        0.224490   0.000000
   27        0.548623   0.000000
   28        0.802375   0.000000
   29        1.043326   0.000000
   30        1.211500   0.000000
   31        1.351371   0.000000
   32        1.866651   0.000000
