--------------------------------------------------------------------------
[[12453,1],1]: A high-performance Open MPI point-to-point messaging module
was unable to find any relevant network interfaces:

Module: OpenFabrics (openib)
  Host: compute-0-2

Another transport will be used instead, although this may result in
lower performance.
--------------------------------------------------------------------------
 running on    4 total cores
 distrk:  each k-point on    4 cores,    1 groups
 distr:  one band on    1 cores,    4 groups
 using from now: INCAR     
 vasp.5.4.4.18Apr17-6-g9f103f2a35 (build Dec  6 2019 17:49:40) complex           
 POSCAR found type information on POSCAR  Al C  S  H 
 POSCAR found :  4 types and      15 ions
 scaLAPACK will be used
 LDA part: xc-table for Pade appr. of Perdew
 POSCAR found type information on POSCAR  Al C  S  H 
 POSCAR found :  4 types and      15 ions
 WARNING: stress and forces are not correct
 POSCAR, INCAR and KPOINTS ok, starting setup
 FFT: planning ...
[compute-0-2.cluster.gsc.inifta.unlp.edu.ar:13052] 3 more processes have sent help message help-mpi-btl-base.txt / btl:no-nics
[compute-0-2.cluster.gsc.inifta.unlp.edu.ar:13052] Set MCA parameter "orte_base_help_aggregate" to 0 to see all help / error messages
 WAVECAR not read
 charge-density read from file: Al2C                                    
 entering main loop

 ----------------------------------------------------------------------------- 
|                                                                             |
|           W    W    AA    RRRRR   N    N  II  N    N   GGGG   !!!           |
|           W    W   A  A   R    R  NN   N  II  NN   N  G    G  !!!           |
|           W    W  A    A  R    R  N N  N  II  N N  N  G       !!!           |
|           W WW W  AAAAAA  RRRRR   N  N N  II  N  N N  G  GGG   !            |
|           WW  WW  A    A  R   R   N   NN  II  N   NN  G    G                |
|           W    W  A    A  R    R  N    N  II  N    N   GGGG   !!!           |
|                                                                             |
|      ALGO=A and IALGO=5X tend to fail with the tetrahedron method           |
|      (e.g. Bloechls method ISMEAR=-5 is not variational)                    |
|      please switch to IMSEAR=0-n, except for DOS calculations               |
|      For DOS calculations use IALGO=53 after preconverging with ISMEAR>=0   |
|          I HOPE YOU KNOW, WHAT YOU ARE  DOING                               |
|                                                                             |
 ----------------------------------------------------------------------------- 

       N       E                     dE             d eps       ncg     rms          ort
DAV:   1     0.450817752638E+03    0.45082E+03   -0.11173E+04   256   0.960E+02
DAV:   2     0.222132485743E+03   -0.22869E+03   -0.21760E+03   256   0.250E+02
DAV:   3     0.125543288397E+03   -0.96589E+02   -0.91633E+02   256   0.158E+02
DAV:   4     0.749821851936E+02   -0.50561E+02   -0.48222E+02   256   0.131E+02
DAV:   5     0.457694629120E+02   -0.29213E+02   -0.27783E+02   256   0.902E+01
DAV:   6     0.278390758379E+02   -0.17930E+02   -0.17144E+02   256   0.740E+01
DAV:   7     0.165036280764E+02   -0.11335E+02   -0.10882E+02   256   0.533E+01
 gam= 0.000 g(H,U,f)=  0.458E+02 0.379E+00 0.840E-01 ort(H,U,f) = 0.000E+00 0.000E+00 0.000E+00
SDA:   8    -0.420346477118E+02   -0.58538E+02   -0.18508E+02   256   0.463E+02 0.000E+00
 gam= 0.382 g(H,U,f)=  0.176E+02 0.162E+01 0.747E-01 ort(H,U,f) = 0.243E+02 0.705E+00 0.332E-01
DMP:   9    -0.565037374817E+02   -0.14469E+02   -0.11569E+02   256   0.193E+02 0.251E+02
 gam= 0.382 g(H,U,f)=  0.694E+01 0.215E+01 0.125E+00 ort(H,U,f) = 0.861E+01 0.172E+01 0.714E-01
DMP:  10    -0.645916144201E+02   -0.80879E+01   -0.52775E+01   256   0.922E+01 0.104E+02
 gam= 0.382 g(H,U,f)=  0.440E+01 0.397E+01 0.437E+00 ort(H,U,f) = 0.377E+01 0.422E+01 0.331E+00
DMP:  11    -0.690319661306E+02   -0.44404E+01   -0.47969E+01   256   0.881E+01 0.832E+01
 gam= 0.382 g(H,U,f)=  0.283E+01 0.212E+01 0.307E-01 ort(H,U,f) = 0.326E+01 0.286E+01 0.550E-01
DMP:  12    -0.731506930673E+02   -0.41187E+01   -0.29389E+01   256   0.499E+01 0.618E+01
 gam= 0.382 g(H,U,f)=  0.158E+01 0.137E+01 0.368E+00 ort(H,U,f) = 0.225E+01 0.202E+01 0.624E+00
DMP:  13    -0.756559450805E+02   -0.25053E+01   -0.20745E+01   256   0.332E+01 0.490E+01
 gam= 0.382 g(H,U,f)=  0.954E+00 0.199E+01 0.122E+01 ort(H,U,f) = 0.155E+01 0.286E+01 0.154E+01
DMP:  14    -0.777527047184E+02   -0.20968E+01   -0.25741E+01   256   0.416E+01 0.595E+01
 gam= 0.382 g(H,U,f)=  0.581E+00 0.849E+00 0.152E-01 ort(H,U,f) = 0.105E+01 0.146E+01 0.274E-02
DMP:  15    -0.794177153782E+02   -0.16650E+01   -0.96250E+00   256   0.144E+01 0.252E+01
 gam= 0.382 g(H,U,f)=  0.339E+00 0.496E+00 0.191E+00 ort(H,U,f) = 0.672E+00 0.905E+00 0.270E+00
DMP:  16    -0.804292760180E+02   -0.10116E+01   -0.69278E+00   256   0.103E+01 0.185E+01
 gam= 0.382 g(H,U,f)=  0.194E+00 0.426E+00 0.113E+00 ort(H,U,f) = 0.415E+00 0.769E+00 0.187E+00
DMP:  17    -0.810104611151E+02   -0.58119E+00   -0.50280E+00   256   0.733E+00 0.137E+01
 gam= 0.382 g(H,U,f)=  0.108E+00 0.650E+00 0.992E-04 ort(H,U,f) = 0.249E+00 0.124E+01 0.100E-03
DMP:  18    -0.815285606532E+02   -0.51810E+00   -0.53047E+00   256   0.758E+00 0.149E+01
 gam= 0.382 g(H,U,f)=  0.612E-01 0.305E+00 0.162E-04 ort(H,U,f) = 0.141E+00 0.638E+00 0.311E-04
DMP:  19    -0.819952689965E+02   -0.46671E+00   -0.26563E+00   256   0.366E+00 0.779E+00
 gam= 0.382 g(H,U,f)=  0.345E-01 0.229E+00 0.517E-08 ort(H,U,f) = 0.753E-01 0.482E+00 0.875E-08
DMP:  20    -0.822179846255E+02   -0.22272E+00   -0.19057E+00   256   0.263E+00 0.558E+00
 gam= 0.382 g(H,U,f)=  0.223E-01 0.820E-01-0.517E-16 ort(H,U,f) = 0.459E-01 0.190E+00-0.117E-15
DMP:  21    -0.823920936270E+02   -0.17411E+00   -0.77799E-01   256   0.104E+00 0.236E+00
 gam= 0.382 g(H,U,f)=  0.137E-01 0.234E-01-0.429E-16 ort(H,U,f) = 0.284E-01 0.601E-01-0.109E-15
DMP:  22    -0.824453507044E+02   -0.53257E-01   -0.28348E-01   256   0.371E-01 0.885E-01
 gam= 0.382 g(H,U,f)=  0.854E-02 0.982E-02 0.849E-14 ort(H,U,f) = 0.185E-01 0.269E-01 0.212E-13
DMP:  23    -0.824687051836E+02   -0.23354E-01   -0.14272E-01   256   0.184E-01 0.454E-01
 gam= 0.382 g(H,U,f)=  0.555E-02 0.456E-02 0.202E-07 ort(H,U,f) = 0.124E-01 0.130E-01 0.565E-07
DMP:  24    -0.824810233804E+02   -0.12318E-01   -0.79257E-02   256   0.101E-01 0.254E-01
 gam= 0.382 g(H,U,f)=  0.375E-02 0.223E-02 0.336E-04 ort(H,U,f) = 0.864E-02 0.643E-02 0.107E-03
DMP:  25    -0.824880494702E+02   -0.70261E-02   -0.47228E-02   256   0.601E-02 0.152E-01
 gam= 0.382 g(H,U,f)=  0.264E-02 0.113E-02 0.489E-03 ort(H,U,f) = 0.614E-02 0.327E-02 0.166E-02
DMP:  26    -0.824923034964E+02   -0.42540E-02   -0.33962E-02   256   0.426E-02 0.111E-01
 gam= 0.382 g(H,U,f)=  0.197E-02 0.598E-03 0.378E-03 ort(H,U,f) = 0.448E-02 0.170E-02 0.134E-02
DMP:  27    -0.824950291575E+02   -0.27257E-02   -0.23258E-02   256   0.294E-02 0.752E-02
 gam= 0.382 g(H,U,f)=  0.153E-02 0.326E-03 0.143E-03 ort(H,U,f) = 0.338E-02 0.906E-03 0.511E-03
DMP:  28    -0.824968824984E+02   -0.18533E-02   -0.15319E-02   256   0.200E-02 0.480E-02
 gam= 0.382 g(H,U,f)=  0.123E-02 0.183E-03 0.470E-04 ort(H,U,f) = 0.263E-02 0.498E-03 0.163E-03
DMP:  29    -0.824982129298E+02   -0.13304E-02   -0.10863E-02   256   0.146E-02 0.329E-02
 gam= 0.382 g(H,U,f)=  0.101E-02 0.106E-03 0.192E-04 ort(H,U,f) = 0.210E-02 0.282E-03 0.595E-04
DMP:  30    -0.824992147698E+02   -0.10018E-02   -0.82775E-03   256   0.114E-02 0.245E-02
 gam= 0.382 g(H,U,f)=  0.857E-03 0.638E-04 0.100E-04 ort(H,U,f) = 0.172E-02 0.164E-03 0.267E-04
DMP:  31    -0.824999987216E+02   -0.78395E-03   -0.66427E-03   256   0.931E-03 0.191E-02
 gam= 0.382 g(H,U,f)=  0.736E-03 0.394E-04 0.573E-05 ort(H,U,f) = 0.144E-02 0.988E-04 0.139E-04
DMP:  32    -0.825006355886E+02   -0.63687E-03   -0.54986E-03   256   0.781E-03 0.155E-02
 gam= 0.382 g(H,U,f)=  0.635E-03 0.251E-04 0.362E-05 ort(H,U,f) = 0.123E-02 0.613E-04 0.842E-05
DMP:  33    -0.825011664517E+02   -0.53086E-03   -0.46382E-03   256   0.664E-03 0.130E-02
 gam= 0.382 g(H,U,f)=  0.553E-03 0.165E-04 0.242E-05 ort(H,U,f) = 0.106E-02 0.391E-04 0.555E-05
DMP:  34    -0.825016162223E+02   -0.44977E-03   -0.39700E-03   256   0.572E-03 0.110E-02
 gam= 0.382 g(H,U,f)=  0.484E-03 0.111E-04 0.166E-05 ort(H,U,f) = 0.918E-03 0.257E-04 0.381E-05
DMP:  35    -0.825020025162E+02   -0.38629E-03   -0.34346E-03   256   0.497E-03 0.947E-03
 gam= 0.382 g(H,U,f)=  0.424E-03 0.767E-05 0.106E-05 ort(H,U,f) = 0.803E-03 0.173E-04 0.245E-05
DMP:  36    -0.825023376023E+02   -0.33509E-03   -0.29858E-03   256   0.432E-03 0.822E-03
 gam= 0.382 g(H,U,f)=  0.372E-03 0.543E-05 0.747E-06 ort(H,U,f) = 0.704E-03 0.120E-04 0.173E-05
DMP:  37    -0.825026295704E+02   -0.29197E-03   -0.26077E-03   256   0.378E-03 0.717E-03
 gam= 0.382 g(H,U,f)=  0.326E-03 0.392E-05 0.493E-06 ort(H,U,f) = 0.618E-03 0.849E-05 0.113E-05
DMP:  38    -0.825028849953E+02   -0.25542E-03   -0.22828E-03   256   0.331E-03 0.628E-03
 gam= 0.382 g(H,U,f)=  0.289E-03 0.290E-05 0.331E-06 ort(H,U,f) = 0.544E-03 0.614E-05 0.754E-06
DMP:  39    -0.825031089664E+02   -0.22397E-03   -0.20101E-03   256   0.292E-03 0.551E-03
 gam= 0.382 g(H,U,f)=  0.257E-03 0.218E-05 0.247E-06 ort(H,U,f) = 0.481E-03 0.454E-05 0.555E-06
DMP:  40    -0.825033064707E+02   -0.19750E-03   -0.17794E-03   256   0.259E-03 0.486E-03
 gam= 0.382 g(H,U,f)=  0.228E-03 0.168E-05 0.173E-06 ort(H,U,f) = 0.428E-03 0.342E-05 0.383E-06
DMP:  41    -0.825034815366E+02   -0.17507E-03   -0.15774E-03   256   0.230E-03 0.432E-03
 gam= 0.382 g(H,U,f)=  0.202E-03 0.131E-05 0.124E-06 ort(H,U,f) = 0.380E-03 0.263E-05 0.270E-06
DMP:  42    -0.825036369296E+02   -0.15539E-03   -0.13994E-03   256   0.203E-03 0.383E-03
 gam= 0.382 g(H,U,f)=  0.179E-03 0.104E-05 0.911E-07 ort(H,U,f) = 0.339E-03 0.206E-05 0.194E-06
DMP:  43    -0.825037749439E+02   -0.13801E-03   -0.12423E-03   256   0.180E-03 0.341E-03
 gam= 0.382 g(H,U,f)=  0.159E-03 0.838E-06 0.679E-07 ort(H,U,f) = 0.301E-03 0.163E-05 0.142E-06
DMP:  44    -0.825038975840E+02   -0.12264E-03   -0.11021E-03   256   0.160E-03 0.303E-03
 gam= 0.382 g(H,U,f)=  0.141E-03 0.683E-06 0.515E-07 ort(H,U,f) = 0.268E-03 0.132E-05 0.106E-06
DMP:  45    -0.825040064848E+02   -0.10890E-03   -0.97728E-04   256   0.141E-03 0.269E-03
 gam= 0.382 g(H,U,f)=  0.125E-03 0.563E-06 0.429E-07 ort(H,U,f) = 0.238E-03 0.107E-05 0.873E-07
DMP:  46    -0.825041031436E+02   -0.96659E-04   -0.86882E-04   256   0.126E-03 0.239E-03
 gam= 0.382 g(H,U,f)=  0.112E-03 0.470E-06 0.333E-07 ort(H,U,f) = 0.212E-03 0.886E-06 0.670E-07
DMP:  47    -0.825041891453E+02   -0.86002E-04   -0.77628E-04   256   0.113E-03 0.213E-03
 gam= 0.382 g(H,U,f)=  0.101E-03 0.396E-06 0.262E-07 ort(H,U,f) = 0.190E-03 0.740E-06 0.521E-07
DMP:  48    -0.825042660460E+02   -0.76901E-04   -0.69645E-04   256   0.101E-03 0.191E-03
 gam= 0.382 g(H,U,f)=  0.908E-04 0.335E-06 0.207E-07 ort(H,U,f) = 0.171E-03 0.623E-06 0.409E-07
DMP:  49    -0.825043350854E+02   -0.69039E-04   -0.62646E-04   256   0.912E-04 0.171E-03
 gam= 0.382 g(H,U,f)=  0.816E-04 0.284E-06 0.165E-07 ort(H,U,f) = 0.154E-03 0.527E-06 0.324E-07
DMP:  50    -0.825043972265E+02   -0.62141E-04   -0.56347E-04   256   0.819E-04 0.154E-03
 gam= 0.382 g(H,U,f)=  0.734E-04 0.242E-06 0.132E-07 ort(H,U,f) = 0.138E-03 0.447E-06 0.258E-07
DMP:  51    -0.825044531527E+02   -0.55926E-04   -0.50677E-04   256   0.736E-04 0.139E-03
 gam= 0.382 g(H,U,f)=  0.660E-04 0.205E-06 0.107E-07 ort(H,U,f) = 0.125E-03 0.380E-06 0.207E-07
DMP:  52    -0.825045034802E+02   -0.50327E-04   -0.45610E-04   256   0.663E-04 0.125E-03
 gam= 0.382 g(H,U,f)=  0.595E-04 0.175E-06 0.864E-08 ort(H,U,f) = 0.112E-03 0.323E-06 0.167E-07
DMP:  53    -0.825045487994E+02   -0.45319E-04   -0.41086E-04   256   0.597E-04 0.113E-03
 gam= 0.382 g(H,U,f)=  0.537E-04 0.148E-06 0.703E-08 ort(H,U,f) = 0.101E-03 0.274E-06 0.135E-07
DMP:  54    -0.825045896438E+02   -0.40844E-04   -0.37055E-04   256   0.538E-04 0.102E-03
 gam= 0.382 g(H,U,f)=  0.487E-04 0.125E-06 0.573E-08 ort(H,U,f) = 0.915E-04 0.232E-06 0.110E-07
DMP:  55    -0.825046264977E+02   -0.36854E-04   -0.33533E-04   256   0.488E-04 0.917E-04
 gam= 0.382 g(H,U,f)=  0.443E-04 0.105E-06 0.469E-08 ort(H,U,f) = 0.829E-04 0.196E-06 0.898E-08
DMP:  56    -0.825046598629E+02   -0.33365E-04   -0.30436E-04   256   0.444E-04 0.831E-04
 gam= 0.382 g(H,U,f)=  0.402E-04 0.886E-07 0.385E-08 ort(H,U,f) = 0.753E-04 0.165E-06 0.735E-08
DMP:  57    -0.825046901579E+02   -0.30295E-04   -0.27657E-04   256   0.403E-04 0.754E-04
 gam= 0.382 g(H,U,f)=  0.366E-04 0.743E-07 0.317E-08 ort(H,U,f) = 0.685E-04 0.139E-06 0.603E-08
DMP:  58    -0.825047176970E+02   -0.27539E-04   -0.25132E-04   256   0.366E-04 0.686E-04
 gam= 0.382 g(H,U,f)=  0.332E-04 0.621E-07 0.262E-08 ort(H,U,f) = 0.623E-04 0.116E-06 0.497E-08
DMP:  59    -0.825047427302E+02   -0.25033E-04   -0.22841E-04   256   0.333E-04 0.624E-04
 gam= 0.382 g(H,U,f)=  0.302E-04 0.519E-07 0.217E-08 ort(H,U,f) = 0.566E-04 0.974E-07 0.411E-08
DMP:  60    -0.825047654893E+02   -0.22759E-04   -0.20775E-04   256   0.303E-04 0.567E-04
 gam= 0.382 g(H,U,f)=  0.274E-04 0.433E-07 0.180E-08 ort(H,U,f) = 0.515E-04 0.814E-07 0.340E-08
DMP:  61    -0.825047861967E+02   -0.20707E-04   -0.18867E-04   256   0.275E-04 0.516E-04
 gam= 0.382 g(H,U,f)=  0.249E-04 0.361E-07 0.149E-08 ort(H,U,f) = 0.468E-04 0.679E-07 0.282E-08
DMP:  62    -0.825048050084E+02   -0.18812E-04   -0.17129E-04   256   0.249E-04 0.469E-04
 gam= 0.382 g(H,U,f)=  0.225E-04 0.301E-07 0.124E-08 ort(H,U,f) = 0.425E-04 0.567E-07 0.234E-08
DMP:  63    -0.825048220924E+02   -0.17084E-04   -0.15536E-04   256   0.226E-04 0.426E-04
 gam= 0.382 g(H,U,f)=  0.204E-04 0.251E-07 0.103E-08 ort(H,U,f) = 0.386E-04 0.473E-07 0.195E-08
DMP:  64    -0.825048375916E+02   -0.15499E-04   -0.14070E-04   256   0.204E-04 0.387E-04
 gam= 0.382 g(H,U,f)=  0.184E-04 0.209E-07 0.858E-09 ort(H,U,f) = 0.350E-04 0.394E-07 0.162E-08
DMP:  65    -0.825048516309E+02   -0.14039E-04   -0.12722E-04   256   0.184E-04 0.350E-04
 gam= 0.382 g(H,U,f)=  0.166E-04 0.173E-07 0.713E-09 ort(H,U,f) = 0.316E-04 0.327E-07 0.135E-08
DMP:  66    -0.825048643282E+02   -0.12697E-04   -0.11488E-04   256   0.166E-04 0.317E-04
 gam= 0.382 g(H,U,f)=  0.150E-04 0.143E-07 0.591E-09 ort(H,U,f) = 0.286E-04 0.271E-07 0.112E-08
DMP:  67    -0.825048757965E+02   -0.11468E-04   -0.10363E-04   256   0.150E-04 0.286E-04
 gam= 0.382 g(H,U,f)=  0.134E-04 0.118E-07 0.489E-09 ort(H,U,f) = 0.258E-04 0.224E-07 0.926E-09
DMP:  68    -0.825048861434E+02   -0.10347E-04   -0.93219E-05   256   0.134E-04 0.258E-04
 gam= 0.382 g(H,U,f)=  0.121E-04 0.969E-08 0.404E-09 ort(H,U,f) = 0.232E-04 0.185E-07 0.766E-09
DMP:  69    -0.825048954520E+02   -0.93086E-05   -0.83750E-05   256   0.121E-04 0.232E-04
 final diagonalization
   1 F= -.82504895E+02 E0= -.82504895E+02  d E =0.000000E+00
