Al2C                                    
           1
     6.019200    0.000000    0.000000
     0.000000   10.140000    0.000000
     0.000000    0.000000   15.000000
   Al   C    S    H 
   8   4   1   2
Direct configuration=     1
   0.43387232  0.87725505  0.25175617
   0.93366987  0.87756892  0.23544450
   0.43473255  0.62003990  0.26986543
   0.93352809  0.61813220  0.24070469
   0.43326171  0.37934719  0.23647906
   0.93292505  0.37712238  0.26032446
   0.43361270  0.11943796  0.23356039
   0.93362873  0.11908979  0.25157373
   0.18376275  0.99852097  0.24277529
   0.68363894  0.99861435  0.24203624
   0.18349891  0.49779379  0.25493029
   0.68316563  0.49786801  0.25213500
   0.43345174  0.61664008  0.45815671
   0.26058130  0.69527510  0.47817479
   0.29744058  0.51818780  0.43208324
