Al2C                                    
   1.0000000000000000     
     6.0191999999999997    0.0000000000000000    0.0000000000000000
     0.0000000000000000   10.1400000000000006    0.0000000000000000
     0.0000000000000000    0.0000000000000000   15.0000000000000000
   Al   C    O    H 
     8     4     1     2
Selective dynamics
Direct
  0.4623285375987933  0.8181936072256946  0.2902343984944338   T   T   T
  0.9643119230101505  0.8204492758006126  0.2527964653550612   T   T   T
  0.4628700584864731  0.5607934594574644  0.2656685916721528   T   T   T
  0.9631113760744014  0.5607640682720501  0.2441886664656749   T   T   T
  0.4632661419844624  0.3192605156699813  0.2405139762405000   T   T   T
  0.9631378026010324  0.3196575569237581  0.2623698344273180   T   T   T
  0.4643773817695518  0.0578469167570432  0.2466775056813688   T   T   T
  0.9653208858315523  0.0618362137214561  0.2737970603439592   T   T   T
  0.2144394794235751  0.9404567366046663  0.2668998210951656   T   T   T
  0.7148350381372666  0.9411864336476725  0.2699378975856277   T   T   T
  0.2132533653559321  0.4396790192021029  0.2513925219660038   T   T   T
  0.7129497460202359  0.4397901827079806  0.2517346158722304   T   T   T
  0.5024000810579139  0.8388111233229196  0.4270668644662194   T   T   T
  0.6189738455649803  0.9040076054261306  0.4139662926875687   T   T   T
  0.3751952036440187  0.8891607763847063  0.4469554876466972   T   T   T

  0.00000000E+00  0.00000000E+00  0.00000000E+00
  0.00000000E+00  0.00000000E+00  0.00000000E+00
  0.00000000E+00  0.00000000E+00  0.00000000E+00
  0.00000000E+00  0.00000000E+00  0.00000000E+00
  0.00000000E+00  0.00000000E+00  0.00000000E+00
  0.00000000E+00  0.00000000E+00  0.00000000E+00
  0.00000000E+00  0.00000000E+00  0.00000000E+00
  0.00000000E+00  0.00000000E+00  0.00000000E+00
  0.00000000E+00  0.00000000E+00  0.00000000E+00
  0.00000000E+00  0.00000000E+00  0.00000000E+00
  0.00000000E+00  0.00000000E+00  0.00000000E+00
  0.00000000E+00  0.00000000E+00  0.00000000E+00
  0.00000000E+00  0.00000000E+00  0.00000000E+00
  0.00000000E+00  0.00000000E+00  0.00000000E+00
  0.00000000E+00  0.00000000E+00  0.00000000E+00
