   15   15    1    1
  0.6103469E+02  0.6019200E-09  0.1014000E-08  0.1500000E-08  0.3500000E-15
   1.0000000000000000E-004
  CAR 
 Al2C                                    
     48      8     32

  0.3742002E-15  0.3742002E-15  0.1262379E-14  0.6666667E-01
    1      -27.803613   1.000000
    2      -15.452799   1.000000
    3      -15.255616   1.000000
    4      -14.254114   1.000000
    5      -13.023850   1.000000
    6      -12.929656   1.000000
    7      -10.983069   1.000000
    8       -9.989604   1.000000
    9       -9.563493   1.000000
   10       -9.378017   1.000000
   11       -8.772409   1.000000
   12       -7.063832   1.000000
   13       -6.514843   1.000000
   14       -6.111680   1.000000
   15       -5.490512   1.000000
   16       -5.305282   1.000000
   17       -4.957995   1.000000
   18       -4.591797   1.000000
   19       -3.570138   1.000000
   20       -3.311599   1.000000
   21       -3.288980   1.000000
   22       -2.705116   1.000000
   23       -2.479319   1.000000
   24       -2.426618   1.000000
   25       -1.035134   0.000000
   26       -0.377719   0.000000
   27        0.179262   0.000000
   28        0.436447   0.000000
   29        0.700622   0.000000
   30        0.849626   0.000000
   31        1.393743   0.000000
   32        2.081981   0.000000

  0.2000000E+00  0.3742002E-15  0.1262379E-14  0.1333333E+00
    1      -27.803596   1.000000
    2      -15.324018   1.000000
    3      -15.123895   1.000000
    4      -14.276448   1.000000
    5      -13.430594   1.000000
    6      -13.301726   1.000000
    7      -10.970115   1.000000
    8       -9.658554   1.000000
    9       -9.178309   1.000000
   10       -8.910495   1.000000
   11       -8.514087   1.000000
   12       -6.974186   1.000000
   13       -6.853823   1.000000
   14       -6.370443   1.000000
   15       -5.541367   1.000000
   16       -5.258766   1.000000
   17       -4.815443   1.000000
   18       -4.115141   1.000000
   19       -4.045747   1.000000
   20       -4.029890   1.000000
   21       -3.868799   1.000000
   22       -3.185500   1.000000
   23       -2.890770   1.000000
   24       -2.442905   1.000000
   25       -0.993743   0.000000
   26        0.445503   0.000000
   27        0.546005   0.000000
   28        0.764837   0.000000
   29        0.840581   0.000000
   30        1.016471   0.000000
   31        1.435860   0.000000
   32        1.807895   0.000000

  0.4000000E+00  0.3742002E-15  0.1262379E-14  0.1333333E+00
    1      -27.803568   1.000000
    2      -14.973141   1.000000
    3      -14.743640   1.000000
    4      -14.425350   1.000000
    5      -14.134576   1.000000
    6      -13.837599   1.000000
    7      -10.956311   1.000000
    8       -9.429441   1.000000
    9       -8.658099   1.000000
   10       -7.889474   1.000000
   11       -7.550848   1.000000
   12       -7.317100   1.000000
   13       -6.581862   1.000000
   14       -6.233481   1.000000
   15       -6.046552   1.000000
   16       -5.636954   1.000000
   17       -5.345139   1.000000
   18       -4.982689   1.000000
   19       -4.798578   1.000000
   20       -4.406801   1.000000
   21       -4.008113   1.000000
   22       -3.668304   1.000000
   23       -2.954573   1.000000
   24       -2.521994   1.000000
   25       -0.601791   0.000000
   26        0.195284   0.000000
   27        0.971459   0.000000
   28        1.245180   0.000000
   29        1.397711   0.000000
   30        1.561023   0.000000
   31        2.057436   0.000000
   32        2.427310   0.000000

  0.3742002E-15  0.3333333E+00  0.1262379E-14  0.1333333E+00
    1      -27.803597   1.000000
    2      -15.423540   1.000000
    3      -15.289290   1.000000
    4      -14.254756   1.000000
    5      -13.014197   1.000000
    6      -12.940230   1.000000
    7      -10.976081   1.000000
    8       -9.974904   1.000000
    9       -9.562405   1.000000
   10       -9.165568   1.000000
   11       -8.756228   1.000000
   12       -8.076127   1.000000
   13       -5.939309   1.000000
   14       -5.543618   1.000000
   15       -5.389948   1.000000
   16       -5.224803   1.000000
   17       -5.006345   1.000000
   18       -4.370430   1.000000
   19       -3.854680   1.000000
   20       -3.434372   1.000000
   21       -3.306788   1.000000
   22       -3.293643   1.000000
   23       -2.692804   1.000000
   24       -2.440332   1.000000
   25       -0.759581   0.000000
   26        0.036828   0.000000
   27        0.173523   0.000000
   28        0.332164   0.000000
   29        0.574979   0.000000
   30        0.953847   0.000000
   31        1.220343   0.000000
   32        1.917541   0.000000

  0.2000000E+00  0.3333333E+00  0.1262379E-14  0.1333333E+00
    1      -27.803492   1.000000
    2      -15.297424   1.000000
    3      -15.154512   1.000000
    4      -14.276521   1.000000
    5      -13.417802   1.000000
    6      -13.316311   1.000000
    7      -10.964751   1.000000
    8       -9.640142   1.000000
    9       -8.958724   1.000000
   10       -8.881871   1.000000
   11       -8.537505   1.000000
   12       -7.935067   1.000000
   13       -6.628067   1.000000
   14       -6.001433   1.000000
   15       -5.199609   1.000000
   16       -5.093553   1.000000
   17       -4.881751   1.000000
   18       -4.066372   1.000000
   19       -4.022712   1.000000
   20       -3.876739   1.000000
   21       -3.794827   1.000000
   22       -3.379851   1.000000
   23       -3.088852   1.000000
   24       -2.931007   1.000000
   25       -0.628125   0.000000
   26        0.184129   0.000000
   27        0.529473   0.000000
   28        0.576858   0.000000
   29        0.921787   0.000000
   30        1.175519   0.000000
   31        1.394595   0.000000
   32        1.581878   0.000000

  0.4000000E+00  0.3333333E+00  0.1262379E-14  0.1333333E+00
    1      -27.803439   1.000000
    2      -14.957336   1.000000
    3      -14.760484   1.000000
    4      -14.421848   1.000000
    5      -14.138305   1.000000
    6      -13.842951   1.000000
    7      -10.953303   1.000000
    8       -9.415643   1.000000
    9       -8.387575   1.000000
   10       -7.731480   1.000000
   11       -7.612374   1.000000
   12       -7.462992   1.000000
   13       -7.256991   1.000000
   14       -6.729532   1.000000
   15       -5.762960   1.000000
   16       -5.662288   1.000000
   17       -4.746469   1.000000
   18       -4.622354   1.000000
   19       -4.486664   1.000000
   20       -4.162080   1.000000
   21       -3.947031   1.000000
   22       -3.733304   1.000000
   23       -3.261531   1.000000
   24       -3.163785   1.000000
   25       -0.250109   0.000000
   26        0.374949   0.000000
   27        0.599521   0.000000
   28        1.158341   0.000000
   29        1.304061   0.000000
   30        1.606852   0.000000
   31        1.800559   0.000000
   32        2.316325   0.000000

 -0.4000000E+00  0.3333333E+00  0.1262379E-14  0.1333333E+00
    1      -27.803448   1.000000
    2      -14.957262   1.000000
    3      -14.760613   1.000000
    4      -14.421820   1.000000
    5      -14.138413   1.000000
    6      -13.842914   1.000000
    7      -10.953153   1.000000
    8       -9.416686   1.000000
    9       -8.382660   1.000000
   10       -7.728471   1.000000
   11       -7.623450   1.000000
   12       -7.471232   1.000000
   13       -7.242210   1.000000
   14       -6.734300   1.000000
   15       -5.757175   1.000000
   16       -5.664127   1.000000
   17       -4.748908   1.000000
   18       -4.620970   1.000000
   19       -4.492776   1.000000
   20       -4.148037   1.000000
   21       -3.945219   1.000000
   22       -3.746203   1.000000
   23       -3.256905   1.000000
   24       -3.165550   1.000000
   25       -0.266032   0.000000
   26        0.400429   0.000000
   27        0.609439   0.000000
   28        1.095845   0.000000
   29        1.301620   0.000000
   30        1.596495   0.000000
   31        1.695651   0.000000
   32        2.228377   0.000000

 -0.2000000E+00  0.3333333E+00  0.1262379E-14  0.1333333E+00
    1      -27.803501   1.000000
    2      -15.297353   1.000000
    3      -15.154599   1.000000
    4      -14.276524   1.000000
    5      -13.418103   1.000000
    6      -13.316011   1.000000
    7      -10.964636   1.000000
    8       -9.641382   1.000000
    9       -8.960891   1.000000
   10       -8.878403   1.000000
   11       -8.533925   1.000000
   12       -7.939834   1.000000
   13       -6.628959   1.000000
   14       -6.000727   1.000000
   15       -5.200026   1.000000
   16       -5.091506   1.000000
   17       -4.879716   1.000000
   18       -4.068568   1.000000
   19       -4.025081   1.000000
   20       -3.873693   1.000000
   21       -3.793617   1.000000
   22       -3.378265   1.000000
   23       -3.086735   1.000000
   24       -2.936586   1.000000
   25       -0.645153   0.000000
   26        0.196937   0.000000
   27        0.541261   0.000000
   28        0.587973   0.000000
   29        0.918144   0.000000
   30        1.153213   0.000000
   31        1.643439   0.000000
   32        2.214147   0.000000
