--------------------------------------------------------------------------
[[42767,1],0]: A high-performance Open MPI point-to-point messaging module
was unable to find any relevant network interfaces:

Module: OpenFabrics (openib)
  Host: compute-1-2

Another transport will be used instead, although this may result in
lower performance.
--------------------------------------------------------------------------
 running on    4 total cores
 distrk:  each k-point on    4 cores,    1 groups
 distr:  one band on    1 cores,    4 groups
 using from now: INCAR     
 vasp.5.4.4.18Apr17-6-g9f103f2a35 (build Dec  6 2019 17:49:40) complex           
 POSCAR found type information on POSCAR  Al C  O  H 
 POSCAR found :  4 types and      15 ions
 scaLAPACK will be used
 LDA part: xc-table for Pade appr. of Perdew
 POSCAR found type information on POSCAR  Al C  O  H 
 POSCAR found :  4 types and      15 ions
 WARNING: stress and forces are not correct
 POSCAR, INCAR and KPOINTS ok, starting setup
 FFT: planning ...
[compute-1-2.cluster.gsc.inifta.unlp.edu.ar:09833] 3 more processes have sent help message help-mpi-btl-base.txt / btl:no-nics
[compute-1-2.cluster.gsc.inifta.unlp.edu.ar:09833] Set MCA parameter "orte_base_help_aggregate" to 0 to see all help / error messages
 WAVECAR not read
 charge-density read from file: Al2C                                    
 entering main loop

 ----------------------------------------------------------------------------- 
|                                                                             |
|           W    W    AA    RRRRR   N    N  II  N    N   GGGG   !!!           |
|           W    W   A  A   R    R  NN   N  II  NN   N  G    G  !!!           |
|           W    W  A    A  R    R  N N  N  II  N N  N  G       !!!           |
|           W WW W  AAAAAA  RRRRR   N  N N  II  N  N N  G  GGG   !            |
|           WW  WW  A    A  R   R   N   NN  II  N   NN  G    G                |
|           W    W  A    A  R    R  N    N  II  N    N   GGGG   !!!           |
|                                                                             |
|      ALGO=A and IALGO=5X tend to fail with the tetrahedron method           |
|      (e.g. Bloechls method ISMEAR=-5 is not variational)                    |
|      please switch to IMSEAR=0-n, except for DOS calculations               |
|      For DOS calculations use IALGO=53 after preconverging with ISMEAR>=0   |
|          I HOPE YOU KNOW, WHAT YOU ARE  DOING                               |
|                                                                             |
 ----------------------------------------------------------------------------- 

       N       E                     dE             d eps       ncg     rms          ort
DAV:   1     0.473505106010E+03    0.47351E+03   -0.11209E+04   256   0.961E+02
DAV:   2     0.232231996313E+03   -0.24127E+03   -0.22886E+03   256   0.260E+02
DAV:   3     0.130159940926E+03   -0.10207E+03   -0.97016E+02   256   0.169E+02
DAV:   4     0.777388499832E+02   -0.52421E+02   -0.49824E+02   256   0.129E+02
DAV:   5     0.480536352896E+02   -0.29685E+02   -0.28318E+02   256   0.929E+01
DAV:   6     0.303752485202E+02   -0.17678E+02   -0.17000E+02   256   0.723E+01
DAV:   7     0.192357859999E+02   -0.11139E+02   -0.10635E+02   256   0.535E+01
 gam= 0.000 g(H,U,f)=  0.478E+02 0.534E+00 0.356E-01 ort(H,U,f) = 0.000E+00 0.000E+00 0.000E+00
SDA:   8    -0.458923313209E+02   -0.65128E+02   -0.19362E+02   256   0.484E+02 0.000E+00
 gam= 0.382 g(H,U,f)=  0.180E+02 0.206E+01 0.123E+00 ort(H,U,f) = 0.245E+02 0.868E+00 0.403E-01
DMP:   9    -0.608641536538E+02   -0.14972E+02   -0.11939E+02   256   0.202E+02 0.254E+02
 gam= 0.382 g(H,U,f)=  0.734E+01 0.263E+01 0.265E+00 ort(H,U,f) = 0.854E+01 0.207E+01 0.216E+00
DMP:  10    -0.692813281031E+02   -0.84172E+01   -0.57494E+01   256   0.102E+02 0.108E+02
 gam= 0.382 g(H,U,f)=  0.433E+01 0.225E+01 0.159E-01 ort(H,U,f) = 0.364E+01 0.253E+01 0.170E-01
DMP:  11    -0.735750176417E+02   -0.42937E+01   -0.35852E+01   256   0.660E+01 0.619E+01
 gam= 0.382 g(H,U,f)=  0.257E+01 0.184E+01 0.740E+00 ort(H,U,f) = 0.277E+01 0.252E+01 0.811E+00
DMP:  12    -0.768318373762E+02   -0.32568E+01   -0.29917E+01   256   0.515E+01 0.610E+01
 gam= 0.382 g(H,U,f)=  0.153E+01 0.159E+01 0.959E-02 ort(H,U,f) = 0.204E+01 0.240E+01 0.143E-01
DMP:  13    -0.796108572107E+02   -0.27790E+01   -0.19317E+01   256   0.313E+01 0.445E+01
 gam= 0.382 g(H,U,f)=  0.860E+00 0.133E+01 0.246E+00 ort(H,U,f) = 0.134E+01 0.213E+01 0.485E+00
DMP:  14    -0.814046097102E+02   -0.17938E+01   -0.15801E+01   256   0.244E+01 0.395E+01
 gam= 0.382 g(H,U,f)=  0.528E+00 0.109E+01 0.192E+00 ort(H,U,f) = 0.919E+00 0.182E+01 0.338E+00
DMP:  15    -0.832009015247E+02   -0.17963E+01   -0.11939E+01   256   0.181E+01 0.308E+01
 gam= 0.382 g(H,U,f)=  0.307E+00 0.647E+00 0.286E+00 ort(H,U,f) = 0.574E+00 0.120E+01 0.464E+00
DMP:  16    -0.843242626138E+02   -0.11234E+01   -0.83878E+00   256   0.124E+01 0.224E+01
 gam= 0.382 g(H,U,f)=  0.180E+00 0.486E+00 0.265E-01 ort(H,U,f) = 0.346E+00 0.961E+00 0.406E-01
DMP:  17    -0.852862839598E+02   -0.96202E+00   -0.48296E+00   256   0.692E+00 0.135E+01
 gam= 0.382 g(H,U,f)=  0.102E+00 0.351E+00 0.105E+00 ort(H,U,f) = 0.207E+00 0.693E+00 0.143E+00
DMP:  18    -0.858843098809E+02   -0.59803E+00   -0.38257E+00   256   0.558E+00 0.104E+01
 gam= 0.382 g(H,U,f)=  0.587E-01 0.404E+00 0.349E+00 ort(H,U,f) = 0.136E+00 0.731E+00 0.575E+00
DMP:  19    -0.861954903961E+02   -0.31118E+00   -0.54475E+00   256   0.811E+00 0.144E+01
 gam= 0.382 g(H,U,f)=  0.362E-01 0.525E+00 0.234E-03 ort(H,U,f) = 0.734E-01 0.108E+01 0.444E-03
DMP:  20    -0.865614377383E+02   -0.36595E+00   -0.40071E+00   256   0.561E+00 0.115E+01
 gam= 0.382 g(H,U,f)=  0.225E-01 0.817E-01 0.121E-15 ort(H,U,f) = 0.375E-01 0.198E+00 0.312E-15
DMP:  21    -0.867862986172E+02   -0.22486E+00   -0.77666E-01   256   0.104E+00 0.236E+00
 gam= 0.382 g(H,U,f)=  0.127E-01 0.259E-01-0.267E-19 ort(H,U,f) = 0.229E-01 0.692E-01-0.733E-19
DMP:  22    -0.868417250045E+02   -0.55426E-01   -0.29530E-01   256   0.386E-01 0.922E-01
 gam= 0.382 g(H,U,f)=  0.769E-02 0.106E-01 0.479E-12 ort(H,U,f) = 0.154E-01 0.300E-01 0.141E-11
DMP:  23    -0.868655810716E+02   -0.23856E-01   -0.14263E-01   256   0.183E-01 0.454E-01
 gam= 0.382 g(H,U,f)=  0.505E-02 0.482E-02 0.792E-06 ort(H,U,f) = 0.108E-01 0.141E-01 0.258E-05
DMP:  24    -0.868777084212E+02   -0.12127E-01   -0.77401E-02   256   0.987E-02 0.248E-01
 gam= 0.382 g(H,U,f)=  0.340E-02 0.231E-02 0.342E-03 ort(H,U,f) = 0.765E-02 0.683E-02 0.119E-02
DMP:  25    -0.868844820871E+02   -0.67737E-02   -0.48133E-02   256   0.605E-02 0.157E-01
 gam= 0.382 g(H,U,f)=  0.237E-02 0.116E-02 0.114E-02 ort(H,U,f) = 0.545E-02 0.341E-02 0.412E-02
DMP:  26    -0.868885022665E+02   -0.40202E-02   -0.38486E-02   256   0.466E-02 0.130E-01
 gam= 0.382 g(H,U,f)=  0.173E-02 0.600E-03 0.475E-03 ort(H,U,f) = 0.396E-02 0.174E-02 0.170E-02
DMP:  27    -0.868910248230E+02   -0.25226E-02   -0.22549E-02   256   0.281E-02 0.741E-02
 gam= 0.382 g(H,U,f)=  0.132E-02 0.322E-03 0.155E-03 ort(H,U,f) = 0.296E-02 0.916E-03 0.515E-03
DMP:  28    -0.868927029583E+02   -0.16781E-02   -0.13893E-02   256   0.179E-02 0.439E-02
 gam= 0.382 g(H,U,f)=  0.104E-02 0.179E-03 0.667E-04 ort(H,U,f) = 0.228E-02 0.495E-03 0.197E-03
DMP:  29    -0.868938813899E+02   -0.11784E-02   -0.96818E-03   256   0.129E-02 0.297E-02
 gam= 0.382 g(H,U,f)=  0.852E-03 0.102E-03 0.369E-04 ort(H,U,f) = 0.180E-02 0.276E-03 0.974E-04
DMP:  30    -0.868947515027E+02   -0.87011E-03   -0.72804E-03   256   0.991E-03 0.217E-02
 gam= 0.382 g(H,U,f)=  0.712E-03 0.601E-04 0.220E-04 ort(H,U,f) = 0.146E-02 0.158E-03 0.539E-04
DMP:  31    -0.868954236822E+02   -0.67218E-03   -0.57277E-03   256   0.794E-03 0.167E-02
 gam= 0.382 g(H,U,f)=  0.602E-03 0.364E-04 0.136E-04 ort(H,U,f) = 0.121E-02 0.934E-04 0.322E-04
DMP:  32    -0.868959616424E+02   -0.53796E-03   -0.46455E-03   256   0.652E-03 0.133E-02
 gam= 0.382 g(H,U,f)=  0.514E-03 0.227E-04 0.874E-05 ort(H,U,f) = 0.102E-02 0.567E-04 0.205E-04
DMP:  33    -0.868964031090E+02   -0.44147E-03   -0.38524E-03   256   0.546E-03 0.109E-02
 gam= 0.382 g(H,U,f)=  0.444E-03 0.145E-04 0.570E-05 ort(H,U,f) = 0.865E-03 0.354E-04 0.133E-04
DMP:  34    -0.868967722669E+02   -0.36916E-03   -0.32533E-03   256   0.464E-03 0.913E-03
 gam= 0.382 g(H,U,f)=  0.389E-03 0.958E-05 0.376E-05 ort(H,U,f) = 0.744E-03 0.227E-04 0.882E-05
DMP:  35    -0.868970859986E+02   -0.31373E-03   -0.27931E-03   256   0.402E-03 0.776E-03
 gam= 0.382 g(H,U,f)=  0.345E-03 0.652E-05 0.240E-05 ort(H,U,f) = 0.648E-03 0.150E-04 0.565E-05
DMP:  36    -0.868973566980E+02   -0.27070E-03   -0.24356E-03   256   0.354E-03 0.669E-03
 gam= 0.382 g(H,U,f)=  0.310E-03 0.459E-05 0.163E-05 ort(H,U,f) = 0.571E-03 0.102E-04 0.381E-05
DMP:  37    -0.868975937440E+02   -0.23705E-03   -0.21573E-03   256   0.316E-03 0.585E-03
 gam= 0.382 g(H,U,f)=  0.279E-03 0.335E-05 0.108E-05 ort(H,U,f) = 0.510E-03 0.724E-05 0.250E-05
DMP:  38    -0.868978043185E+02   -0.21057E-03   -0.19257E-03   256   0.283E-03 0.520E-03
 gam= 0.382 g(H,U,f)=  0.253E-03 0.253E-05 0.728E-06 ort(H,U,f) = 0.458E-03 0.529E-05 0.166E-05
DMP:  39    -0.868979927503E+02   -0.18843E-03   -0.17344E-03   256   0.256E-03 0.465E-03
 gam= 0.382 g(H,U,f)=  0.231E-03 0.196E-05 0.524E-06 ort(H,U,f) = 0.414E-03 0.399E-05 0.118E-05
DMP:  40    -0.868981627742E+02   -0.17002E-03   -0.15727E-03   256   0.233E-03 0.419E-03
 gam= 0.382 g(H,U,f)=  0.210E-03 0.157E-05 0.373E-06 ort(H,U,f) = 0.377E-03 0.311E-05 0.820E-06
DMP:  41    -0.868983171442E+02   -0.15437E-03   -0.14280E-03   256   0.212E-03 0.381E-03
 gam= 0.382 g(H,U,f)=  0.191E-03 0.127E-05 0.274E-06 ort(H,U,f) = 0.343E-03 0.248E-05 0.588E-06
DMP:  42    -0.868984574364E+02   -0.14029E-03   -0.13000E-03   256   0.193E-03 0.346E-03
 gam= 0.382 g(H,U,f)=  0.174E-03 0.105E-05 0.206E-06 ort(H,U,f) = 0.312E-03 0.202E-05 0.431E-06
DMP:  43    -0.868985852062E+02   -0.12777E-03   -0.11833E-03   256   0.176E-03 0.315E-03
 gam= 0.382 g(H,U,f)=  0.160E-03 0.880E-06 0.158E-06 ort(H,U,f) = 0.284E-03 0.167E-05 0.324E-06
DMP:  44    -0.868987014500E+02   -0.11624E-03   -0.10802E-03   256   0.161E-03 0.286E-03
 gam= 0.382 g(H,U,f)=  0.146E-03 0.738E-06 0.125E-06 ort(H,U,f) = 0.259E-03 0.139E-05 0.250E-06
DMP:  45    -0.868988074331E+02   -0.10598E-03   -0.98686E-04   256   0.147E-03 0.260E-03
 gam= 0.382 g(H,U,f)=  0.133E-03 0.616E-06 0.104E-06 ort(H,U,f) = 0.236E-03 0.116E-05 0.205E-06
DMP:  46    -0.868989040923E+02   -0.96659E-04   -0.89753E-04   256   0.134E-03 0.237E-03
 gam= 0.382 g(H,U,f)=  0.120E-03 0.509E-06 0.846E-07 ort(H,U,f) = 0.214E-03 0.963E-06 0.164E-06
DMP:  47    -0.868989918316E+02   -0.87739E-04   -0.81091E-04   256   0.121E-03 0.215E-03
 gam= 0.382 g(H,U,f)=  0.109E-03 0.419E-06 0.696E-07 ort(H,U,f) = 0.193E-03 0.796E-06 0.133E-06
DMP:  48    -0.868990710478E+02   -0.79216E-04   -0.73212E-04   256   0.109E-03 0.194E-03
 gam= 0.382 g(H,U,f)=  0.978E-04 0.344E-06 0.577E-07 ort(H,U,f) = 0.175E-03 0.655E-06 0.110E-06
DMP:  49    -0.868991427572E+02   -0.71709E-04   -0.66154E-04   256   0.982E-04 0.176E-03
 gam= 0.382 g(H,U,f)=  0.882E-04 0.283E-06 0.482E-07 ort(H,U,f) = 0.160E-03 0.539E-06 0.910E-07
DMP:  50    -0.868992078393E+02   -0.65082E-04   -0.59887E-04   256   0.885E-04 0.160E-03
 gam= 0.382 g(H,U,f)=  0.795E-04 0.233E-06 0.406E-07 ort(H,U,f) = 0.146E-03 0.443E-06 0.761E-07
DMP:  51    -0.868992669545E+02   -0.59115E-04   -0.54226E-04   256   0.798E-04 0.146E-03
 gam= 0.382 g(H,U,f)=  0.722E-04 0.192E-06 0.342E-07 ort(H,U,f) = 0.132E-03 0.365E-06 0.639E-07
DMP:  52    -0.868993205896E+02   -0.53635E-04   -0.49271E-04   256   0.725E-04 0.133E-03
 gam= 0.382 g(H,U,f)=  0.663E-04 0.158E-06 0.289E-07 ort(H,U,f) = 0.121E-03 0.300E-06 0.538E-07
DMP:  53    -0.868993693802E+02   -0.48791E-04   -0.45085E-04   256   0.665E-04 0.121E-03
 gam= 0.382 g(H,U,f)=  0.610E-04 0.130E-06 0.245E-07 ort(H,U,f) = 0.110E-03 0.247E-06 0.455E-07
DMP:  54    -0.868994140504E+02   -0.44670E-04   -0.41382E-04   256   0.611E-04 0.111E-03
 gam= 0.382 g(H,U,f)=  0.557E-04 0.108E-06 0.208E-07 ort(H,U,f) = 0.102E-03 0.205E-06 0.386E-07
DMP:  55    -0.868994550716E+02   -0.41021E-04   -0.37897E-04   256   0.559E-04 0.102E-03
 gam= 0.382 g(H,U,f)=  0.512E-04 0.899E-07 0.178E-07 ort(H,U,f) = 0.931E-04 0.170E-06 0.328E-07
DMP:  56    -0.868994926575E+02   -0.37586E-04   -0.34779E-04   256   0.513E-04 0.933E-04
 gam= 0.382 g(H,U,f)=  0.472E-04 0.752E-07 0.152E-07 ort(H,U,f) = 0.855E-04 0.141E-06 0.280E-07
DMP:  57    -0.868995271665E+02   -0.34509E-04   -0.31994E-04   256   0.473E-04 0.857E-04
 gam= 0.382 g(H,U,f)=  0.432E-04 0.632E-07 0.131E-07 ort(H,U,f) = 0.787E-04 0.118E-06 0.240E-07
DMP:  58    -0.868995589258E+02   -0.31759E-04   -0.29351E-04   256   0.432E-04 0.789E-04
 gam= 0.382 g(H,U,f)=  0.396E-04 0.533E-07 0.112E-07 ort(H,U,f) = 0.723E-04 0.996E-07 0.206E-07
DMP:  59    -0.868995880740E+02   -0.29148E-04   -0.26938E-04   256   0.397E-04 0.724E-04
 gam= 0.382 g(H,U,f)=  0.364E-04 0.451E-07 0.965E-08 ort(H,U,f) = 0.664E-04 0.840E-07 0.177E-07
DMP:  60    -0.868996148366E+02   -0.26763E-04   -0.24727E-04   256   0.364E-04 0.665E-04
 gam= 0.382 g(H,U,f)=  0.333E-04 0.382E-07 0.830E-08 ort(H,U,f) = 0.610E-04 0.710E-07 0.152E-07
DMP:  61    -0.868996394120E+02   -0.24575E-04   -0.22666E-04   256   0.333E-04 0.611E-04
 gam= 0.382 g(H,U,f)=  0.304E-04 0.324E-07 0.741E-08 ort(H,U,f) = 0.560E-04 0.601E-07 0.136E-07
DMP:  62    -0.868996619482E+02   -0.22536E-04   -0.20743E-04   256   0.304E-04 0.561E-04
 gam= 0.382 g(H,U,f)=  0.278E-04 0.275E-07 0.637E-08 ort(H,U,f) = 0.513E-04 0.510E-07 0.117E-07
DMP:  63    -0.868996825795E+02   -0.20631E-04   -0.18958E-04   256   0.278E-04 0.513E-04
 gam= 0.382 g(H,U,f)=  0.253E-04 0.233E-07 0.547E-08 ort(H,U,f) = 0.469E-04 0.432E-07 0.100E-07
DMP:  64    -0.868997014427E+02   -0.18863E-04   -0.17298E-04   256   0.253E-04 0.469E-04
 gam= 0.382 g(H,U,f)=  0.230E-04 0.197E-07 0.469E-08 ort(H,U,f) = 0.428E-04 0.366E-07 0.861E-08
DMP:  65    -0.868997186596E+02   -0.17217E-04   -0.15756E-04   256   0.230E-04 0.429E-04
 gam= 0.382 g(H,U,f)=  0.210E-04 0.166E-07 0.401E-08 ort(H,U,f) = 0.390E-04 0.310E-07 0.737E-08
DMP:  66    -0.868997343471E+02   -0.15688E-04   -0.14360E-04   256   0.210E-04 0.391E-04
 gam= 0.382 g(H,U,f)=  0.192E-04 0.140E-07 0.342E-08 ort(H,U,f) = 0.356E-04 0.261E-07 0.630E-08
DMP:  67    -0.868997486492E+02   -0.14302E-04   -0.13112E-04   256   0.192E-04 0.356E-04
 gam= 0.382 g(H,U,f)=  0.176E-04 0.118E-07 0.291E-08 ort(H,U,f) = 0.325E-04 0.221E-07 0.537E-08
DMP:  68    -0.868997617118E+02   -0.13063E-04   -0.12000E-04   256   0.176E-04 0.326E-04
 gam= 0.382 g(H,U,f)=  0.161E-04 0.998E-08 0.247E-08 ort(H,U,f) = 0.298E-04 0.186E-07 0.457E-08
DMP:  69    -0.868997736700E+02   -0.11958E-04   -0.10995E-04   256   0.161E-04 0.298E-04
 gam= 0.382 g(H,U,f)=  0.147E-04 0.842E-08 0.210E-08 ort(H,U,f) = 0.273E-04 0.157E-07 0.389E-08
DMP:  70    -0.868997846293E+02   -0.10959E-04   -0.10051E-04   256   0.147E-04 0.273E-04
 gam= 0.382 g(H,U,f)=  0.134E-04 0.710E-08 0.179E-08 ort(H,U,f) = 0.250E-04 0.132E-07 0.331E-08
DMP:  71    -0.868997946502E+02   -0.10021E-04   -0.91723E-05   256   0.134E-04 0.250E-04
 gam= 0.382 g(H,U,f)=  0.122E-04 0.598E-08 0.152E-08 ort(H,U,f) = 0.228E-04 0.112E-07 0.281E-08
DMP:  72    -0.868998037971E+02   -0.91470E-05   -0.83592E-05   256   0.122E-04 0.228E-04
 final diagonalization
   1 F= -.86899804E+02 E0= -.86899804E+02  d E =0.000000E+00
