Al2C                                    
           1
     6.019200    0.000000    0.000000
     0.000000   10.140000    0.000000
     0.000000    0.000000   15.000000
   Al   C    O    H 
   8   4   1   2
Direct configuration=     1
   0.46232854  0.81819361  0.29023440
   0.96431192  0.82044928  0.25279647
   0.46287006  0.56079346  0.26566859
   0.96311138  0.56076407  0.24418867
   0.46326614  0.31926052  0.24051398
   0.96313780  0.31965756  0.26236983
   0.46437738  0.05784692  0.24667751
   0.96532089  0.06183621  0.27379706
   0.21443948  0.94045674  0.26689982
   0.71483504  0.94118643  0.26993790
   0.21325337  0.43967902  0.25139252
   0.71294975  0.43979018  0.25173462
   0.50240008  0.83881112  0.42706686
   0.61897385  0.90400761  0.41396629
   0.37519520  0.88916078  0.44695549
