Al   C    O    H                        
   1.0000000000000000     
     6.0191999999999997    0.0000000000000000    0.0000000000000000
     0.0000000000000000   10.1400000000000006    0.0000000000000000
     0.0000000000000000    0.0000000000000000   15.0000000000000000
   Al   C    O    H 
     8     4     1     2
Selective dynamics
Direct
  0.4461778368682849  0.8162964258217366  0.3033519309860236   T   T   T
  0.9574037833720649  0.8211040846970021  0.2531699251365868   T   T   T
  0.4535531828186423  0.5634168127191426  0.2635102522243133   T   T   T
  0.9545342528217554  0.5631835941650762  0.2367746683439430   T   T   T
  0.4558918508960946  0.3206064167617168  0.2332399997972524   T   T   T
  0.9556533455925300  0.3218352544345941  0.2601421527941089   T   T   T
  0.4583242505517402  0.0589151295311785  0.2468992279531803   T   T   T
  0.9663131868301280  0.0665498155286919  0.2786070418651977   T   T   T
  0.2080871447979805  0.9416242936801077  0.2634699545639027   T   T   T
  0.7105802610884998  0.9450156946385139  0.2857572384795227   T   T   T
  0.2052400383297179  0.4413156465824806  0.2433804530304527   T   T   T
  0.7045434278198369  0.4415949640690304  0.2477359480088012   T   T   T
  0.5274932492697678  0.8284684921946682  0.4229995915336708   T   T   T
  0.6715600940470449  0.9190548780525122  0.3654929356608606   T   T   T
  0.4411663184694155  0.8840443956467021  0.4627023693029518   T   T   T

  0.00000000E+00  0.00000000E+00  0.00000000E+00
  0.00000000E+00  0.00000000E+00  0.00000000E+00
  0.00000000E+00  0.00000000E+00  0.00000000E+00
  0.00000000E+00  0.00000000E+00  0.00000000E+00
  0.00000000E+00  0.00000000E+00  0.00000000E+00
  0.00000000E+00  0.00000000E+00  0.00000000E+00
  0.00000000E+00  0.00000000E+00  0.00000000E+00
  0.00000000E+00  0.00000000E+00  0.00000000E+00
  0.00000000E+00  0.00000000E+00  0.00000000E+00
  0.00000000E+00  0.00000000E+00  0.00000000E+00
  0.00000000E+00  0.00000000E+00  0.00000000E+00
  0.00000000E+00  0.00000000E+00  0.00000000E+00
  0.00000000E+00  0.00000000E+00  0.00000000E+00
  0.00000000E+00  0.00000000E+00  0.00000000E+00
  0.00000000E+00  0.00000000E+00  0.00000000E+00
