Al   C    O    H                        
   1.0000000000000000     
     6.0191999999999997    0.0000000000000000    0.0000000000000000
     0.0000000000000000   10.1400000000000006    0.0000000000000000
     0.0000000000000000    0.0000000000000000   15.0000000000000000
   Al   C    O    H 
     8     4     1     2
Selective dynamics
Direct
  0.4472687411357164  0.8166494602037065  0.2998895620678696   T   T   T
  0.9564247191495289  0.8214253289521962  0.2539492263456539   T   T   T
  0.4539968692307995  0.5635000960889343  0.2625761523932258   T   T   T
  0.9548783076762002  0.5634378684600031  0.2383189298758329   T   T   T
  0.4561440732771834  0.3204682670325724  0.2348865218839629   T   T   T
  0.9559570458884249  0.3215816357855613  0.2595488742018995   T   T   T
  0.4576037298724395  0.0594068884400653  0.2480252783808629   T   T   T
  0.9633117225896367  0.0660449819380621  0.2779610954214043   T   T   T
  0.2072738118711751  0.9418758809668945  0.2648040187157720   T   T   T
  0.7090438006241987  0.9444076177478566  0.2845398337060089   T   T   T
  0.2055148526483498  0.4414830335968791  0.2436831128679556   T   T   T
  0.7049598819473261  0.4416966641824098  0.2483496137097532   T   T   T
  0.5338078554341162  0.8312157683293910  0.4225932200481040   T   T   T
  0.6616092152560100  0.9124767817895979  0.3726352132576065   T   T   T
  0.4395877109011438  0.8838911748793892  0.4615332994226377   T   T   T

  0.00000000E+00  0.00000000E+00  0.00000000E+00
  0.00000000E+00  0.00000000E+00  0.00000000E+00
  0.00000000E+00  0.00000000E+00  0.00000000E+00
  0.00000000E+00  0.00000000E+00  0.00000000E+00
  0.00000000E+00  0.00000000E+00  0.00000000E+00
  0.00000000E+00  0.00000000E+00  0.00000000E+00
  0.00000000E+00  0.00000000E+00  0.00000000E+00
  0.00000000E+00  0.00000000E+00  0.00000000E+00
  0.00000000E+00  0.00000000E+00  0.00000000E+00
  0.00000000E+00  0.00000000E+00  0.00000000E+00
  0.00000000E+00  0.00000000E+00  0.00000000E+00
  0.00000000E+00  0.00000000E+00  0.00000000E+00
  0.00000000E+00  0.00000000E+00  0.00000000E+00
  0.00000000E+00  0.00000000E+00  0.00000000E+00
  0.00000000E+00  0.00000000E+00  0.00000000E+00
