Al2C                                    
   1.0000000000000000     
     6.0191999999999997    0.0000000000000000    0.0000000000000000
     0.0000000000000000   10.1400000000000006    0.0000000000000000
     0.0000000000000000    0.0000000000000000   15.0000000000000000
   Al   C    O    H 
     8     4     1     2
Selective dynamics
Direct
  0.4472823319014689  0.8169963516297725  0.3117488630395932   T   T   T
  0.9692814270609238  0.8222192564635374  0.2527718642180157   T   T   T
  0.4710968038764161  0.5670431921299650  0.2634875459599792   T   T   T
  0.9707879161777834  0.5663524099473057  0.2233973786892657   T   T   T
  0.4740824737128991  0.3249559106012744  0.2208774384767848   T   T   T
  0.9744984117139810  0.3275944950870163  0.2594820238457051   T   T   T
  0.4713301675476051  0.0617313633093839  0.2457625977876443   T   T   T
  0.9866974253546228  0.0728715831430160  0.2753535555134298   T   T   T
  0.2202994368812205  0.9444738262821596  0.2550268707798106   T   T   T
  0.7231400560348510  0.9488501543841125  0.2956196706473872   T   T   T
  0.2231661730748858  0.4450475693644932  0.2348359019984906   T   T   T
  0.7219765518243244  0.4448458974359132  0.2413142267606005   T   T   T
  0.4009892999263869  0.7879324690253610  0.4264160818675730   T   T   T
  0.7365068143022017  0.9594991068729247  0.3691713471079494   T   T   T
  0.3601255771707646  0.8557799054480196  0.4689346333077423   T   T   T

  0.00000000E+00  0.00000000E+00  0.00000000E+00
  0.00000000E+00  0.00000000E+00  0.00000000E+00
  0.00000000E+00  0.00000000E+00  0.00000000E+00
  0.00000000E+00  0.00000000E+00  0.00000000E+00
  0.00000000E+00  0.00000000E+00  0.00000000E+00
  0.00000000E+00  0.00000000E+00  0.00000000E+00
  0.00000000E+00  0.00000000E+00  0.00000000E+00
  0.00000000E+00  0.00000000E+00  0.00000000E+00
  0.00000000E+00  0.00000000E+00  0.00000000E+00
  0.00000000E+00  0.00000000E+00  0.00000000E+00
  0.00000000E+00  0.00000000E+00  0.00000000E+00
  0.00000000E+00  0.00000000E+00  0.00000000E+00
  0.00000000E+00  0.00000000E+00  0.00000000E+00
  0.00000000E+00  0.00000000E+00  0.00000000E+00
  0.00000000E+00  0.00000000E+00  0.00000000E+00
