Al2C                                    
   1.0000000000000000     
     6.0191999999999997    0.0000000000000000    0.0000000000000000
     0.0000000000000000   10.1400000000000006    0.0000000000000000
     0.0000000000000000    0.0000000000000000   15.0000000000000000
   Al   C    Te   H 
     8     4     1     2
Selective dynamics
Direct
  0.4322535123913482  0.8775800983850317  0.2392295327600849   T   T   T
  0.9321056648669028  0.8778386774630178  0.2604361538426900   T   T   T
  0.4326384048046847  0.6178068312351570  0.2409881663437261   T   T   T
  0.9334140396551760  0.6196234804356209  0.2667104247321888   T   T   T
  0.4311685308488578  0.3765262090743562  0.2738248716934066   T   T   T
  0.9330087415276438  0.3782577423781035  0.2438356383259972   T   T   T
  0.4318641741182176  0.1189318958951091  0.2612026396195120   T   T   T
  0.9319905896684091  0.1187413063627503  0.2408764188670176   T   T   T
  0.1820891149587922  0.9980448328918001  0.2495256572165729   T   T   T
  0.6820377974772214  0.9981322799378844  0.2500676257434336   T   T   T
  0.1827778623305605  0.4985199366500197  0.2558711392575006   T   T   T
  0.6826151520630646  0.4989484351175975  0.2591095894240993   T   T   T
  0.5575438394610188  0.4352778020340864  0.4657123941343571   T   T   T
  0.8084942468989738  0.3676788008645886  0.4619292435137368   T   T   T
  0.5067691954894755  0.3499851623991503  0.5600805045256649   T   T   T

  0.00000000E+00  0.00000000E+00  0.00000000E+00
  0.00000000E+00  0.00000000E+00  0.00000000E+00
  0.00000000E+00  0.00000000E+00  0.00000000E+00
  0.00000000E+00  0.00000000E+00  0.00000000E+00
  0.00000000E+00  0.00000000E+00  0.00000000E+00
  0.00000000E+00  0.00000000E+00  0.00000000E+00
  0.00000000E+00  0.00000000E+00  0.00000000E+00
  0.00000000E+00  0.00000000E+00  0.00000000E+00
  0.00000000E+00  0.00000000E+00  0.00000000E+00
  0.00000000E+00  0.00000000E+00  0.00000000E+00
  0.00000000E+00  0.00000000E+00  0.00000000E+00
  0.00000000E+00  0.00000000E+00  0.00000000E+00
  0.00000000E+00  0.00000000E+00  0.00000000E+00
  0.00000000E+00  0.00000000E+00  0.00000000E+00
  0.00000000E+00  0.00000000E+00  0.00000000E+00
