   15   15    1    1
  0.6103469E+02  0.6019200E-09  0.1014000E-08  0.1500000E-08  0.3500000E-15
   1.0000000000000000E-004
  CAR 
 Al2C                                    
     48      8     32

  0.3742002E-15  0.3742002E-15  0.1262379E-14  0.6666667E-01
    1      -15.859458   1.000000
    2      -15.246662   1.000000
    3      -15.090833   1.000000
    4      -12.976483   1.000000
    5      -12.876996   1.000000
    6       -9.650017   1.000000
    7       -9.376404   1.000000
    8       -9.346687   1.000000
    9       -8.432300   1.000000
   10       -7.436051   1.000000
   11       -7.018210   1.000000
   12       -6.478821   1.000000
   13       -6.029210   1.000000
   14       -5.475087   1.000000
   15       -5.215350   1.000000
   16       -4.900498   1.000000
   17       -4.546244   1.000000
   18       -4.382565   1.000000
   19       -3.421580   1.000000
   20       -3.222067   1.000000
   21       -3.184933   1.000000
   22       -2.608592   1.000000
   23       -2.362937   1.000000
   24       -2.293057   1.000000
   25       -0.861053   0.000000
   26       -0.311392   0.000000
   27        0.238292   0.000000
   28        0.606459   0.000000
   29        0.784116   0.000000
   30        0.955127   0.000000
   31        1.097532   0.000000
   32        1.379929   0.000000

  0.2000000E+00  0.3742002E-15  0.1262379E-14  0.1333333E+00
    1      -15.836102   1.000000
    2      -15.121211   1.000000
    3      -14.965928   1.000000
    4      -13.388204   1.000000
    5      -13.267510   1.000000
    6       -9.205337   1.000000
    7       -8.999722   1.000000
    8       -8.729391   1.000000
    9       -8.448987   1.000000
   10       -7.448795   1.000000
   11       -6.895064   1.000000
   12       -6.828349   1.000000
   13       -6.345017   1.000000
   14       -5.469754   1.000000
   15       -5.204634   1.000000
   16       -4.787980   1.000000
   17       -4.454578   1.000000
   18       -3.989858   1.000000
   19       -3.937939   1.000000
   20       -3.897127   1.000000
   21       -3.777199   1.000000
   22       -3.012091   1.000000
   23       -2.761583   1.000000
   24       -2.338485   1.000000
   25       -0.817571   0.000000
   26        0.429271   0.000000
   27        0.683403   0.000000
   28        0.842761   0.000000
   29        1.043352   0.000000
   30        1.075894   0.000000
   31        1.163683   0.000000
   32        2.039163   0.000000

  0.4000000E+00  0.3742002E-15  0.1262379E-14  0.1333333E+00
    1      -15.802850   1.000000
    2      -14.739963   1.000000
    3      -14.585297   1.000000
    4      -14.120464   1.000000
    5      -13.975897   1.000000
    6       -8.748910   1.000000
    7       -8.464321   1.000000
    8       -7.945213   1.000000
    9       -7.701805   1.000000
   10       -7.386008   1.000000
   11       -7.158593   1.000000
   12       -6.530171   1.000000
   13       -6.193504   1.000000
   14       -5.996876   1.000000
   15       -5.557556   1.000000
   16       -5.274537   1.000000
   17       -5.054186   1.000000
   18       -4.783930   1.000000
   19       -4.447760   1.000000
   20       -4.209436   1.000000
   21       -3.739296   1.000000
   22       -3.450366   1.000000
   23       -2.868546   1.000000
   24       -2.427377   1.000000
   25       -0.463216   0.000000
   26        0.246782   0.000000
   27        0.927563   0.000000
   28        1.337725   0.000000
   29        1.414019   0.000000
   30        1.634730   0.000000
   31        1.865407   0.000000
   32        2.474262   0.000000

  0.3742002E-15  0.3333333E+00  0.1262379E-14  0.1333333E+00
    1      -15.858125   1.000000
    2      -15.213505   1.000000
    3      -15.130140   1.000000
    4      -12.965412   1.000000
    5      -12.888960   1.000000
    6       -9.597828   1.000000
    7       -9.424776   1.000000
    8       -9.053407   1.000000
    9       -8.450241   1.000000
   10       -8.106568   1.000000
   11       -7.404614   1.000000
   12       -5.857939   1.000000
   13       -5.467112   1.000000
   14       -5.367417   1.000000
   15       -5.104337   1.000000
   16       -5.038746   1.000000
   17       -4.439633   1.000000
   18       -4.227166   1.000000
   19       -3.726925   1.000000
   20       -3.316311   1.000000
   21       -3.217413   1.000000
   22       -3.187526   1.000000
   23       -2.593681   1.000000
   24       -2.308540   1.000000
   25       -0.612233   0.000000
   26        0.081390   0.000000
   27        0.256729   0.000000
   28        0.452927   0.000000
   29        0.693777   0.000000
   30        0.885035   0.000000
   31        1.143590   0.000000
   32        1.388370   0.000000

  0.2000000E+00  0.3333333E+00  0.1262379E-14  0.1333333E+00
    1      -15.835303   1.000000
    2      -15.085514   1.000000
    3      -15.006996   1.000000
    4      -13.369692   1.000000
    5      -13.287649   1.000000
    6       -8.969745   1.000000
    7       -8.894224   1.000000
    8       -8.786898   1.000000
    9       -8.446699   1.000000
   10       -7.979187   1.000000
   11       -7.405491   1.000000
   12       -6.580107   1.000000
   13       -5.940378   1.000000
   14       -5.190345   1.000000
   15       -4.992110   1.000000
   16       -4.877157   1.000000
   17       -4.384441   1.000000
   18       -3.975438   1.000000
   19       -3.926200   1.000000
   20       -3.751908   1.000000
   21       -3.697398   1.000000
   22       -3.240722   1.000000
   23       -2.947194   1.000000
   24       -2.796179   1.000000
   25       -0.480909   0.000000
   26        0.212739   0.000000
   27        0.596634   0.000000
   28        0.764376   0.000000
   29        0.903702   0.000000
   30        1.133267   0.000000
   31        1.306285   0.000000
   32        1.786629   0.000000

  0.4000000E+00  0.3333333E+00  0.1262379E-14  0.1333333E+00
    1      -15.802619   1.000000
    2      -14.705232   1.000000
    3      -14.624181   1.000000
    4      -14.092222   1.000000
    5      -14.007141   1.000000
    6       -8.580344   1.000000
    7       -8.331367   1.000000
    8       -7.870302   1.000000
    9       -7.605437   1.000000
   10       -7.528951   1.000000
   11       -7.339683   1.000000
   12       -7.132597   1.000000
   13       -6.690374   1.000000
   14       -5.686141   1.000000
   15       -5.583979   1.000000
   16       -4.949180   1.000000
   17       -4.522479   1.000000
   18       -4.470714   1.000000
   19       -4.263120   1.000000
   20       -4.037834   1.000000
   21       -3.742665   1.000000
   22       -3.475599   1.000000
   23       -3.159138   1.000000
   24       -3.060752   1.000000
   25       -0.123735   0.000000
   26        0.365429   0.000000
   27        0.750303   0.000000
   28        1.078790   0.000000
   29        1.200146   0.000000
   30        1.657082   0.000000
   31        1.801473   0.000000
   32        2.290171   0.000000

 -0.4000000E+00  0.3333333E+00  0.1262379E-14  0.1333333E+00
    1      -15.802616   1.000000
    2      -14.705122   1.000000
    3      -14.624281   1.000000
    4      -14.092187   1.000000
    5      -14.007186   1.000000
    6       -8.577356   1.000000
    7       -8.345938   1.000000
    8       -7.835954   1.000000
    9       -7.618916   1.000000
   10       -7.530751   1.000000
   11       -7.349963   1.000000
   12       -7.130376   1.000000
   13       -6.690299   1.000000
   14       -5.694585   1.000000
   15       -5.581667   1.000000
   16       -4.937256   1.000000
   17       -4.539211   1.000000
   18       -4.469908   1.000000
   19       -4.249110   1.000000
   20       -4.034364   1.000000
   21       -3.729183   1.000000
   22       -3.506102   1.000000
   23       -3.151390   1.000000
   24       -3.057290   1.000000
   25       -0.148346   0.000000
   26        0.474438   0.000000
   27        0.717447   0.000000
   28        0.918210   0.000000
   29        1.298193   0.000000
   30        1.620368   0.000000
   31        1.831558   0.000000
   32        1.991605   0.000000

 -0.2000000E+00  0.3333333E+00  0.1262379E-14  0.1333333E+00
    1      -15.835299   1.000000
    2      -15.085413   1.000000
    3      -15.007080   1.000000
    4      -13.369650   1.000000
    5      -13.287706   1.000000
    6       -8.972709   1.000000
    7       -8.891845   1.000000
    8       -8.786055   1.000000
    9       -8.451854   1.000000
   10       -7.968021   1.000000
   11       -7.410202   1.000000
   12       -6.577814   1.000000
   13       -5.952124   1.000000
   14       -5.181240   1.000000
   15       -5.001549   1.000000
   16       -4.885105   1.000000
   17       -4.359075   1.000000
   18       -3.969821   1.000000
   19       -3.927109   1.000000
   20       -3.764176   1.000000
   21       -3.688044   1.000000
   22       -3.262283   1.000000
   23       -2.922004   1.000000
   24       -2.807069   1.000000
   25       -0.503802   0.000000
   26        0.274122   0.000000
   27        0.517711   0.000000
   28        0.786721   0.000000
   29        0.938226   0.000000
   30        1.207571   0.000000
   31        1.267517   0.000000
   32        1.517861   0.000000
