 vasp.5.4.4.18Apr17-6-g9f103f2a35 (build Dec  6 2019 17:49:40) complex           
 executed on             LinuxGNU date 2021.12.18  00:30:34
 running on    4 total cores
 distrk:  each k-point on    4 cores,    1 groups
 distr:  one band on NCORES_PER_BAND=   1 cores,    4 groups


--------------------------------------------------------------------------------------------------------


 INCAR:
 POTCAR:    PAW Al_GW 19Mar2012                   
 POTCAR:    PAW C_GW 28Sep2005                    
 POTCAR:    PAW Te_GW 22Mar2012                   
 POTCAR:    PAW H_GW 21Apr2008                    
 POTCAR:    PAW Al_GW 19Mar2012                   
   VRHFIN =Al: s2p1                                                             
   LEXCH  = PE                                                                  
   EATOM  =    53.5387 eV,    3.9350 Ry                                         
                                                                                
   TITEL  = PAW Al_GW 19Mar2012                                                 
   LULTRA =        F    use ultrasoft PP ?                                      
   IUNSCR =        1    unscreen: 0-lin 1-nonlin 2-no                           
   RPACOR =    1.500    partial core radius                                     
   POMASS =   26.982; ZVAL   =    3.000    mass and valenz                      
   RCORE  =    2.000    outmost cutoff radius                                   
   RWIGS  =    2.000; RWIGS  =    1.058    wigner-seitz radius (au A)           
   ENMAX  =  240.300; ENMIN  =  180.225 eV                                      
   ICORE  =        3    local potential                                         
   LCOR   =        T    correct aug charges                                     
   LPAW   =        T    paw PP                                                  
   EAUG   =  482.059                                                            
   DEXC   =    0.000                                                            
   RMAX   =    2.051    core radius for proj-oper                               
   RAUG   =    1.300    factor for augmentation sphere                          
   RDEP   =    2.096    radius for radial grids                                 
   RDEPT  =    1.856    core radius for aug-charge                              
                                                                                
   Atomic configuration                                                         
    7 entries                                                                   
     n  l   j            E        occ.                                          
     1  0  0.50     -1511.1048   2.0000                                         
     2  0  0.50      -108.1629   2.0000                                         
     2  1  1.50       -69.6402   6.0000                                         
     3  0  0.50        -7.7528   2.0000                                         
     3  1  1.50        -2.7121   1.0000                                         
     3  2  2.50        -2.7212   0.0000                                         
     4  3  2.50        -2.7212   0.0000                                         
   Description                                                                  
     l       E           TYP  RCUT    TYP  RCUT                                 
     0     -7.7528455     23  1.900                                             
     0     68.0291300     23  1.900                                             
     1     -2.7120682     23  1.900                                             
     1     68.0291300     23  1.900                                             
     2     -1.3605826     23  1.900                                             
     2     81.6349560     23  1.900                                             
     3     74.8320430     23  2.000                                             
  local pseudopotential read in
  partial core-charges read in
  partial kinetic energy density read in
  kinetic energy density of atom read in
  atomic valenz-charges read in
  non local Contribution for L=           0  read in
    real space projection operators read in
  non local Contribution for L=           0  read in
    real space projection operators read in
  non local Contribution for L=           1  read in
    real space projection operators read in
  non local Contribution for L=           1  read in
    real space projection operators read in
  non local Contribution for L=           2  read in
    real space projection operators read in
  non local Contribution for L=           2  read in
    real space projection operators read in
    PAW grid and wavefunctions read in

   number of l-projection  operators is LMAX  =           6
   number of lm-projection operators is LMMAX =          18

 POTCAR:    PAW C_GW 28Sep2005                    
   VRHFIN =C: s2p2                                                              
   LEXCH  = PE                                                                  
   EATOM  =   147.1560 eV,   10.8157 Ry                                         
                                                                                
   TITEL  = PAW C_GW 28Sep2005                                                  
   LULTRA =        F    use ultrasoft PP ?                                      
   IUNSCR =        0    unscreen: 0-lin 1-nonlin 2-no                           
   RPACOR =    0.000    partial core radius                                     
   POMASS =   12.011; ZVAL   =    4.000    mass and valenz                      
   RCORE  =    1.500    outmost cutoff radius                                   
   RWIGS  =    1.630; RWIGS  =    0.863    wigner-seitz radius (au A)           
   ENMAX  =  413.992; ENMIN  =  310.494 eV                                      
   ICORE  =        2    local potential                                         
   LCOR   =        T    correct aug charges                                     
   LPAW   =        T    paw PP                                                  
   EAUG   =  644.873                                                            
   DEXC   =    0.000                                                            
   RMAX   =    1.529    core radius for proj-oper                               
   RAUG   =    1.300    factor for augmentation sphere                          
   RDEP   =    1.501    radius for radial grids                                 
   RDEPT  =    1.300    core radius for aug-charge                              
                                                                                
   Atomic configuration                                                         
    4 entries                                                                   
     n  l   j            E        occ.                                          
     1  0  0.50      -273.3789   2.0000                                         
     2  0  0.50       -13.7508   2.0000                                         
     2  1  0.50        -5.2854   2.0000                                         
     3  2  1.50        -5.4423   0.0000                                         
   Description                                                                  
     l       E           TYP  RCUT    TYP  RCUT                                 
     0    -13.7508457     23  1.200                                             
     0     95.2407820     23  1.200                                             
     1     -5.2854382     23  1.500                                             
     1    108.8466080     23  1.500                                             
     2     -5.4423304      7  1.500                                             
  local pseudopotential read in
  kinetic energy density of atom read in
  atomic valenz-charges read in
  non local Contribution for L=           0  read in
    real space projection operators read in
  non local Contribution for L=           0  read in
    real space projection operators read in
  non local Contribution for L=           1  read in
    real space projection operators read in
  non local Contribution for L=           1  read in
    real space projection operators read in
    PAW grid and wavefunctions read in

   number of l-projection  operators is LMAX  =           4
   number of lm-projection operators is LMMAX =           8

 POTCAR:    PAW Te_GW 22Mar2012                   
   VRHFIN =Te: s2p4                                                             
   LEXCH  = PE                                                                  
   EATOM  =   223.2721 eV,   16.4100 Ry                                         
                                                                                
   TITEL  = PAW Te_GW 22Mar2012                                                 
   LULTRA =        F    use ultrasoft PP ?                                      
   IUNSCR =        1    unscreen: 0-lin 1-nonlin 2-no                           
   RPACOR =    2.200    partial core radius                                     
   POMASS =  127.600; ZVAL   =    6.000    mass and valenz                      
   RCORE  =    2.600    outmost cutoff radius                                   
   RWIGS  =    2.900; RWIGS  =    1.535    wigner-seitz radius (au A)           
   ENMAX  =  174.982; ENMIN  =  131.236 eV                                      
   ICORE  =        3    local potential                                         
   LCOR   =        T    correct aug charges                                     
   LPAW   =        T    paw PP                                                  
   EAUG   =  368.792                                                            
   DEXC   =    0.000                                                            
   RMAX   =    2.665    core radius for proj-oper                               
   RAUG   =    1.300    factor for augmentation sphere                          
   RDEP   =    2.724    radius for radial grids                                 
   RDEPT  =    2.174    core radius for aug-charge                              
                                                                                
   Atomic configuration                                                         
   13 entries                                                                   
     n  l   j            E        occ.                                          
     1  0  0.50    -31621.2075   2.0000                                         
     2  0  0.50     -4848.7941   2.0000                                         
     2  1  1.50     -4352.1960   6.0000                                         
     3  0  0.50      -964.9612   2.0000                                         
     3  1  1.50      -803.6179   6.0000                                         
     3  2  2.50      -559.8710  10.0000                                         
     4  0  0.50      -164.3522   2.0000                                         
     4  1  1.50      -114.3756   6.0000                                         
     4  2  2.50       -41.6483  10.0000                                         
     5  0  0.50       -15.1072   2.0000                                         
     5  1  0.50        -5.9526   4.0000                                         
     5  2  1.50        -6.8029   0.0000                                         
     4  3  2.50        -6.8029   0.0000                                         
   Description                                                                  
     l       E           TYP  RCUT    TYP  RCUT                                 
     0    -15.1072389     23  2.300                                             
     0     68.0291300     23  2.300                                             
     1     -5.9526306     23  2.300                                             
     1     95.2407820     23  2.300                                             
     2      1.3605826     23  2.600                                             
     2     68.0291300     23  2.600                                             
     3     -1.3605826     23  2.300                                             
  local pseudopotential read in
  partial core-charges read in
  partial kinetic energy density read in
  kinetic energy density of atom read in
  atomic valenz-charges read in
  non local Contribution for L=           0  read in
    real space projection operators read in
  non local Contribution for L=           0  read in
    real space projection operators read in
  non local Contribution for L=           1  read in
    real space projection operators read in
  non local Contribution for L=           1  read in
    real space projection operators read in
  non local Contribution for L=           2  read in
    real space projection operators read in
  non local Contribution for L=           2  read in
    real space projection operators read in
    PAW grid and wavefunctions read in

   number of l-projection  operators is LMAX  =           6
   number of lm-projection operators is LMMAX =          18

 POTCAR:    PAW H_GW 21Apr2008                    
   VRHFIN =H: ultrasoft test                                                    
   LEXCH  = PE                                                                  
   EATOM  =    12.4884 eV,    0.9179 Ry                                         
                                                                                
   TITEL  = PAW H_GW 21Apr2008                                                  
   LULTRA =        F    use ultrasoft PP ?                                      
   IUNSCR =        0    unscreen: 0-lin 1-nonlin 2-no                           
   RPACOR =    0.000    partial core radius                                     
   POMASS =    1.000; ZVAL   =    1.000    mass and valenz                      
   RCORE  =    1.100    outmost cutoff radius                                   
   RWIGS  =    1.100; RWIGS  =    0.582    wigner-seitz radius (au A)           
   ENMAX  =  300.000; ENMIN  =  250.000 eV                                      
   RCLOC  =    0.701    cutoff for local pot                                    
   LCOR   =        T    correct aug charges                                     
   LPAW   =        T    paw PP                                                  
   EAUG   =  500.000                                                            
   RMAX   =    1.123    core radius for proj-oper                               
   RAUG   =    1.200    factor for augmentation sphere                          
   RDEP   =    1.112    radius for radial grids                                 
   RDEPT  =    1.100    core radius for aug-charge                              
                                                                                
   Atomic configuration                                                         
    3 entries                                                                   
     n  l   j            E        occ.                                          
     1  0  0.50        -6.4927   1.0000                                         
     2  1  0.50        -3.4015   0.0000                                         
     3  2  1.50        13.6058   0.0000                                         
   Description                                                                  
     l       E           TYP  RCUT    TYP  RCUT                                 
     0     -6.4927495     23  0.950                                             
     0      6.8029130     23  0.950                                             
     1     -4.0817478     23  1.100                                             
     1    108.8466080     23  1.100                                             
     2     81.6349560     23  1.100                                             
  local pseudopotential read in
  kinetic energy density of atom read in
  atomic valenz-charges read in
  non local Contribution for L=           0  read in
    real space projection operators read in
  non local Contribution for L=           0  read in
    real space projection operators read in
  non local Contribution for L=           1  read in
    real space projection operators read in
  non local Contribution for L=           1  read in
    real space projection operators read in
  non local Contribution for L=           2  read in
    real space projection operators read in
    PAW grid and wavefunctions read in

   number of l-projection  operators is LMAX  =           5
   number of lm-projection operators is LMMAX =          13

 Optimization of the real space projectors (new method)

 maximal supplied QI-value         = 18.90
 optimisation between [QCUT,QGAM] = [ 10.77, 21.73] = [ 32.49,132.25] Ry 
 Optimized for a Real-space Cutoff    1.60 Angstroem

   l    n(q)    QCUT    max X(q) W(low)/X(q) W(high)/X(q)  e(spline) 
   0     10    10.771    11.519    0.58E-04    0.59E-05    0.18E-06
   0     10    10.771     5.834    0.29E-04    0.42E-05    0.15E-06
   1     10    10.771    10.132    0.17E-04    0.63E-04    0.28E-06
   1     10    10.771     3.004    0.11E-04    0.44E-04    0.22E-06
   2      9    10.771     3.188    0.19E-03    0.85E-04    0.37E-06
   2      9    10.771     1.607    0.20E-04    0.14E-04    0.40E-06
 Optimization of the real space projectors (new method)

 maximal supplied QI-value         = 25.13
 optimisation between [QCUT,QGAM] = [ 10.81, 21.61] = [ 32.71,130.83] Ry 
 Optimized for a Real-space Cutoff    1.26 Angstroem

   l    n(q)    QCUT    max X(q) W(low)/X(q) W(high)/X(q)  e(spline) 
   0      8    10.807     6.744    0.14E-03    0.25E-03    0.15E-06
   0      8    10.807     2.789    0.17E-03    0.34E-03    0.18E-06
   1      8    10.807     2.977    0.14E-03    0.97E-04    0.55E-07
   1      8    10.807     2.397    0.19E-03    0.70E-04    0.28E-06
 Optimization of the real space projectors (new method)

 maximal supplied QI-value         = 14.36
 optimisation between [QCUT,QGAM] = [ 10.77, 21.69] = [ 32.49,131.70] Ry 
 Optimized for a Real-space Cutoff    1.65 Angstroem

   l    n(q)    QCUT    max X(q) W(low)/X(q) W(high)/X(q)  e(spline) 
   0     11    10.771    11.053    0.24E-04    0.29E-05    0.60E-07
   0     11    10.771     7.435    0.41E-04    0.55E-05    0.14E-06
   1     10    10.771     5.777    0.13E-04    0.90E-05    0.11E-06
   1     10    10.771     1.783    0.15E-04    0.11E-04    0.15E-06
   2     10    10.771     4.339    0.10E-03    0.19E-03    0.15E-06
   2     10    10.771     2.664    0.59E-04    0.11E-03    0.94E-07
 Optimization of the real space projectors (new method)

 maximal supplied QI-value         = 34.20
 optimisation between [QCUT,QGAM] = [ 10.60, 21.55] = [ 31.48,130.03] Ry 
 Optimized for a Real-space Cutoff    1.51 Angstroem

   l    n(q)    QCUT    max X(q) W(low)/X(q) W(high)/X(q)  e(spline) 
   0     10    10.603    26.161    0.94E-04    0.78E-04    0.97E-06
   0     10    10.603    15.773    0.86E-04    0.75E-04    0.95E-06
   1      9    10.603     3.022    0.64E-04    0.17E-03    0.10E-05
   1      9    10.603     2.445    0.31E-04    0.10E-03    0.83E-06
   2      9    10.603     6.097    0.15E-03    0.49E-03    0.94E-06
  PAW Al_GW 19Mar2012                   :
 energy of atom  1       EATOM=  -53.5387
 kinetic energy error for atom=    0.0004 (will be added to EATOM!!)
  PAW C_GW 28Sep2005                    :
 energy of atom  2       EATOM= -147.1560
 kinetic energy error for atom=    0.0116 (will be added to EATOM!!)
  PAW Te_GW 22Mar2012                   :
 energy of atom  3       EATOM= -223.2721
 kinetic energy error for atom=    0.0008 (will be added to EATOM!!)
  PAW H_GW 21Apr2008                    :
 energy of atom  4       EATOM=  -12.4884
 kinetic energy error for atom=    0.0187 (will be added to EATOM!!)


 POSCAR: Al2C                                    
  positions in direct lattice
  velocities in cartesian coordinates
 exchange correlation table for  LEXCH =        8
   RHO(1)=    0.500       N(1)  =     2000
   RHO(2)=  100.500       N(2)  =     4000

 VTST: version 3.2, (02/03/18)

 CHAIN: initializing optimizer
 
 OPT: Using VASP Dynamics algorithm
 CHAIN: Read ICHAIN            0

 POSCAR: Al2C                                    
  positions in direct lattice
  velocities in cartesian coordinates



--------------------------------------------------------------------------------------------------------


 ion  position               nearest neighbor table
   1  0.432  0.878  0.239-  10 1.94   9 1.95   7 2.47
   2  0.932  0.878  0.260-   9 1.94  10 1.94   8 2.46
   3  0.433  0.618  0.241-  11 1.94  12 1.95   5 2.50
   4  0.933  0.620  0.267-  11 1.95  12 1.95   6 2.47
   5  0.431  0.377  0.274-  11 1.96  12 1.97   3 2.50  13 3.04
   6  0.933  0.378  0.244-  11 1.94  12 1.95   4 2.47
   7  0.432  0.119  0.261-   9 1.95  10 1.95   1 2.47
   8  0.932  0.119  0.241-  10 1.94   9 1.94   2 2.46
   9  0.182  0.998  0.250-   2 1.94   8 1.94   1 1.95   7 1.95
  10  0.682  0.998  0.250-   2 1.94   8 1.94   1 1.94   7 1.95
  11  0.183  0.499  0.256-   3 1.94   6 1.94   4 1.95   5 1.96
  12  0.683  0.499  0.259-   4 1.95   3 1.95   6 1.95   5 1.97
  13  0.558  0.435  0.466-  14 1.66  15 1.69   5 3.04
  14  0.808  0.368  0.462-  13 1.66
  15  0.507  0.350  0.560-  13 1.69


IMPORTANT INFORMATION: All symmetrisations will be switched off!
NOSYMM: (Re-)initialisation of all symmetry stuff for point group C_1.



 KPOINTS: Automatic mesh                          

Automatic generation of k-mesh.
Space group operators:
 irot       det(A)        alpha          n_x          n_y          n_z        tau_x        tau_y        tau_z
    1     1.000000     0.000000     1.000000     0.000000     0.000000     0.000000     0.000000     0.000000
 
 Subroutine IBZKPT returns following result:
 ===========================================
 
 Found      8 irreducible k-points:
 
 Following reciprocal coordinates:
            Coordinates               Weight
  0.000000  0.000000  0.000000      1.000000
  0.200000  0.000000  0.000000      2.000000
  0.400000  0.000000  0.000000      2.000000
  0.000000  0.333333  0.000000      2.000000
  0.200000  0.333333  0.000000      2.000000
  0.400000  0.333333  0.000000      2.000000
 -0.400000  0.333333  0.000000      2.000000
 -0.200000  0.333333  0.000000      2.000000
 
 Following cartesian coordinates:
            Coordinates               Weight
  0.000000  0.000000  0.000000      1.000000
  0.033227  0.000000  0.000000      2.000000
  0.066454  0.000000  0.000000      2.000000
  0.000000  0.032873  0.000000      2.000000
  0.033227  0.032873  0.000000      2.000000
  0.066454  0.032873  0.000000      2.000000
 -0.066454  0.032873  0.000000      2.000000
 -0.033227  0.032873  0.000000      2.000000
 
 TETIRR: Found     42 inequivalent tetrahedra from       90
 
 Subroutine IBZKPT_HF returns following result:
 ==============================================
 
 Found     15 k-points in 1st BZ
 the following     15 k-points will be used (e.g. in the exchange kernel)
 Following reciprocal coordinates:   # in IRBZ
  0.000000  0.000000  0.000000    0.06666667   1 t-inv F
  0.200000  0.000000  0.000000    0.06666667   2 t-inv F
  0.400000  0.000000  0.000000    0.06666667   3 t-inv F
  0.000000  0.333333  0.000000    0.06666667   4 t-inv F
  0.200000  0.333333  0.000000    0.06666667   5 t-inv F
  0.400000  0.333333  0.000000    0.06666667   6 t-inv F
 -0.400000  0.333333  0.000000    0.06666667   7 t-inv F
 -0.200000  0.333333  0.000000    0.06666667   8 t-inv F
 -0.200000 -0.000000 -0.000000    0.06666667   2 t-inv T
 -0.400000 -0.000000 -0.000000    0.06666667   3 t-inv T
 -0.000000 -0.333333 -0.000000    0.06666667   4 t-inv T
 -0.200000 -0.333333 -0.000000    0.06666667   5 t-inv T
 -0.400000 -0.333333 -0.000000    0.06666667   6 t-inv T
  0.400000 -0.333333 -0.000000    0.06666667   7 t-inv T
  0.200000 -0.333333 -0.000000    0.06666667   8 t-inv T


--------------------------------------------------------------------------------------------------------




 Dimension of arrays:
   k-points           NKPTS =      8   k-points in BZ     NKDIM =     15   number of bands    NBANDS=     32
   number of dos      NEDOS =   2000   number of ions     NIONS =     15
   non local maximal  LDIM  =      6   non local SUM 2l+1 LMDIM =     18
   total plane-waves  NPLWV = 317520
   max r-space proj   IRMAX =   6561   max aug-charges    IRDMAX=  20369
   dimension x,y,z NGX =    42 NGY =   70 NGZ =  108
   dimension x,y,z NGXF=    84 NGYF=  140 NGZF=  216
   support grid    NGXF=    84 NGYF=  140 NGZF=  216
   ions per type =               8   4   1   2
   NGX,Y,Z   is equivalent  to a cutoff of  11.60, 11.48, 11.97 a.u.
   NGXF,Y,Z  is equivalent  to a cutoff of  23.20, 22.95, 23.94 a.u.

 SYSTEM =  Al2C                                    
 POSCAR =  Al2C                                    

 Startparameter for this run:
   NWRITE =      2    write-flag & timer
   PREC   = accura    normal or accurate (medium, high low for compatibility)
   ISTART =      0    job   : 0-new  1-cont  2-samecut
   ICHARG =     11    charge: 1-file 2-atom 10-const
   ISPIN  =      1    spin polarized calculation?
   LNONCOLLINEAR =      F non collinear calculations
   LSORBIT =      F    spin-orbit coupling
   INIWAV =      1    electr: 0-lowe 1-rand  2-diag
   LASPH  =      F    aspherical Exc in radial PAW
   METAGGA=      F    non-selfconsistent MetaGGA calc.

 Electronic Relaxation 1
   ENCUT  =  450.0 eV  33.07 Ry    5.75 a.u.  10.41 17.54 25.95*2*pi/ulx,y,z
   ENINI  =  450.0     initial cutoff
   ENAUG  =  644.9 eV  augmentation charge cutoff
   NELM   =    300;   NELMIN=  2; NELMDL= -7     # of ELM steps 
   EDIFF  = 0.1E-04   stopping-criterion for ELM
   LREAL  =      T    real-space projection
   NLSPLINE    = F    spline interpolate recip. space projectors
   LCOMPAT=      F    compatible to vasp.4.4
   GGA_COMPAT  = T    GGA compatible to vasp.4.4-vasp.4.6
   LMAXPAW     = -100 max onsite density
   LMAXMIX     =    2 max onsite mixed and CHGCAR
   VOSKOWN=      0    Vosko Wilk Nusair interpolation
   ROPT   =   -0.00020  -0.00020  -0.00020  -0.00020
 Ionic relaxation
   EDIFFG = -.1E-01   stopping-criterion for IOM
   NSW    =      0    number of steps for IOM
   NBLOCK =      1;   KBLOCK =      1    inner block; outer block 
   IBRION =     -1    ionic relax: 0-MD 1-quasi-New 2-CG
   NFREE  =      0    steps in history (QN), initial steepest desc. (CG)
   ISIF   =      2    stress and relaxation
   IWAVPR =     10    prediction:  0-non 1-charg 2-wave 3-comb
   ISYM   =      0    0-nonsym 1-usesym 2-fastsym
   LCORR  =      T    Harris-Foulkes like correction to forces

   POTIM  = 0.3500    time-step for ionic-motion
   TEIN   =    0.0    initial temperature
   TEBEG  =    0.0;   TEEND  =   0.0 temperature during run
   SMASS  =  -3.00    Nose mass-parameter (am)
   estimated Nose-frequenzy (Omega)   =  0.10E-29 period in steps =****** mass=  -0.828E-27a.u.
   SCALEE = 1.0000    scale energy and forces
   NPACO  =    256;   APACO  = 16.0  distance and # of slots for P.C.
   PSTRESS=    0.0 pullay stress

  Mass of Ions in am
   POMASS =  26.98 12.01127.60  1.00
  Ionic Valenz
   ZVAL   =   3.00  4.00  6.00  1.00
  Atomic Wigner-Seitz radii
   RWIGS  =  -1.00 -1.00 -1.00 -1.00
  virtual crystal weights 
   VCA    =   1.00  1.00  1.00  1.00
   NELECT =      48.0000    total number of electrons
   NUPDOWN=      -1.0000    fix difference up-down

 DOS related values:
   EMIN   =  -5.00;   EMAX   =  0.00  energy-range for DOS
   EFERMI =   0.00
   ISMEAR =    -5;   SIGMA  =   0.05  broadening in eV -4-tet -1-fermi 0-gaus

 Electronic relaxation 2 (details)
   IALGO  =     53    algorithm
   LDIAG  =      T    sub-space diagonalisation (order eigenvalues)
   LSUBROT=      F    optimize rotation matrix (better conditioning)
   TURBO    =      0    0=normal 1=particle mesh
   IRESTART =      0    0=no restart 2=restart with 2 vectors
   NREBOOT  =      0    no. of reboots
   NMIN     =      0    reboot dimension
   EREF     =   0.00    reference energy to select bands
   IMIX   =      4    mixing-type and parameters
     AMIX     =   0.40;   BMIX     =  1.00
     AMIX_MAG =   1.60;   BMIX_MAG =  1.00
     AMIN     =   0.10
     WC   =   100.;   INIMIX=   1;  MIXPRE=   1;  MAXMIX= -45

 Intra band minimization:
   WEIMIN = 0.0000     energy-eigenvalue tresh-hold
   EBREAK =  0.78E-07  absolut break condition
   DEPER  =   0.30     relativ break condition  

   TIME   =   0.40     timestep for ELM

  volume/ion in A,a.u.               =      61.03       411.88
  Fermi-wavevector in a.u.,A,eV,Ry     =   0.612725  1.157883  5.108069  0.375432
  Thomas-Fermi vector in A             =   1.669117

 Write flags
   LWAVE        =      F    write WAVECAR
   LDOWNSAMPLE  =      F    k-point downsampling of WAVECAR
   LCHARG       =      T    write CHGCAR
   LVTOT        =      F    write LOCPOT, total local potential
   LVHAR        =      F    write LOCPOT, Hartree potential only
   LELF         =      F    write electronic localiz. function (ELF)
   LORBIT       =     11    0 simple, 1 ext, 2 COOP (PROOUT), +10 PAW based schemes


 Dipole corrections
   LMONO  =      F    monopole corrections only (constant potential shift)
   LDIPOL =      F    correct potential (dipole corrections)
   IDIPOL =      0    1-x, 2-y, 3-z, 4-all directions 
   EPSILON=  1.0000000 bulk dielectric constant

 Exchange correlation treatment:
   GGA     =    PE    GGA type
   LEXCH   =     8    internal setting for exchange type
   VOSKOWN=      0    Vosko Wilk Nusair interpolation
   EXXOEP  =     0    0=HF, 1=EXX-LHF (local Hartree Fock) 2=EXX OEP
   LHFCALC =     T    Hartree Fock is set to
   LSYMGRAD=     F    symmetrize gradient (conserves proper symmetry)
   PRECFOCK=normal    Normal, Fast or Accurate (Low or Medium for compatibility)
   LRHFCALC=     F    long range Hartree Fock
   LRSCOR  =     F    long range correlation only (use DFT for short range part)
   LTHOMAS =     F    Thomas Fermi screening in HF
   LMODELHF=     F    short range full HF, long range fraction AEXX
   ENCUT4O =  -1.0   cutoff for four orbital integrals eV
   LMAXFOCK=     4    L truncation for augmentation on plane wave grid
   LMAXFOCKAE=  -1    L truncation for all-electron charge restoration on plane wave grid
   NMAXFOCKAE=   1    number of basis functions for all-electron charge restoration
   LFOCKAEDFT=     F  apply the AE augmentation even for DFT
   NKREDX  =     1    reduce k-point grid by
   NKREDY  =     1    reduce k-point grid by
   NKREDZ  =     1    reduce k-point grid by
   SHIFTRED=     F    shift reduced grid of Gamma
   HFKIDENT=     F    idential grid for each k-point
   ODDONLY =     F    use only odd q-grid points
   EVENONLY=     F    use only even q-grid points
   HFALPHA =   -1.0000 decay constant for conv. correction
   MCALPHA =    0.0000 extent of test-charge in conv. correction in multipole expansion
   AEXX    =    0.2500 exact exchange contribution
   HFSCREEN=    0.2000 screening length (either q_TF or 0.3 A-1)
   HFSCREENC=   0.2000 screening length for correlation (either q_TF or 0.3 A-1)
   HFRCUT  =    0.0000 spherical cutoff for potential kernel
   ALDAX   =    0.7500 LDA exchange part
   AGGAX   =    0.7500 GGA exchange part
   ALDAC   =    1.0000 LDA correlation
   AGGAC   =    1.0000 GGA correlation
   ENCUTFOCK=  -1.0 apply spherical cutoff to Coloumb kernel
   NBANDSGWLOW=     1    first orbital included in HF term
   NBLOCK_FOCK=    64    blocking factor in FOCK_ACC
 Linear response parameters
   LEPSILON=     F    determine dielectric tensor
   LRPA    =     F    only Hartree local field effects (RPA)
   LNABLA  =     F    use nabla operator in PAW spheres
   LVEL    =     F    velocity operator in full k-point grid
   LINTERFAST=   F  fast interpolation
   KINTER  =     0    interpolate to denser k-point grid
   CSHIFT  =0.1000    complex shift for real part using Kramers Kronig
   OMEGAMAX=  -1.0    maximum frequency
   DEG_THRESHOLD= 0.2000000E-02 threshold for treating states as degnerate
   RTIME   =   -0.100 relaxation time in fs
  (WPLASMAI=    0.000 imaginary part of plasma frequency in eV, 0.658/RTIME)
   DFIELD  = 0.0000000 0.0000000 0.0000000 field for delta impulse in time

 Orbital magnetization related:
   ORBITALMAG=     F  switch on orbital magnetization
   LCHIMAG   =     F  perturbation theory with respect to B field
   DQ        =  0.001000  dq finite difference perturbation B field
   LLRAUG    =     F  two centre corrections for induced B field



--------------------------------------------------------------------------------------------------------


 Static calculation
 charge density and potential remain constant during run
 non-spin polarized calculation
 Conjugate gradient for all bands (Freysoldt, et al. PRB 79, 241103 (2009))
 perform sub-space diagonalisation
    before iterative eigenvector-optimisation
 no mixing
 using additional bands            8
 real space projection scheme for non local part
 use partial core corrections
 calculate Harris-corrections to forces   (improved forces if not selfconsistent)
 use gradient corrections 
 WARNING: stress and forces are not correct
  (second derivative of E(xc) not defined)
 use of overlap-Matrix (Vanderbilt PP)
 Fermi weights with tetrahedron method with Bloechl corrections


--------------------------------------------------------------------------------------------------------


  energy-cutoff  :      450.00
  volume of cell :      915.52
      direct lattice vectors                 reciprocal lattice vectors
     6.019200000  0.000000000  0.000000000     0.166135035  0.000000000  0.000000000
     0.000000000 10.140000000  0.000000000     0.000000000  0.098619329  0.000000000
     0.000000000  0.000000000 15.000000000     0.000000000  0.000000000  0.066666667

  length of vectors
     6.019200000 10.140000000 15.000000000     0.166135035  0.098619329  0.066666667



 k-points in units of 2pi/SCALE and weight: Automatic mesh                          
   0.00000000  0.00000000  0.00000000       0.067
   0.03322701  0.00000000  0.00000000       0.133
   0.06645401  0.00000000  0.00000000       0.133
   0.00000000  0.03287311  0.00000000       0.133
   0.03322701  0.03287311  0.00000000       0.133
   0.06645401  0.03287311  0.00000000       0.133
  -0.06645401  0.03287311  0.00000000       0.133
  -0.03322701  0.03287311  0.00000000       0.133

 k-points in reciprocal lattice and weights: Automatic mesh                          
   0.00000000  0.00000000  0.00000000       0.067
   0.20000000  0.00000000  0.00000000       0.133
   0.40000000  0.00000000  0.00000000       0.133
   0.00000000  0.33333333  0.00000000       0.133
   0.20000000  0.33333333  0.00000000       0.133
   0.40000000  0.33333333  0.00000000       0.133
  -0.40000000  0.33333333  0.00000000       0.133
  -0.20000000  0.33333333  0.00000000       0.133

 position of ions in fractional coordinates (direct lattice) 
   0.43225351  0.87758010  0.23922953
   0.93210566  0.87783868  0.26043615
   0.43263840  0.61780683  0.24098817
   0.93341404  0.61962348  0.26671042
   0.43116853  0.37652621  0.27382487
   0.93300874  0.37825774  0.24383564
   0.43186417  0.11893190  0.26120264
   0.93199059  0.11874131  0.24087642
   0.18208911  0.99804483  0.24952566
   0.68203780  0.99813228  0.25006763
   0.18277786  0.49851994  0.25587114
   0.68261515  0.49894844  0.25910959
   0.55754384  0.43527780  0.46571239
   0.80849425  0.36767880  0.46192924
   0.50676920  0.34998516  0.56008050

 position of ions in cartesian coordinates  (Angst):
   2.60182034  8.89866220  3.58844299
   5.61053042  8.90128419  3.90654231
   2.60413709  6.26456127  3.61482250
   5.61840579  6.28298209  4.00065637
   2.59528962  3.81797576  4.10737308
   5.61596622  3.83553351  3.65753457
   2.59947684  1.20596942  3.91803959
   5.60983776  1.20403685  3.61314628
   1.09603080 10.12017461  3.74288486
   4.10532191 10.12106132  3.75101439
   1.10017651  5.05499216  3.83806709
   4.10879712  5.05933713  3.88664384
   3.35596788  4.41371691  6.98568591
   4.86648857  3.72826304  6.92893865
   3.05034514  3.54884955  8.40120757



--------------------------------------------------------------------------------------------------------


 k-point  1 :   0.0000 0.0000 0.0000  plane waves:   19845
 k-point  2 :   0.2000 0.0000 0.0000  plane waves:   19863
 k-point  3 :   0.4000 0.0000 0.0000  plane waves:   19851
 k-point  4 :   0.0000 0.3333 0.0000  plane waves:   19883
 k-point  5 :   0.2000 0.3333 0.0000  plane waves:   19830
 k-point  6 :   0.4000 0.3333 0.0000  plane waves:   19821
 k-point  7 :  -0.4000 0.3333 0.0000  plane waves:   19821
 k-point  8 :  -0.2000 0.3333 0.0000  plane waves:   19830

 maximum and minimum number of plane-waves per node :     19883    19821

 maximum number of plane-waves:     19883
 maximum index in each direction: 
   IXMAX=   10   IYMAX=   17   IZMAX=   25
   IXMIN=  -10   IYMIN=  -17   IZMIN=  -25


 serial   3D FFT for wavefunctions
 parallel 3D FFT for charge:
    minimum data exchange during FFTs selected (reduces bandwidth)


 FFT grid for exact exchange (Hartree Fock) 
  NGX = 32; NGY = 54; NGZ = 80


 Radii for the augmentation spheres in the non-local exchange
 for species   1 augmentation radius   1.301 (default was   1.041)
       energy cutoff for augmentation   1800.0
 for species   2 augmentation radius   0.874 (default was   0.699)
       energy cutoff for augmentation   1800.0
 for species   3 augmentation radius   1.487 (default was   1.190)
       energy cutoff for augmentation   1800.0
 for species   4 augmentation radius   0.735 (default was   0.588)
       energy cutoff for augmentation   1800.0
 Maximum index for augmentation-charges in exchange         2086
  SETUP_FOCK is finished

 total amount of memory used by VASP MPI-rank0   189446. kBytes
=======================================================================

   base      :      30000. kBytes
   nonlr-proj:      15609. kBytes
   fftplans  :      22787. kBytes
   grid      :      58800. kBytes
   one-center:        233. kBytes
   HF        :        259. kBytes
   wavefun   :      61758. kBytes

     INWAV:  cpu time    0.0001: real time    0.0001
 initial charge density was supplied:
 number of electron      48.0000001 magnetization 
 keeping initial charge density in first step


--------------------------------------------------------------------------------------------------------


 Maximum index for non-local projection operator         6306
 BZINTS: Fermi energy: 15.428839; 48.000000 electrons
         Band energy: 376.018179;  BLOECHL correction:-27.672792
 Maximum index for augmentation-charges         4900 (set IRDMAX)


--------------------------------------------------------------------------------------------------------


 First call to EWALD:  gamma=   0.183
 Maximum number of real-space cells 4x 3x 2
 Maximum number of reciprocal cells 2x 3x 4

    FEWALD:  cpu time    0.0041: real time    0.0041

 ----------------------------------------------------------------------------- 
|                                                                             |
|           W    W    AA    RRRRR   N    N  II  N    N   GGGG   !!!           |
|           W    W   A  A   R    R  NN   N  II  NN   N  G    G  !!!           |
|           W    W  A    A  R    R  N N  N  II  N N  N  G       !!!           |
|           W WW W  AAAAAA  RRRRR   N  N N  II  N  N N  G  GGG   !            |
|           WW  WW  A    A  R   R   N   NN  II  N   NN  G    G                |
|           W    W  A    A  R    R  N    N  II  N    N   GGGG   !!!           |
|                                                                             |
|      ALGO=A and IALGO=5X tend to fail with the tetrahedron method           |
|      (e.g. Bloechls method ISMEAR=-5 is not variational)                    |
|      please switch to IMSEAR=0-n, except for DOS calculations               |
|      For DOS calculations use IALGO=53 after preconverging with ISMEAR>=0   |
|          I HOPE YOU KNOW, WHAT YOU ARE  DOING                               |
|                                                                             |
 ----------------------------------------------------------------------------- 



--------------------------------------- Iteration      1(   1)  ---------------------------------------


    POTLOK:  cpu time    8.3283: real time    8.3636
    SETDIJ:  cpu time    0.9064: real time    0.9121
 BZINTS: Fermi energy: 11.724566; 48.000000 electrons
         Band energy: 228.151155;  BLOECHL correction: -0.431732
    TRIAL :  cpu time   26.0235: real time   26.2104
 BZINTS: Fermi energy: 11.724566; 48.000000 electrons
         Band energy: 228.151155;  BLOECHL correction: -0.431732
    CORREC:  cpu time    0.5780: real time    0.5799
    --------------------------------------------
      LOOP:  cpu time   35.9038: real time   36.1374

 eigenvalue-minimisations  :   704
 total energy-change (2. order) : 0.4322055E+03  (-0.1129423E+04)
 number of electron      48.0000001 magnetization 
 augmentation part       48.0000001 magnetization 

 Free energy of the ion-electron system (eV)
  ---------------------------------------------------
  alpha Z        PSCENC =        13.10177784
  Ewald energy   TEWEN  =      1366.62330681
  -Hartree energ DENC   =     -2513.91978934
  -exchange      EXHF   =         0.00000000
  -V(xc)+E(xc)   XCENC  =      -142.06918885
  PAW double counting   =      1715.63829172    -1486.51325097
  entropy T*S    EENTRO =         0.00000000
  eigenvalues    EBANDS =       228.15115465
  atomic energy  EATOM  =      1251.19323263
  ---------------------------------------------------
  free energy    TOTEN  =       432.20553450 eV

  energy without entropy =      432.20553450  energy(sigma->0) =      432.20553450
  exchange ACFDT corr.  =         0.00000000  see jH, gK, PRB 81, 115126


--------------------------------------------------------------------------------------------------------




--------------------------------------- Iteration      1(   2)  ---------------------------------------


 BZINTS: Fermi energy:  6.125305; 48.000000 electrons
         Band energy:   7.138009;  BLOECHL correction: -0.064788
    TRIAL :  cpu time   35.5385: real time   35.7817
 BZINTS: Fermi energy:  6.125305; 48.000000 electrons
         Band energy:   7.138009;  BLOECHL correction: -0.064788
    CORREC:  cpu time    0.3113: real time    0.3132
    --------------------------------------------
      LOOP:  cpu time   35.8503: real time   36.0968

 eigenvalue-minimisations  :  1024
 total energy-change (2. order) :-0.2210131E+03  (-0.2094359E+03)
 number of electron      48.0000001 magnetization 
 augmentation part       48.0000001 magnetization 

 Free energy of the ion-electron system (eV)
  ---------------------------------------------------
  alpha Z        PSCENC =        13.10177784
  Ewald energy   TEWEN  =      1366.62330681
  -Hartree energ DENC   =     -2513.91978934
  -exchange      EXHF   =         0.00000000
  -V(xc)+E(xc)   XCENC  =      -142.06918885
  PAW double counting   =      1715.63829172    -1486.51325097
  entropy T*S    EENTRO =         0.00000000
  eigenvalues    EBANDS =         7.13800890
  atomic energy  EATOM  =      1251.19323263
  ---------------------------------------------------
  free energy    TOTEN  =       211.19238875 eV

  energy without entropy =      211.19238875  energy(sigma->0) =      211.19238875
  exchange ACFDT corr.  =         0.00000000  see jH, gK, PRB 81, 115126


--------------------------------------------------------------------------------------------------------




--------------------------------------- Iteration      1(   3)  ---------------------------------------


 BZINTS: Fermi energy:  4.300248; 48.000000 electrons
         Band energy: -85.681553;  BLOECHL correction: -0.030599
    TRIAL :  cpu time   35.6959: real time   35.7799
 BZINTS: Fermi energy:  4.300248; 48.000000 electrons
         Band energy: -85.681553;  BLOECHL correction: -0.030599
    CORREC:  cpu time    0.2251: real time    0.2252
    --------------------------------------------
      LOOP:  cpu time   35.9223: real time   36.0072

 eigenvalue-minimisations  :  1024
 total energy-change (2. order) :-0.9281956E+02  (-0.8803160E+02)
 number of electron      48.0000001 magnetization 
 augmentation part       48.0000001 magnetization 

 Free energy of the ion-electron system (eV)
  ---------------------------------------------------
  alpha Z        PSCENC =        13.10177784
  Ewald energy   TEWEN  =      1366.62330681
  -Hartree energ DENC   =     -2513.91978934
  -exchange      EXHF   =         0.00000000
  -V(xc)+E(xc)   XCENC  =      -142.06918885
  PAW double counting   =      1715.63829172    -1486.51325097
  entropy T*S    EENTRO =         0.00000000
  eigenvalues    EBANDS =       -85.68155315
  atomic energy  EATOM  =      1251.19323263
  ---------------------------------------------------
  free energy    TOTEN  =       118.37282670 eV

  energy without entropy =      118.37282670  energy(sigma->0) =      118.37282670
  exchange ACFDT corr.  =         0.00000000  see jH, gK, PRB 81, 115126


--------------------------------------------------------------------------------------------------------




--------------------------------------- Iteration      1(   4)  ---------------------------------------


 BZINTS: Fermi energy:  3.397484; 48.000000 electrons
         Band energy:-134.011313;  BLOECHL correction: -0.047511
    TRIAL :  cpu time   35.5867: real time   35.6710
 BZINTS: Fermi energy:  3.397484; 48.000000 electrons
         Band energy:-134.011313;  BLOECHL correction: -0.047511
    CORREC:  cpu time    0.1820: real time    0.1821
    --------------------------------------------
      LOOP:  cpu time   35.7691: real time   35.8541

 eigenvalue-minimisations  :  1024
 total energy-change (2. order) :-0.4832976E+02  (-0.4606383E+02)
 number of electron      48.0000001 magnetization 
 augmentation part       48.0000001 magnetization 

 Free energy of the ion-electron system (eV)
  ---------------------------------------------------
  alpha Z        PSCENC =        13.10177784
  Ewald energy   TEWEN  =      1366.62330681
  -Hartree energ DENC   =     -2513.91978934
  -exchange      EXHF   =         0.00000000
  -V(xc)+E(xc)   XCENC  =      -142.06918885
  PAW double counting   =      1715.63829172    -1486.51325097
  entropy T*S    EENTRO =         0.00000000
  eigenvalues    EBANDS =      -134.01131269
  atomic energy  EATOM  =      1251.19323263
  ---------------------------------------------------
  free energy    TOTEN  =        70.04306716 eV

  energy without entropy =       70.04306716  energy(sigma->0) =       70.04306716
  exchange ACFDT corr.  =         0.00000000  see jH, gK, PRB 81, 115126


--------------------------------------------------------------------------------------------------------




--------------------------------------- Iteration      1(   5)  ---------------------------------------


 BZINTS: Fermi energy:  2.817223; 48.000000 electrons
         Band energy:-161.566406;  BLOECHL correction: -0.022941
    TRIAL :  cpu time   35.6431: real time   35.7288
 BZINTS: Fermi energy:  2.817223; 48.000000 electrons
         Band energy:-161.566406;  BLOECHL correction: -0.022941
    CORREC:  cpu time    0.1543: real time    0.1544
    --------------------------------------------
      LOOP:  cpu time   35.7977: real time   35.8843

 eigenvalue-minimisations  :  1024
 total energy-change (2. order) :-0.2755509E+02  (-0.2634504E+02)
 number of electron      48.0000001 magnetization 
 augmentation part       48.0000001 magnetization 

 Free energy of the ion-electron system (eV)
  ---------------------------------------------------
  alpha Z        PSCENC =        13.10177784
  Ewald energy   TEWEN  =      1366.62330681
  -Hartree energ DENC   =     -2513.91978934
  -exchange      EXHF   =         0.00000000
  -V(xc)+E(xc)   XCENC  =      -142.06918885
  PAW double counting   =      1715.63829172    -1486.51325097
  entropy T*S    EENTRO =         0.00000000
  eigenvalues    EBANDS =      -161.56640568
  atomic energy  EATOM  =      1251.19323263
  ---------------------------------------------------
  free energy    TOTEN  =        42.48797416 eV

  energy without entropy =       42.48797416  energy(sigma->0) =       42.48797416
  exchange ACFDT corr.  =         0.00000000  see jH, gK, PRB 81, 115126


--------------------------------------------------------------------------------------------------------




--------------------------------------- Iteration      1(   6)  ---------------------------------------


 BZINTS: Fermi energy:  2.393866; 48.000000 electrons
         Band energy:-178.441223;  BLOECHL correction: -0.005073
    TRIAL :  cpu time   35.6102: real time   35.6773
 BZINTS: Fermi energy:  2.393866; 48.000000 electrons
         Band energy:-178.441223;  BLOECHL correction: -0.005073
    CORREC:  cpu time    0.1329: real time    0.1329
    --------------------------------------------
      LOOP:  cpu time   35.7434: real time   35.8112

 eigenvalue-minimisations  :  1024
 total energy-change (2. order) :-0.1687482E+02  (-0.1620511E+02)
 number of electron      48.0000001 magnetization 
 augmentation part       48.0000001 magnetization 

 Free energy of the ion-electron system (eV)
  ---------------------------------------------------
  alpha Z        PSCENC =        13.10177784
  Ewald energy   TEWEN  =      1366.62330681
  -Hartree energ DENC   =     -2513.91978934
  -exchange      EXHF   =         0.00000000
  -V(xc)+E(xc)   XCENC  =      -142.06918885
  PAW double counting   =      1715.63829172    -1486.51325097
  entropy T*S    EENTRO =         0.00000000
  eigenvalues    EBANDS =      -178.44122302
  atomic energy  EATOM  =      1251.19323263
  ---------------------------------------------------
  free energy    TOTEN  =        25.61315683 eV

  energy without entropy =       25.61315683  energy(sigma->0) =       25.61315683
  exchange ACFDT corr.  =         0.00000000  see jH, gK, PRB 81, 115126


--------------------------------------------------------------------------------------------------------




--------------------------------------- Iteration      1(   7)  ---------------------------------------


 BZINTS: Fermi energy:  2.008504; 48.000000 electrons
         Band energy:-189.199210;  BLOECHL correction:  0.000000
    TRIAL :  cpu time   35.6038: real time   35.6678
 BZINTS: Fermi energy:  2.008504; 48.000000 electrons
         Band energy:-189.199210;  BLOECHL correction:  0.000000
    CORREC:  cpu time    0.1104: real time    0.1105
    --------------------------------------------
      LOOP:  cpu time   35.7146: real time   35.7796

 eigenvalue-minimisations  :  1024
 total energy-change (2. order) :-0.1075799E+02  (-0.1035889E+02)
 number of electron      48.0000001 magnetization 
 augmentation part       48.0000001 magnetization 

 Free energy of the ion-electron system (eV)
  ---------------------------------------------------
  alpha Z        PSCENC =        13.10177784
  Ewald energy   TEWEN  =      1366.62330681
  -Hartree energ DENC   =     -2513.91978934
  -exchange      EXHF   =         0.00000000
  -V(xc)+E(xc)   XCENC  =      -142.06918885
  PAW double counting   =      1715.63829172    -1486.51325097
  entropy T*S    EENTRO =         0.00000000
  eigenvalues    EBANDS =      -189.19921034
  atomic energy  EATOM  =      1251.19323263
  ---------------------------------------------------
  free energy    TOTEN  =        14.85516951 eV

  energy without entropy =       14.85516951  energy(sigma->0) =       14.85516951
  exchange ACFDT corr.  =         0.00000000  see jH, gK, PRB 81, 115126


--------------------------------------------------------------------------------------------------------




--------------------------------------- Iteration      1(   8)  ---------------------------------------


    TRIAL :  cpu time  623.5261: real time  624.6843
 BZINTS: Fermi energy:  1.855928; 48.000000 electrons
         Band energy:-207.224649;  BLOECHL correction:  0.000000
    CORREC:  cpu time    0.1028: real time    0.1028
    --------------------------------------------
      LOOP:  cpu time  623.6292: real time  624.7883

 eigenvalue-minimisations  :     0
 total energy-change (2. order) :-0.5628879E+02  (-0.1759407E+02)
 number of electron      48.0000001 magnetization 
 augmentation part       48.0000001 magnetization 

 Free energy of the ion-electron system (eV)
  ---------------------------------------------------
  alpha Z        PSCENC =        13.10177784
  Ewald energy   TEWEN  =      1366.62330681
  -Hartree energ DENC   =     -2513.91978934
  -exchange      EXHF   =        56.28878948
  -V(xc)+E(xc)   XCENC  =      -142.06918885
  PAW double counting   =      1715.63829172    -1486.51325097
  entropy T*S    EENTRO =         0.00000000
  eigenvalues    EBANDS =      -301.77678928
  atomic energy  EATOM  =      1251.19323263
  ---------------------------------------------------
  free energy    TOTEN  =       -41.43361995 eV

  energy without entropy =      -41.43361995  energy(sigma->0) =      -41.43361995
  exchange ACFDT corr.  =        -0.00000000  see jH, gK, PRB 81, 115126


--------------------------------------------------------------------------------------------------------




--------------------------------------- Iteration      1(   9)  ---------------------------------------


    TRIAL :  cpu time  621.8868: real time  623.9138
 BZINTS: Fermi energy:  1.543272; 48.000000 electrons
         Band energy:-232.107452;  BLOECHL correction:  0.000000
    CORREC:  cpu time    0.0856: real time    0.0856
    --------------------------------------------
      LOOP:  cpu time  621.9737: real time  624.0018

 eigenvalue-minimisations  :     0
 total energy-change (2. order) :-0.1384009E+02  (-0.1121165E+02)
 number of electron      48.0000001 magnetization 
 augmentation part       48.0000001 magnetization 

 Free energy of the ion-electron system (eV)
  ---------------------------------------------------
  alpha Z        PSCENC =        13.10177784
  Ewald energy   TEWEN  =      1366.62330681
  -Hartree energ DENC   =     -2513.91978934
  -exchange      EXHF   =        59.95135849
  -V(xc)+E(xc)   XCENC  =      -142.06918885
  PAW double counting   =      1715.63829172    -1486.51325097
  entropy T*S    EENTRO =         0.00000000
  eigenvalues    EBANDS =      -319.27944435
  atomic energy  EATOM  =      1251.19323263
  ---------------------------------------------------
  free energy    TOTEN  =       -55.27370601 eV

  energy without entropy =      -55.27370601  energy(sigma->0) =      -55.27370601
  exchange ACFDT corr.  =        -0.00000000  see jH, gK, PRB 81, 115126


--------------------------------------------------------------------------------------------------------




--------------------------------------- Iteration      1(  10)  ---------------------------------------


    TRIAL :  cpu time  621.0860: real time  623.5218
 BZINTS: Fermi energy:  1.263132; 48.000000 electrons
         Band energy:-257.511679;  BLOECHL correction:  0.000000
    CORREC:  cpu time    0.0706: real time    0.0706
    --------------------------------------------
      LOOP:  cpu time  621.1569: real time  623.5937

 eigenvalue-minimisations  :     0
 total energy-change (2. order) :-0.8073979E+01  (-0.5790193E+01)
 number of electron      48.0000001 magnetization 
 augmentation part       48.0000001 magnetization 

 Free energy of the ion-electron system (eV)
  ---------------------------------------------------
  alpha Z        PSCENC =        13.10177784
  Ewald energy   TEWEN  =      1366.62330681
  -Hartree energ DENC   =     -2513.91978934
  -exchange      EXHF   =        63.07100615
  -V(xc)+E(xc)   XCENC  =      -142.06918885
  PAW double counting   =      1715.63829172    -1486.51325097
  entropy T*S    EENTRO =         0.00000000
  eigenvalues    EBANDS =      -330.47307095
  atomic energy  EATOM  =      1251.19323263
  ---------------------------------------------------
  free energy    TOTEN  =       -63.34768496 eV

  energy without entropy =      -63.34768496  energy(sigma->0) =      -63.34768496
  exchange ACFDT corr.  =        -0.00250180  see jH, gK, PRB 81, 115126


--------------------------------------------------------------------------------------------------------




--------------------------------------- Iteration      1(  11)  ---------------------------------------


    TRIAL :  cpu time  620.8144: real time  623.6707
 BZINTS: Fermi energy:  0.936980; 48.000000 electrons
         Band energy:-280.173676;  BLOECHL correction: -0.009313
    CORREC:  cpu time    0.0571: real time    0.0572
    --------------------------------------------
      LOOP:  cpu time  620.8746: real time  623.7317

 eigenvalue-minimisations  :     0
 total energy-change (2. order) :-0.4421374E+01  (-0.3749231E+01)
 number of electron      48.0000001 magnetization 
 augmentation part       48.0000001 magnetization 

 Free energy of the ion-electron system (eV)
  ---------------------------------------------------
  alpha Z        PSCENC =        13.10177784
  Ewald energy   TEWEN  =      1366.62330681
  -Hartree energ DENC   =     -2513.91978934
  -exchange      EXHF   =        65.38343749
  -V(xc)+E(xc)   XCENC  =      -142.06918885
  PAW double counting   =      1715.63829172    -1486.51325097
  entropy T*S    EENTRO =         0.00000000
  eigenvalues    EBANDS =      -337.20687582
  atomic energy  EATOM  =      1251.19323263
  ---------------------------------------------------
  free energy    TOTEN  =       -67.76905848 eV

  energy without entropy =      -67.76905848  energy(sigma->0) =      -67.76905848
  exchange ACFDT corr.  =        -0.01250042  see jH, gK, PRB 81, 115126


--------------------------------------------------------------------------------------------------------




--------------------------------------- Iteration      1(  12)  ---------------------------------------


    TRIAL :  cpu time  642.6525: real time  645.2135
 BZINTS: Fermi energy:  0.462258; 48.000000 electrons
         Band energy:-298.992489;  BLOECHL correction: -0.050504
    CORREC:  cpu time    0.0311: real time    0.0311
    --------------------------------------------
      LOOP:  cpu time  642.6839: real time  645.2459

 eigenvalue-minimisations  :     0
 total energy-change (2. order) :-0.3236344E+01  (-0.2777968E+01)
 number of electron      48.0000001 magnetization 
 augmentation part       48.0000001 magnetization 

 Free energy of the ion-electron system (eV)
  ---------------------------------------------------
  alpha Z        PSCENC =        13.10177784
  Ewald energy   TEWEN  =      1366.62330681
  -Hartree energ DENC   =     -2513.91978934
  -exchange      EXHF   =        67.16932415
  -V(xc)+E(xc)   XCENC  =      -142.06918885
  PAW double counting   =      1715.63829172    -1486.51325097
  entropy T*S    EENTRO =         0.00000000
  eigenvalues    EBANDS =      -342.22910600
  atomic energy  EATOM  =      1251.19323263
  ---------------------------------------------------
  free energy    TOTEN  =       -71.00540200 eV

  energy without entropy =      -71.00540200  energy(sigma->0) =      -71.00540200
  exchange ACFDT corr.  =        -0.03095052  see jH, gK, PRB 81, 115126


--------------------------------------------------------------------------------------------------------




--------------------------------------- Iteration      1(  13)  ---------------------------------------


    TRIAL :  cpu time  645.1660: real time  647.3772
 BZINTS: Fermi energy:  0.007450; 48.000000 electrons
         Band energy:-313.928447;  BLOECHL correction: -0.079922
    CORREC:  cpu time    0.0069: real time    0.0070
    --------------------------------------------
      LOOP:  cpu time  645.1733: real time  647.3856

 eigenvalue-minimisations  :     0
 total energy-change (2. order) :-0.2508988E+01  (-0.2104571E+01)
 number of electron      48.0000001 magnetization 
 augmentation part       48.0000001 magnetization 

 Free energy of the ion-electron system (eV)
  ---------------------------------------------------
  alpha Z        PSCENC =        13.10177784
  Ewald energy   TEWEN  =      1366.62330681
  -Hartree energ DENC   =     -2513.91978934
  -exchange      EXHF   =        68.57723103
  -V(xc)+E(xc)   XCENC  =      -142.06918885
  PAW double counting   =      1715.63829172    -1486.51325097
  entropy T*S    EENTRO =         0.00000000
  eigenvalues    EBANDS =      -346.14600117
  atomic energy  EATOM  =      1251.19323263
  ---------------------------------------------------
  free energy    TOTEN  =       -73.51439029 eV

  energy without entropy =      -73.51439029  energy(sigma->0) =      -73.51439029
  exchange ACFDT corr.  =        -0.03050404  see jH, gK, PRB 81, 115126


--------------------------------------------------------------------------------------------------------




--------------------------------------- Iteration      1(  14)  ---------------------------------------


    TRIAL :  cpu time  660.3739: real time  662.0401
 BZINTS: Fermi energy: -0.343327; 48.000000 electrons
         Band energy:-325.486756;  BLOECHL correction: -0.060233
    CORREC:  cpu time    0.0065: real time    0.0065
    --------------------------------------------
      LOOP:  cpu time  660.3822: real time  662.0493

 eigenvalue-minimisations  :     0
 total energy-change (2. order) :-0.1917697E+01  (-0.1688752E+01)
 number of electron      48.0000001 magnetization 
 augmentation part       48.0000001 magnetization 

 Free energy of the ion-electron system (eV)
  ---------------------------------------------------
  alpha Z        PSCENC =        13.10177784
  Ewald energy   TEWEN  =      1366.62330681
  -Hartree energ DENC   =     -2513.91978934
  -exchange      EXHF   =        69.79295636
  -V(xc)+E(xc)   XCENC  =      -142.06918885
  PAW double counting   =      1715.63829172    -1486.51325097
  entropy T*S    EENTRO =         0.00000000
  eigenvalues    EBANDS =      -349.27942340
  atomic energy  EATOM  =      1251.19323263
  ---------------------------------------------------
  free energy    TOTEN  =       -75.43208719 eV

  energy without entropy =      -75.43208719  energy(sigma->0) =      -75.43208719
  exchange ACFDT corr.  =        -0.03393730  see jH, gK, PRB 81, 115126


--------------------------------------------------------------------------------------------------------




--------------------------------------- Iteration      1(  15)  ---------------------------------------


    TRIAL :  cpu time  657.1174: real time  659.3148
 BZINTS: Fermi energy: -0.528790; 48.000000 electrons
         Band energy:-334.308717;  BLOECHL correction: -0.017404
    CORREC:  cpu time    0.0068: real time    0.0068
    --------------------------------------------
      LOOP:  cpu time  657.1245: real time  659.3229

 eigenvalue-minimisations  :     0
 total energy-change (2. order) :-0.1680883E+01  (-0.1204029E+01)
 number of electron      48.0000001 magnetization 
 augmentation part       48.0000001 magnetization 

 Free energy of the ion-electron system (eV)
  ---------------------------------------------------
  alpha Z        PSCENC =        13.10177784
  Ewald energy   TEWEN  =      1366.62330681
  -Hartree energ DENC   =     -2513.91978934
  -exchange      EXHF   =        71.10958070
  -V(xc)+E(xc)   XCENC  =      -142.06918885
  PAW double counting   =      1715.63829172    -1486.51325097
  entropy T*S    EENTRO =         0.00000000
  eigenvalues    EBANDS =      -352.27693047
  atomic energy  EATOM  =      1251.19323263
  ---------------------------------------------------
  free energy    TOTEN  =       -77.11296992 eV

  energy without entropy =      -77.11296992  energy(sigma->0) =      -77.11296992
  exchange ACFDT corr.  =        -0.04815033  see jH, gK, PRB 81, 115126


--------------------------------------------------------------------------------------------------------




--------------------------------------- Iteration      1(  16)  ---------------------------------------


    TRIAL :  cpu time  648.2040: real time  651.6684
 BZINTS: Fermi energy: -0.767562; 48.000000 electrons
         Band energy:-340.973642;  BLOECHL correction: -0.035668
    CORREC:  cpu time    0.0066: real time    0.0066
    --------------------------------------------
      LOOP:  cpu time  648.2110: real time  651.6764

 eigenvalue-minimisations  :     0
 total energy-change (2. order) :-0.9470148E+00  (-0.7794384E+00)
 number of electron      48.0000001 magnetization 
 augmentation part       48.0000001 magnetization 

 Free energy of the ion-electron system (eV)
  ---------------------------------------------------
  alpha Z        PSCENC =        13.10177784
  Ewald energy   TEWEN  =      1366.62330681
  -Hartree energ DENC   =     -2513.91978934
  -exchange      EXHF   =        72.00881772
  -V(xc)+E(xc)   XCENC  =      -142.06918885
  PAW double counting   =      1715.63829172    -1486.51325097
  entropy T*S    EENTRO =         0.00000000
  eigenvalues    EBANDS =      -354.12318227
  atomic energy  EATOM  =      1251.19323263
  ---------------------------------------------------
  free energy    TOTEN  =       -78.05998470 eV

  energy without entropy =      -78.05998470  energy(sigma->0) =      -78.05998470
  exchange ACFDT corr.  =        -0.02759837  see jH, gK, PRB 81, 115126


--------------------------------------------------------------------------------------------------------




--------------------------------------- Iteration      1(  17)  ---------------------------------------


    TRIAL :  cpu time  652.2773: real time  654.5646
 BZINTS: Fermi energy: -0.950171; 48.000000 electrons
         Band energy:-345.938349;  BLOECHL correction: -0.052815
    CORREC:  cpu time    0.0069: real time    0.0069
    --------------------------------------------
      LOOP:  cpu time  652.2846: real time  654.5728

 eigenvalue-minimisations  :     0
 total energy-change (2. order) :-0.6331175E+00  (-0.7485548E+00)
 number of electron      48.0000001 magnetization 
 augmentation part       48.0000001 magnetization 

 Free energy of the ion-electron system (eV)
  ---------------------------------------------------
  alpha Z        PSCENC =        13.10177784
  Ewald energy   TEWEN  =      1366.62330681
  -Hartree energ DENC   =     -2513.91978934
  -exchange      EXHF   =        72.71146759
  -V(xc)+E(xc)   XCENC  =      -142.06918885
  PAW double counting   =      1715.63829172    -1486.51325097
  entropy T*S    EENTRO =         0.00000000
  eigenvalues    EBANDS =      -355.45894962
  atomic energy  EATOM  =      1251.19323263
  ---------------------------------------------------
  free energy    TOTEN  =       -78.69310219 eV

  energy without entropy =      -78.69310219  energy(sigma->0) =      -78.69310219
  exchange ACFDT corr.  =        -0.00563574  see jH, gK, PRB 81, 115126


--------------------------------------------------------------------------------------------------------




--------------------------------------- Iteration      1(  18)  ---------------------------------------


    TRIAL :  cpu time  650.4873: real time  652.7005
 BZINTS: Fermi energy: -1.253127; 48.000000 electrons
         Band energy:-349.664726;  BLOECHL correction:  0.000000
    CORREC:  cpu time    0.0049: real time    0.0049
    --------------------------------------------
      LOOP:  cpu time  650.4925: real time  652.7067

 eigenvalue-minimisations  :     0
 total energy-change (2. order) :-0.6963954E+00  (-0.8193623E+00)
 number of electron      48.0000001 magnetization 
 augmentation part       48.0000001 magnetization 

 Free energy of the ion-electron system (eV)
  ---------------------------------------------------
  alpha Z        PSCENC =        13.10177784
  Ewald energy   TEWEN  =      1366.62330681
  -Hartree energ DENC   =     -2513.91978934
  -exchange      EXHF   =        73.61518682
  -V(xc)+E(xc)   XCENC  =      -142.06918885
  PAW double counting   =      1715.63829172    -1486.51325097
  entropy T*S    EENTRO =         0.00000000
  eigenvalues    EBANDS =      -357.05906425
  atomic energy  EATOM  =      1251.19323263
  ---------------------------------------------------
  free energy    TOTEN  =       -79.38949758 eV

  energy without entropy =      -79.38949758  energy(sigma->0) =      -79.38949758
  exchange ACFDT corr.  =        -0.01549451  see jH, gK, PRB 81, 115126


--------------------------------------------------------------------------------------------------------




--------------------------------------- Iteration      1(  19)  ---------------------------------------


    TRIAL :  cpu time  620.7103: real time  622.5532
 BZINTS: Fermi energy: -1.578289; 48.000000 electrons
         Band energy:-352.522222;  BLOECHL correction:  0.000000
    CORREC:  cpu time    0.0053: real time    0.0053
    --------------------------------------------
      LOOP:  cpu time  620.7160: real time  622.5600

 eigenvalue-minimisations  :     0
 total energy-change (2. order) :-0.4831007E+00  (-0.2655397E+00)
 number of electron      48.0000001 magnetization 
 augmentation part       48.0000001 magnetization 

 Free energy of the ion-electron system (eV)
  ---------------------------------------------------
  alpha Z        PSCENC =        13.10177784
  Ewald energy   TEWEN  =      1366.62330681
  -Hartree energ DENC   =     -2513.91978934
  -exchange      EXHF   =        74.33309936
  -V(xc)+E(xc)   XCENC  =      -142.06918885
  PAW double counting   =      1715.63829172    -1486.51325097
  entropy T*S    EENTRO =         0.00000000
  eigenvalues    EBANDS =      -358.26007751
  atomic energy  EATOM  =      1251.19323263
  ---------------------------------------------------
  free energy    TOTEN  =       -79.87259831 eV

  energy without entropy =      -79.87259831  energy(sigma->0) =      -79.87259831
  exchange ACFDT corr.  =        -0.00025618  see jH, gK, PRB 81, 115126


--------------------------------------------------------------------------------------------------------




--------------------------------------- Iteration      1(  20)  ---------------------------------------


    TRIAL :  cpu time  623.3074: real time  625.1086
 BZINTS: Fermi energy: -1.828414; 48.000000 electrons
         Band energy:-354.610899;  BLOECHL correction:  0.000000
    CORREC:  cpu time    0.0052: real time    0.0052
    --------------------------------------------
      LOOP:  cpu time  623.3130: real time  625.1153

 eigenvalue-minimisations  :     0
 total energy-change (2. order) :-0.1435388E+00  (-0.7097439E-01)
 number of electron      48.0000001 magnetization 
 augmentation part       48.0000001 magnetization 

 Free energy of the ion-electron system (eV)
  ---------------------------------------------------
  alpha Z        PSCENC =        13.10177784
  Ewald energy   TEWEN  =      1366.62330681
  -Hartree energ DENC   =     -2513.91978934
  -exchange      EXHF   =        74.61242824
  -V(xc)+E(xc)   XCENC  =      -142.06918885
  PAW double counting   =      1715.63829172    -1486.51325097
  entropy T*S    EENTRO =         0.00000000
  eigenvalues    EBANDS =      -358.68294519
  atomic energy  EATOM  =      1251.19323263
  ---------------------------------------------------
  free energy    TOTEN  =       -80.01613710 eV

  energy without entropy =      -80.01613710  energy(sigma->0) =      -80.01613710
  exchange ACFDT corr.  =        -0.00000000  see jH, gK, PRB 81, 115126


--------------------------------------------------------------------------------------------------------




--------------------------------------- Iteration      1(  21)  ---------------------------------------


    TRIAL :  cpu time  620.7605: real time  622.5248
 BZINTS: Fermi energy: -1.998499; 48.000000 electrons
         Band energy:-356.101160;  BLOECHL correction:  0.000000
    CORREC:  cpu time    0.0045: real time    0.0045
    --------------------------------------------
      LOOP:  cpu time  620.7656: real time  622.5308

 eigenvalue-minimisations  :     0
 total energy-change (2. order) :-0.5704904E-01  (-0.3296576E-01)
 number of electron      48.0000001 magnetization 
 augmentation part       48.0000001 magnetization 

 Free energy of the ion-electron system (eV)
  ---------------------------------------------------
  alpha Z        PSCENC =        13.10177784
  Ewald energy   TEWEN  =      1366.62330681
  -Hartree energ DENC   =     -2513.91978934
  -exchange      EXHF   =        74.77905700
  -V(xc)+E(xc)   XCENC  =      -142.06918885
  PAW double counting   =      1715.63829172    -1486.51325097
  entropy T*S    EENTRO =         0.00000000
  eigenvalues    EBANDS =      -358.90662299
  atomic energy  EATOM  =      1251.19323263
  ---------------------------------------------------
  free energy    TOTEN  =       -80.07318614 eV

  energy without entropy =      -80.07318614  energy(sigma->0) =      -80.07318614
  exchange ACFDT corr.  =        -0.00000000  see jH, gK, PRB 81, 115126


--------------------------------------------------------------------------------------------------------




--------------------------------------- Iteration      1(  22)  ---------------------------------------


    TRIAL :  cpu time  621.6153: real time  623.4813
 BZINTS: Fermi energy: -2.106051; 48.000000 electrons
         Band energy:-357.144951;  BLOECHL correction:  0.000000
    CORREC:  cpu time    0.0039: real time    0.0039
    --------------------------------------------
      LOOP:  cpu time  621.6197: real time  623.4867

 eigenvalue-minimisations  :     0
 total energy-change (2. order) :-0.2790342E-01  (-0.1726963E-01)
 number of electron      48.0000001 magnetization 
 augmentation part       48.0000001 magnetization 

 Free energy of the ion-electron system (eV)
  ---------------------------------------------------
  alpha Z        PSCENC =        13.10177784
  Ewald energy   TEWEN  =      1366.62330681
  -Hartree energ DENC   =     -2513.91978934
  -exchange      EXHF   =        74.89583485
  -V(xc)+E(xc)   XCENC  =      -142.06918885
  PAW double counting   =      1715.63829172    -1486.51325097
  entropy T*S    EENTRO =         0.00000000
  eigenvalues    EBANDS =      -359.05130426
  atomic energy  EATOM  =      1251.19323263
  ---------------------------------------------------
  free energy    TOTEN  =       -80.10108956 eV

  energy without entropy =      -80.10108956  energy(sigma->0) =      -80.10108956
  exchange ACFDT corr.  =        -0.00000000  see jH, gK, PRB 81, 115126


--------------------------------------------------------------------------------------------------------




--------------------------------------- Iteration      1(  23)  ---------------------------------------


    TRIAL :  cpu time  616.4944: real time  620.1908
 BZINTS: Fermi energy: -2.171076; 48.000000 electrons
         Band energy:-357.866012;  BLOECHL correction:  0.000000
    CORREC:  cpu time    0.0037: real time    0.0036
    --------------------------------------------
      LOOP:  cpu time  616.4985: real time  620.1960

 eigenvalue-minimisations  :     0
 total energy-change (2. order) :-0.1496800E-01  (-0.1045848E-01)
 number of electron      48.0000001 magnetization 
 augmentation part       48.0000001 magnetization 

 Free energy of the ion-electron system (eV)
  ---------------------------------------------------
  alpha Z        PSCENC =        13.10177784
  Ewald energy   TEWEN  =      1366.62330681
  -Hartree energ DENC   =     -2513.91978934
  -exchange      EXHF   =        74.98125393
  -V(xc)+E(xc)   XCENC  =      -142.06918885
  PAW double counting   =      1715.63829172    -1486.51325097
  entropy T*S    EENTRO =         0.00000000
  eigenvalues    EBANDS =      -359.15169133
  atomic energy  EATOM  =      1251.19323263
  ---------------------------------------------------
  free energy    TOTEN  =       -80.11605756 eV

  energy without entropy =      -80.11605756  energy(sigma->0) =      -80.11605756
  exchange ACFDT corr.  =        -0.00000000  see jH, gK, PRB 81, 115126


--------------------------------------------------------------------------------------------------------




--------------------------------------- Iteration      1(  24)  ---------------------------------------


    TRIAL :  cpu time  622.4611: real time  625.4623
 BZINTS: Fermi energy: -2.211066; 48.000000 electrons
         Band energy:-358.359426;  BLOECHL correction:  0.000000
    CORREC:  cpu time    0.0034: real time    0.0034
    --------------------------------------------
      LOOP:  cpu time  622.4648: real time  625.4671

 eigenvalue-minimisations  :     0
 total energy-change (2. order) :-0.8566363E-02  (-0.6270106E-02)
 number of electron      48.0000001 magnetization 
 augmentation part       48.0000001 magnetization 

 Free energy of the ion-electron system (eV)
  ---------------------------------------------------
  alpha Z        PSCENC =        13.10177784
  Ewald energy   TEWEN  =      1366.62330681
  -Hartree energ DENC   =     -2513.91978934
  -exchange      EXHF   =        75.04529846
  -V(xc)+E(xc)   XCENC  =      -142.06918885
  PAW double counting   =      1715.63829172    -1486.51325097
  entropy T*S    EENTRO =         0.00000000
  eigenvalues    EBANDS =      -359.22430223
  atomic energy  EATOM  =      1251.19323263
  ---------------------------------------------------
  free energy    TOTEN  =       -80.12462392 eV

  energy without entropy =      -80.12462392  energy(sigma->0) =      -80.12462392
  exchange ACFDT corr.  =        -0.00000000  see jH, gK, PRB 81, 115126


--------------------------------------------------------------------------------------------------------




--------------------------------------- Iteration      1(  25)  ---------------------------------------


    TRIAL :  cpu time  616.1029: real time  619.1370
 BZINTS: Fermi energy: -2.233578; 48.000000 electrons
         Band energy:-358.695293;  BLOECHL correction:  0.000000
    CORREC:  cpu time    0.0034: real time    0.0034
    --------------------------------------------
      LOOP:  cpu time  616.1068: real time  619.1418

 eigenvalue-minimisations  :     0
 total energy-change (2. order) :-0.5187023E-02  (-0.3743303E-02)
 number of electron      48.0000001 magnetization 
 augmentation part       48.0000001 magnetization 

 Free energy of the ion-electron system (eV)
  ---------------------------------------------------
  alpha Z        PSCENC =        13.10177784
  Ewald energy   TEWEN  =      1366.62330681
  -Hartree energ DENC   =     -2513.91978934
  -exchange      EXHF   =        75.09427879
  -V(xc)+E(xc)   XCENC  =      -142.06918885
  PAW double counting   =      1715.63829172    -1486.51325097
  entropy T*S    EENTRO =         0.00000000
  eigenvalues    EBANDS =      -359.27846959
  atomic energy  EATOM  =      1251.19323263
  ---------------------------------------------------
  free energy    TOTEN  =       -80.12981094 eV

  energy without entropy =      -80.12981094  energy(sigma->0) =      -80.12981094
  exchange ACFDT corr.  =        -0.00000000  see jH, gK, PRB 81, 115126


--------------------------------------------------------------------------------------------------------




--------------------------------------- Iteration      1(  26)  ---------------------------------------


    TRIAL :  cpu time  621.9142: real time  624.6583
 BZINTS: Fermi energy: -2.248585; 48.000000 electrons
         Band energy:-358.923707;  BLOECHL correction:  0.000000
    CORREC:  cpu time    0.0033: real time    0.0033
    --------------------------------------------
      LOOP:  cpu time  621.9179: real time  624.6631

 eigenvalue-minimisations  :     0
 total energy-change (2. order) :-0.3328646E-02  (-0.2431750E-02)
 number of electron      48.0000001 magnetization 
 augmentation part       48.0000001 magnetization 

 Free energy of the ion-electron system (eV)
  ---------------------------------------------------
  alpha Z        PSCENC =        13.10177784
  Ewald energy   TEWEN  =      1366.62330681
  -Hartree energ DENC   =     -2513.91978934
  -exchange      EXHF   =        75.13236169
  -V(xc)+E(xc)   XCENC  =      -142.06918885
  PAW double counting   =      1715.63829172    -1486.51325097
  entropy T*S    EENTRO =         0.00000000
  eigenvalues    EBANDS =      -359.31988113
  atomic energy  EATOM  =      1251.19323263
  ---------------------------------------------------
  free energy    TOTEN  =       -80.13313959 eV

  energy without entropy =      -80.13313959  energy(sigma->0) =      -80.13313959
  exchange ACFDT corr.  =        -0.00000000  see jH, gK, PRB 81, 115126


--------------------------------------------------------------------------------------------------------




--------------------------------------- Iteration      1(  27)  ---------------------------------------


    TRIAL :  cpu time  620.1348: real time  622.4383
 BZINTS: Fermi energy: -2.258590; 48.000000 electrons
         Band energy:-359.079608;  BLOECHL correction:  0.000000
    CORREC:  cpu time    0.0033: real time    0.0033
    --------------------------------------------
      LOOP:  cpu time  620.1386: real time  622.4429

 eigenvalue-minimisations  :     0
 total energy-change (2. order) :-0.2252072E-02  (-0.1680010E-02)
 number of electron      48.0000001 magnetization 
 augmentation part       48.0000001 magnetization 

 Free energy of the ion-electron system (eV)
  ---------------------------------------------------
  alpha Z        PSCENC =        13.10177784
  Ewald energy   TEWEN  =      1366.62330681
  -Hartree energ DENC   =     -2513.91978934
  -exchange      EXHF   =        75.16236832
  -V(xc)+E(xc)   XCENC  =      -142.06918885
  PAW double counting   =      1715.63829172    -1486.51325097
  entropy T*S    EENTRO =         0.00000000
  eigenvalues    EBANDS =      -359.35213983
  atomic energy  EATOM  =      1251.19323263
  ---------------------------------------------------
  free energy    TOTEN  =       -80.13539166 eV

  energy without entropy =      -80.13539166  energy(sigma->0) =      -80.13539166
  exchange ACFDT corr.  =        -0.00000000  see jH, gK, PRB 81, 115126


--------------------------------------------------------------------------------------------------------




--------------------------------------- Iteration      1(  28)  ---------------------------------------


    TRIAL :  cpu time  622.0168: real time  624.4724
 BZINTS: Fermi energy: -2.266055; 48.000000 electrons
         Band energy:-359.186903;  BLOECHL correction:  0.000000
    CORREC:  cpu time    0.0032: real time    0.0032
    --------------------------------------------
      LOOP:  cpu time  622.0204: real time  624.4772

 eigenvalue-minimisations  :     0
 total energy-change (2. order) :-0.1587362E-02  (-0.1218193E-02)
 number of electron      48.0000001 magnetization 
 augmentation part       48.0000001 magnetization 

 Free energy of the ion-electron system (eV)
  ---------------------------------------------------
  alpha Z        PSCENC =        13.10177784
  Ewald energy   TEWEN  =      1366.62330681
  -Hartree energ DENC   =     -2513.91978934
  -exchange      EXHF   =        75.18628084
  -V(xc)+E(xc)   XCENC  =      -142.06918885
  PAW double counting   =      1715.63829172    -1486.51325097
  entropy T*S    EENTRO =         0.00000000
  eigenvalues    EBANDS =      -359.37763972
  atomic energy  EATOM  =      1251.19323263
  ---------------------------------------------------
  free energy    TOTEN  =       -80.13697902 eV

  energy without entropy =      -80.13697902  energy(sigma->0) =      -80.13697902
  exchange ACFDT corr.  =        -0.00000000  see jH, gK, PRB 81, 115126


--------------------------------------------------------------------------------------------------------




--------------------------------------- Iteration      1(  29)  ---------------------------------------


    TRIAL :  cpu time  617.3416: real time  620.3957
 BZINTS: Fermi energy: -2.271057; 48.000000 electrons
         Band energy:-359.261706;  BLOECHL correction:  0.000000
    CORREC:  cpu time    0.0032: real time    0.0032
    --------------------------------------------
      LOOP:  cpu time  617.3452: real time  620.4003

 eigenvalue-minimisations  :     0
 total energy-change (2. order) :-0.1161248E-02  (-0.9137004E-03)
 number of electron      48.0000001 magnetization 
 augmentation part       48.0000001 magnetization 

 Free energy of the ion-electron system (eV)
  ---------------------------------------------------
  alpha Z        PSCENC =        13.10177784
  Ewald energy   TEWEN  =      1366.62330681
  -Hartree energ DENC   =     -2513.91978934
  -exchange      EXHF   =        75.20553357
  -V(xc)+E(xc)   XCENC  =      -142.06918885
  PAW double counting   =      1715.63829172    -1486.51325097
  entropy T*S    EENTRO =         0.00000000
  eigenvalues    EBANDS =      -359.39805369
  atomic energy  EATOM  =      1251.19323263
  ---------------------------------------------------
  free energy    TOTEN  =       -80.13814027 eV

  energy without entropy =      -80.13814027  energy(sigma->0) =      -80.13814027
  exchange ACFDT corr.  =        -0.00000000  see jH, gK, PRB 81, 115126


--------------------------------------------------------------------------------------------------------




--------------------------------------- Iteration      1(  30)  ---------------------------------------


    TRIAL :  cpu time  621.5898: real time  624.6981
 BZINTS: Fermi energy: -2.276060; 48.000000 electrons
         Band energy:-359.314760;  BLOECHL correction:  0.000000
    CORREC:  cpu time    0.0032: real time    0.0032
    --------------------------------------------
      LOOP:  cpu time  621.5933: real time  624.7025

 eigenvalue-minimisations  :     0
 total energy-change (2. order) :-0.8762866E-03  (-0.7036585E-03)
 number of electron      48.0000001 magnetization 
 augmentation part       48.0000001 magnetization 

 Free energy of the ion-electron system (eV)
  ---------------------------------------------------
  alpha Z        PSCENC =        13.10177784
  Ewald energy   TEWEN  =      1366.62330681
  -Hartree energ DENC   =     -2513.91978934
  -exchange      EXHF   =        75.22118428
  -V(xc)+E(xc)   XCENC  =      -142.06918885
  PAW double counting   =      1715.63829172    -1486.51325097
  entropy T*S    EENTRO =         0.00000000
  eigenvalues    EBANDS =      -359.41458069
  atomic energy  EATOM  =      1251.19323263
  ---------------------------------------------------
  free energy    TOTEN  =       -80.13901656 eV

  energy without entropy =      -80.13901656  energy(sigma->0) =      -80.13901656
  exchange ACFDT corr.  =        -0.00000000  see jH, gK, PRB 81, 115126


--------------------------------------------------------------------------------------------------------




--------------------------------------- Iteration      1(  31)  ---------------------------------------


    TRIAL :  cpu time  623.4628: real time  625.2085
 BZINTS: Fermi energy: -2.278561; 48.000000 electrons
         Band energy:-359.353173;  BLOECHL correction:  0.000000
    CORREC:  cpu time    0.0032: real time    0.0032
    --------------------------------------------
      LOOP:  cpu time  623.4664: real time  625.2132

 eigenvalue-minimisations  :     0
 total energy-change (2. order) :-0.6777717E-03  (-0.5536541E-03)
 number of electron      48.0000001 magnetization 
 augmentation part       48.0000001 magnetization 

 Free energy of the ion-electron system (eV)
  ---------------------------------------------------
  alpha Z        PSCENC =        13.10177784
  Ewald energy   TEWEN  =      1366.62330681
  -Hartree energ DENC   =     -2513.91978934
  -exchange      EXHF   =        75.23402201
  -V(xc)+E(xc)   XCENC  =      -142.06918885
  PAW double counting   =      1715.63829172    -1486.51325097
  entropy T*S    EENTRO =         0.00000000
  eigenvalues    EBANDS =      -359.42809619
  atomic energy  EATOM  =      1251.19323263
  ---------------------------------------------------
  free energy    TOTEN  =       -80.13969433 eV

  energy without entropy =      -80.13969433  energy(sigma->0) =      -80.13969433
  exchange ACFDT corr.  =        -0.00000000  see jH, gK, PRB 81, 115126


--------------------------------------------------------------------------------------------------------




--------------------------------------- Iteration      1(  32)  ---------------------------------------


    TRIAL :  cpu time  622.8020: real time  625.0784
 BZINTS: Fermi energy: -2.281062; 48.000000 electrons
         Band energy:-359.381626;  BLOECHL correction:  0.000000
    CORREC:  cpu time    0.0032: real time    0.0032
    --------------------------------------------
      LOOP:  cpu time  622.8058: real time  625.0830

 eigenvalue-minimisations  :     0
 total energy-change (2. order) :-0.5351476E-03  (-0.4428549E-03)
 number of electron      48.0000001 magnetization 
 augmentation part       48.0000001 magnetization 

 Free energy of the ion-electron system (eV)
  ---------------------------------------------------
  alpha Z        PSCENC =        13.10177784
  Ewald energy   TEWEN  =      1366.62330681
  -Hartree energ DENC   =     -2513.91978934
  -exchange      EXHF   =        75.24464134
  -V(xc)+E(xc)   XCENC  =      -142.06918885
  PAW double counting   =      1715.63829172    -1486.51325097
  entropy T*S    EENTRO =         0.00000000
  eigenvalues    EBANDS =      -359.43925066
  atomic energy  EATOM  =      1251.19323263
  ---------------------------------------------------
  free energy    TOTEN  =       -80.14022948 eV

  energy without entropy =      -80.14022948  energy(sigma->0) =      -80.14022948
  exchange ACFDT corr.  =        -0.00000000  see jH, gK, PRB 81, 115126


--------------------------------------------------------------------------------------------------------




--------------------------------------- Iteration      1(  33)  ---------------------------------------


    TRIAL :  cpu time  619.3987: real time  622.0363
 BZINTS: Fermi energy: -2.283564; 48.000000 electrons
         Band energy:-359.403205;  BLOECHL correction:  0.000000
    CORREC:  cpu time    0.0032: real time    0.0032
    --------------------------------------------
      LOOP:  cpu time  619.4023: real time  622.0409

 eigenvalue-minimisations  :     0
 total energy-change (2. order) :-0.4297482E-03  (-0.3596221E-03)
 number of electron      48.0000001 magnetization 
 augmentation part       48.0000001 magnetization 

 Free energy of the ion-electron system (eV)
  ---------------------------------------------------
  alpha Z        PSCENC =        13.10177784
  Ewald energy   TEWEN  =      1366.62330681
  -Hartree energ DENC   =     -2513.91978934
  -exchange      EXHF   =        75.25349576
  -V(xc)+E(xc)   XCENC  =      -142.06918885
  PAW double counting   =      1715.63829172    -1486.51325097
  entropy T*S    EENTRO =         0.00000000
  eigenvalues    EBANDS =      -359.44853484
  atomic energy  EATOM  =      1251.19323263
  ---------------------------------------------------
  free energy    TOTEN  =       -80.14065923 eV

  energy without entropy =      -80.14065923  energy(sigma->0) =      -80.14065923
  exchange ACFDT corr.  =        -0.00000000  see jH, gK, PRB 81, 115126


--------------------------------------------------------------------------------------------------------




--------------------------------------- Iteration      1(  34)  ---------------------------------------


    TRIAL :  cpu time  621.5089: real time  623.0019
 BZINTS: Fermi energy: -2.283564; 48.000000 electrons
         Band energy:-359.419951;  BLOECHL correction:  0.000000
    CORREC:  cpu time    0.0032: real time    0.0032
    --------------------------------------------
      LOOP:  cpu time  621.5126: real time  623.0067

 eigenvalue-minimisations  :     0
 total energy-change (2. order) :-0.3502782E-03  (-0.2964574E-03)
 number of electron      48.0000001 magnetization 
 augmentation part       48.0000001 magnetization 

 Free energy of the ion-electron system (eV)
  ---------------------------------------------------
  alpha Z        PSCENC =        13.10177784
  Ewald energy   TEWEN  =      1366.62330681
  -Hartree energ DENC   =     -2513.91978934
  -exchange      EXHF   =        75.26093791
  -V(xc)+E(xc)   XCENC  =      -142.06918885
  PAW double counting   =      1715.63829172    -1486.51325097
  entropy T*S    EENTRO =         0.00000000
  eigenvalues    EBANDS =      -359.45632726
  atomic energy  EATOM  =      1251.19323263
  ---------------------------------------------------
  free energy    TOTEN  =       -80.14100950 eV

  energy without entropy =      -80.14100950  energy(sigma->0) =      -80.14100950
  exchange ACFDT corr.  =        -0.00000000  see jH, gK, PRB 81, 115126


--------------------------------------------------------------------------------------------------------




--------------------------------------- Iteration      1(  35)  ---------------------------------------


    TRIAL :  cpu time  621.6598: real time  623.5530
 BZINTS: Fermi energy: -2.286065; 48.000000 electrons
         Band energy:-359.433228;  BLOECHL correction:  0.000000
    CORREC:  cpu time    0.0032: real time    0.0032
    --------------------------------------------
      LOOP:  cpu time  621.6636: real time  623.5579

 eigenvalue-minimisations  :     0
 total energy-change (2. order) :-0.2896898E-03  (-0.2477290E-03)
 number of electron      48.0000001 magnetization 
 augmentation part       48.0000001 magnetization 

 Free energy of the ion-electron system (eV)
  ---------------------------------------------------
  alpha Z        PSCENC =        13.10177784
  Ewald energy   TEWEN  =      1366.62330681
  -Hartree energ DENC   =     -2513.91978934
  -exchange      EXHF   =        75.26725424
  -V(xc)+E(xc)   XCENC  =      -142.06918885
  PAW double counting   =      1715.63829172    -1486.51325097
  entropy T*S    EENTRO =         0.00000000
  eigenvalues    EBANDS =      -359.46293328
  atomic energy  EATOM  =      1251.19323263
  ---------------------------------------------------
  free energy    TOTEN  =       -80.14129919 eV

  energy without entropy =      -80.14129919  energy(sigma->0) =      -80.14129919
  exchange ACFDT corr.  =        -0.00000000  see jH, gK, PRB 81, 115126


--------------------------------------------------------------------------------------------------------




--------------------------------------- Iteration      1(  36)  ---------------------------------------


    TRIAL :  cpu time  621.9625: real time  625.5691
 BZINTS: Fermi energy: -2.286065; 48.000000 electrons
         Band energy:-359.443959;  BLOECHL correction:  0.000000
    CORREC:  cpu time    0.0032: real time    0.0032
    --------------------------------------------
      LOOP:  cpu time  621.9664: real time  625.5740

 eigenvalue-minimisations  :     0
 total energy-change (2. order) :-0.2429068E-03  (-0.2108832E-03)
 number of electron      48.0000001 magnetization 
 augmentation part       48.0000001 magnetization 

 Free energy of the ion-electron system (eV)
  ---------------------------------------------------
  alpha Z        PSCENC =        13.10177784
  Ewald energy   TEWEN  =      1366.62330681
  -Hartree energ DENC   =     -2513.91978934
  -exchange      EXHF   =        75.27267189
  -V(xc)+E(xc)   XCENC  =      -142.06918885
  PAW double counting   =      1715.63829172    -1486.51325097
  entropy T*S    EENTRO =         0.00000000
  eigenvalues    EBANDS =      -359.46859384
  atomic energy  EATOM  =      1251.19323263
  ---------------------------------------------------
  free energy    TOTEN  =       -80.14154210 eV

  energy without entropy =      -80.14154210  energy(sigma->0) =      -80.14154210
  exchange ACFDT corr.  =        -0.00000000  see jH, gK, PRB 81, 115126


--------------------------------------------------------------------------------------------------------




--------------------------------------- Iteration      1(  37)  ---------------------------------------


    TRIAL :  cpu time  619.5824: real time  622.4189
 BZINTS: Fermi energy: -2.286065; 48.000000 electrons
         Band energy:-359.452789;  BLOECHL correction:  0.000000
    CORREC:  cpu time    0.0032: real time    0.0032
    --------------------------------------------
      LOOP:  cpu time  619.5861: real time  622.4238

 eigenvalue-minimisations  :     0
 total energy-change (2. order) :-0.2072900E-03  (-0.1833676E-03)
 number of electron      48.0000001 magnetization 
 augmentation part       48.0000001 magnetization 

 Free energy of the ion-electron system (eV)
  ---------------------------------------------------
  alpha Z        PSCENC =        13.10177784
  Ewald energy   TEWEN  =      1366.62330681
  -Hartree energ DENC   =     -2513.91978934
  -exchange      EXHF   =        75.27738841
  -V(xc)+E(xc)   XCENC  =      -142.06918885
  PAW double counting   =      1715.63829172    -1486.51325097
  entropy T*S    EENTRO =         0.00000000
  eigenvalues    EBANDS =      -359.47351765
  atomic energy  EATOM  =      1251.19323263
  ---------------------------------------------------
  free energy    TOTEN  =       -80.14174939 eV

  energy without entropy =      -80.14174939  energy(sigma->0) =      -80.14174939
  exchange ACFDT corr.  =        -0.00000000  see jH, gK, PRB 81, 115126


--------------------------------------------------------------------------------------------------------




--------------------------------------- Iteration      1(  38)  ---------------------------------------


    TRIAL :  cpu time  621.2652: real time  624.7821
 BZINTS: Fermi energy: -2.288488; 48.000000 electrons
         Band energy:-359.460177;  BLOECHL correction:  0.000000
    CORREC:  cpu time    0.0031: real time    0.0031
    --------------------------------------------
      LOOP:  cpu time  621.2689: real time  624.7867

 eigenvalue-minimisations  :     0
 total energy-change (2. order) :-0.1806528E-03  (-0.1622998E-03)
 number of electron      48.0000001 magnetization 
 augmentation part       48.0000001 magnetization 

 Free energy of the ion-electron system (eV)
  ---------------------------------------------------
  alpha Z        PSCENC =        13.10177784
  Ewald energy   TEWEN  =      1366.62330681
  -Hartree energ DENC   =     -2513.91978934
  -exchange      EXHF   =        75.28156732
  -V(xc)+E(xc)   XCENC  =      -142.06918885
  PAW double counting   =      1715.63829172    -1486.51325097
  entropy T*S    EENTRO =         0.00000000
  eigenvalues    EBANDS =      -359.47787721
  atomic energy  EATOM  =      1251.19323263
  ---------------------------------------------------
  free energy    TOTEN  =       -80.14193004 eV

  energy without entropy =      -80.14193004  energy(sigma->0) =      -80.14193004
  exchange ACFDT corr.  =        -0.00000000  see jH, gK, PRB 81, 115126


--------------------------------------------------------------------------------------------------------




--------------------------------------- Iteration      1(  39)  ---------------------------------------


    TRIAL :  cpu time  621.7461: real time  624.6195
 BZINTS: Fermi energy: -2.288566; 48.000000 electrons
         Band energy:-359.466457;  BLOECHL correction:  0.000000
    CORREC:  cpu time    0.0032: real time    0.0032
    --------------------------------------------
      LOOP:  cpu time  621.7496: real time  624.6241

 eigenvalue-minimisations  :     0
 total energy-change (2. order) :-0.1601650E-03  (-0.1444142E-03)
 number of electron      48.0000001 magnetization 
 augmentation part       48.0000001 magnetization 

 Free energy of the ion-electron system (eV)
  ---------------------------------------------------
  alpha Z        PSCENC =        13.10177784
  Ewald energy   TEWEN  =      1366.62330681
  -Hartree energ DENC   =     -2513.91978934
  -exchange      EXHF   =        75.28532021
  -V(xc)+E(xc)   XCENC  =      -142.06918885
  PAW double counting   =      1715.63829172    -1486.51325097
  entropy T*S    EENTRO =         0.00000000
  eigenvalues    EBANDS =      -359.48179026
  atomic energy  EATOM  =      1251.19323263
  ---------------------------------------------------
  free energy    TOTEN  =       -80.14209021 eV

  energy without entropy =      -80.14209021  energy(sigma->0) =      -80.14209021
  exchange ACFDT corr.  =        -0.00000000  see jH, gK, PRB 81, 115126


--------------------------------------------------------------------------------------------------------




--------------------------------------- Iteration      1(  40)  ---------------------------------------


    TRIAL :  cpu time  622.1422: real time  624.9404
 BZINTS: Fermi energy: -2.288566; 48.000000 electrons
         Band energy:-359.471874;  BLOECHL correction:  0.000000
    CORREC:  cpu time    0.0032: real time    0.0032
    --------------------------------------------
      LOOP:  cpu time  622.1458: real time  624.9450

 eigenvalue-minimisations  :     0
 total energy-change (2. order) :-0.1426841E-03  (-0.1290646E-03)
 number of electron      48.0000001 magnetization 
 augmentation part       48.0000001 magnetization 

 Free energy of the ion-electron system (eV)
  ---------------------------------------------------
  alpha Z        PSCENC =        13.10177784
  Ewald energy   TEWEN  =      1366.62330681
  -Hartree energ DENC   =     -2513.91978934
  -exchange      EXHF   =        75.28870245
  -V(xc)+E(xc)   XCENC  =      -142.06918885
  PAW double counting   =      1715.63829172    -1486.51325097
  entropy T*S    EENTRO =         0.00000000
  eigenvalues    EBANDS =      -359.48531519
  atomic energy  EATOM  =      1251.19323263
  ---------------------------------------------------
  free energy    TOTEN  =       -80.14223289 eV

  energy without entropy =      -80.14223289  energy(sigma->0) =      -80.14223289
  exchange ACFDT corr.  =        -0.00000000  see jH, gK, PRB 81, 115126


--------------------------------------------------------------------------------------------------------




--------------------------------------- Iteration      1(  41)  ---------------------------------------


    TRIAL :  cpu time  618.2564: real time  621.3220
 BZINTS: Fermi energy: -2.288566; 48.000000 electrons
         Band energy:-359.476604;  BLOECHL correction:  0.000000
    CORREC:  cpu time    0.0032: real time    0.0032
    --------------------------------------------
      LOOP:  cpu time  618.2599: real time  621.3265

 eigenvalue-minimisations  :     0
 total energy-change (2. order) :-0.1276622E-03  (-0.1154403E-03)
 number of electron      48.0000001 magnetization 
 augmentation part       48.0000001 magnetization 

 Free energy of the ion-electron system (eV)
  ---------------------------------------------------
  alpha Z        PSCENC =        13.10177784
  Ewald energy   TEWEN  =      1366.62330681
  -Hartree energ DENC   =     -2513.91978934
  -exchange      EXHF   =        75.29176135
  -V(xc)+E(xc)   XCENC  =      -142.06918885
  PAW double counting   =      1715.63829172    -1486.51325097
  entropy T*S    EENTRO =         0.00000000
  eigenvalues    EBANDS =      -359.48850176
  atomic energy  EATOM  =      1251.19323263
  ---------------------------------------------------
  free energy    TOTEN  =       -80.14236055 eV

  energy without entropy =      -80.14236055  energy(sigma->0) =      -80.14236055
  exchange ACFDT corr.  =        -0.00000000  see jH, gK, PRB 81, 115126


--------------------------------------------------------------------------------------------------------




--------------------------------------- Iteration      1(  42)  ---------------------------------------


    TRIAL :  cpu time  622.8027: real time  625.4857
 BZINTS: Fermi energy: -2.288566; 48.000000 electrons
         Band energy:-359.480776;  BLOECHL correction:  0.000000
    CORREC:  cpu time    0.0032: real time    0.0032
    --------------------------------------------
      LOOP:  cpu time  622.8064: real time  625.4903

 eigenvalue-minimisations  :     0
 total energy-change (2. order) :-0.1142984E-03  (-0.1038186E-03)
 number of electron      48.0000001 magnetization 
 augmentation part       48.0000001 magnetization 

 Free energy of the ion-electron system (eV)
  ---------------------------------------------------
  alpha Z        PSCENC =        13.10177784
  Ewald energy   TEWEN  =      1366.62330681
  -Hartree energ DENC   =     -2513.91978934
  -exchange      EXHF   =        75.29452952
  -V(xc)+E(xc)   XCENC  =      -142.06918885
  PAW double counting   =      1715.63829172    -1486.51325097
  entropy T*S    EENTRO =         0.00000000
  eigenvalues    EBANDS =      -359.49138422
  atomic energy  EATOM  =      1251.19323263
  ---------------------------------------------------
  free energy    TOTEN  =       -80.14247485 eV

  energy without entropy =      -80.14247485  energy(sigma->0) =      -80.14247485
  exchange ACFDT corr.  =        -0.00000000  see jH, gK, PRB 81, 115126


--------------------------------------------------------------------------------------------------------




--------------------------------------- Iteration      1(  43)  ---------------------------------------


    TRIAL :  cpu time  621.3521: real time  623.4874
 BZINTS: Fermi energy: -2.288566; 48.000000 electrons
         Band energy:-359.484486;  BLOECHL correction:  0.000000
    CORREC:  cpu time    0.0032: real time    0.0032
    --------------------------------------------
      LOOP:  cpu time  621.3557: real time  623.4919

 eigenvalue-minimisations  :     0
 total energy-change (2. order) :-0.1028774E-03  (-0.9370149E-04)
 number of electron      48.0000001 magnetization 
 augmentation part       48.0000001 magnetization 

 Free energy of the ion-electron system (eV)
  ---------------------------------------------------
  alpha Z        PSCENC =        13.10177784
  Ewald energy   TEWEN  =      1366.62330681
  -Hartree energ DENC   =     -2513.91978934
  -exchange      EXHF   =        75.29704613
  -V(xc)+E(xc)   XCENC  =      -142.06918885
  PAW double counting   =      1715.63829172    -1486.51325097
  entropy T*S    EENTRO =         0.00000000
  eigenvalues    EBANDS =      -359.49400371
  atomic energy  EATOM  =      1251.19323263
  ---------------------------------------------------
  free energy    TOTEN  =       -80.14257773 eV

  energy without entropy =      -80.14257773  energy(sigma->0) =      -80.14257773
  exchange ACFDT corr.  =        -0.00000000  see jH, gK, PRB 81, 115126


--------------------------------------------------------------------------------------------------------




--------------------------------------- Iteration      1(  44)  ---------------------------------------


    TRIAL :  cpu time  622.7809: real time  625.1795
 BZINTS: Fermi energy: -2.290989; 48.000000 electrons
         Band energy:-359.487808;  BLOECHL correction:  0.000000
    CORREC:  cpu time    0.0031: real time    0.0031
    --------------------------------------------
      LOOP:  cpu time  622.7844: real time  625.1839

 eigenvalue-minimisations  :     0
 total energy-change (2. order) :-0.9292058E-04  (-0.8473643E-04)
 number of electron      48.0000001 magnetization 
 augmentation part       48.0000001 magnetization 

 Free energy of the ion-electron system (eV)
  ---------------------------------------------------
  alpha Z        PSCENC =        13.10177784
  Ewald energy   TEWEN  =      1366.62330681
  -Hartree energ DENC   =     -2513.91978934
  -exchange      EXHF   =        75.29934073
  -V(xc)+E(xc)   XCENC  =      -142.06918885
  PAW double counting   =      1715.63829172    -1486.51325097
  entropy T*S    EENTRO =         0.00000000
  eigenvalues    EBANDS =      -359.49639123
  atomic energy  EATOM  =      1251.19323263
  ---------------------------------------------------
  free energy    TOTEN  =       -80.14267065 eV

  energy without entropy =      -80.14267065  energy(sigma->0) =      -80.14267065
  exchange ACFDT corr.  =        -0.00000000  see jH, gK, PRB 81, 115126


--------------------------------------------------------------------------------------------------------




--------------------------------------- Iteration      1(  45)  ---------------------------------------


    TRIAL :  cpu time  620.2901: real time  623.0906
 BZINTS: Fermi energy: -2.290989; 48.000000 electrons
         Band energy:-359.490799;  BLOECHL correction:  0.000000
    CORREC:  cpu time    0.0031: real time    0.0031
    --------------------------------------------
      LOOP:  cpu time  620.2937: real time  623.0952

 eigenvalue-minimisations  :     0
 total energy-change (2. order) :-0.8408590E-04  (-0.7684209E-04)
 number of electron      48.0000001 magnetization 
 augmentation part       48.0000001 magnetization 

 Free energy of the ion-electron system (eV)
  ---------------------------------------------------
  alpha Z        PSCENC =        13.10177784
  Ewald energy   TEWEN  =      1366.62330681
  -Hartree energ DENC   =     -2513.91978934
  -exchange      EXHF   =        75.30143650
  -V(xc)+E(xc)   XCENC  =      -142.06918885
  PAW double counting   =      1715.63829172    -1486.51325097
  entropy T*S    EENTRO =         0.00000000
  eigenvalues    EBANDS =      -359.49857108
  atomic energy  EATOM  =      1251.19323263
  ---------------------------------------------------
  free energy    TOTEN  =       -80.14275474 eV

  energy without entropy =      -80.14275474  energy(sigma->0) =      -80.14275474
  exchange ACFDT corr.  =        -0.00000000  see jH, gK, PRB 81, 115126


--------------------------------------------------------------------------------------------------------




--------------------------------------- Iteration      1(  46)  ---------------------------------------


    TRIAL :  cpu time  622.4218: real time  624.3685
 BZINTS: Fermi energy: -2.290989; 48.000000 electrons
         Band energy:-359.493505;  BLOECHL correction:  0.000000
    CORREC:  cpu time    0.0031: real time    0.0031
    --------------------------------------------
      LOOP:  cpu time  622.4254: real time  624.3732

 eigenvalue-minimisations  :     0
 total energy-change (2. order) :-0.7629330E-04  (-0.6960020E-04)
 number of electron      48.0000001 magnetization 
 augmentation part       48.0000001 magnetization 

 Free energy of the ion-electron system (eV)
  ---------------------------------------------------
  alpha Z        PSCENC =        13.10177784
  Ewald energy   TEWEN  =      1366.62330681
  -Hartree energ DENC   =     -2513.91978934
  -exchange      EXHF   =        75.30335524
  -V(xc)+E(xc)   XCENC  =      -142.06918885
  PAW double counting   =      1715.63829172    -1486.51325097
  entropy T*S    EENTRO =         0.00000000
  eigenvalues    EBANDS =      -359.50056612
  atomic energy  EATOM  =      1251.19323263
  ---------------------------------------------------
  free energy    TOTEN  =       -80.14283103 eV

  energy without entropy =      -80.14283103  energy(sigma->0) =      -80.14283103
  exchange ACFDT corr.  =        -0.00000000  see jH, gK, PRB 81, 115126


--------------------------------------------------------------------------------------------------------




--------------------------------------- Iteration      1(  47)  ---------------------------------------


    TRIAL :  cpu time  621.0980: real time  623.5761
 BZINTS: Fermi energy: -2.290989; 48.000000 electrons
         Band energy:-359.495960;  BLOECHL correction:  0.000000
    CORREC:  cpu time    0.0031: real time    0.0031
    --------------------------------------------
      LOOP:  cpu time  621.1017: real time  623.5807

 eigenvalue-minimisations  :     0
 total energy-change (2. order) :-0.6914114E-04  (-0.6286943E-04)
 number of electron      48.0000001 magnetization 
 augmentation part       48.0000001 magnetization 

 Free energy of the ion-electron system (eV)
  ---------------------------------------------------
  alpha Z        PSCENC =        13.10177784
  Ewald energy   TEWEN  =      1366.62330681
  -Hartree energ DENC   =     -2513.91978934
  -exchange      EXHF   =        75.30511018
  -V(xc)+E(xc)   XCENC  =      -142.06918885
  PAW double counting   =      1715.63829172    -1486.51325097
  entropy T*S    EENTRO =         0.00000000
  eigenvalues    EBANDS =      -359.50239020
  atomic energy  EATOM  =      1251.19323263
  ---------------------------------------------------
  free energy    TOTEN  =       -80.14290017 eV

  energy without entropy =      -80.14290017  energy(sigma->0) =      -80.14290017
  exchange ACFDT corr.  =        -0.00000000  see jH, gK, PRB 81, 115126


--------------------------------------------------------------------------------------------------------




--------------------------------------- Iteration      1(  48)  ---------------------------------------


    TRIAL :  cpu time  623.3139: real time  625.5017
 BZINTS: Fermi energy: -2.290989; 48.000000 electrons
         Band energy:-359.498193;  BLOECHL correction:  0.000000
    CORREC:  cpu time    0.0031: real time    0.0031
    --------------------------------------------
      LOOP:  cpu time  623.3177: real time  625.5064

 eigenvalue-minimisations  :     0
 total energy-change (2. order) :-0.6248799E-04  (-0.5649574E-04)
 number of electron      48.0000001 magnetization 
 augmentation part       48.0000001 magnetization 

 Free energy of the ion-electron system (eV)
  ---------------------------------------------------
  alpha Z        PSCENC =        13.10177784
  Ewald energy   TEWEN  =      1366.62330681
  -Hartree energ DENC   =     -2513.91978934
  -exchange      EXHF   =        75.30671131
  -V(xc)+E(xc)   XCENC  =      -142.06918885
  PAW double counting   =      1715.63829172    -1486.51325097
  entropy T*S    EENTRO =         0.00000000
  eigenvalues    EBANDS =      -359.50405381
  atomic energy  EATOM  =      1251.19323263
  ---------------------------------------------------
  free energy    TOTEN  =       -80.14296266 eV

  energy without entropy =      -80.14296266  energy(sigma->0) =      -80.14296266
  exchange ACFDT corr.  =        -0.00000000  see jH, gK, PRB 81, 115126


--------------------------------------------------------------------------------------------------------




--------------------------------------- Iteration      1(  49)  ---------------------------------------


    TRIAL :  cpu time  619.6689: real time  622.0320
 BZINTS: Fermi energy: -2.291067; 48.000000 electrons
         Band energy:-359.500225;  BLOECHL correction:  0.000000
    CORREC:  cpu time    0.0032: real time    0.0032
    --------------------------------------------
      LOOP:  cpu time  619.6725: real time  622.0367

 eigenvalue-minimisations  :     0
 total energy-change (2. order) :-0.5618304E-04  (-0.5061692E-04)
 number of electron      48.0000001 magnetization 
 augmentation part       48.0000001 magnetization 

 Free energy of the ion-electron system (eV)
  ---------------------------------------------------
  alpha Z        PSCENC =        13.10177784
  Ewald energy   TEWEN  =      1366.62330681
  -Hartree energ DENC   =     -2513.91978934
  -exchange      EXHF   =        75.30816512
  -V(xc)+E(xc)   XCENC  =      -142.06918885
  PAW double counting   =      1715.63829172    -1486.51325097
  entropy T*S    EENTRO =         0.00000000
  eigenvalues    EBANDS =      -359.50556381
  atomic energy  EATOM  =      1251.19323263
  ---------------------------------------------------
  free energy    TOTEN  =       -80.14301884 eV

  energy without entropy =      -80.14301884  energy(sigma->0) =      -80.14301884
  exchange ACFDT corr.  =        -0.00000000  see jH, gK, PRB 81, 115126


--------------------------------------------------------------------------------------------------------




--------------------------------------- Iteration      1(  50)  ---------------------------------------


    TRIAL :  cpu time  623.5736: real time  626.4026
 BZINTS: Fermi energy: -2.291067; 48.000000 electrons
         Band energy:-359.502074;  BLOECHL correction:  0.000000
    CORREC:  cpu time    0.0032: real time    0.0032
    --------------------------------------------
      LOOP:  cpu time  623.5772: real time  626.4070

 eigenvalue-minimisations  :     0
 total energy-change (2. order) :-0.5036307E-04  (-0.4524918E-04)
 number of electron      48.0000001 magnetization 
 augmentation part       48.0000001 magnetization 

 Free energy of the ion-electron system (eV)
  ---------------------------------------------------
  alpha Z        PSCENC =        13.10177784
  Ewald energy   TEWEN  =      1366.62330681
  -Hartree energ DENC   =     -2513.91978934
  -exchange      EXHF   =        75.30948108
  -V(xc)+E(xc)   XCENC  =      -142.06918885
  PAW double counting   =      1715.63829172    -1486.51325097
  entropy T*S    EENTRO =         0.00000000
  eigenvalues    EBANDS =      -359.50693013
  atomic energy  EATOM  =      1251.19323263
  ---------------------------------------------------
  free energy    TOTEN  =       -80.14306921 eV

  energy without entropy =      -80.14306921  energy(sigma->0) =      -80.14306921
  exchange ACFDT corr.  =        -0.00000000  see jH, gK, PRB 81, 115126


--------------------------------------------------------------------------------------------------------




--------------------------------------- Iteration      1(  51)  ---------------------------------------


    TRIAL :  cpu time  619.3881: real time  621.7073
 BZINTS: Fermi energy: -2.291067; 48.000000 electrons
         Band energy:-359.503755;  BLOECHL correction:  0.000000
    CORREC:  cpu time    0.0032: real time    0.0032
    --------------------------------------------
      LOOP:  cpu time  619.3918: real time  621.7118

 eigenvalue-minimisations  :     0
 total energy-change (2. order) :-0.4504493E-04  (-0.4043120E-04)
 number of electron      48.0000001 magnetization 
 augmentation part       48.0000001 magnetization 

 Free energy of the ion-electron system (eV)
  ---------------------------------------------------
  alpha Z        PSCENC =        13.10177784
  Ewald energy   TEWEN  =      1366.62330681
  -Hartree energ DENC   =     -2513.91978934
  -exchange      EXHF   =        75.31066919
  -V(xc)+E(xc)   XCENC  =      -142.06918885
  PAW double counting   =      1715.63829172    -1486.51325097
  entropy T*S    EENTRO =         0.00000000
  eigenvalues    EBANDS =      -359.50816329
  atomic energy  EATOM  =      1251.19323263
  ---------------------------------------------------
  free energy    TOTEN  =       -80.14311425 eV

  energy without entropy =      -80.14311425  energy(sigma->0) =      -80.14311425
  exchange ACFDT corr.  =        -0.00000000  see jH, gK, PRB 81, 115126


--------------------------------------------------------------------------------------------------------




--------------------------------------- Iteration      1(  52)  ---------------------------------------


    TRIAL :  cpu time  621.6145: real time  624.4488
 BZINTS: Fermi energy: -2.291067; 48.000000 electrons
         Band energy:-359.505280;  BLOECHL correction:  0.000000
    CORREC:  cpu time    0.0032: real time    0.0032
    --------------------------------------------
      LOOP:  cpu time  621.6180: real time  624.4533

 eigenvalue-minimisations  :     0
 total energy-change (2. order) :-0.4026781E-04  (-0.3614519E-04)
 number of electron      48.0000001 magnetization 
 augmentation part       48.0000001 magnetization 

 Free energy of the ion-electron system (eV)
  ---------------------------------------------------
  alpha Z        PSCENC =        13.10177784
  Ewald energy   TEWEN  =      1366.62330681
  -Hartree energ DENC   =     -2513.91978934
  -exchange      EXHF   =        75.31174056
  -V(xc)+E(xc)   XCENC  =      -142.06918885
  PAW double counting   =      1715.63829172    -1486.51325097
  entropy T*S    EENTRO =         0.00000000
  eigenvalues    EBANDS =      -359.50927493
  atomic energy  EATOM  =      1251.19323263
  ---------------------------------------------------
  free energy    TOTEN  =       -80.14315452 eV

  energy without entropy =      -80.14315452  energy(sigma->0) =      -80.14315452
  exchange ACFDT corr.  =        -0.00000000  see jH, gK, PRB 81, 115126


--------------------------------------------------------------------------------------------------------




--------------------------------------- Iteration      1(  53)  ---------------------------------------


    TRIAL :  cpu time  620.3323: real time  622.6679
 BZINTS: Fermi energy: -2.291067; 48.000000 electrons
         Band energy:-359.506662;  BLOECHL correction:  0.000000
    CORREC:  cpu time    0.0032: real time    0.0032
    --------------------------------------------
      LOOP:  cpu time  620.3360: real time  622.6726

 eigenvalue-minimisations  :     0
 total energy-change (2. order) :-0.3601499E-04  (-0.3235089E-04)
 number of electron      48.0000001 magnetization 
 augmentation part       48.0000001 magnetization 

 Free energy of the ion-electron system (eV)
  ---------------------------------------------------
  alpha Z        PSCENC =        13.10177784
  Ewald energy   TEWEN  =      1366.62330681
  -Hartree energ DENC   =     -2513.91978934
  -exchange      EXHF   =        75.31270637
  -V(xc)+E(xc)   XCENC  =      -142.06918885
  PAW double counting   =      1715.63829172    -1486.51325097
  entropy T*S    EENTRO =         0.00000000
  eigenvalues    EBANDS =      -359.51027675
  atomic energy  EATOM  =      1251.19323263
  ---------------------------------------------------
  free energy    TOTEN  =       -80.14319053 eV

  energy without entropy =      -80.14319053  energy(sigma->0) =      -80.14319053
  exchange ACFDT corr.  =        -0.00000000  see jH, gK, PRB 81, 115126


--------------------------------------------------------------------------------------------------------




--------------------------------------- Iteration      1(  54)  ---------------------------------------


    TRIAL :  cpu time  622.1062: real time  624.3585
 BZINTS: Fermi energy: -2.291067; 48.000000 electrons
         Band energy:-359.507913;  BLOECHL correction:  0.000000
    CORREC:  cpu time    0.0032: real time    0.0032
    --------------------------------------------
      LOOP:  cpu time  622.1097: real time  624.3629

 eigenvalue-minimisations  :     0
 total energy-change (2. order) :-0.3224732E-04  (-0.2894502E-04)
 number of electron      48.0000001 magnetization 
 augmentation part       48.0000001 magnetization 

 Free energy of the ion-electron system (eV)
  ---------------------------------------------------
  alpha Z        PSCENC =        13.10177784
  Ewald energy   TEWEN  =      1366.62330681
  -Hartree energ DENC   =     -2513.91978934
  -exchange      EXHF   =        75.31357726
  -V(xc)+E(xc)   XCENC  =      -142.06918885
  PAW double counting   =      1715.63829172    -1486.51325097
  entropy T*S    EENTRO =         0.00000000
  eigenvalues    EBANDS =      -359.51117989
  atomic energy  EATOM  =      1251.19323263
  ---------------------------------------------------
  free energy    TOTEN  =       -80.14322278 eV

  energy without entropy =      -80.14322278  energy(sigma->0) =      -80.14322278
  exchange ACFDT corr.  =        -0.00000000  see jH, gK, PRB 81, 115126


--------------------------------------------------------------------------------------------------------




--------------------------------------- Iteration      1(  55)  ---------------------------------------


    TRIAL :  cpu time  619.9795: real time  622.0765
 BZINTS: Fermi energy: -2.291067; 48.000000 electrons
         Band energy:-359.509043;  BLOECHL correction:  0.000000
    CORREC:  cpu time    0.0032: real time    0.0032
    --------------------------------------------
      LOOP:  cpu time  619.9840: real time  622.0819

 eigenvalue-minimisations  :     0
 total energy-change (2. order) :-0.2886313E-04  (-0.2588246E-04)
 number of electron      48.0000001 magnetization 
 augmentation part       48.0000001 magnetization 

 Free energy of the ion-electron system (eV)
  ---------------------------------------------------
  alpha Z        PSCENC =        13.10177784
  Ewald energy   TEWEN  =      1366.62330681
  -Hartree energ DENC   =     -2513.91978934
  -exchange      EXHF   =        75.31436184
  -V(xc)+E(xc)   XCENC  =      -142.06918885
  PAW double counting   =      1715.63829172    -1486.51325097
  entropy T*S    EENTRO =         0.00000000
  eigenvalues    EBANDS =      -359.51199333
  atomic energy  EATOM  =      1251.19323263
  ---------------------------------------------------
  free energy    TOTEN  =       -80.14325164 eV

  energy without entropy =      -80.14325164  energy(sigma->0) =      -80.14325164
  exchange ACFDT corr.  =        -0.00000000  see jH, gK, PRB 81, 115126


--------------------------------------------------------------------------------------------------------




--------------------------------------- Iteration      1(  56)  ---------------------------------------


    TRIAL :  cpu time  621.3613: real time  625.0343
 BZINTS: Fermi energy: -2.291067; 48.000000 electrons
         Band energy:-359.510064;  BLOECHL correction:  0.000000
    CORREC:  cpu time    0.0032: real time    0.0032
    --------------------------------------------
      LOOP:  cpu time  621.3649: real time  625.0389

 eigenvalue-minimisations  :     0
 total energy-change (2. order) :-0.2581819E-04  (-0.2314679E-04)
 number of electron      48.0000001 magnetization 
 augmentation part       48.0000001 magnetization 

 Free energy of the ion-electron system (eV)
  ---------------------------------------------------
  alpha Z        PSCENC =        13.10177784
  Ewald energy   TEWEN  =      1366.62330681
  -Hartree energ DENC   =     -2513.91978934
  -exchange      EXHF   =        75.31506788
  -V(xc)+E(xc)   XCENC  =      -142.06918885
  PAW double counting   =      1715.63829172    -1486.51325097
  entropy T*S    EENTRO =         0.00000000
  eigenvalues    EBANDS =      -359.51272519
  atomic energy  EATOM  =      1251.19323263
  ---------------------------------------------------
  free energy    TOTEN  =       -80.14327746 eV

  energy without entropy =      -80.14327746  energy(sigma->0) =      -80.14327746
  exchange ACFDT corr.  =        -0.00000000  see jH, gK, PRB 81, 115126


--------------------------------------------------------------------------------------------------------




--------------------------------------- Iteration      1(  57)  ---------------------------------------


    TRIAL :  cpu time  619.8497: real time  622.9823
 BZINTS: Fermi energy: -2.291067; 48.000000 electrons
         Band energy:-359.510985;  BLOECHL correction:  0.000000
    CORREC:  cpu time    0.0032: real time    0.0032
    --------------------------------------------
      LOOP:  cpu time  619.8533: real time  622.9869

 eigenvalue-minimisations  :     0
 total energy-change (2. order) :-0.2309669E-04  (-0.2072896E-04)
 number of electron      48.0000001 magnetization 
 augmentation part       48.0000001 magnetization 

 Free energy of the ion-electron system (eV)
  ---------------------------------------------------
  alpha Z        PSCENC =        13.10177784
  Ewald energy   TEWEN  =      1366.62330681
  -Hartree energ DENC   =     -2513.91978934
  -exchange      EXHF   =        75.31570296
  -V(xc)+E(xc)   XCENC  =      -142.06918885
  PAW double counting   =      1715.63829172    -1486.51325097
  entropy T*S    EENTRO =         0.00000000
  eigenvalues    EBANDS =      -359.51338336
  atomic energy  EATOM  =      1251.19323263
  ---------------------------------------------------
  free energy    TOTEN  =       -80.14330056 eV

  energy without entropy =      -80.14330056  energy(sigma->0) =      -80.14330056
  exchange ACFDT corr.  =        -0.00000000  see jH, gK, PRB 81, 115126


--------------------------------------------------------------------------------------------------------




--------------------------------------- Iteration      1(  58)  ---------------------------------------


    TRIAL :  cpu time  622.9345: real time  626.0733
 BZINTS: Fermi energy: -2.291067; 48.000000 electrons
         Band energy:-359.511816;  BLOECHL correction:  0.000000
    CORREC:  cpu time    0.0032: real time    0.0032
    --------------------------------------------
      LOOP:  cpu time  622.9382: real time  626.0778

 eigenvalue-minimisations  :     0
 total energy-change (2. order) :-0.2069007E-04  (-0.1860169E-04)
 number of electron      48.0000001 magnetization 
 augmentation part       48.0000001 magnetization 

 Free energy of the ion-electron system (eV)
  ---------------------------------------------------
  alpha Z        PSCENC =        13.10177784
  Ewald energy   TEWEN  =      1366.62330681
  -Hartree energ DENC   =     -2513.91978934
  -exchange      EXHF   =        75.31627457
  -V(xc)+E(xc)   XCENC  =      -142.06918885
  PAW double counting   =      1715.63829172    -1486.51325097
  entropy T*S    EENTRO =         0.00000000
  eigenvalues    EBANDS =      -359.51397567
  atomic energy  EATOM  =      1251.19323263
  ---------------------------------------------------
  free energy    TOTEN  =       -80.14332125 eV

  energy without entropy =      -80.14332125  energy(sigma->0) =      -80.14332125
  exchange ACFDT corr.  =        -0.00000000  see jH, gK, PRB 81, 115126


--------------------------------------------------------------------------------------------------------




--------------------------------------- Iteration      1(  59)  ---------------------------------------


    TRIAL :  cpu time  620.4570: real time  623.4810
 BZINTS: Fermi energy: -2.291067; 48.000000 electrons
         Band energy:-359.512564;  BLOECHL correction:  0.000000
    CORREC:  cpu time    0.0032: real time    0.0032
    --------------------------------------------
      LOOP:  cpu time  620.4608: real time  623.4858

 eigenvalue-minimisations  :     0
 total energy-change (2. order) :-0.1857159E-04  (-0.1670652E-04)
 number of electron      48.0000001 magnetization 
 augmentation part       48.0000001 magnetization 

 Free energy of the ion-electron system (eV)
  ---------------------------------------------------
  alpha Z        PSCENC =        13.10177784
  Ewald energy   TEWEN  =      1366.62330681
  -Hartree energ DENC   =     -2513.91978934
  -exchange      EXHF   =        75.31678973
  -V(xc)+E(xc)   XCENC  =      -142.06918885
  PAW double counting   =      1715.63829172    -1486.51325097
  entropy T*S    EENTRO =         0.00000000
  eigenvalues    EBANDS =      -359.51450940
  atomic energy  EATOM  =      1251.19323263
  ---------------------------------------------------
  free energy    TOTEN  =       -80.14333982 eV

  energy without entropy =      -80.14333982  energy(sigma->0) =      -80.14333982
  exchange ACFDT corr.  =        -0.00000000  see jH, gK, PRB 81, 115126


--------------------------------------------------------------------------------------------------------




--------------------------------------- Iteration      1(  60)  ---------------------------------------


    TRIAL :  cpu time  621.3515: real time  623.7585
 BZINTS: Fermi energy: -2.291067; 48.000000 electrons
         Band energy:-359.513238;  BLOECHL correction:  0.000000
    CORREC:  cpu time    0.0032: real time    0.0032
    --------------------------------------------
      LOOP:  cpu time  621.3552: real time  623.7631

 eigenvalue-minimisations  :     0
 total energy-change (2. order) :-0.1668341E-04  (-0.1500230E-04)
 number of electron      48.0000001 magnetization 
 augmentation part       48.0000001 magnetization 

 Free energy of the ion-electron system (eV)
  ---------------------------------------------------
  alpha Z        PSCENC =        13.10177784
  Ewald energy   TEWEN  =      1366.62330681
  -Hartree energ DENC   =     -2513.91978934
  -exchange      EXHF   =        75.31725417
  -V(xc)+E(xc)   XCENC  =      -142.06918885
  PAW double counting   =      1715.63829172    -1486.51325097
  entropy T*S    EENTRO =         0.00000000
  eigenvalues    EBANDS =      -359.51499052
  atomic energy  EATOM  =      1251.19323263
  ---------------------------------------------------
  free energy    TOTEN  =       -80.14335650 eV

  energy without entropy =      -80.14335650  energy(sigma->0) =      -80.14335650
  exchange ACFDT corr.  =        -0.00000000  see jH, gK, PRB 81, 115126


--------------------------------------------------------------------------------------------------------




--------------------------------------- Iteration      1(  61)  ---------------------------------------


    TRIAL :  cpu time  623.1552: real time  624.7108
 BZINTS: Fermi energy: -2.291067; 48.000000 electrons
         Band energy:-359.513845;  BLOECHL correction:  0.000000
    CORREC:  cpu time    0.0032: real time    0.0032
    --------------------------------------------
      LOOP:  cpu time  623.1589: real time  624.7157

 eigenvalue-minimisations  :     0
 total energy-change (2. order) :-0.1498477E-04  (-0.1346692E-04)
 number of electron      48.0000001 magnetization 
 augmentation part       48.0000001 magnetization 

 Free energy of the ion-electron system (eV)
  ---------------------------------------------------
  alpha Z        PSCENC =        13.10177784
  Ewald energy   TEWEN  =      1366.62330681
  -Hartree energ DENC   =     -2513.91978934
  -exchange      EXHF   =        75.31767269
  -V(xc)+E(xc)   XCENC  =      -142.06918885
  PAW double counting   =      1715.63829172    -1486.51325097
  entropy T*S    EENTRO =         0.00000000
  eigenvalues    EBANDS =      -359.51542403
  atomic energy  EATOM  =      1251.19323263
  ---------------------------------------------------
  free energy    TOTEN  =       -80.14337149 eV

  energy without entropy =      -80.14337149  energy(sigma->0) =      -80.14337149
  exchange ACFDT corr.  =        -0.00000000  see jH, gK, PRB 81, 115126


--------------------------------------------------------------------------------------------------------




--------------------------------------- Iteration      1(  62)  ---------------------------------------


    TRIAL :  cpu time  620.8456: real time  624.4255
 BZINTS: Fermi energy: -2.291067; 48.000000 electrons
         Band energy:-359.514392;  BLOECHL correction:  0.000000
    CORREC:  cpu time    0.0032: real time    0.0032
    --------------------------------------------
      LOOP:  cpu time  620.8491: real time  624.4302

 eigenvalue-minimisations  :     0
 total energy-change (2. order) :-0.1345384E-04  (-0.1208460E-04)
 number of electron      48.0000001 magnetization 
 augmentation part       48.0000001 magnetization 

 Free energy of the ion-electron system (eV)
  ---------------------------------------------------
  alpha Z        PSCENC =        13.10177784
  Ewald energy   TEWEN  =      1366.62330681
  -Hartree energ DENC   =     -2513.91978934
  -exchange      EXHF   =        75.31804961
  -V(xc)+E(xc)   XCENC  =      -142.06918885
  PAW double counting   =      1715.63829172    -1486.51325097
  entropy T*S    EENTRO =         0.00000000
  eigenvalues    EBANDS =      -359.51581440
  atomic energy  EATOM  =      1251.19323263
  ---------------------------------------------------
  free energy    TOTEN  =       -80.14338494 eV

  energy without entropy =      -80.14338494  energy(sigma->0) =      -80.14338494
  exchange ACFDT corr.  =        -0.00000000  see jH, gK, PRB 81, 115126


--------------------------------------------------------------------------------------------------------




--------------------------------------- Iteration      1(  63)  ---------------------------------------


    TRIAL :  cpu time  620.2342: real time  623.4147
 BZINTS: Fermi energy: -2.291067; 48.000000 electrons
         Band energy:-359.514885;  BLOECHL correction:  0.000000
    CORREC:  cpu time    0.0032: real time    0.0032
    --------------------------------------------
      LOOP:  cpu time  620.2378: real time  623.4191

 eigenvalue-minimisations  :     0
 total energy-change (2. order) :-0.1207504E-04  (-0.1084171E-04)
 number of electron      48.0000001 magnetization 
 augmentation part       48.0000001 magnetization 

 Free energy of the ion-electron system (eV)
  ---------------------------------------------------
  alpha Z        PSCENC =        13.10177784
  Ewald energy   TEWEN  =      1366.62330681
  -Hartree energ DENC   =     -2513.91978934
  -exchange      EXHF   =        75.31838886
  -V(xc)+E(xc)   XCENC  =      -142.06918885
  PAW double counting   =      1715.63829172    -1486.51325097
  entropy T*S    EENTRO =         0.00000000
  eigenvalues    EBANDS =      -359.51616572
  atomic energy  EATOM  =      1251.19323263
  ---------------------------------------------------
  free energy    TOTEN  =       -80.14339702 eV

  energy without entropy =      -80.14339702  energy(sigma->0) =      -80.14339702
  exchange ACFDT corr.  =        -0.00000000  see jH, gK, PRB 81, 115126


--------------------------------------------------------------------------------------------------------




--------------------------------------- Iteration      1(  64)  ---------------------------------------


    TRIAL :  cpu time  623.1680: real time  624.9904
 BZINTS: Fermi energy: -2.291067; 48.000000 electrons
         Band energy:-359.515329;  BLOECHL correction:  0.000000
    CORREC:  cpu time    0.0032: real time    0.0032
    --------------------------------------------
      LOOP:  cpu time  623.1718: real time  624.9952

 eigenvalue-minimisations  :     0
 total energy-change (2. order) :-0.1083493E-04  (-0.9725582E-05)
 number of electron      48.0000001 magnetization 
 augmentation part       48.0000001 magnetization 

 Free energy of the ion-electron system (eV)
  ---------------------------------------------------
  alpha Z        PSCENC =        13.10177784
  Ewald energy   TEWEN  =      1366.62330681
  -Hartree energ DENC   =     -2513.91978934
  -exchange      EXHF   =        75.31869407
  -V(xc)+E(xc)   XCENC  =      -142.06918885
  PAW double counting   =      1715.63829172    -1486.51325097
  entropy T*S    EENTRO =         0.00000000
  eigenvalues    EBANDS =      -359.51648177
  atomic energy  EATOM  =      1251.19323263
  ---------------------------------------------------
  free energy    TOTEN  =       -80.14340785 eV

  energy without entropy =      -80.14340785  energy(sigma->0) =      -80.14340785
  exchange ACFDT corr.  =        -0.00000000  see jH, gK, PRB 81, 115126


--------------------------------------------------------------------------------------------------------




--------------------------------------- Iteration      1(  65)  ---------------------------------------


    TRIAL :  cpu time  620.6146: real time  622.9683
 BZINTS: Fermi energy: -2.291067; 48.000000 electrons
         Band energy:-359.515728;  BLOECHL correction:  0.000000
    CORREC:  cpu time    0.0032: real time    0.0032
    EDDIAG:  cpu time  610.2748: real time  613.1529
    --------------------------------------------
      LOOP:  cpu time 1230.8933: real time 1236.1260

 eigenvalue-minimisations  :     0
 total energy-change (2. order) :-0.9720968E-05  (-0.8724237E-05)
 number of electron      48.0000001 magnetization 
 augmentation part       48.0000001 magnetization 

 Free energy of the ion-electron system (eV)
  ---------------------------------------------------
  alpha Z        PSCENC =        13.10177784
  Ewald energy   TEWEN  =      1366.62330681
  -Hartree energ DENC   =     -2513.91978934
  -exchange      EXHF   =        75.31921538
  -V(xc)+E(xc)   XCENC  =      -142.06918885
  PAW double counting   =      1715.63829172    -1486.51325097
  entropy T*S    EENTRO =         0.00000000
  eigenvalues    EBANDS =      -359.51676599
  atomic energy  EATOM  =      1251.19323263
  ---------------------------------------------------
  free energy    TOTEN  =       -80.14341757 eV

  energy without entropy =      -80.14341757  energy(sigma->0) =      -80.14341757
  exchange ACFDT corr.  =        -0.00000000  see jH, gK, PRB 81, 115126


--------------------------------------------------------------------------------------------------------


  average scaling for gradient   0.0271


 average (electrostatic) potential at core
  the test charge radii are     1.0406  0.6991  1.1897  0.5883
  (the norm of the test charge is              1.0000)
       1 -54.8835       2 -54.8722       3 -54.8807       4 -54.9017       5 -54.9237
       6 -54.9664       7 -54.8233       8 -54.9010       9 -51.0314      10 -51.0295
      11 -51.0962      12 -51.1512      13 -93.2105      14 -34.3027      15 -33.8165



 E-fermi :  -2.2911     XC(G=0):  -2.9165     alpha+bet : -2.8557


 k-point     1 :       0.0000    0.0000    0.0000
  band No.  band energies     occupation 
      1     -15.8595      2.00000
      2     -15.2467      2.00000
      3     -15.0908      2.00000
      4     -12.9765      2.00000
      5     -12.8770      2.00000
      6      -9.6500      2.00000
      7      -9.3764      2.00000
      8      -9.3467      2.00000
      9      -8.4323      2.00000
     10      -7.4361      2.00000
     11      -7.0182      2.00000
     12      -6.4788      2.00000
     13      -6.0292      2.00000
     14      -5.4751      2.00000
     15      -5.2154      2.00000
     16      -4.9005      2.00000
     17      -4.5462      2.00000
     18      -4.3826      2.00000
     19      -3.4216      2.00000
     20      -3.2221      2.00000
     21      -3.1849      2.00000
     22      -2.6086      2.00000
     23      -2.3629      2.00000
     24      -2.2931      2.00000
     25      -0.8611      0.00000
     26      -0.3114      0.00000
     27       0.2383      0.00000
     28       0.6065      0.00000
     29       0.7841      0.00000
     30       0.9551      0.00000
     31       1.0975      0.00000
     32       1.3799      0.00000

 k-point     2 :       0.2000    0.0000    0.0000
  band No.  band energies     occupation 
      1     -15.8361      2.00000
      2     -15.1212      2.00000
      3     -14.9659      2.00000
      4     -13.3882      2.00000
      5     -13.2675      2.00000
      6      -9.2053      2.00000
      7      -8.9997      2.00000
      8      -8.7294      2.00000
      9      -8.4490      2.00000
     10      -7.4488      2.00000
     11      -6.8951      2.00000
     12      -6.8283      2.00000
     13      -6.3450      2.00000
     14      -5.4698      2.00000
     15      -5.2046      2.00000
     16      -4.7880      2.00000
     17      -4.4546      2.00000
     18      -3.9899      2.00000
     19      -3.9379      2.00000
     20      -3.8971      2.00000
     21      -3.7772      2.00000
     22      -3.0121      2.00000
     23      -2.7616      2.00000
     24      -2.3385      2.00000
     25      -0.8176      0.00000
     26       0.4293      0.00000
     27       0.6834      0.00000
     28       0.8428      0.00000
     29       1.0434      0.00000
     30       1.0759      0.00000
     31       1.1637      0.00000
     32       2.0392      0.00000

 k-point     3 :       0.4000    0.0000    0.0000
  band No.  band energies     occupation 
      1     -15.8029      2.00000
      2     -14.7400      2.00000
      3     -14.5853      2.00000
      4     -14.1205      2.00000
      5     -13.9759      2.00000
      6      -8.7489      2.00000
      7      -8.4643      2.00000
      8      -7.9452      2.00000
      9      -7.7018      2.00000
     10      -7.3860      2.00000
     11      -7.1586      2.00000
     12      -6.5302      2.00000
     13      -6.1935      2.00000
     14      -5.9969      2.00000
     15      -5.5576      2.00000
     16      -5.2745      2.00000
     17      -5.0542      2.00000
     18      -4.7839      2.00000
     19      -4.4478      2.00000
     20      -4.2094      2.00000
     21      -3.7393      2.00000
     22      -3.4504      2.00000
     23      -2.8685      2.00000
     24      -2.4274      2.00000
     25      -0.4632      0.00000
     26       0.2468      0.00000
     27       0.9276      0.00000
     28       1.3377      0.00000
     29       1.4140      0.00000
     30       1.6347      0.00000
     31       1.8654      0.00000
     32       2.4743      0.00000

 k-point     4 :       0.0000    0.3333    0.0000
  band No.  band energies     occupation 
      1     -15.8581      2.00000
      2     -15.2135      2.00000
      3     -15.1301      2.00000
      4     -12.9654      2.00000
      5     -12.8890      2.00000
      6      -9.5978      2.00000
      7      -9.4248      2.00000
      8      -9.0534      2.00000
      9      -8.4502      2.00000
     10      -8.1066      2.00000
     11      -7.4046      2.00000
     12      -5.8579      2.00000
     13      -5.4671      2.00000
     14      -5.3674      2.00000
     15      -5.1043      2.00000
     16      -5.0387      2.00000
     17      -4.4396      2.00000
     18      -4.2272      2.00000
     19      -3.7269      2.00000
     20      -3.3163      2.00000
     21      -3.2174      2.00000
     22      -3.1875      2.00000
     23      -2.5937      2.00000
     24      -2.3085      2.00000
     25      -0.6122      0.00000
     26       0.0814      0.00000
     27       0.2567      0.00000
     28       0.4529      0.00000
     29       0.6938      0.00000
     30       0.8850      0.00000
     31       1.1436      0.00000
     32       1.3884      0.00000

 k-point     5 :       0.2000    0.3333    0.0000
  band No.  band energies     occupation 
      1     -15.8353      2.00000
      2     -15.0855      2.00000
      3     -15.0070      2.00000
      4     -13.3697      2.00000
      5     -13.2876      2.00000
      6      -8.9697      2.00000
      7      -8.8942      2.00000
      8      -8.7869      2.00000
      9      -8.4467      2.00000
     10      -7.9792      2.00000
     11      -7.4055      2.00000
     12      -6.5801      2.00000
     13      -5.9404      2.00000
     14      -5.1903      2.00000
     15      -4.9921      2.00000
     16      -4.8772      2.00000
     17      -4.3844      2.00000
     18      -3.9754      2.00000
     19      -3.9262      2.00000
     20      -3.7519      2.00000
     21      -3.6974      2.00000
     22      -3.2407      2.00000
     23      -2.9472      2.00000
     24      -2.7962      2.00000
     25      -0.4809      0.00000
     26       0.2127      0.00000
     27       0.5966      0.00000
     28       0.7644      0.00000
     29       0.9037      0.00000
     30       1.1333      0.00000
     31       1.3063      0.00000
     32       1.7866      0.00000

 k-point     6 :       0.4000    0.3333    0.0000
  band No.  band energies     occupation 
      1     -15.8026      2.00000
      2     -14.7052      2.00000
      3     -14.6242      2.00000
      4     -14.0922      2.00000
      5     -14.0071      2.00000
      6      -8.5803      2.00000
      7      -8.3314      2.00000
      8      -7.8703      2.00000
      9      -7.6054      2.00000
     10      -7.5290      2.00000
     11      -7.3397      2.00000
     12      -7.1326      2.00000
     13      -6.6904      2.00000
     14      -5.6861      2.00000
     15      -5.5840      2.00000
     16      -4.9492      2.00000
     17      -4.5225      2.00000
     18      -4.4707      2.00000
     19      -4.2631      2.00000
     20      -4.0378      2.00000
     21      -3.7427      2.00000
     22      -3.4756      2.00000
     23      -3.1591      2.00000
     24      -3.0608      2.00000
     25      -0.1237      0.00000
     26       0.3654      0.00000
     27       0.7503      0.00000
     28       1.0788      0.00000
     29       1.2001      0.00000
     30       1.6571      0.00000
     31       1.8015      0.00000
     32       2.2902      0.00000

 k-point     7 :      -0.4000    0.3333    0.0000
  band No.  band energies     occupation 
      1     -15.8026      2.00000
      2     -14.7051      2.00000
      3     -14.6243      2.00000
      4     -14.0922      2.00000
      5     -14.0072      2.00000
      6      -8.5774      2.00000
      7      -8.3459      2.00000
      8      -7.8360      2.00000
      9      -7.6189      2.00000
     10      -7.5308      2.00000
     11      -7.3500      2.00000
     12      -7.1304      2.00000
     13      -6.6903      2.00000
     14      -5.6946      2.00000
     15      -5.5817      2.00000
     16      -4.9373      2.00000
     17      -4.5392      2.00000
     18      -4.4699      2.00000
     19      -4.2491      2.00000
     20      -4.0344      2.00000
     21      -3.7292      2.00000
     22      -3.5061      2.00000
     23      -3.1514      2.00000
     24      -3.0573      2.00000
     25      -0.1483      0.00000
     26       0.4744      0.00000
     27       0.7174      0.00000
     28       0.9182      0.00000
     29       1.2982      0.00000
     30       1.6204      0.00000
     31       1.8316      0.00000
     32       1.9916      0.00000

 k-point     8 :      -0.2000    0.3333    0.0000
  band No.  band energies     occupation 
      1     -15.8353      2.00000
      2     -15.0854      2.00000
      3     -15.0071      2.00000
      4     -13.3696      2.00000
      5     -13.2877      2.00000
      6      -8.9727      2.00000
      7      -8.8918      2.00000
      8      -8.7861      2.00000
      9      -8.4519      2.00000
     10      -7.9680      2.00000
     11      -7.4102      2.00000
     12      -6.5778      2.00000
     13      -5.9521      2.00000
     14      -5.1812      2.00000
     15      -5.0015      2.00000
     16      -4.8851      2.00000
     17      -4.3591      2.00000
     18      -3.9698      2.00000
     19      -3.9271      2.00000
     20      -3.7642      2.00000
     21      -3.6880      2.00000
     22      -3.2623      2.00000
     23      -2.9220      2.00000
     24      -2.8071      2.00000
     25      -0.5038      0.00000
     26       0.2741      0.00000
     27       0.5177      0.00000
     28       0.7867      0.00000
     29       0.9382      0.00000
     30       1.2076      0.00000
     31       1.2675      0.00000
     32       1.5179      0.00000


--------------------------------------------------------------------------------------------------------


 soft charge-density along one line, spin component           1
         0         1         2         3         4         5         6         7         8         9
 total charge-density along one line

 pseudopotential strength for first ion, spin component:           1
  7.182 -16.883  -0.005  -0.001  -0.000   0.027   0.007   0.000
-16.883  49.273   0.012   0.003   0.000  -0.057  -0.015  -0.000
 -0.005   0.012   1.704  -0.000   0.000  -6.725   0.001  -0.000
 -0.001   0.003  -0.000   1.709  -0.000   0.001  -6.747   0.000
 -0.000   0.000   0.000  -0.000   1.704  -0.000   0.000  -6.727
  0.027  -0.057  -6.725   0.001  -0.000  28.453  -0.005   0.000
  0.007  -0.015   0.001  -6.747   0.000  -0.005  28.541  -0.000
  0.000  -0.000  -0.000   0.000  -6.727   0.000  -0.000  28.459
  0.000  -0.000  -0.000   0.000  -0.004   0.000  -0.000   0.010
 -0.001   0.001  -0.001  -0.004   0.000   0.002   0.011  -0.000
  0.011  -0.012   0.002  -0.001   0.000  -0.005   0.004  -0.000
 -0.000   0.000   0.000  -0.000  -0.001  -0.000   0.000   0.003
  0.001  -0.001   0.003  -0.000  -0.000  -0.009   0.000   0.000
 -0.000   0.000   0.000  -0.000   0.015  -0.000   0.000  -0.052
  0.004  -0.007   0.004   0.017  -0.000  -0.013  -0.057   0.000
 -0.041   0.071  -0.007   0.006  -0.000   0.024  -0.020   0.000
  0.000  -0.000  -0.000   0.000   0.004   0.000  -0.000  -0.014
 -0.002   0.004  -0.014   0.000   0.000   0.047  -0.001  -0.000
 total augmentation occupancy for first ion, spin component:           1
  2.000   0.000   0.000   0.000   0.000   0.000   0.000   0.000   0.000   0.000   0.000   0.000   0.000   0.000   0.000   0.000
  0.000   0.000   0.000   0.000   0.000   0.000   0.000   0.000   0.000   0.000   0.000   0.000   0.000   0.000   0.000   0.000
  0.000   0.000   0.333   0.000   0.000   0.000   0.000   0.000   0.000   0.000   0.000   0.000   0.000   0.000   0.000   0.000
  0.000   0.000   0.000   0.333   0.000   0.000   0.000   0.000   0.000   0.000   0.000   0.000   0.000   0.000   0.000   0.000
  0.000   0.000   0.000   0.000   0.333   0.000   0.000   0.000   0.000   0.000   0.000   0.000   0.000   0.000   0.000   0.000
  0.000   0.000   0.000   0.000   0.000   0.000   0.000   0.000   0.000   0.000   0.000   0.000   0.000   0.000   0.000   0.000
  0.000   0.000   0.000   0.000   0.000   0.000   0.000   0.000   0.000   0.000   0.000   0.000   0.000   0.000   0.000   0.000
  0.000   0.000   0.000   0.000   0.000   0.000   0.000   0.000   0.000   0.000   0.000   0.000   0.000   0.000   0.000   0.000
  0.000   0.000   0.000   0.000   0.000   0.000   0.000   0.000   0.000   0.000   0.000   0.000   0.000   0.000   0.000   0.000
  0.000   0.000   0.000   0.000   0.000   0.000   0.000   0.000   0.000   0.000   0.000   0.000   0.000   0.000   0.000   0.000
  0.000   0.000   0.000   0.000   0.000   0.000   0.000   0.000   0.000   0.000   0.000   0.000   0.000   0.000   0.000   0.000
  0.000   0.000   0.000   0.000   0.000   0.000   0.000   0.000   0.000   0.000   0.000   0.000   0.000   0.000   0.000   0.000
  0.000   0.000   0.000   0.000   0.000   0.000   0.000   0.000   0.000   0.000   0.000   0.000   0.000   0.000   0.000   0.000
  0.000   0.000   0.000   0.000   0.000   0.000   0.000   0.000   0.000   0.000   0.000   0.000   0.000   0.000   0.000   0.000
  0.000   0.000   0.000   0.000   0.000   0.000   0.000   0.000   0.000   0.000   0.000   0.000   0.000   0.000   0.000   0.000
  0.000   0.000   0.000   0.000   0.000   0.000   0.000   0.000   0.000   0.000   0.000   0.000   0.000   0.000   0.000   0.000
  0.000   0.000   0.000   0.000   0.000   0.000   0.000   0.000   0.000   0.000   0.000   0.000   0.000   0.000   0.000   0.000
  0.000   0.000   0.000   0.000   0.000   0.000   0.000   0.000   0.000   0.000   0.000   0.000   0.000   0.000   0.000   0.000


------------------------ aborting loop because EDIFF is reached ----------------------------------------





 total charge     

# of ion       s       p       d       tot
------------------------------------------
    1        0.496   0.499   0.108   1.103
    2        0.497   0.502   0.109   1.109
    3        0.497   0.501   0.107   1.105
    4        0.498   0.500   0.108   1.107
    5        0.488   0.491   0.110   1.089
    6        0.499   0.496   0.107   1.103
    7        0.499   0.499   0.107   1.105
    8        0.496   0.500   0.109   1.105
    9        0.833   1.565   0.000   2.398
   10        0.833   1.566   0.000   2.399
   11        0.833   1.563   0.000   2.396
   12        0.834   1.557   0.000   2.391
   13        1.608   2.588   0.127   4.324
   14        0.526   0.016   0.000   0.542
   15        0.526   0.015   0.000   0.541
--------------------------------------------------
tot          9.965  12.860   0.993  23.818

    CHARGE:  cpu time    1.5253: real time    1.5315
    FORLOC:  cpu time    0.2197: real time    0.2203
    FORHF :  cpu time 1055.2692: real time 1058.3158
    FORNL :  cpu time    6.3437: real time    6.3567
    STRESS:  cpu time   19.3927: real time   19.4316
    FORCOR:  cpu time    8.2473: real time    8.2550
    FORHAR:  cpu time    0.6677: real time    0.6690
    OFIELD:  cpu time    0.0092: real time    0.0092

  FORCE on cell =-STRESS in cart. coord.  units (eV):
  Direction    XX          YY          ZZ          XY          YZ          ZX
  --------------------------------------------------------------------------------------
  Alpha Z    13.10178    13.10178    13.10178
  Ewald    2366.10034  1943.58661 -2943.06513    -8.40776   -43.09150    -7.39069
  Hartree  2381.55787  2089.61577 -1959.37591    -0.45704   -20.92127    -2.59097
  E(xc)    -120.15707  -120.78623  -118.32035     0.03731    -0.03339    -0.07477
  Local   -5239.37193 -4534.96345  4422.71180     6.03911    59.05132     6.11459
  n-local   224.95401   236.92294   191.14565    -0.53688     0.55394     1.67649
  augment   -29.46152   -31.21880   -27.59010    -0.35232    -0.89587    -0.78768
  Kinetic   434.43604   429.87269   450.74013     3.67789     5.11296     2.89580
  Fock      -31.65316   -31.24279   -30.88389     0.06082     0.16547     0.15441
  -------------------------------------------------------------------------------------
  Total      -0.49364    -5.11148    -1.53603     0.06113    -0.05834    -0.00283
  in kB      -0.86389    -8.94518    -2.68808     0.10697    -0.10209    -0.00495
  external pressure =       -4.17 kB  Pullay stress =        0.00 kB


 VOLUME and BASIS-vectors are now :
 -----------------------------------------------------------------------------
  energy-cutoff  :      450.00
  volume of cell :      915.52
      direct lattice vectors                 reciprocal lattice vectors
     6.019200000  0.000000000  0.000000000     0.166135035  0.000000000  0.000000000
     0.000000000 10.140000000  0.000000000     0.000000000  0.098619329  0.000000000
     0.000000000  0.000000000 15.000000000     0.000000000  0.000000000  0.066666667

  length of vectors
     6.019200000 10.140000000 15.000000000     0.166135035  0.098619329  0.066666667


 FORCES acting on ions
    electron-ion (+dipol)            ewald-force                    non-local-force                 convergence-correction
 -----------------------------------------------------------------------------------------------
   0.288E+00 0.491E+02 0.326E+02   -.268E+00 -.460E+02 -.318E+02   -.114E-01 -.312E+01 -.803E+00   -.599E-02 0.490E-01 0.802E-02
   -.326E+00 0.489E+02 -.375E+01   0.332E+00 -.458E+02 0.315E+01   -.155E-01 -.311E+01 0.599E+00   0.560E-02 0.467E-01 -.550E-02
   0.117E+01 -.583E+02 0.469E+02   -.127E+01 0.554E+02 -.457E+02   0.851E-01 0.297E+01 -.122E+01   0.615E-02 -.600E-01 0.184E-01
   -.219E+01 -.600E+02 0.858E+00   0.221E+01 0.571E+02 -.160E+01   -.111E-01 0.295E+01 0.720E+00   -.597E-02 -.575E-01 -.645E-03
   0.473E+01 0.537E+02 0.564E+01   -.487E+01 -.514E+02 -.744E+01   0.128E+00 -.239E+01 0.177E+01   0.761E-02 0.617E-01 -.983E-02
   -.188E+01 0.526E+02 0.460E+02   0.209E+01 -.496E+02 -.450E+02   -.187E+00 -.295E+01 -.938E+00   -.699E-02 0.603E-01 0.153E-01
   0.913E+00 -.413E+02 0.764E+00   -.932E+00 0.387E+02 -.131E+01   0.262E-01 0.267E+01 0.550E+00   -.335E-02 -.496E-01 -.892E-02
   -.703E+00 -.448E+02 0.337E+02   0.695E+00 0.416E+02 -.330E+02   0.398E-02 0.325E+01 -.712E+00   0.336E-02 -.508E-01 0.668E-02
   0.728E-01 0.414E+01 0.202E+02   -.238E-01 -.411E+01 -.203E+02   -.520E-01 -.181E-01 0.104E+00   0.668E-02 -.374E-02 -.312E-02
   -.755E-01 0.455E+01 0.195E+02   0.151E-01 -.452E+01 -.196E+02   0.596E-01 -.266E-01 0.680E-01   -.382E-02 0.193E-02 -.180E-02
   0.270E+01 -.578E+01 0.325E+02   -.262E+01 0.583E+01 -.326E+02   -.888E-01 -.653E-01 0.177E+00   0.605E-02 0.859E-02 0.823E-02
   -.340E+01 -.808E+01 0.358E+02   0.328E+01 0.820E+01 -.359E+02   0.140E+00 -.117E+00 0.107E+00   -.994E-02 0.395E-02 0.543E-02
   0.148E+02 -.191E+02 -.192E+03   -.194E+02 0.253E+02 0.188E+03   0.451E+01 -.610E+01 0.373E+01   0.884E-02 0.353E-01 -.572E-01
   -.246E+02 0.133E+02 -.316E+02   0.272E+02 -.144E+02 0.316E+02   -.253E+01 0.114E+01 0.995E-01   -.133E-04 0.416E-02 -.599E-02
   0.598E+01 0.147E+02 -.492E+02   -.646E+01 -.160E+02 0.514E+02   0.467E+00 0.133E+01 -.216E+01   0.123E-02 0.226E-02 -.260E-02
 -----------------------------------------------------------------------------------------------
   -.251E+01 0.355E+01 -.205E+01   0.000E+00 0.391E-13 0.213E-13   0.252E+01 -.360E+01 0.209E+01   0.945E-02 0.522E-01 -.336E-01


 POSITION                                       TOTAL-FORCE (eV/Angst)
 -----------------------------------------------------------------------------------
      2.60182      8.89866      3.58844         0.001770     -0.022161      0.002123
      5.61053      8.90128      3.90654        -0.005059     -0.027514      0.002826
      2.60414      6.26456      3.61482        -0.007322      0.037613     -0.010827
      5.61841      6.28298      4.00066        -0.002214      0.025889     -0.005365
      2.59529      3.81798      4.10737         0.001827     -0.030479      0.001239
      5.61597      3.83553      3.65753         0.009369     -0.022496     -0.008215
      2.59948      1.20597      3.91804         0.003216      0.027104      0.001696
      5.60984      1.20404      3.61315        -0.000781      0.030683     -0.002101
      1.09603     10.12017      3.74288         0.001843      0.005660      0.004706
      4.10532     10.12106      3.75101        -0.003866     -0.000216      0.005640
      1.10018      5.05499      3.83807        -0.006013     -0.003313      0.007214
      4.10880      5.05934      3.88664         0.010985     -0.001690     -0.001029
      3.35597      4.41372      6.98569        -0.004855     -0.010992     -0.005257
      4.86649      3.72826      6.92894         0.000586     -0.001141      0.000628
      3.05035      3.54885      8.40121         0.000513     -0.006947      0.006723
 -----------------------------------------------------------------------------------
    total drift:                                0.011358     -0.006886      0.005019


--------------------------------------------------------------------------------------------------------



  FREE ENERGIE OF THE ION-ELECTRON SYSTEM (eV)
  ---------------------------------------------------
  free  energy   TOTEN  =       -80.14341757 eV

  energy  without entropy=      -80.14341757  energy(sigma->0) =      -80.14341757



--------------------------------------------------------------------------------------------------------


    POTLOK:  cpu time    9.2667: real time    9.2758


--------------------------------------------------------------------------------------------------------


 stress matrix after NEB project (eV)
     -0.49364      0.06113     -0.00283
      0.06113     -5.11148     -0.05834
     -0.00283     -0.05834     -1.53603
  FORCES: max atom, RMS     0.039819    0.022307
  FORCE total and by dimension    0.086396    0.037613
  Stress total and by dimension    5.361396    5.111476
     LOOP+:  cpu time38205.1998: real time38364.6036
    4ORBIT:  cpu time    0.0000: real time    0.0000



 total charge     

# of ion       s       p       d       tot
------------------------------------------
    1        0.496   0.499   0.108   1.103
    2        0.497   0.502   0.109   1.109
    3        0.497   0.501   0.107   1.105
    4        0.498   0.500   0.108   1.107
    5        0.488   0.491   0.110   1.089
    6        0.499   0.496   0.107   1.103
    7        0.499   0.499   0.107   1.105
    8        0.496   0.500   0.109   1.105
    9        0.833   1.565   0.000   2.398
   10        0.833   1.566   0.000   2.399
   11        0.833   1.563   0.000   2.396
   12        0.834   1.557   0.000   2.391
   13        1.608   2.588   0.127   4.324
   14        0.526   0.016   0.000   0.542
   15        0.526   0.015   0.000   0.541
--------------------------------------------------
tot          9.965  12.860   0.993  23.818

 BZINTS: Fermi energy: -2.291067; 48.000000 electrons
         Band energy:-359.517022;  BLOECHL correction:  0.000000

 total amount of memory used by VASP MPI-rank0   194396. kBytes
=======================================================================

   base      :      30000. kBytes
   nonlr-proj:      20559. kBytes
   fftplans  :      22787. kBytes
   grid      :      58800. kBytes
   one-center:        233. kBytes
   HF        :        259. kBytes
   wavefun   :      61758. kBytes

  
  
 General timing and accounting informations for this job:
 ========================================================
  
                  Total CPU time used (sec):    38278.754
                            User time (sec):    37907.282
                          System time (sec):      371.470
                         Elapsed time (sec):    38453.216
  
                   Maximum memory used (kb):      386864.
                   Average memory used (kb):           0.
  
                          Minor page faults:     47429580
                          Major page faults:            4
                 Voluntary context switches:         2875
