--------------------------------------------------------------------------
[[40039,1],0]: A high-performance Open MPI point-to-point messaging module
was unable to find any relevant network interfaces:

Module: OpenFabrics (openib)
  Host: compute-1-0

Another transport will be used instead, although this may result in
lower performance.
--------------------------------------------------------------------------
 running on    4 total cores
 distrk:  each k-point on    4 cores,    1 groups
 distr:  one band on    1 cores,    4 groups
 using from now: INCAR     
 vasp.5.4.4.18Apr17-6-g9f103f2a35 (build Dec  6 2019 17:49:40) complex           
 POSCAR found type information on POSCAR  Al C  Te H 
 POSCAR found :  4 types and      15 ions
 scaLAPACK will be used
 LDA part: xc-table for Pade appr. of Perdew
 POSCAR found type information on POSCAR  Al C  Te H 
 POSCAR found :  4 types and      15 ions
 WARNING: stress and forces are not correct
 POSCAR, INCAR and KPOINTS ok, starting setup
 FFT: planning ...
[compute-1-0.cluster.gsc.inifta.unlp.edu.ar:32352] 3 more processes have sent help message help-mpi-btl-base.txt / btl:no-nics
[compute-1-0.cluster.gsc.inifta.unlp.edu.ar:32352] Set MCA parameter "orte_base_help_aggregate" to 0 to see all help / error messages
 WAVECAR not read
 charge-density read from file: Al2C                                    
 entering main loop

 ----------------------------------------------------------------------------- 
|                                                                             |
|           W    W    AA    RRRRR   N    N  II  N    N   GGGG   !!!           |
|           W    W   A  A   R    R  NN   N  II  NN   N  G    G  !!!           |
|           W    W  A    A  R    R  N N  N  II  N N  N  G       !!!           |
|           W WW W  AAAAAA  RRRRR   N  N N  II  N  N N  G  GGG   !            |
|           WW  WW  A    A  R   R   N   NN  II  N   NN  G    G                |
|           W    W  A    A  R    R  N    N  II  N    N   GGGG   !!!           |
|                                                                             |
|      ALGO=A and IALGO=5X tend to fail with the tetrahedron method           |
|      (e.g. Bloechls method ISMEAR=-5 is not variational)                    |
|      please switch to IMSEAR=0-n, except for DOS calculations               |
|      For DOS calculations use IALGO=53 after preconverging with ISMEAR>=0   |
|          I HOPE YOU KNOW, WHAT YOU ARE  DOING                               |
|                                                                             |
 ----------------------------------------------------------------------------- 

       N       E                     dE             d eps       ncg     rms          ort
DAV:   1     0.432205534500E+03    0.43221E+03   -0.11294E+04   256   0.961E+02
DAV:   2     0.211192388750E+03   -0.22101E+03   -0.20944E+03   256   0.246E+02
DAV:   3     0.118372826695E+03   -0.92820E+02   -0.88032E+02   256   0.159E+02
DAV:   4     0.700430671618E+02   -0.48330E+02   -0.46064E+02   256   0.128E+02
DAV:   5     0.424879741637E+02   -0.27555E+02   -0.26345E+02   256   0.889E+01
DAV:   6     0.256131568269E+02   -0.16875E+02   -0.16205E+02   256   0.718E+01
DAV:   7     0.148551695123E+02   -0.10758E+02   -0.10359E+02   256   0.524E+01
 gam= 0.000 g(H,U,f)=  0.435E+02 0.440E+00 0.163E-01 ort(H,U,f) = 0.000E+00 0.000E+00 0.000E+00
SDA:   8    -0.414336199523E+02   -0.56289E+02   -0.17594E+02   256   0.440E+02 0.000E+00
 gam= 0.382 g(H,U,f)=  0.171E+02 0.154E+01 0.483E-01 ort(H,U,f) = 0.237E+02 0.645E+00 0.858E-02
DMP:   9    -0.552737060094E+02   -0.13840E+02   -0.11212E+02   256   0.187E+02 0.243E+02
 gam= 0.382 g(H,U,f)=  0.691E+01 0.278E+01 0.435E+00 ort(H,U,f) = 0.890E+01 0.216E+01 0.324E+00
DMP:  10    -0.633476849583E+02   -0.80740E+01   -0.57902E+01   256   0.101E+02 0.114E+02
 gam= 0.382 g(H,U,f)=  0.434E+01 0.246E+01 0.355E-02 ort(H,U,f) = 0.394E+01 0.278E+01 0.413E-02
DMP:  11    -0.677690584796E+02   -0.44214E+01   -0.37492E+01   256   0.680E+01 0.673E+01
 gam= 0.382 g(H,U,f)=  0.257E+01 0.194E+01 0.188E+00 ort(H,U,f) = 0.302E+01 0.264E+01 0.225E+00
DMP:  12    -0.710054020001E+02   -0.32363E+01   -0.27780E+01   256   0.470E+01 0.588E+01
 gam= 0.382 g(H,U,f)=  0.144E+01 0.166E+01 0.283E+00 ort(H,U,f) = 0.210E+01 0.248E+01 0.338E+00
DMP:  13    -0.735143902897E+02   -0.25090E+01   -0.21046E+01   256   0.339E+01 0.491E+01
 gam= 0.382 g(H,U,f)=  0.849E+00 0.158E+01 0.221E+00 ort(H,U,f) = 0.137E+01 0.248E+01 0.250E+00
DMP:  14    -0.754320871913E+02   -0.19177E+01   -0.16888E+01   256   0.265E+01 0.411E+01
 gam= 0.382 g(H,U,f)=  0.531E+00 0.104E+01 0.238E+00 ort(H,U,f) = 0.968E+00 0.181E+01 0.382E+00
DMP:  15    -0.771129699169E+02   -0.16809E+01   -0.12040E+01   256   0.180E+01 0.316E+01
 gam= 0.382 g(H,U,f)=  0.283E+00 0.560E+00 0.296E+00 ort(H,U,f) = 0.578E+00 0.107E+01 0.466E+00
DMP:  16    -0.780599847043E+02   -0.94701E+00   -0.77944E+00   256   0.114E+01 0.212E+01
 gam= 0.382 g(H,U,f)=  0.148E+00 0.498E+00 0.417E+00 ort(H,U,f) = 0.325E+00 0.957E+00 0.835E+00
DMP:  17    -0.786931021856E+02   -0.63312E+00   -0.74855E+00   256   0.106E+01 0.212E+01
 gam= 0.382 g(H,U,f)=  0.111E+00 0.900E+00 0.243E+00 ort(H,U,f) = 0.246E+00 0.150E+01 0.330E+00
DMP:  18    -0.793894975752E+02   -0.69640E+00   -0.81936E+00   256   0.125E+01 0.208E+01
 gam= 0.382 g(H,U,f)=  0.693E-01 0.246E+00 0.615E-01 ort(H,U,f) = 0.157E+00 0.519E+00 0.750E-01
DMP:  19    -0.798725983093E+02   -0.48310E+00   -0.26554E+00   256   0.377E+00 0.750E+00
 gam= 0.382 g(H,U,f)=  0.343E-01 0.596E-01 0.135E-04 ort(H,U,f) = 0.778E-01 0.141E+00 0.185E-04
DMP:  20    -0.800161370988E+02   -0.14354E+00   -0.70974E-01   256   0.940E-01 0.218E+00
 gam= 0.382 g(H,U,f)=  0.180E-01 0.245E-01 0.103E-06 ort(H,U,f) = 0.417E-01 0.626E-01 0.262E-06
DMP:  21    -0.800731861406E+02   -0.57049E-01   -0.32966E-01   256   0.426E-01 0.104E+00
 gam= 0.382 g(H,U,f)=  0.108E-01 0.112E-01 0.680E-04 ort(H,U,f) = 0.247E-01 0.303E-01 0.205E-03
DMP:  22    -0.801010895611E+02   -0.27903E-01   -0.17270E-01   256   0.221E-01 0.552E-01
 gam= 0.382 g(H,U,f)=  0.682E-02 0.547E-02 0.872E-03 ort(H,U,f) = 0.158E-01 0.152E-01 0.303E-02
DMP:  23    -0.801160575583E+02   -0.14968E-01   -0.10458E-01   256   0.132E-01 0.340E-01
 gam= 0.382 g(H,U,f)=  0.449E-02 0.280E-02 0.568E-03 ort(H,U,f) = 0.105E-01 0.782E-02 0.211E-02
DMP:  24    -0.801246239215E+02   -0.85664E-02   -0.62701E-02   256   0.786E-02 0.205E-01
 gam= 0.382 g(H,U,f)=  0.315E-02 0.150E-02 0.140E-03 ort(H,U,f) = 0.729E-02 0.414E-02 0.540E-03
DMP:  25    -0.801298109449E+02   -0.51870E-02   -0.37433E-02   256   0.479E-02 0.120E-01
 gam= 0.382 g(H,U,f)=  0.231E-02 0.831E-03 0.329E-04 ort(H,U,f) = 0.525E-02 0.226E-02 0.110E-03
DMP:  26    -0.801331395905E+02   -0.33286E-02   -0.24317E-02   256   0.317E-02 0.762E-02
 gam= 0.382 g(H,U,f)=  0.172E-02 0.479E-03 0.134E-04 ort(H,U,f) = 0.391E-02 0.127E-02 0.240E-04
DMP:  27    -0.801353916620E+02   -0.22521E-02   -0.16800E-02   256   0.221E-02 0.521E-02
 gam= 0.382 g(H,U,f)=  0.133E-02 0.285E-03 0.102E-04 ort(H,U,f) = 0.298E-02 0.739E-03 0.114E-04
DMP:  28    -0.801369790239E+02   -0.15874E-02   -0.12182E-02   256   0.162E-02 0.373E-02
 gam= 0.382 g(H,U,f)=  0.105E-02 0.175E-03 0.920E-05 ort(H,U,f) = 0.231E-02 0.443E-03 0.119E-04
DMP:  29    -0.801381402715E+02   -0.11612E-02   -0.91370E-03   256   0.123E-02 0.276E-02
 gam= 0.382 g(H,U,f)=  0.836E-03 0.111E-03 0.780E-05 ort(H,U,f) = 0.182E-02 0.273E-03 0.124E-04
DMP:  30    -0.801390165581E+02   -0.87629E-03   -0.70366E-03   256   0.955E-03 0.211E-02
 gam= 0.382 g(H,U,f)=  0.679E-03 0.717E-04 0.649E-05 ort(H,U,f) = 0.146E-02 0.173E-03 0.118E-04
DMP:  31    -0.801396943299E+02   -0.67777E-03   -0.55365E-03   256   0.757E-03 0.164E-02
 gam= 0.382 g(H,U,f)=  0.557E-03 0.474E-04 0.480E-05 ort(H,U,f) = 0.118E-02 0.112E-03 0.955E-05
DMP:  32    -0.801402294774E+02   -0.53515E-03   -0.44285E-03   256   0.609E-03 0.130E-02
 gam= 0.382 g(H,U,f)=  0.462E-03 0.320E-04 0.350E-05 ort(H,U,f) = 0.970E-03 0.740E-04 0.737E-05
DMP:  33    -0.801406592256E+02   -0.42975E-03   -0.35962E-03   256   0.497E-03 0.105E-02
 gam= 0.382 g(H,U,f)=  0.388E-03 0.221E-04 0.252E-05 ort(H,U,f) = 0.804E-03 0.500E-04 0.551E-05
DMP:  34    -0.801410095038E+02   -0.35028E-03   -0.29646E-03   256   0.413E-03 0.860E-03
 gam= 0.382 g(H,U,f)=  0.330E-03 0.155E-04 0.165E-05 ort(H,U,f) = 0.674E-03 0.345E-04 0.370E-05
DMP:  35    -0.801412991936E+02   -0.28969E-03   -0.24773E-03   256   0.347E-03 0.712E-03
 gam= 0.382 g(H,U,f)=  0.286E-03 0.111E-04 0.118E-05 ort(H,U,f) = 0.571E-03 0.243E-04 0.268E-05
DMP:  36    -0.801415421004E+02   -0.24291E-03   -0.21088E-03   256   0.299E-03 0.598E-03
 gam= 0.382 g(H,U,f)=  0.254E-03 0.817E-05 0.774E-06 ort(H,U,f) = 0.492E-03 0.175E-04 0.177E-05
DMP:  37    -0.801417493904E+02   -0.20729E-03   -0.18337E-03   256   0.263E-03 0.511E-03
 gam= 0.382 g(H,U,f)=  0.229E-03 0.611E-05 0.511E-06 ort(H,U,f) = 0.432E-03 0.128E-04 0.117E-05
DMP:  38    -0.801419300432E+02   -0.18065E-03   -0.16230E-03   256   0.235E-03 0.446E-03
 gam= 0.382 g(H,U,f)=  0.205E-03 0.462E-05 0.370E-06 ort(H,U,f) = 0.385E-03 0.957E-05 0.846E-06
DMP:  39    -0.801420902082E+02   -0.16017E-03   -0.14441E-03   256   0.210E-03 0.396E-03
 gam= 0.382 g(H,U,f)=  0.184E-03 0.353E-05 0.252E-06 ort(H,U,f) = 0.345E-03 0.724E-05 0.571E-06
DMP:  40    -0.801422328923E+02   -0.14268E-03   -0.12906E-03   256   0.188E-03 0.353E-03
 gam= 0.382 g(H,U,f)=  0.165E-03 0.272E-05 0.175E-06 ort(H,U,f) = 0.310E-03 0.553E-05 0.390E-06
DMP:  41    -0.801423605545E+02   -0.12766E-03   -0.11544E-03   256   0.168E-03 0.316E-03
 gam= 0.382 g(H,U,f)=  0.149E-03 0.210E-05 0.124E-06 ort(H,U,f) = 0.278E-03 0.425E-05 0.271E-06
DMP:  42    -0.801424748529E+02   -0.11430E-03   -0.10382E-03   256   0.152E-03 0.283E-03
 gam= 0.382 g(H,U,f)=  0.135E-03 0.164E-05 0.895E-07 ort(H,U,f) = 0.251E-03 0.329E-05 0.193E-06
DMP:  43    -0.801425777302E+02   -0.10288E-03   -0.93701E-04   256   0.137E-03 0.255E-03
 gam= 0.382 g(H,U,f)=  0.123E-03 0.129E-05 0.662E-07 ort(H,U,f) = 0.227E-03 0.257E-05 0.140E-06
DMP:  44    -0.801426706508E+02   -0.92921E-04   -0.84736E-04   256   0.124E-03 0.230E-03
 gam= 0.382 g(H,U,f)=  0.111E-03 0.102E-05 0.540E-07 ort(H,U,f) = 0.206E-03 0.202E-05 0.112E-06
DMP:  45    -0.801427547367E+02   -0.84086E-04   -0.76842E-04   256   0.113E-03 0.208E-03
 gam= 0.382 g(H,U,f)=  0.101E-03 0.818E-06 0.414E-07 ort(H,U,f) = 0.187E-03 0.161E-05 0.847E-07
DMP:  46    -0.801428310300E+02   -0.76293E-04   -0.69600E-04   256   0.102E-03 0.189E-03
 gam= 0.382 g(H,U,f)=  0.910E-04 0.658E-06 0.323E-07 ort(H,U,f) = 0.170E-03 0.128E-05 0.650E-07
DMP:  47    -0.801429001711E+02   -0.69141E-04   -0.62869E-04   256   0.917E-04 0.171E-03
 gam= 0.382 g(H,U,f)=  0.815E-04 0.530E-06 0.254E-07 ort(H,U,f) = 0.154E-03 0.103E-05 0.506E-07
DMP:  48    -0.801429626591E+02   -0.62488E-04   -0.56496E-04   256   0.820E-04 0.155E-03
 gam= 0.382 g(H,U,f)=  0.728E-04 0.426E-06 0.202E-07 ort(H,U,f) = 0.139E-03 0.829E-06 0.399E-07
DMP:  49    -0.801430188422E+02   -0.56183E-04   -0.50617E-04   256   0.733E-04 0.139E-03
 gam= 0.382 g(H,U,f)=  0.650E-04 0.343E-06 0.163E-07 ort(H,U,f) = 0.124E-03 0.666E-06 0.318E-07
DMP:  50    -0.801430692053E+02   -0.50363E-04   -0.45249E-04   256   0.653E-04 0.125E-03
 gam= 0.382 g(H,U,f)=  0.580E-04 0.275E-06 0.131E-07 ort(H,U,f) = 0.111E-03 0.535E-06 0.254E-07
DMP:  51    -0.801431142502E+02   -0.45045E-04   -0.40431E-04   256   0.583E-04 0.112E-03
 gam= 0.382 g(H,U,f)=  0.519E-04 0.221E-06 0.105E-07 ort(H,U,f) = 0.997E-04 0.430E-06 0.204E-07
DMP:  52    -0.801431545180E+02   -0.40268E-04   -0.36145E-04   256   0.521E-04 0.100E-03
 gam= 0.382 g(H,U,f)=  0.465E-04 0.177E-06 0.850E-08 ort(H,U,f) = 0.892E-04 0.345E-06 0.165E-07
DMP:  53    -0.801431905330E+02   -0.36015E-04   -0.32351E-04   256   0.467E-04 0.896E-04
 gam= 0.382 g(H,U,f)=  0.416E-04 0.142E-06 0.686E-08 ort(H,U,f) = 0.799E-04 0.277E-06 0.133E-07
DMP:  54    -0.801432227803E+02   -0.32247E-04   -0.28945E-04   256   0.417E-04 0.802E-04
 gam= 0.382 g(H,U,f)=  0.371E-04 0.114E-06 0.555E-08 ort(H,U,f) = 0.716E-04 0.223E-06 0.107E-07
DMP:  55    -0.801432516434E+02   -0.28863E-04   -0.25882E-04   256   0.373E-04 0.718E-04
 gam= 0.382 g(H,U,f)=  0.332E-04 0.918E-07 0.448E-08 ort(H,U,f) = 0.641E-04 0.179E-06 0.866E-08
DMP:  56    -0.801432774616E+02   -0.25818E-04   -0.23147E-04   256   0.333E-04 0.643E-04
 gam= 0.382 g(H,U,f)=  0.298E-04 0.737E-07 0.362E-08 ort(H,U,f) = 0.574E-04 0.143E-06 0.700E-08
DMP:  57    -0.801433005583E+02   -0.23097E-04   -0.20729E-04   256   0.299E-04 0.575E-04
 gam= 0.382 g(H,U,f)=  0.268E-04 0.592E-07 0.293E-08 ort(H,U,f) = 0.514E-04 0.115E-06 0.566E-08
DMP:  58    -0.801433212484E+02   -0.20690E-04   -0.18602E-04   256   0.268E-04 0.515E-04
 gam= 0.382 g(H,U,f)=  0.240E-04 0.475E-07 0.237E-08 ort(H,U,f) = 0.462E-04 0.925E-07 0.457E-08
DMP:  59    -0.801433398200E+02   -0.18572E-04   -0.16707E-04   256   0.241E-04 0.463E-04
 gam= 0.382 g(H,U,f)=  0.216E-04 0.382E-07 0.191E-08 ort(H,U,f) = 0.415E-04 0.743E-07 0.369E-08
DMP:  60    -0.801433565034E+02   -0.16683E-04   -0.15002E-04   256   0.216E-04 0.416E-04
 gam= 0.382 g(H,U,f)=  0.194E-04 0.307E-07 0.155E-08 ort(H,U,f) = 0.373E-04 0.597E-07 0.299E-08
DMP:  61    -0.801433714881E+02   -0.14985E-04   -0.13467E-04   256   0.194E-04 0.374E-04
 gam= 0.382 g(H,U,f)=  0.174E-04 0.247E-07 0.125E-08 ort(H,U,f) = 0.335E-04 0.481E-07 0.242E-08
DMP:  62    -0.801433849420E+02   -0.13454E-04   -0.12085E-04   256   0.174E-04 0.335E-04
 gam= 0.382 g(H,U,f)=  0.156E-04 0.199E-07 0.101E-08 ort(H,U,f) = 0.301E-04 0.387E-07 0.195E-08
DMP:  63    -0.801433970170E+02   -0.12075E-04   -0.10842E-04   256   0.156E-04 0.301E-04
 gam= 0.382 g(H,U,f)=  0.140E-04 0.160E-07 0.818E-09 ort(H,U,f) = 0.270E-04 0.311E-07 0.158E-08
DMP:  64    -0.801434078520E+02   -0.10835E-04   -0.97256E-05   256   0.140E-04 0.270E-04
 gam= 0.382 g(H,U,f)=  0.125E-04 0.129E-07 0.662E-09 ort(H,U,f) = 0.242E-04 0.250E-07 0.128E-08
DMP:  65    -0.801434175729E+02   -0.97210E-05   -0.87242E-05   256   0.125E-04 0.242E-04
 final diagonalization
   1 F= -.80143418E+02 E0= -.80143418E+02  d E =0.000000E+00
