Al2C                                    
           1
     6.019200    0.000000    0.000000
     0.000000   10.140000    0.000000
     0.000000    0.000000   15.000000
   Al   C    Te   H 
   8   4   1   2
Direct configuration=     1
   0.43225351  0.87758010  0.23922953
   0.93210566  0.87783868  0.26043615
   0.43263840  0.61780683  0.24098817
   0.93341404  0.61962348  0.26671042
   0.43116853  0.37652621  0.27382487
   0.93300874  0.37825774  0.24383564
   0.43186417  0.11893190  0.26120264
   0.93199059  0.11874131  0.24087642
   0.18208911  0.99804483  0.24952566
   0.68203780  0.99813228  0.25006763
   0.18277786  0.49851994  0.25587114
   0.68261515  0.49894844  0.25910959
   0.55754384  0.43527780  0.46571239
   0.80849425  0.36767880  0.46192924
   0.50676920  0.34998516  0.56008050
