<?xml version="1.0" encoding="ISO-8859-1"?>
<modeling>
 <generator>
  <i name="program" type="string">vasp </i>
  <i name="version" type="string">5.4.4.18Apr17-6-g9f103f2a35  </i>
  <i name="subversion" type="string">(build Dec  6 2019 17:49:40) complex            parallel </i>
  <i name="platform" type="string">LinuxGNU </i>
  <i name="date" type="string">2022 03 22 </i>
  <i name="time" type="string">22:25:36 </i>
 </generator>
 <incar>
  <i type="string" name="SYSTEM"> Al2C</i>
  <i type="int" name="ISTART">     0</i>
  <i type="string" name="PREC">accurate</i>
  <i type="int" name="NSIM">     4</i>
  <i type="int" name="NELM">   300</i>
  <i type="int" name="NELMDL">    -7</i>
  <i type="int" name="IBRION">     1</i>
  <i name="EDIFF">      0.00000100</i>
  <i name="EDIFFG">     -0.01000000</i>
  <i type="int" name="NSW">   999</i>
  <i type="int" name="ISIF">     2</i>
  <i type="int" name="ISYM">     0</i>
  <i name="ENCUT">    450.00000000</i>
  <i name="POTIM">      0.35000000</i>
  <i type="string" name="LREAL"> auto</i>
  <v name="ROPT">     -0.00020000     -0.00020000     -0.00020000     -0.00020000</v>
  <i type="logical" name="LPLANE"> T  </i>
  <i type="int" name="ISMEAR">     0</i>
  <i name="SIGMA">      0.05000000</i>
  <i type="int" name="NWRITE">     2</i>
  <i type="logical" name="LWAVE"> F  </i>
  <i type="logical" name="LCHARG"> F  </i>
  <i type="logical" name="LSCALU"> F  </i>
  <v type="int" name="KPOINT_BSE">    -1     0     0     0</v>
  <i type="int" name="NELM">   300</i>
  <i type="string" name="GGA"> PE</i>
 </incar>
 <structure name="primitive_cell" >
  <crystal>
   <varray name="basis" >
    <v>       6.01920000       0.00000000       0.00000000 </v>
    <v>       0.00000000      10.14000000       0.00000000 </v>
    <v>       0.00000000       0.00000000      15.00000000 </v>
   </varray>
   <i name="volume">    915.52032000 </i>
   <varray name="rec_basis" >
    <v>       0.16613503       0.00000000       0.00000000 </v>
    <v>       0.00000000       0.09861933       0.00000000 </v>
    <v>       0.00000000       0.00000000       0.06666667 </v>
   </varray>
  </crystal>
  <varray name="positions" >
   <v>       0.43794104      -0.12324169       0.25598034 </v>
   <v>       0.18747125       0.00052939       0.24354878 </v>
   <v>      -0.31350984       0.00005032       0.23688203 </v>
   <v>       0.43660525       0.12064413       0.22939621 </v>
   <v>       0.45371252      -0.37338362       0.30093419 </v>
   <v>      -0.06214891      -0.12109291       0.23333891 </v>
   <v>       0.27898463      -0.30787502       0.46783335 </v>
   <v>      -0.06464445       0.11969328       0.25289554 </v>
   <v>       0.47498365      -0.37130044       0.45439119 </v>
   <v>      -0.06235281      -0.37682772       0.25227051 </v>
   <v>      -0.31244150      -0.49825155       0.25265778 </v>
   <v>       0.18463780       0.49561180       0.28569294 </v>
   <v>       0.19287796       0.49065510       0.36033737 </v>
   <v>       0.43981934       0.38173001       0.24436496 </v>
   <v>      -0.07716496       0.37395244       0.26947597 </v>
  </varray>
 </structure>
 <varray name="primitive_index" >
  <v type="int" >        1 </v>
  <v type="int" >        9 </v>
  <v type="int" >       10 </v>
  <v type="int" >        7 </v>
  <v type="int" >        3 </v>
  <v type="int" >        2 </v>
  <v type="int" >       14 </v>
  <v type="int" >        8 </v>
  <v type="int" >       13 </v>
  <v type="int" >        4 </v>
  <v type="int" >       12 </v>
  <v type="int" >       11 </v>
  <v type="int" >       15 </v>
  <v type="int" >        5 </v>
  <v type="int" >        6 </v>
 </varray>
 <kpoints>
  <generation param="Gamma">
   <v type="int" name="divisions">       5        3        1 </v>
   <v name="usershift">      0.00000000       0.00000000       0.00000000 </v>
   <v name="genvec1">      0.20000000       0.00000000       0.00000000 </v>
   <v name="genvec2">      0.00000000       0.33333333       0.00000000 </v>
   <v name="genvec3">      0.00000000       0.00000000       1.00000000 </v>
   <v name="shift">      0.00000000       0.00000000       0.00000000 </v>
  </generation>
  <varray name="kpointlist" >
   <v>       0.00000000       0.00000000       0.00000000 </v>
   <v>       0.20000000       0.00000000       0.00000000 </v>
   <v>       0.40000000       0.00000000       0.00000000 </v>
   <v>       0.00000000       0.33333333       0.00000000 </v>
   <v>       0.20000000       0.33333333       0.00000000 </v>
   <v>       0.40000000       0.33333333       0.00000000 </v>
   <v>      -0.40000000       0.33333333       0.00000000 </v>
   <v>      -0.20000000       0.33333333       0.00000000 </v>
  </varray>
  <varray name="weights" >
   <v>       0.06666667 </v>
   <v>       0.13333333 </v>
   <v>       0.13333333 </v>
   <v>       0.13333333 </v>
   <v>       0.13333333 </v>
   <v>       0.13333333 </v>
   <v>       0.13333333 </v>
   <v>       0.13333333 </v>
  </varray>
 </kpoints>
 <parameters>
  <separator name="general" >
   <i type="string" name="SYSTEM">Al2C</i>
   <i type="logical" name="LCOMPAT"> F  </i>
  </separator>
  <separator name="electronic" >
   <i type="string" name="PREC">accura</i>
   <i name="ENMAX">    450.00000000</i>
   <i name="ENAUG">    644.87300000</i>
   <i name="EDIFF">      0.00000100</i>
   <i type="int" name="IALGO">    38</i>
   <i type="int" name="IWAVPR">    11</i>
   <i type="int" name="NBANDS">    32</i>
   <i name="NELECT">     48.00000000</i>
   <i type="int" name="TURBO">     0</i>
   <i type="int" name="IRESTART">     0</i>
   <i type="int" name="NREBOOT">     0</i>
   <i type="int" name="NMIN">     0</i>
   <i name="EREF">      0.00000000</i>
   <separator name="electronic smearing" >
    <i type="int" name="ISMEAR">     0</i>
    <i name="SIGMA">      0.05000000</i>
    <i name="KSPACING">      0.50000000</i>
    <i type="logical" name="KGAMMA"> T  </i>
   </separator>
   <separator name="electronic projectors" >
    <i type="logical" name="LREAL"> T  </i>
    <v name="ROPT">     -0.00020000     -0.00020000     -0.00020000     -0.00020000</v>
    <i type="int" name="LMAXPAW">  -100</i>
    <i type="int" name="LMAXMIX">     2</i>
    <i type="logical" name="NLSPLINE"> F  </i>
   </separator>
   <separator name="electronic startup" >
    <i type="int" name="ISTART">     0</i>
    <i type="int" name="ICHARG">     2</i>
    <i type="int" name="INIWAV">     1</i>
   </separator>
   <separator name="electronic spin" >
    <i type="int" name="ISPIN">     1</i>
    <i type="logical" name="LNONCOLLINEAR"> F  </i>
    <v name="MAGMOM">      1.00000000      1.00000000      1.00000000      1.00000000      1.00000000      1.00000000      1.00000000      1.00000000      1.00000000      1.00000000      1.00000000      1.00000000      1.00000000      1.00000000      1.00000000</v>
    <i name="NUPDOWN">     -1.00000000</i>
    <i type="logical" name="LSORBIT"> F  </i>
    <v name="SAXIS">      0.00000000      0.00000000      1.00000000</v>
    <i type="logical" name="LSPIRAL"> F  </i>
    <v name="QSPIRAL">      0.00000000      0.00000000      0.00000000</v>
    <i type="logical" name="LZEROZ"> F  </i>
   </separator>
   <separator name="electronic exchange-correlation" >
    <i type="logical" name="LASPH"> F  </i>
    <i type="logical" name="LMETAGGA"> F  </i>
   </separator>
   <separator name="electronic convergence" >
    <i type="int" name="NELM">   300</i>
    <i type="int" name="NELMDL">    -7</i>
    <i type="int" name="NELMIN">     2</i>
    <i name="ENINI">    450.00000000</i>
    <separator name="electronic convergence detail" >
     <i type="logical" name="LDIAG"> T  </i>
     <i type="logical" name="LSUBROT"> F  </i>
     <i name="WEIMIN">      0.00100000</i>
     <i name="EBREAK">      0.00000001</i>
     <i name="DEPER">      0.30000000</i>
     <i type="int" name="NRMM">     4</i>
     <i name="TIME">      0.40000000</i>
    </separator>
   </separator>
   <separator name="electronic mixer" >
    <i name="AMIX">      0.40000000</i>
    <i name="BMIX">      1.00000000</i>
    <i name="AMIN">      0.10000000</i>
    <i name="AMIX_MAG">      1.60000000</i>
    <i name="BMIX_MAG">      1.00000000</i>
    <separator name="electronic mixer details" >
     <i type="int" name="IMIX">     4</i>
     <i type="logical" name="MIXFIRST"> F  </i>
     <i type="int" name="MAXMIX">   -45</i>
     <i name="WC">    100.00000000</i>
     <i type="int" name="INIMIX">     1</i>
     <i type="int" name="MIXPRE">     1</i>
     <i type="int" name="MREMOVE">     5</i>
    </separator>
   </separator>
   <separator name="electronic dipolcorrection" >
    <i type="logical" name="LDIPOL"> F  </i>
    <i type="logical" name="LMONO"> F  </i>
    <i type="int" name="IDIPOL">     0</i>
    <i name="EPSILON">      1.00000000</i>
    <v name="DIPOL">   -100.00000000   -100.00000000   -100.00000000</v>
    <i name="EFIELD">      0.00000000</i>
   </separator>
  </separator>
  <separator name="grids" >
   <i type="int" name="NGX">    42</i>
   <i type="int" name="NGY">    70</i>
   <i type="int" name="NGZ">   108</i>
   <i type="int" name="NGXF">    84</i>
   <i type="int" name="NGYF">   140</i>
   <i type="int" name="NGZF">   216</i>
   <i type="logical" name="ADDGRID"> F  </i>
  </separator>
  <separator name="ionic" >
   <i type="int" name="NSW">   999</i>
   <i type="int" name="IBRION">     1</i>
   <i type="int" name="MDALGO">     0</i>
   <i type="int" name="ISIF">     2</i>
   <i name="PSTRESS">      0.00000000</i>
   <i name="EDIFFG">     -0.01000000</i>
   <i type="int" name="NFREE">     0</i>
   <i name="POTIM">      0.35000000</i>
   <i name="SMASS">     -3.00000000</i>
   <i name="SCALEE">      1.00000000</i>
  </separator>
  <separator name="ionic md" >
   <i name="TEBEG">      0.00010000</i>
   <i name="TEEND">      0.00010000</i>
   <i type="int" name="NBLOCK">     1</i>
   <i type="int" name="KBLOCK">   999</i>
   <i type="int" name="NPACO">   256</i>
   <i name="APACO">     16.00000000</i>
  </separator>
  <separator name="symmetry" >
   <i type="int" name="ISYM">     0</i>
   <i name="SYMPREC">      0.00001000</i>
  </separator>
  <separator name="dos" >
   <i type="int" name="LORBIT">     0</i>
   <v name="RWIGS">     -1.00000000     -1.00000000     -1.00000000     -1.00000000</v>
   <i type="int" name="NEDOS">   301</i>
   <i name="EMIN">     10.00000000</i>
   <i name="EMAX">    -10.00000000</i>
   <i name="EFERMI">      0.00000000</i>
  </separator>
  <separator name="writing" >
   <i type="int" name="NWRITE">     2</i>
   <i type="logical" name="LWAVE"> F  </i>
   <i type="logical" name="LDOWNSAMPLE"> F  </i>
   <i type="logical" name="LCHARG"> F  </i>
   <i type="logical" name="LPARD"> F  </i>
   <i type="logical" name="LVTOT"> F  </i>
   <i type="logical" name="LVHAR"> F  </i>
   <i type="logical" name="LELF"> F  </i>
   <i type="logical" name="LOPTICS"> F  </i>
   <v name="STM">      0.00000000      0.00000000      0.00000000      0.00000000      0.00000000      0.00000000      0.00000000</v>
  </separator>
  <separator name="performance" >
   <i type="int" name="NPAR">     2</i>
   <i type="int" name="NSIM">     4</i>
   <i type="int" name="NBLK">    -1</i>
   <i type="logical" name="LPLANE"> T  </i>
   <i type="logical" name="LSCALAPACK"> T  </i>
   <i type="logical" name="LSCAAWARE"> F  </i>
   <i type="logical" name="LSCALU"> F  </i>
   <i type="logical" name="LASYNC"> F  </i>
   <i type="logical" name="LORBITALREAL"> F  </i>
  </separator>
  <separator name="miscellaneous" >
   <i type="int" name="IDIOT">     3</i>
   <i type="int" name="ISPECIAL">     0</i>
   <i type="logical" name="LMUSIC"> F  </i>
   <v name="POMASS">     26.98200000     12.01100000     32.06600000      1.00000000</v>
   <v name="DARWINR">      0.00000000      0.00000000      0.00000000      0.00000000</v>
   <v name="DARWINV">      1.00000000      1.00000000      1.00000000      1.00000000</v>
   <i type="logical" name="LCORR"> T  </i>
  </separator>
  <i type="logical" name="GGA_COMPAT"> T  </i>
  <i type="logical" name="LBERRY"> F  </i>
  <i type="int" name="ICORELEVEL">     0</i>
  <i type="logical" name="LDAU"> F  </i>
  <i type="int" name="I_CONSTRAINED_M">     0</i>
  <separator name="electronic exchange-correlation" >
   <i type="string" name="GGA">PE</i>
   <i type="int" name="VOSKOWN">     0</i>
   <i type="logical" name="LHFCALC"> F  </i>
   <i type="string" name="PRECFOCK"></i>
   <i type="logical" name="LSYMGRAD"> F  </i>
   <i type="logical" name="LHFONE"> F  </i>
   <i type="logical" name="LRHFCALC"> F  </i>
   <i type="logical" name="LTHOMAS"> F  </i>
   <i type="logical" name="LMODELHF"> F  </i>
   <i name="ENCUT4O">     -1.00000000</i>
   <i type="int" name="EXXOEP">     0</i>
   <i type="int" name="FOURORBIT">     0</i>
   <i name="AEXX">      0.00000000</i>
   <i name="HFALPHA">      0.00000000</i>
   <i name="MCALPHA">      0.00000000</i>
   <i name="ALDAX">      1.00000000</i>
   <i name="AGGAX">      1.00000000</i>
   <i name="ALDAC">      1.00000000</i>
   <i name="AGGAC">      1.00000000</i>
   <i type="int" name="NKREDX">     1</i>
   <i type="int" name="NKREDY">     1</i>
   <i type="int" name="NKREDZ">     1</i>
   <i type="logical" name="SHIFTRED"> F  </i>
   <i type="logical" name="ODDONLY"> F  </i>
   <i type="logical" name="EVENONLY"> F  </i>
   <i type="int" name="LMAXFOCK">     0</i>
   <i type="int" name="NMAXFOCKAE">     0</i>
   <i type="logical" name="LFOCKAEDFT"> F  </i>
   <i name="HFSCREEN">      0.00000000</i>
   <i name="HFSCREENC">      0.00000000</i>
   <i type="int" name="NBANDSGWLOW">     0</i>
  </separator>
  <separator name="vdW DFT" >
   <i type="logical" name="LUSE_VDW"> F  </i>
   <i name="Zab_VDW">     -0.84910000</i>
   <i name="PARAM1">      0.12340000</i>
   <i name="PARAM2">      1.00000000</i>
   <i name="PARAM3">      0.00000000</i>
  </separator>
  <separator name="model GW" >
   <i type="int" name="MODEL_GW">     0</i>
   <i name="MODEL_EPS0">     36.62081280</i>
   <i name="MODEL_ALPHA">      1.00000000</i>
  </separator>
  <separator name="linear response parameters" >
   <i type="logical" name="LEPSILON"> F  </i>
   <i type="logical" name="LRPA"> F  </i>
   <i type="logical" name="LNABLA"> F  </i>
   <i type="logical" name="LVEL"> F  </i>
   <i type="int" name="KINTER">     0</i>
   <i name="CSHIFT">      0.10000000</i>
   <i name="OMEGAMAX">     -1.00000000</i>
   <i name="DEG_THRESHOLD">      0.00200000</i>
   <i name="RTIME">     -0.10000000</i>
   <i name="WPLASMAI">      0.00000000</i>
   <v name="DFIELD">      0.00000000      0.00000000      0.00000000</v>
   <v name="WPLASMA">      0.00000000      0.00000000      0.00000000      0.00000000      0.00000000      0.00000000      0.00000000      0.00000000      0.00000000</v>
  </separator>
  <separator name="orbital magnetization" >
   <i type="logical" name="NUCIND"> F  </i>
   <v name="MAGPOS">      0.00000000      0.00000000      0.00000000</v>
   <i type="logical" name="LNICSALL"> T  </i>
   <i type="logical" name="ORBITALMAG"> F  </i>
   <i type="logical" name="LMAGBLOCH"> F  </i>
   <i type="logical" name="LCHIMAG"> F  </i>
   <i type="logical" name="LGAUGE"> T  </i>
   <i type="int" name="MAGATOM">     0</i>
   <v name="MAGDIPOL">      0.00000000      0.00000000      0.00000000</v>
   <v name="AVECCONST">      0.00000000      0.00000000      0.00000000</v>
  </separator>
  <separator name="response functions" >
   <i type="logical" name="LADDER"> F  </i>
   <i type="logical" name="LRPAFORCE"> F  </i>
   <i type="logical" name="LFXC"> F  </i>
   <i type="logical" name="LHARTREE"> T  </i>
   <i type="int" name="IBSE">     0</i>
   <v type="int" name="KPOINT">    -1     0     0     0</v>
   <i type="logical" name="LTCTE"> F  </i>
   <i type="logical" name="LTETE"> F  </i>
   <i type="logical" name="LTRIPLET"> F  </i>
   <i type="logical" name="LFXCEPS"> F  </i>
   <i type="logical" name="LFXHEG"> F  </i>
   <i type="int" name="NATURALO">     2</i>
   <i type="logical" name="L2ORDER"> F  </i>
   <i type="logical" name="LMP2LT"> F  </i>
   <i type="logical" name="LUSEW"> F  </i>
   <i name="ENCUTGW">     -2.00000000</i>
   <i name="ENCUTGWSOFT">     -2.00000000</i>
   <i name="ENCUTLF">     -1.00000000</i>
   <i type="int" name="LMAXMP2">    -1</i>
   <i name="SCISSOR">      0.00000000</i>
   <i type="int" name="NOMEGA">     0</i>
   <i type="int" name="NOMEGAR">     0</i>
   <i type="int" name="NBANDSGW">    -1</i>
   <i type="int" name="NBANDSO">    -1</i>
   <i type="int" name="NBANDSV">    -1</i>
   <i type="int" name="NELM">   300</i>
   <i type="int" name="NELMHF">     1</i>
   <i type="int" name="DIM">     3</i>
   <i type="int" name="ANTIRES">     0</i>
   <i name="OMEGAMAX">    -30.00000000</i>
   <i name="OMEGAMIN">    -30.00000000</i>
   <i name="OMEGATL">   -200.00000000</i>
   <i type="int" name="OMEGAGRID">   140</i>
   <i name="CSHIFT">     -0.10000000</i>
   <i type="logical" name="SELFENERGY"> F  </i>
   <i type="logical" name="LSPECTRAL"> F  </i>
   <i type="logical" name="LSPECTRALGW"> F  </i>
   <i type="logical" name="LSINGLES"> F  </i>
   <i type="logical" name="LFERMIGW"> F  </i>
   <i type="logical" name="ODDONLYGW"> F  </i>
   <i type="logical" name="EVENONLYGW"> F  </i>
   <i type="int" name="NKREDLFX">     1</i>
   <i type="int" name="NKREDLFY">     1</i>
   <i type="int" name="NKREDLFZ">     1</i>
   <i type="int" name="MAXMEM">  2800</i>
   <i type="int" name="TELESCOPE">     0</i>
   <i type="int" name="TAUPAR">     1</i>
   <i type="int" name="OMEGAPAR">    -1</i>
   <i name="LAMBDA">      1.00000000</i>
  </separator>
  <separator name="External order field" >
   <i name="OFIELD_KAPPA">      0.00000000</i>
   <v name="OFIELD_K">      0.00000000      0.00000000      0.00000000</v>
   <i name="OFIELD_Q6_NEAR">      0.00000000</i>
   <i name="OFIELD_Q6_FAR">      0.00000000</i>
   <i name="OFIELD_A">      0.00000000</i>
  </separator>
 </parameters>
 <atominfo>
  <atoms>      15 </atoms>
  <types>       4 </types>
  <array name="atoms" >
   <dimension dim="1">ion</dimension>
   <field type="string">element</field>
   <field type="int">atomtype</field>
   <set>
    <rc><c>Al</c><c>   1</c></rc>
    <rc><c>Al</c><c>   1</c></rc>
    <rc><c>Al</c><c>   1</c></rc>
    <rc><c>Al</c><c>   1</c></rc>
    <rc><c>Al</c><c>   1</c></rc>
    <rc><c>Al</c><c>   1</c></rc>
    <rc><c>Al</c><c>   1</c></rc>
    <rc><c>Al</c><c>   1</c></rc>
    <rc><c>C </c><c>   2</c></rc>
    <rc><c>C </c><c>   2</c></rc>
    <rc><c>C </c><c>   2</c></rc>
    <rc><c>C </c><c>   2</c></rc>
    <rc><c>S </c><c>   3</c></rc>
    <rc><c>H </c><c>   4</c></rc>
    <rc><c>H </c><c>   4</c></rc>
   </set>
  </array>
  <array name="atomtypes" >
   <dimension dim="1">type</dimension>
   <field type="int">atomspertype</field>
   <field type="string">element</field>
   <field>mass</field>
   <field>valence</field>
   <field type="string">pseudopotential</field>
   <set>
    <rc><c>   8</c><c>Al</c><c>     26.98200000</c><c>      3.00000000</c><c>  PAW Al_GW 19Mar2012                   </c></rc>
    <rc><c>   4</c><c>C </c><c>     12.01100000</c><c>      4.00000000</c><c>  PAW C_GW 28Sep2005                    </c></rc>
    <rc><c>   1</c><c>S </c><c>     32.06600000</c><c>      6.00000000</c><c>  PAW S_GW 19Mar2012                    </c></rc>
    <rc><c>   2</c><c>H </c><c>      1.00000000</c><c>      1.00000000</c><c>  PAW H_GW 21Apr2008                    </c></rc>
   </set>
  </array>
 </atominfo>
 <structure name="initialpos" >
  <crystal>
   <varray name="basis" >
    <v>       6.01920000       0.00000000       0.00000000 </v>
    <v>       0.00000000      10.14000000       0.00000000 </v>
    <v>       0.00000000       0.00000000      15.00000000 </v>
   </varray>
   <i name="volume">    915.52032000 </i>
   <varray name="rec_basis" >
    <v>       0.16613503       0.00000000       0.00000000 </v>
    <v>       0.00000000       0.09861933       0.00000000 </v>
    <v>       0.00000000       0.00000000       0.06666667 </v>
   </varray>
  </crystal>
  <varray name="positions" >
   <v>       0.43794104       0.87675831       0.25598034 </v>
   <v>       0.93785109       0.87890709       0.23333891 </v>
   <v>       0.45371252       0.62661638       0.30093419 </v>
   <v>       0.93764719       0.62317228       0.25227051 </v>
   <v>       0.43981934       0.38173001       0.24436496 </v>
   <v>       0.92283504       0.37395244       0.26947597 </v>
   <v>       0.43660525       0.12064413       0.22939621 </v>
   <v>       0.93535555       0.11969328       0.25289554 </v>
   <v>       0.18747125       0.00052939       0.24354878 </v>
   <v>       0.68649016       0.00005032       0.23688203 </v>
   <v>       0.18463780       0.49561180       0.28569294 </v>
   <v>       0.68755850       0.50174845       0.25265778 </v>
   <v>       0.47498365       0.62869956       0.45439119 </v>
   <v>       0.27898463       0.69212498       0.46783335 </v>
   <v>       0.19287796       0.49065510       0.36033737 </v>
  </varray>
  <varray name="selective"  type="logical" >
   <v type="logical" >  T  T  T </v>
   <v type="logical" >  T  T  T </v>
   <v type="logical" >  T  T  T </v>
   <v type="logical" >  T  T  T </v>
   <v type="logical" >  T  T  T </v>
   <v type="logical" >  T  T  T </v>
   <v type="logical" >  T  T  T </v>
   <v type="logical" >  T  T  T </v>
   <v type="logical" >  T  T  T </v>
   <v type="logical" >  T  T  T </v>
   <v type="logical" >  T  T  T </v>
   <v type="logical" >  T  T  T </v>
   <v type="logical" >  T  T  T </v>
   <v type="logical" >  T  T  T </v>
   <v type="logical" >  T  T  T </v>
  </varray>
  <nose>
   <v>      -3.00000000       0.00000000       0.00010000       0.00010000 </v>
  </nose>
 </structure>
 <calculation>
  <scstep>
   <time name="dav">   29.68   29.78</time>
   <time name="total">   31.95   32.06</time>
   <energy>
    <i name="alphaZ">     14.13034224 </i>
    <i name="ewald">   1502.71779216 </i>
    <i name="hartreedc">  -2515.40813198 </i>
    <i name="XCdc">   -148.48901202 </i>
    <i name="pawpsdc">   1187.55623386 </i>
    <i name="pawaedc">   -928.91038649 </i>
    <i name="eentropy">     -0.01320930 </i>
    <i name="bandstr">   -126.03940910 </i>
    <i name="atom">   1318.64189276 </i>
    <i name="e_fr_energy">    304.18611215 </i>
    <i name="e_wo_entrp">    304.19932144 </i>
    <i name="e_0_energy">    304.19271680 </i>
   </energy>
  </scstep>
  <scstep>
   <time name="dav">   40.26   40.43</time>
   <time name="total">   40.26   40.43</time>
   <energy>
    <i name="e_fr_energy">     -6.33193671 </i>
    <i name="e_wo_entrp">     -6.33193595 </i>
    <i name="e_0_energy">     -6.33193633 </i>
   </energy>
  </scstep>
  <scstep>
   <time name="dav">   43.93   44.09</time>
   <time name="total">   43.93   44.09</time>
   <energy>
    <i name="e_fr_energy">    -88.03762868 </i>
    <i name="e_wo_entrp">    -88.03762868 </i>
    <i name="e_0_energy">    -88.03762868 </i>
   </energy>
  </scstep>
  <scstep>
   <time name="dav">   37.02   37.13</time>
   <time name="total">   37.03   37.13</time>
   <energy>
    <i name="e_fr_energy">    -91.07677917 </i>
    <i name="e_wo_entrp">    -91.07677917 </i>
    <i name="e_0_energy">    -91.07677917 </i>
   </energy>
  </scstep>
  <scstep>
   <time name="dav">   45.75   45.87</time>
   <time name="total">   45.75   45.87</time>
   <energy>
    <i name="e_fr_energy">    -91.22598996 </i>
    <i name="e_wo_entrp">    -91.22598996 </i>
    <i name="e_0_energy">    -91.22598996 </i>
   </energy>
  </scstep>
  <scstep>
   <time name="dav">   40.65   40.76</time>
   <time name="total">   40.65   40.76</time>
   <energy>
    <i name="e_fr_energy">    -91.22814775 </i>
    <i name="e_wo_entrp">    -91.22814775 </i>
    <i name="e_0_energy">    -91.22814775 </i>
   </energy>
  </scstep>
  <scstep>
   <time name="dav">   44.29   44.42</time>
   <time name="total">   46.55   46.69</time>
   <energy>
    <i name="e_fr_energy">    -91.22828063 </i>
    <i name="e_wo_entrp">    -91.22828063 </i>
    <i name="e_0_energy">    -91.22828063 </i>
   </energy>
  </scstep>
  <scstep>
   <time name="dav">   36.01   36.11</time>
   <time name="total">   40.80   40.91</time>
   <energy>
    <i name="e_fr_energy">    -73.58424340 </i>
    <i name="e_wo_entrp">    -73.58424340 </i>
    <i name="e_0_energy">    -73.58424340 </i>
   </energy>
  </scstep>
  <scstep>
   <time name="dav">   36.46   36.56</time>
   <time name="total">   41.29   41.39</time>
   <energy>
    <i name="e_fr_energy">    -73.19574698 </i>
    <i name="e_wo_entrp">    -73.19574698 </i>
    <i name="e_0_energy">    -73.19574698 </i>
   </energy>
  </scstep>
  <scstep>
   <time name="dav">   39.33   39.42</time>
   <time name="total">   44.15   44.25</time>
   <energy>
    <i name="e_fr_energy">    -72.67933167 </i>
    <i name="e_wo_entrp">    -72.67933167 </i>
    <i name="e_0_energy">    -72.67933167 </i>
   </energy>
  </scstep>
  <scstep>
   <time name="dav">   39.37   39.45</time>
   <time name="total">   44.24   44.33</time>
   <energy>
    <i name="e_fr_energy">    -72.64613483 </i>
    <i name="e_wo_entrp">    -72.64613483 </i>
    <i name="e_0_energy">    -72.64613483 </i>
   </energy>
  </scstep>
  <scstep>
   <time name="dav">   41.49   41.70</time>
   <time name="total">   46.35   46.58</time>
   <energy>
    <i name="e_fr_energy">    -72.64292867 </i>
    <i name="e_wo_entrp">    -72.64292867 </i>
    <i name="e_0_energy">    -72.64292867 </i>
   </energy>
  </scstep>
  <scstep>
   <time name="dav">   38.95   39.18</time>
   <time name="total">   43.79   44.04</time>
   <energy>
    <i name="e_fr_energy">    -72.63832525 </i>
    <i name="e_wo_entrp">    -72.63832525 </i>
    <i name="e_0_energy">    -72.63832525 </i>
   </energy>
  </scstep>
  <scstep>
   <time name="dav">   38.64   38.77</time>
   <time name="total">   43.56   43.70</time>
   <energy>
    <i name="e_fr_energy">    -72.63573516 </i>
    <i name="e_wo_entrp">    -72.63573516 </i>
    <i name="e_0_energy">    -72.63573516 </i>
   </energy>
  </scstep>
  <scstep>
   <time name="dav">   40.47   40.56</time>
   <time name="total">   45.29   45.40</time>
   <energy>
    <i name="e_fr_energy">    -72.63719865 </i>
    <i name="e_wo_entrp">    -72.63719865 </i>
    <i name="e_0_energy">    -72.63719865 </i>
   </energy>
  </scstep>
  <scstep>
   <time name="dav">   34.86   34.95</time>
   <time name="total">   39.76   39.85</time>
   <energy>
    <i name="e_fr_energy">    -72.64084442 </i>
    <i name="e_wo_entrp">    -72.64084442 </i>
    <i name="e_0_energy">    -72.64084442 </i>
   </energy>
  </scstep>
  <scstep>
   <time name="dav">   40.16   40.32</time>
   <time name="total">   45.06   45.23</time>
   <energy>
    <i name="e_fr_energy">    -72.64202246 </i>
    <i name="e_wo_entrp">    -72.64202246 </i>
    <i name="e_0_energy">    -72.64202246 </i>
   </energy>
  </scstep>
  <scstep>
   <time name="dav">   38.00   38.11</time>
   <time name="total">   42.90   43.03</time>
   <energy>
    <i name="e_fr_energy">    -72.64329722 </i>
    <i name="e_wo_entrp">    -72.64329722 </i>
    <i name="e_0_energy">    -72.64329722 </i>
   </energy>
  </scstep>
  <scstep>
   <time name="dav">   39.40   39.54</time>
   <time name="total">   44.26   44.42</time>
   <energy>
    <i name="e_fr_energy">    -72.64458559 </i>
    <i name="e_wo_entrp">    -72.64458559 </i>
    <i name="e_0_energy">    -72.64458559 </i>
   </energy>
  </scstep>
  <scstep>
   <time name="dav">   33.09   33.17</time>
   <time name="total">   37.76   37.86</time>
   <energy>
    <i name="e_fr_energy">    -72.64538367 </i>
    <i name="e_wo_entrp">    -72.64538367 </i>
    <i name="e_0_energy">    -72.64538367 </i>
   </energy>
  </scstep>
  <scstep>
   <time name="dav">   33.02   33.11</time>
   <time name="total">   37.89   37.99</time>
   <energy>
    <i name="e_fr_energy">    -72.64602797 </i>
    <i name="e_wo_entrp">    -72.64602797 </i>
    <i name="e_0_energy">    -72.64602797 </i>
   </energy>
  </scstep>
  <scstep>
   <time name="dav">   38.29   38.36</time>
   <time name="total">   43.05   43.14</time>
   <energy>
    <i name="e_fr_energy">    -72.64622669 </i>
    <i name="e_wo_entrp">    -72.64622669 </i>
    <i name="e_0_energy">    -72.64622669 </i>
   </energy>
  </scstep>
  <scstep>
   <time name="dav">   34.55   34.63</time>
   <time name="total">   39.41   39.51</time>
   <energy>
    <i name="e_fr_energy">    -72.64630529 </i>
    <i name="e_wo_entrp">    -72.64630529 </i>
    <i name="e_0_energy">    -72.64630529 </i>
   </energy>
  </scstep>
  <scstep>
   <time name="dav">   35.71   35.79</time>
   <time name="total">   40.50   40.59</time>
   <energy>
    <i name="e_fr_energy">    -72.64632844 </i>
    <i name="e_wo_entrp">    -72.64632844 </i>
    <i name="e_0_energy">    -72.64632844 </i>
   </energy>
  </scstep>
  <scstep>
   <time name="dav">   29.83   29.90</time>
   <time name="total">   34.58   34.65</time>
   <energy>
    <i name="e_fr_energy">    -72.64634493 </i>
    <i name="e_wo_entrp">    -72.64634493 </i>
    <i name="e_0_energy">    -72.64634493 </i>
   </energy>
  </scstep>
  <scstep>
   <time name="dav">   25.56   25.59</time>
   <time name="total">   30.19   30.24</time>
   <energy>
    <i name="e_fr_energy">    -72.64634719 </i>
    <i name="e_wo_entrp">    -72.64634719 </i>
    <i name="e_0_energy">    -72.64634719 </i>
   </energy>
  </scstep>
  <scstep>
   <time name="dav">   19.83   19.85</time>
   <time name="total">   23.71   23.74</time>
   <energy>
    <i name="e_fr_energy">    -72.64634934 </i>
    <i name="e_wo_entrp">    -72.64634934 </i>
    <i name="e_0_energy">    -72.64634934 </i>
   </energy>
  </scstep>
  <scstep>
   <time name="dav">   19.02   19.03</time>
   <time name="total">   20.97   20.99</time>
   <energy>
    <i name="alphaZ">     14.13034224 </i>
    <i name="ewald">   1502.71779216 </i>
    <i name="hartreedc">  -2682.03614260 </i>
    <i name="XCdc">   -140.23712871 </i>
    <i name="pawpsdc">   1751.24977249 </i>
    <i name="pawaedc">  -1493.74679618 </i>
    <i name="eentropy">     -0.00000000 </i>
    <i name="bandstr">   -343.36608192 </i>
    <i name="atom">   1318.64189276 </i>
    <i name="e_fr_energy">    -72.64634977 </i>
    <i name="e_wo_entrp">    -72.64634977 </i>
    <i name="e_0_energy">    -72.64634977 </i>
   </energy>
  </scstep>
  <structure>
   <crystal>
    <varray name="basis" >
     <v>       6.01920000       0.00000000       0.00000000 </v>
     <v>       0.00000000      10.14000000       0.00000000 </v>
     <v>       0.00000000       0.00000000      15.00000000 </v>
    </varray>
    <i name="volume">    915.52032000 </i>
    <varray name="rec_basis" >
     <v>       0.16613503       0.00000000       0.00000000 </v>
     <v>       0.00000000       0.09861933       0.00000000 </v>
     <v>       0.00000000       0.00000000       0.06666667 </v>
    </varray>
   </crystal>
   <varray name="positions" >
    <v>       0.43794104       0.87675831       0.25598034 </v>
    <v>       0.93785109       0.87890709       0.23333891 </v>
    <v>       0.45371252       0.62661638       0.30093419 </v>
    <v>       0.93764719       0.62317228       0.25227051 </v>
    <v>       0.43981934       0.38173001       0.24436496 </v>
    <v>       0.92283504       0.37395244       0.26947597 </v>
    <v>       0.43660525       0.12064413       0.22939621 </v>
    <v>       0.93535555       0.11969328       0.25289554 </v>
    <v>       0.18747125       0.00052939       0.24354878 </v>
    <v>       0.68649016       0.00005032       0.23688203 </v>
    <v>       0.18463780       0.49561180       0.28569294 </v>
    <v>       0.68755850       0.50174845       0.25265778 </v>
    <v>       0.47498365       0.62869956       0.45439119 </v>
    <v>       0.27898463       0.69212498       0.46783335 </v>
    <v>       0.19287796       0.49065510       0.36033737 </v>
   </varray>
  </structure>
  <varray name="forces" >
   <v>      -0.00605079      -0.00770451      -0.00468124 </v>
   <v>      -0.00223347      -0.00025419       0.01196498 </v>
   <v>      -0.00400611      -0.00061539       0.05351196 </v>
   <v>      -0.01034250       0.01032094       0.03389443 </v>
   <v>       0.00535917      -0.00058222       0.02439145 </v>
   <v>      -0.02691994      -0.00686449      -0.03250108 </v>
   <v>      -0.00100324      -0.00218277       0.00032887 </v>
   <v>      -0.00797296      -0.00215211      -0.02184489 </v>
   <v>      -0.00319179       0.00322487      -0.00185355 </v>
   <v>      -0.00475200      -0.00393236      -0.01363561 </v>
   <v>      -0.01413801      -0.01240866      -0.0054537 name="   <v>      -0.00728065       0.01196774       0.00974331 </v>
   <v>       0.13995568       0.11359744      -0.00336358 </v>
   <v>       0.08378805       0.02543885      -0.01587718 </v>
   <v>      -0.14121143      -0.12785313      -0.03462417 </v>
  </varray>
  <varray name="stress" >
   <v>       3.04111643       1.26507204       0.78354682 </v>
   <v>       1.26507210      -5.03344786       0.37492465 </v>
   <v>       0.78354685       0.37492472      -1.33353003 </v>
  </varray>
  <energy>
   <i name="e_fr_energy">    -72.64634977 </i>
   <i name="e_wo_entrp">    -72.64634977 </i>
   <i name="e_0_energy">     -0.00000000 </i>
  </energy>
  <time name="totalsc"> 1154.05 1158.48</time>
 </calculation>
 <calculation>
  <scstep>
   <time name="dav">   31.39   31.45</time>
   <time name="total">   36.31   36.41</time>
   <energy>
    <i name="alphaZ">     14.13034224 </i>
    <i name="ewald">   1502.71279329 </i>
    <i name="hartreedc">  -2682.02879659 </i>
    <i name="XCdc">   -140.23703516 </i>
    <i name="pawpsdc">   1751.24935745 </i>
    <i name="pawaedc">  -1493.74637942 </i>
    <i name="eentropy">     -0.00000000 </i>
    <i name="bandstr">   -343.36878838 </i>
    <i name="atom">   1318.64189276 </i>
    <i name="e_fr_energy">    -72.64661383 </i>
    <i name="e_wo_entrp">    -72.64661383 </i>
    <i name="e_0_energy">    -72.64661383 </i>
   </energy>
  </scstep>
  <scstep>
   <time name="dav">   41.14   41.36</time>
   <time name="total">   45.64   45.88</time>
   <energy>
    <i name="e_fr_energy">    -72.64661646 </i>
    <i name="e_wo_entrp">    -72.64661646 </i>
    <i name="e_0_energy">    -72.64661646 </i>
   </energy>
  </scstep>
  <scstep>
   <time name="dav">   25.84   25.88</time>
   <time name="total">   28.09   28.14</time>
   <energy>
    <i name="alphaZ">     14.13034224 </i>
    <i name="ewald">   1502.71279329 </i>
    <i name="hartreedc">  -2682.03184343 </i>
    <i name="XCdc">   -140.23688006 </i>
    <i name="pawpsdc">   1751.26165505 </i>
    <i name="pawaedc">  -1493.75872596 </i>
    <i name="eentropy">     -0.00000000 </i>
    <i name="bandstr">   -343.36585032 </i>
    <i name="atom">   1318.64189276 </i>
    <i name="e_fr_energy">    -72.64661646 </i>
    <i name="e_wo_entrp">    -72.64661646 </i>
    <i name="e_0_energy">    -72.64661646 </i>
   </energy>
  </scstep>
  <structure>
   <crystal>
    <varray name="basis" >
     <v>       6.01920000       0.00000000       0.00000000 </v>
     <v>       0.00000000      10.14000000       0.00000000 </v>
     <v>       0.00000000       0.00000000      15.00000000 </v>
    </varray>
    <i name="volume">    915.52032000 </i>
    <varray name="rec_basis" >
     <v>       0.16613503       0.00000000       0.00000000 </v>
     <v>       0.00000000       0.09861933       0.00000000 </v>
     <v>       0.00000000       0.00000000       0.06666667 </v>
    </varray>
   </crystal>
   <varray name="positions" >
    <v>       0.43794094       0.87675737       0.25598268 </v>
    <v>       0.93785047       0.87890774       0.23334174 </v>
    <v>       0.45371430       0.62661523       0.30094553 </v>
    <v>       0.93764332       0.62317633       0.25227467 </v>
    <v>       0.43982513       0.38173109       0.24436844 </v>
    <v>       0.92282052       0.37395467       0.26947449 </v>
    <v>       0.43660685       0.12064510       0.22939611 </v>
    <v>       0.93535236       0.11969241       0.25289621 </v>
    <v>       0.18747305       0.00053205       0.24354836 </v>
    <v>       0.68649185       0.00005177       0.23687817 </v>
    <v>       0.18463509       0.49561230       0.28568256 </v>
    <v>       0.68756017       0.50175363       0.25266916 </v>
    <v>       0.47505103       0.62873249       0.45439686 </v>
    <v>       0.27901348       0.69211981       0.46782096 </v>
    <v>       0.19279240       0.49061153       0.36032414 </v>
   </varray>
  </structure>
  <varray name="forces" >
   <v>      -0.00609188      -0.00751932      -0.00478430 </v>
   <v>      -0.00196649      -0.00013746       0.01179716 </v>
   <v>      -0.00414650      -0.00075815       0..01476560       0.00116497      -0.01164479 </v>
   <v>      -0.01628461      -0.00014270      -0.00271498 </v>
   <v>      -0.01528816       0.00007927       0.00411306 </v>
   <v>      -0.02475573       0.00397471       0.02393885 </v>
   <v>      -0.02513348      -0.00316844      -0.01092264 </v>
   <v>       0.07850647      -0.02370772      -0.05235108 </v>
   <v>       0.18770219       0.03013053      -0.03288506 </v>
   <v>      -0.00688883      -0.01709778       0.01637637 </v>
  </varray>
  <varray name="stress" >
   <v>      -1.87249565       0.61702798       1.31029890 </v>
   <v>       0.61702810      -5.54666733      -0.00105514 </v>
   <v>       1.31029887      -0.00105493      -1.44167765 </v>
  </varray>
  <energy>
   <i name="e_fr_energy">    -72.94968949 </i>
   <i name="e_wo_entrp">    -72.94968949 </i>
   <i name="e_0_energy">     -0.00000000 </i>
  </energy>
  <time name="totalsc">  152.52  155.69</time>
 </calculation>
 <calculation>
  <scstep>
   <time name="dav">   30.55   30.56</time>
   <time name="total">   34.17   34.18</time>
   <energy>
    <i name="alphaZ">     14.13034224 </i>
    <i name="ewald">   1545.24287640 </i>
    <i name="hartreedc">  -2724.69220354 </i>
    <i name="XCdc">   <calculation>
  <scstep>
   <time name="dav">   30.79   30.86</time>
   <time name="total">   35.12   35.20</time>
   <energy>
    <i name="alphaZ">     14.13034224 </i>
    <i name="ewald">   1569.44321973 </i>
    <i name="hartreedc">  -2750.00259633 </i>
    <i name="XCdc">   -140.27122390 </i>
    <i name="pawpsdc">   1740.76664387 </i>
    <i name="pawaedc">  -1483.22466640 </i>
    <i name="eentropy">     -0.00000000 </i>
    <i name="bandstr">   -342.43328632 </i>
    <i name="atom">   1318.64189276 </i>
    <i name="e_fr_energy">    -72.94967436 </i>
    <i name="e_wo_entrp">    -72.94967436 </i>
    <i name="e_0_energy">    -72.94967436 </i>
   </energy>
  </scstep>
  <scstep>
   <time name="dav">   31.55   31.62</time>
   <time name="total">   33.92   33.99</time>
   <energy>
    <i name="alphaZ">     14.13034224 </i>
    <i name="ewald">   1569.44321973 </i>
    <i name="hartreedc">  -2750.00369330 </i>
    <i name="XCdc">   -140.27118085 </i>
    <i name="pawpsdc">   1740.77113193 </i>
    <i name="pawaedc">  -1483.22916142 </i>
    <i name="eentropy">     -0.00000000 </i>
    <i name="bandstr">   -342.43222571 </i>
    <i name="atom">   1318.64189276 </i>
    <i name="e_fr_energy">    -72.94967462 </i>
    <i name="e_wo_entrp">    -72.94967462 </i>
    <i name="e_0_energy">    -72.94967462 </i>
   </energy>
  </scstep>
  <structure>
   <crystal>
    <varray name="basis" >
     <v>       6.01920000       0.00000000       0.00000000 </v>
     <v>       0.00000000      10.14000000       0.00000000 </v>
     <v>       0.00000000       0.00000000      15.00000000 </v>
    </varray>
    <i name="volume">    915.52032000 </i>
    <varray name="rec_basis" >
     <v>       0.16613503       0.00000000       0.00000000 </v>
     <v>       0.00000000       0.09861933       0.00000000 </v>
     <v>       0.00000000       0.00000000       0.06666667 </v>
    </varray>
   </crystal>
   <varray name="positions" >
    <v>       0.41071289       0.87167820       0.24481353 </v>
    <v>       0.91157939       0.87393915       0.24924018 </v>
    <v>       0.42338903       0.62275152       0.29134207 </v>
    <v>       0.89327520       0.62250636       0.28314713 </v>
    <v>       0.41479997       0.37426780       0.25252091 </v>
    <v>       0.90133727       0.37257752       0.25369358 </v>
    <v>       0.41225464       0.11658348       0.23793752 </v>
    <v>       0.91088288       0.11678556       0.23578128 </v>
    <v>       0.16151627       0.99639919       0.24217531 </v>
    <v>       0.66133254       0.99539786       0.23587860 </v>
    <v>       0.15632870       0.49139875       0.29812426 </v>
    <v>       0.65912881       0.49585835       0.24622162 </v>
    <v>       0.59579548       0.63738359       0.43071264 </v>
    <v>       0.51503766       0.75440005       0.46129013 </v>
    <v>       0.15742v>
    <v>       0.18463343       0.49561401       0.28566457 </v>
    <v>       0.68755633       0.50176245       0.25268806 </v>
    <v>       0.47514946       0.62877862       0.45440400 </v>
    <v>       0.27904891       0.69211131       0.46780270 </v>
    <v>       0.19266917       0.49054723       0.36030856 </v>
   </varray>
  </structure>
  <varray name="forces" >
   <v>      -0.00610942      -0.00758449      -0.00485151 </v>
   <v>      -0.00201136      -0.00003094       0.01155083 </v>
   <v>      -0.00456146      -0.00062046       0.05279131 </v>
   <v>      -0.01031937       0.01011926       0.03317487 </v>
   <v>       0.00523316      -0.00047798       0.02417090 </v>
   <v>      -0.02600880      -0.00723076      -0.03383598 </v>
   <v>      -0.00103036      -0.00224688       0.00039539 </v>
   <v>      -0.00774113      -0.00186988      -0.02210475 </v>
   <v>      -0.00345838       0.00311869      -0.00130129 </v>
   <v>      -0.00502744      -0.00413565      -0.01334867 </v>
   <v>      -0.01368649      -0.01236343      -0.00341800 </v>
   <v>      -0.00783554       0.01130962       0.00924082 </v>
   <v>       0.13794894       0.11240932      -0.00450835 </v>
   <v>       0.08363906       0.02586315      -0.01447654 </v>
   <v>      -0.13903139      -0.12625958      -0.03347903 </v>
  </varray>
  <varray name="stress" >
   <v>       3.05331537       1.25662022       0.77822563 </v>
   <v>       1.25662028      -5.03719866       0.37630309 </v>
   <v>       0.77822555       0.37630316      -1.32763824 </v>
  </varray>
  <energy>
   <i name="e_fr_energy">    -72.64699268 </i>
   <i name="e_wo_entrp">    -72.64699268 </i>
   <i name="e_0_energy">     -0.00000000 </i>
  </energy>
  <time name="totalsc">  155.39  158.62</time>
 </calculation>
 <calculation>
  <scstep>
   <time name="dav">   30.08   30.19</time>
   <time name="total">   34.79   34.91</time>
   <energy>
    <i name="alphaZ">     14.13034224 </i>
    <i name="ewald">   1502.70390768 </i>
    <i name="hartreedc">  -2682.01738520 </i>
    <i name="XCdc">   -140.23658983 </i>
    <i name="pawpsdc">   1751.27589021 </i>
    <i name="pawaedc">  -1493.77296676 </i>
    <i name="eentropy">     -0.00000000 </i>
    <i name="bandstr">   -343.37271350 </i>
    <i name="atom">   1318.64189276 </i>
    <i name="e_fr_energy">    -72.64762240 </i>
    <i name="e_wo_entrp">    -72.64762240 </i>
    <i name="e_0_energy">    -72.64762240 </i>
   </energy>
  </scstep>
  <scstep>
   <time name="dav">   41.09   41.17</time>
   <time name="total">   45.43   45.52</time>
   <energy>
    <i name="e_fr_energy">    -72.64763728 </i>
    <i name="e_wo_entrp">    -72.64763728 </i>
    <i name="e_0_energy">    -72.64763728 </i>
   </energy>
  </scstep>
  <scstep>
   <time name="dav">   34.28   34.34</time>
   <time name="total">   36.59   36.66</time>
   <energy>
    <i name="alphaZ">     14.13034224 </i>
    <i name="ewald">   1502.70390768 </i>
    <i name="hartreedc">  -2682.02443135 </i>
    <i name="XCdc">   -140.23627814 </i>
    <i name="pawpsdc">   1751.30626169 </i>
    <i name="pawaedc">  -1493.80345489 </i>
    <i name="eentropy">     -0.00000000 </i>
    <i name="bandstr">   -343.36587686 </i>
    <i name="atom">   1318.64189276 </i>
    <i name="e_fr_energy">    -72.64763688 </i>
    <i name="e_wo_entrp">    -72.64763688 </i>
    <i name="e_0_energy">    -72.64763688 </i>
   </energy>
  </scstep>
  <structure>
   <crystal>
    <varray name="basis" >
     <v>       6.01920000       0.00000000       0.00000000 </v>
     <v>       0.00000000      10.14000000       0.00000000 </v>
     <v>       0.00000000       0.00000000      15.00000000 </v>
    </varray>
    <i name="volume">    915.52032000 </i>
    <varray name="rec_basis" >
     <v>       0.16613503       0.00000000       0.00000000 </v>
     <v>       0.00000000       0.09861933       0.00000000 </v>
     <v>       0.00000000       0.00000000       0.06666667 </v>
    </varray>
   </crystal>
   <varray name="positions" >
    <v>       0.43794274       0.87675705       0.25599447 </v>
    <v>       0.93785618       0.87891455       0.23335157 </v>
    <v>       0.45371551       0.62660842       0.30099169 </v>
    <v>       0.93762908       0.62319407       0.25228432 </v>
    <v>       0.43985280       0.38173897       0.24437984 </v>
    <v>       0.92277973       0.37395907       0.26946174 </v>
    <v>       0.43661486       0.12064996       0.22939630 </v>
    <v>       0.93534812       0.11969542       0.25290202 </v>
    <v>       0.18747711       0.00054147       0.24355060 </v>
    <v>       0.68649241       0.00005504       0.23686349 </v>
    <v>       0.18463348       0.49561745       0.28563885 </v>
    <v>       0.68755198       0.50177496       0.25272274 </v>
    <v>       0.47531184       0.62885960       0.45441507 </v>
    <v>       0.27911185       0.69209404       0.46777042 </v>
    <v>       0.19245328       0.49043345       0.36027695 </v>
   </varray>
  </structure>
  <varray name="forces" >
   <v>      -0.00617146      -0.00758138      -0.00506001 </v>
   <v>      -0.00202461       0.00010459       0.01108714 </v>
   <v>      -0.00509505      -0.00047369       0.05190390 </v>
   <v>      -0.01026176       0.00979376       0.03272068 </v>
   <v>       0.00484748      -0.00061816       0.02404977 </v>
   <v>      -0.02517964      -0.00733363      -0.03495305 </v>
   <v>      -0.00107077      -0.00220861       0.00037803 </v>
   <v>      -0.00776116      -0.00167797      -0.02247768 </v>
   <v>      -0.00348658       0.00304145      -0.00099688 </v>
   <v>      -0.00500686      -0.00431457      -0.01269945 </v>
   <v>      -0.01384318      -0.01229518      -0.00247257 </v>
   <v>      -0.00737313       0.01076587       0.00798438 </v>
   <v>       0.13644201       0.11080362      -0.00550103 </v>
   <v>       0.08283491       0.02667094      -0.01314122 </v>
   <v>      -0.13685020      -0.12467703      -0.03082200 </v>
  </varray>
  <varray name="stress" >
   <v>       3.06635043       1.24675461       0.77210343 </v>
   <v>       1.24675468      -5.03980698       0.37803912 </v>
   <v>       0.77210355       0.37803917      -1.31692390 </v>
  </varray>
  <energy>
   <i name="e_fr_energy">    -72.64763688 </i>
   <i name="e_wo_entrp">    -72.64763688 </i>
   <i name="e_0_energy">     -0.00000000 </i>
  </energy>
  <time name="totalsc">  211.32  214.24</time>
 </calculation>
0.01584841      -0.03430124 </v>
   <v>      -0.02605663      -0.00304233      -0.13351363 </v>
  </varray>
  <varray name="stress" >
   <v>       2.67265361       0.56745198      -0.21762962 </v>
   <v>       0.56745204      -5.75512929      -0.21479072 </v>
   <v>      -0.21762971      -0.21479074      -1.91009980 </v>
  </varray>
  <energy>
   <i name="e_fr_energy">    -71.57265265 </i>
   <i name="e_wo_entrp">    -71.57265265 </i>
   <i name="e_0_energy">     -0.00000000 </i>
  </energy>
  <time name="totalsc">  211.57  214.29</time>
 </calculation>
 <calculation>
  <scstep>
   <time name="dav">   29.90   29.99</time>
   <time name="total">   34.69   34.81</time>
   <energy>
    <i name="alphaZ">     14.13034224 </i>
    <i name="ewald">   1502.71891411 </i>
    <i name="hartreedc">  -2682.03313108 </i>
    <i name="XCdc">   -140.23600121 </i>
    <i name="pawpsdc">   1751.31807383 </i>
    <i name="pawaedc">  -1493.81523531 </i>
    <i name="eentropy">     -0.00000000 </i>
    <i name="bandstr">   -343.37303137 </i>
    <i name="atom">   1318.64189276 </i>
    <i name="e_fr_energy">    -72.64817604 </i>
    <i name="e_wo_entrp">    -72.64817604 </i>
    <i name="e_0_energy">    -72.64817604 </i>
   </energy>
  </scstep>
  <scstep>
   <time name="dav">   41.06   41.13</time>
   <time name="total">   45.44   45.51</time>
   <energy>
    <i name="e_fr_energy">    -72.64818622 </i>
    <i name="e_wo_entrp">    -72.64818622 </i>
    <i name="e_0_energy">    -72.64818622 </i>
   </energy>
  </scstep>
  <scstep>
   <time name="dav">   29.02   29.05</time>
   <time name="total">   31.14   31.17</time>
   <energy>
    <i name="alphaZ">     14.13034224 </i>
    <i name="ewald">   1502.71891411 </i>
    <i name="hartreedc">  -2682.03948140 </i>
    <i name="XCdc">   -140.27120732 </i>
    <i name="pawpsdc">   1740.77844479 </i>
    <i name="pawaedc">  -1483.23650256 </i>
    <i name="eentropy">     -0.00000000 </i>
    <i name="bandstr">   -342.42948888 </i>
    <i name="atom">   1318.64189276 </i>
    <i name="e_fr_energy">    -72.94960237 </i>
    <i name="e_wo_entrp">    -72.94960237 </i>
    <i name="e_0_energy">    -72.94960237 </i>
   </energy>
  </scstep>
  <structure>
   <crystal>
    <varray name="basis" >
     <v>       6.01920000       0.00000000       0.00000000 </v>
     <v>       0.00000000      10.14000000       0.00000000 </v>
     <v>       0.00000000       0.00000000      15.00000000 </v>
    </varray>
    <i name="volume">    915.52032000 </i>
    <varray name="rec_basis" >
     <v>       0.16613503       0.00000000       0.00000000 </v>
     <v>       0.00000000       0.09861933       0.00000000 </v>
     <v>       0.00000000       0.00000000       0.06666667 </v>
    </varray>
   </crystal>
   <varray name="positions" >
    <v>       0.41073877       0.87168480       0.24483121 </v>
    <v>       0.91160531       0.87394653       0.24925554 </v>
    <v>       0.42341512       0.62275919       0.29135760 </v>
    <v>       0.89330952       0.62251301       0.28315710 </v>
    <v>       0.41482659       0.37427452       0.25253663 </v>
    <v>       0.90136430       0.37258337       0.25371205 </v>
    <v>       0.41227932       0.11658998       0.23795355 </v>
    <v>       0.91090768       0.11679221       0.23580028 </v>
    <v>       0.16155055       0.99640817       0.24219284 </v>
    <v>       0.66136404       0.99540533       0.23589681 </v>
    <v>       0.15635979       0.49140820       0.29813437 </v>
    <v>       0.65916241       0.49586940       0.24623989 </v>
    <v>       0.59580777       0.63739729       0.43073254 </v>
    <v>       0.51502398       0.75440143       0.46130674 </v>
    <v>       0.15745627       0.46587856       0.37050215 </v>
   </varray>
  </structure>
  <varray name="forces" >
   <v>      -0.01607437       0.00190830      -0.00808589 </v>
   <v>      -0.01514731      -0.00166999       0.01711528 </v>
   <v>      -0.02935009      -0.00168204      -0.02378401 </v>
   <v>      -0.04767083       0.00565482       0.07722793 </v>
   <v>      -0.02147551      -0.00351714       0.00967063 </v>
   <v>      -0.01692671       0.00816011      -0.01690734 </v>
   <v>      -0.01553576       0.00018873       0.00963419 </v>
   <v>      -0.01458629       0.00116283      -0.01178165 </v>
   <v>      -0.01689320      -0.00021874      -0.00278239 </v>
   <v>      -0.01557560      -0.00001704       0.00399231 </v>
   <v>      -0.02481914       0.00375336       0.02377078 </v>
   <v>      -0.02562838      -0.00359957      -0.01091478 </v>
   <v>       0.07883646      -0.02259249      -0.05088119 </v>
   <v>       0.18779839       0.02976512      -0.03310685 </v>
   <v>      -0.00695165      -0.01729628       0.01683299 </v>
  </varray>
  <varray name="stress" >
   <v>      -1.86952623       0.61730987       1.31075912 </v>
   <v>       0.61730994      -5.54466757      -0.00113486 </v>
   <v>       1.31075909      -0.00113491      -1.43885178 </v>
  </varray>
  <energy>
   <i name="e_fr_energy">    -72.94960237 </i>
   <i name="e_wo_entrp">    -72.94960237 </i>
   <i name="e_0_energy">     -0.00000000 </i>
  </energy>
  <time name="totalsc">  185.31  188.73</time>
 </calculation>
                                                                                                                                                                                                                                                                                         <calculation>
  <scstep>
   <time name="dav">   30.67   30.68</time>
   <time name="total">   35.51   35.52</time>
   <energy>
    <i name="alphaZ">     14.13034224 </i>
    <i name="ewald">   1569.43190778 </i>
    <i name="hartreedc">  -2749.99160665 </i>
    <i name="XCdc">   -140.27112130 </i>
    <i name="pawpsdc">   1740.77379095 </i>
    <i name="pawaedc">  -1483.23183767 </i>
    <i name="eentropy">     -0.00000000 </i>
    <i name="bandstr">   -342.43293178 </i>
    <i name="atom">   1318.64189276 </i>
    <i name="e_fr_energy">    -72.94956369 </i>
    <i name="e_wo_entrp">    -72.94956369 </i>
    <i name="e_0_energy">    -72.94956369 </i>
   </energy>
  </scstep>
  <scstep>
   <time name="dav">   38.51   38.52</time>
   <time name="total">   42.89   42.90</time>
   <energy>
    <i name="e_fr_energy">    -72.94956467 </i>
    <i name="e_wo_entrp">    -72.94956467 </i>
    <i name="e_0_energy">    -72.94956467 </i>
   </energy>
  </scstep>
  <scstep>
   <time name="dav">   18.83   18.83</time>
   <time name="total">   21.08   21.09</time>
   <energy>
    <i name="alphaZ">     14.13034224 </i>
    <i name="ewald">   1569.43190778 </i>
    <i name="hartreedc">  -2749.99320260 </i>
    <i name="XCdc">   -140.27102365 </i>
    <i name="pawpsdc">   1740.78426092 </i>
    <i name="pawaedc">  -1483.24232887 </i>
    <i name="eentropy">     -0.00000000 </i>
    <i name="bandstr">   -342.43141316 </i>
    <i name="atom">   1318.64189276 </i>
    <i name="e_fr_energy">    -72.94956459 </i>
    <i name="e_wo_entrp">    -72.94956459 </i>
    <i name="e_0_energy">    -72.94956459 </i>
   </energy>
  </scstep>
  <structure>
   <crystal>
    <varray name="basis" >
     <v>       6.01920000       0.00000000       0.00000000 </v>
     <v>       0.00000000      10.14000000       0.00000000 </v>
     <v>       0.00000000       0.00000000      15.00000000 </v>
    </varray>
    <i name="volume">    915.52032000 </i>
    <varray name="rec_basis" >
     <v>       0.16613503       0.00000000       0.00000000 </v>
     <v>       0.00000000       0.09861933       0.00000000 </v>
     <v>       0.00000000       0.00000000       0.06666667 </v>
    </varray>
   </crystal>
   <varray name="positions" >
    <v>       0.41075389       0.87168877       0.24484025 </v>
    <v>       0.91162150       0.87395071       0.24926340 </v>
    <v>       0.42343018       0.62276303       0.29136597 </v>
    <v>       0.89332777       0.62251730       0.28316231 </v>
    <v>       0.41484348       0.37427980       0.25254455 </v>
    <v>       0.90137812       0.37258669       0.25372148 </v>
    <v>       0.41229564       0.11659409       0.23796167 </v>
    <v>       0.91092308       0.11679617       0.23581012 </v>
    <v>       0.16156155       0.99641216       0.24220171 </v>
    <v>       0.66137633       0.99540885       0.23590601 </v>
    <v>       0.15637577       0.49141067       0.29814474 </v>
    <v>       0.65917477       0.49587247       0.24624937 </v>
    <v>       0.59581628       0.63740349       0.43074370 </v>
    <v>       0.51501616       0.75440273       0.46131565 </v>
    <v>       0.15747011       0.46588509       0.37050698 </v>
   </varray>
  </structure>
  <varray name="forces" >
   <v>      -0.01620893       0.00192068      -0.00808336 </v>
   <v>      -0.01536050      -0.00167687       0.01707714 </v>
   <v>      -0.02929818      -0.00160094      -0.02348823 </v>
   <v>      -0.04767767       0.00554279       0.07725121 </v>
   <v>      -0.02179471      -0.00387871       0.00970705 </v>
   <v>      -0.01684948       0.00819019      -0.01687369 </v>
   <v>      -0.01574957       0.00024814       0.00963049 </v>
   <v>      -0.01477653       0.00119160      -0.01179060 </v>
   <v>      -0.01622902      -0.00029642      -0.00268693 </v>
   <v>      -0.01536962      -0.00000912       0.00389971 </v>
   <v>      -0.02510185       0.00427273       0.02142646 </v>
   <v>      -0.02510768      -0.00344923      -0.01088594 </v>
   <v>       0.07872495      -0.02271538      -0.05124189 </v>
   <v>       0.18773164       0.03006960      -0.03298497 </v>
   <v>      -0.00693286      -0.01780905       0.01904354 </v>
  </varray>
  <varray name="stress" >
   <v>      -1.86759389       0.61725736       1.31043247 </v>
   <v>       0.61725730      -5.54220282      -0.00183609 </v>
   <v>       1.31043244      -0.00183600      -1.43398354 </v>
  </varray>
  <energy>
   <i name="e_fr_energy">    -72.94956459 </i>
   <i name="e_wo_entrp">    -72.94956459 </i>
   <i name="e_0_energy">     -0.00000000 </i>
  </energy>
  <time name="totalsc">  181.98  185.02</time>
  <eigenvalues>
   <array>
    <dimension dim="1">band</dimension>
    <dimension dim="2">kpoint</dimension>
    <dimension dim="3">spin</dimension>
    <field>eigene</field>
    <field>occ</field>
    <set>
     <set comment="spin 1">
      <set comment="kpoint 1">
       <r>  -15.6069    1.0000 </r>
       <r>  -14.5321    1.0000 </r>
       <r>  -13.6893    1.0000 </r>
       <r>  -12.6344    1.0000 </r>
       <r>  -11.5635    1.0000 </r>
       <r>   -8.8851    1.0000 </r>
       <r>   -8.7937    1.0000 </r>
       <r>   -8.5035    1.0000 </r>
       <r>   -7.9556    1.0000 </r>
       <r>   -7.3595    1.0000 </r>
       <r>   -6.5780    1.0000 </r>
       <r>   -6.2274    1.0000 </r>
       <r>   -5.8134    1.0000 </r>
       <r>   -5.3564    1.0000 </r>
       <r>   -4.9987    1.0000 </r>
       <r>   -4.7325    1.0000 </r>
       <r>   -4.3997    1.0000 </r>
       <r>   -4.2419    1.0000 </r>
       <r>   -3.6190    1.0000 </r>
       <r>   -3.5333    1.0000 </r>
       <r>   -3.1113    1.0000 </r>
       <r>   -2.8203    1.0000 </r>
       <r>   -2.4797    1.0000 </r>
       <r>   -2.1870    1.0000 </r>
       <r>   -1.4386    0.0000 </r>
       <r>   -0.9458    0.0000 </r>
       <r>   -0.1027    0.0000 </r>
       <r>    0.0300    0.0000 </r>
       <r>    0.1639    0.0000 </r>
       <r>    0.4774    0.0000 </r>
       <r>    0.6431    0.0000 </r>
       <r>    1.0496    0.0000 </r>
      </set>
      <set comment="kpoint 2">
       <r>  -15.5933    1.0000 </r>
       <r>  -14.4766    1.0000 </r>
       <r>  -13.5651    1.0000 </r>
       <r>  -12.8259    1.0000 </r>
       <r>  -11.9438    1.0000 </r>
       <r>   -8.7667    1.0000 </r>
       <r>   -8.5062    1.0000 </r>
       <r>   -7.9783    1.0000 </r>
       <r>   -7.8636    1.0000 </r>
       <r>   -7.2368    1.0000 </r>
       <r>   -6.5958    1.0000 </r>
       <r>   -6.4823    1.0000 </r>
       <r>   -6.1066    1.0000 </r>
       <r>   -5.3068    1.0000 </r>
       <r>   -4.9981    1.0000 </r>
       <r>   -4.6170    1.0000 </r>
       <r>   -4.3785    1.0000 </r>
       <r>   -4.1913    1.0000 </r>
       <r>   -3.8755    1.0000 </r>
       <r>   -3.5404    1.0000 </r>
       <r>   -3.5170    1.0000 </r>
       <r>   -3.3035    1.0000 </r>
       <r>   -2.6502    1.0000 </r>
       <r>   -2.4676    1.0000 </r>
       <r>   -1.2214    0.0000 </r>
       <r>   -0.3060    0.0000 </r>
       <r>   -0.1222    0.0000 </r>
       <r>    0.2064    0.0000 </r>
       <r>    0.4038    0.0000 </r>
       <r>    0.6789    0.0000 </r>
       <r>    0.8530    0.0000 </r>
       <r>    0.9134    0.0000 </r>
      </set>
      <set comment="kpoint 3">
       <r>  -15.5716    1.0000 </r>
       <r>  -14.3591    1.0000 </r>
       <r>  -13.2199    1.0000 </r>
       <r>  -13.1183    1.0000 </r>
       <r>  -12.6161    1.0000 </r>
       <r>   -8.4804    1.0000 </r>
       <r>   -8.1617    1.0000 </r>
       <r>   -7.8437    1.0000 </r>
       <r>   -7.3830    1.0000 </r>
       <r>   -6.7486    1.0000 </r>
       <r>   -6.5540    1.0000 </r>
       <r>   -6.2517    1.0000 </r>
       <r>   -5.8886    1.0000 </r>
       <r>   -5.7779    1.0000 </r>
       <r>   -5.2715    1.0000 </r>
       <r>   -5.0427    1.0000 </r>
       <r>   -4.8865    1.0000 </r>
       <r>   -4.4084    1.0000 </r>
       <r>   -4.2395    1.0000 </r>
       <r>   -4.0272    1.0000 </r>
       <r>   -3.4919    1.0000 </r>
       <r>   -3.3768    1.0000 </r>
       <r>   -2.9187    1.0000 </r>
       <r>   -2.4979    1.0000 </r>
       <r>   -0.9076    0.0000 </r>
       <r>   -0.4036    0.0000 </r>
       <r>   -0.0075    0.0000 </r>
       <r>    0.7201    0.0000 </r>
       <r>    0.8725    0.0000 </r>
       <r>    1.1723    0.0000 </r>
       <r>    1.3109    0.0000 </r>
       <r>    1.3885    0.0000 </r>
      </set>
      <set comment="kpoint 4">
       <r>  -15.6067    1.0000 </r>
       <r>  -14.5307    1.0000 </r>
       <r>  -13.6930    1.0000 </r>
       <r>  -12.6361    1.0000 </r>
       <r>  -11.5643    1.0000 </r>
       <r>   -8.7587    1.0000 </r>
       <r>   -8.6778    1.0000 </r>
       <r>   -8.5588    1.0000 </r>
       <r>   -8.0392    1.0000 </r>
       <r>   -7.5758    1.0000 </r>
       <r>   -7.0664    1.0000 </r>
       <r>   -5.7539    1.0000 </r>
       <r>   -5.4917    1.0000 </r>
       <r>   -5.2128    1.0000 </r>
       <r>   -4.9883    1.0000 </r>
       <r>   -4.6695    1.0000 </r>
       <r>   -4.3810    1.0000 </r>
       <r>   -4.1408    1.0000 </r>
       <r>   -3.6949    1.0000 </r>
       <r>   -3.6157    1.0000 </r>
       <r>   -3.3574    1.0000 </r>
       <r>   -3.0928    1.0000 </r>
       <r>   -2.8206    1.0000 </r>
       <r>   -2.1801    1.0000 </r>
       <r>   -1.2255    0.0000 </r>
       <r>   -0.6720    0.0000 </r>
       <r>   -0.2054    0.0000 </r>
       <r>    0.0433    0.0000 </r>
       <r>    0.4582    0.0000 </r>
       <r>    0.6371    0.0000 </r>
       <r>    0.7955    0.0000 </r>
       <r>    0.8613    0.0000 </r>
      </set>
      <set comment="kpoint 5">
       <r>  -15.5931    1.0000 </r>
       <r>  -14.4754    1.0000 </r>
       <r>  -13.5678    1.0000 </r>
       <r>  -12.8276    1.0000 </r>
       <r>  -11.9456    1.0000 </r>
       <r>   -8.6252    1.0000 </r>
       <r>   -8.4497    1.0000 </r>
       <r>   -7.9945    1.0000 </r>
       <r>   -7.9409    1.0000 </r>
       <r>   -7.4116    1.0000 </r>
       <r>   -7.0289    1.0000 </r>
       <r>   -6.3568    1.0000 </r>
       <r>   -5.7303    1.0000 </r>
       <r>   -5.3536    1.0000 </r>
       <r>   -4.8050    1.0000 </r>
       <r>   -4.5284    1.0000 </r>
       <r>   -4.3280    1.0000 </r>
       <r>   -4.1270    1.0000 </r>
       <r>   -3.7903    1.0000 </r>
       <r>   -3.5871    1.0000 </r>
       <r>   -3.4838    1.0000 </r>
       <r>   -3.3970    1.0000 </r>
       <r>   -2.9727    1.0000 </r>
       <r>   -2.6510    1.0000 </r>
       <r>   -1.0879    0.0000 </r>
       <r>   -0.4873    0.0000 </r>
       <r>   -0.1373    0.0000 </r>
       <r>    0.2075    0.0000 </r>
       <r>    0.4583    0.0000 </r>
       <r>    0.7693    0.0000 </r>
       <r>    0.8320    0.0000 </r>
       <r>    0.9951    0.0000 </r>
      </set>
      <set comment="kpoint 6">
       <r>  -15.5715    1.0000 </r>
       <r>  -14.3583    1.0000 </r>
       <r>  -13.2056    1.0000 </r>
       <r>  -13.1340    1.0000 </r>
       <r>  -12.6207    1.0000 </r>
       <r>   -8.3930    1.0000 </r>
       <r>   -8.1919    1.0000 </r>
       <r>   -7.6900    1.0000 </r>
       <r>   -7.2339    1.0000 </r>
       <r>   -7.0070    1.0000 </r>
       <r>   -6.7149    1.0000 </r>
       <r>   -6.5181    1.0000 </r>
       <r>   -6.3589    1.0000 </r>
       <r>   -5.4325    1.0000 </r>
       <r>   -5.0996    1.0000 </r>
       <r>   -4.9075    1.0000 </r>
       <r>   -4.6473    1.0000 </r>
       <r>   -4.1400    1.0000 </r>
       <r>   -4.0516    1.0000 </r>
       <r>   -3.9443    1.0000 </r>
       <r>   -3.5563    1.0000 </r>
       <r>   -3.3830    1.0000 </r>
       <r>   -3.1914    1.0000 </r>
       <r>   -2.8141    1.0000 </r>
       <r>   -0.9055    0.0000 </r>
       <r>   -0.3497    0.0000 </r>
       <r>    0.0093    0.0000 </r>
       <r>    0.5831    0.0000 </r>
       <r>    0.7507    0.0000 </r>
       <r>    0.8998    0.0000 </r>
       <r>    1.1545    0.0000 </r>
       <r>    1.2615    0.0000 </r>
      </set>
      <set comment="kpoint 7">
       <r>  -15.5715    1.0000 </r>
       <r>  -14.3582    1.0000 </r>
       <r>  -13.2087    1.0000 </r>
       <r>  -13.1306    1.0000 </r>
       <r>  -12.6210    1.0000 </r>
       <r>   -8.3986    1.0000 </r>
       <r>   -8.1980    1.0000 </r>
       <r>   -7.6457    1.0000 </r>
       <r>   -7.2223    1.0000 </r>
       <r>   -7.0695    1.0000 </r>
       <r>   -6.7262    1.0000 </r>
       <r>   -6.5396    1.0000 </r>
       <r>   -6.3152    1.0000 </r>
       <r>   -5.4111    1.0000 </r>
       <r>   -5.0923    1.0000 </r>
       <r>   -4.9020    1.0000 </r>
       <r>   -4.6243    1.0000 </r>
       <r>   -4.2319    1.0000 </r>
       <r>   -4.0810    1.0000 </r>
       <r>   -3.9031    1.0000 </r>
       <r>   -3.5516    1.0000 </r>
       <r>   -3.3823    1.0000 </r>
       <r>   -3.1456    1.0000 </r>
       <r>   -2.8320    1.0000 </r>
       <r>   -0.9618    0.0000 </r>
       <r>   -0.2662    0.0000 </r>
       <r>    0.0790    0.0000 </r>
       <r>    0.4745    0.0000 </r>
       <r>    0.7570    0.0000 </r>
       <r>    0.8939    0.0000 </r>
       <r>    1.0682    0.0000 </r>
       <r>    1.4061    0.0000 </r>
      </set>
      <set comment="kpoint 8">
       <r>  -15.5931    1.0000 </r>
       <r>  -14.4753    1.0000 </r>
       <r>  -13.5681    1.0000 </r>
       <r>  -12.8273    1.0000 </r>
       <r>  -11.9457    1.0000 </r>
       <r>   -8.6154    1.0000 </r>
       <r>   -8.4848    1.0000 </r>
       <r>   -7.9971    1.0000 </r>
       <r>   -7.8566    1.0000 </r>
       <r>   -7.4782    1.0000 </r>
       <r>   -7.0232    1.0000 </r>
       <r>   -6.3837    1.0000 </r>
       <r>   -5.7222    1.0000 </r>
       <r>   -5.2877    1.0000 </r>
       <r>   -4.7760    1.0000 </r>
       <r>   -4.5645    1.0000 </r>
       <r>   -4.3626    1.0000 </r>
       <r>   -4.1626    1.0000 </r>
       <r>   -3.8003    1.0000 </r>
       <r>   -3.5740    1.0000 </r>
       <r>   -3.4879    1.0000 </r>
       <r>   -3.3316    1.0000 </r>
       <r>   -3.0103    1.0000 </r>
       <r>   -2.6499    1.0000 </r>
       <r>   -1.1243    0.0000 </r>
       <r>   -0.3234    0.0000 </r>
       <r>   -0.1569    0.0000 </r>
       <r>    0.0992    0.0000 </r>
       <r>    0.4549    0.0000 </r>
       <r>    0.7063    0.0000 </r>
       <r>    0.9006    0.0000 </r>
       <r>    1.0313    0.0000 </r>
      </set>
     </set>
    </set>
   </array>
  </eigenvalues>
  <separator name="orbital magnetization" >
   <v name="MAGDIPOLOUT">      0.00000000      0.00000000      0.00000000</v>
  </separator>
 </calculation>
 <structure name="finalpos" >
  <crystal>
   <varray name="basis" >
    <v>       6.01920000       0.00000000       0.00000000 </v>
    <v>       0.00000000      10.14000000       0.00000000 </v>
    <v>       0.00000000       0.00000000      15.00000000 </v>
   </varray>
   <i name="volume">    915.52032000 </i>
   <varray name="rec_basis" >
    <v>       0.16613503       0.00000000       0.00000000 </v>
    <v>       0.00000000       0.09861933       0.00000000 </v>
    <v>       0.00000000       0.00000000       0.06666667 </v>
   </varray>
  </crystal>
  <varray name="positions" >
   <v>       0.41075389       0.87168877       0.24484025 </v>
   <v>       0.91162150       0.87395071       0.24926340 </v>
   <v>       0.42343018       0.62276303       0.29136597 </v>
   <v>       0.89332777       0.62251730       0.28316231 </v>
   <v>       0.41484348       0.37427980       0.25254455 </v>
   <v>       0.90137812       0.37258669       0.25372148 </v>
   <v>       0.41229564       0.11659409       0.23796167 </v>
   <v>       0.91092308       0.11679617       0.23581012 </v>
   <v>       0.16156155       0.99641216       0.24220171 </v>
   <v>       0.66137633       0.99540885       0.23590601 </v>
   <v>       0.15637577       0.49141067       0.29814474 </v>
   <v>       0.65917477       0.49587247       0.24624937 </v>
   <v>       0.59581628       0.63740349       0.43074370 </v>
   <v>       0.51501616       0.75440273       0.46131565 </v>
   <v>       0.15747011       0.46588509       0.37050698 </v>
  </varray>
  <varray name="selective"  type="logical" >
   <v type="logical" >  T  T  T </v>
   <v type="logical" >  T  T  T </v>
   <v type="logical" >  T  T  T </v>
   <v type="logical" >  T  T  T </v>
   <v type="logical" >  T  T  T </v>
   <v type="logical" >  T  T  T </v>
   <v type="logical" >  T  T  T </v>
   <v type="logical" >  T  T  T </v>
   <v type="logical" >  T  T  T </v>
   <v type="logical" >  T  T  T </v>
   <v type="logical" >  T  T  T </v>
   <v type="logical" >  T  T  T </v>
   <v type="logical" >  T  T  T </v>
   <v type="logical" >  T  T  T </v>
   <v type="logical" >  T  T  T </v>
  </varray>
  <nose>
   <v>      -3.00000000       0.00000000       0.00010000       0.00010000 </v>
  </nose>
 </structure>
</modeling>
 type="logical" >  T  T  T </v>
   <v type="logical" >  T  T  T </v>
   <v type="logical" >  T  T  T </v>
   <v type="logical" >  T  T  T </v>
  </varray>
  <nose>
   <v>      -3.00000000       0.00000000       0.00010000       0.00010000 </v>
  </nose>
 </structure>
</modeling>
