Al   C    S    H                        
   1.0000000000000000     
     6.0191999999999997    0.0000000000000000    0.0000000000000000
     0.0000000000000000   10.1400000000000006    0.0000000000000000
     0.0000000000000000    0.0000000000000000   15.0000000000000000
   Al   C    S    H 
     8     4     1     2
Selective dynamics
Direct
  0.4166491082842589  0.8713785274982232  0.2461187854360859   T   T   T
  0.9172407607672722  0.8743768572920756  0.2470038251055696   T   T   T
  0.4339244705551171  0.6231689360234062  0.2948287022433010   T   T   T
  0.9102316264524238  0.6214464718634054  0.2724771067464797   T   T   T
  0.4226802807771683  0.3751455498471641  0.2513231098303509   T   T   T
  0.9075007028777496  0.3709654034305239  0.2562386779933704   T   T   T
  0.4180759104733623  0.1166445624170434  0.2367479784330797   T   T   T
  0.9163282381530361  0.1166368332517950  0.2376223160115011   T   T   T
  0.1674327286303426  0.9965084375866686  0.2427339004539883   T   T   T
  0.6668909405821138  0.9954641427164710  0.2354998864321226   T   T   T
  0.1652671048983561  0.4906188776647803  0.2951126892569622   T   T   T
  0.6681520955268365  0.4965933235950459  0.2479318894445532   T   T   T
  0.5686049386327843  0.6421942816420156  0.4380775444165423   T   T   T
  0.4495820141555885  0.7482620997646729  0.4660871681379645   T   T   T
  0.1601228111304602  0.4695985762119510  0.3681439829185923   T   T   T

  0.00000000E+00  0.00000000E+00  0.00000000E+00
  0.00000000E+00  0.00000000E+00  0.00000000E+00
  0.00000000E+00  0.00000000E+00  0.00000000E+00
  0.00000000E+00  0.00000000E+00  0.00000000E+00
  0.00000000E+00  0.00000000E+00  0.00000000E+00
  0.00000000E+00  0.00000000E+00  0.00000000E+00
  0.00000000E+00  0.00000000E+00  0.00000000E+00
  0.00000000E+00  0.00000000E+00  0.00000000E+00
  0.00000000E+00  0.00000000E+00  0.00000000E+00
  0.00000000E+00  0.00000000E+00  0.00000000E+00
  0.00000000E+00  0.00000000E+00  0.00000000E+00
  0.00000000E+00  0.00000000E+00  0.00000000E+00
  0.00000000E+00  0.00000000E+00  0.00000000E+00
  0.00000000E+00  0.00000000E+00  0.00000000E+00
  0.00000000E+00  0.00000000E+00  0.00000000E+00
