   15   15  999    1
  0.6103469E+02  0.6019200E-09  0.1014000E-08  0.1500000E-08  0.3500000E-15
   1.0000000000000000E-004
  CAR 
 Al2C                                    
     48      8     32

  0.3742002E-15  0.3742002E-15  0.1262379E-14  0.6666667E-01
    1      -15.347027   1.000000
    2      -14.623551   1.000000
    3      -13.760524   1.000000
    4      -12.711969   1.000000
    5      -11.634706   1.000000
    6       -8.894120   1.000000
    7       -8.891718   1.000000
    8       -8.587705   1.000000
    9       -7.749498   1.000000
   10       -7.417683   1.000000
   11       -6.657286   1.000000
   12       -6.235777   1.000000
   13       -5.878918   1.000000
   14       -5.264168   1.000000
   15       -5.055924   1.000000
   16       -4.751417   1.000000
   17       -4.344581   1.000000
   18       -4.128072   1.000000
   19       -3.763578   1.000000
   20       -3.517261   1.000000
   21       -3.170760   1.000000
   22       -2.898328   1.000000
   23       -2.535205   1.000000
   24       -2.249855   1.000000
   25       -1.533086   0.000000
   26       -1.058786   0.000000
   27       -0.256259   0.000000
   28       -0.010786   0.000000
   29        0.067044   0.000000
   30        0.459734   0.000000
   31        0.654605   0.000000
   32        0.985552   0.000000

  0.2000000E+00  0.3742002E-15  0.1262379E-14  0.1333333E+00
    1      -15.327820   1.000000
    2      -14.571942   1.000000
    3      -13.636458   1.000000
    4      -12.908847   1.000000
    5      -12.014943   1.000000
    6       -8.757370   1.000000
    7       -8.598773   1.000000
    8       -8.038246   1.000000
    9       -7.682282   1.000000
   10       -7.304536   1.000000
   11       -6.633380   1.000000
   12       -6.544275   1.000000
   13       -6.131999   1.000000
   14       -5.327284   1.000000
   15       -4.998027   1.000000
   16       -4.603193   1.000000
   17       -4.314829   1.000000
   18       -4.158953   1.000000
   19       -3.881261   1.000000
   20       -3.621699   1.000000
   21       -3.589655   1.000000
   22       -3.384818   1.000000
   23       -2.713309   1.000000
   24       -2.522205   1.000000
   25       -1.354691   0.000000
   26       -0.347170   0.000000
   27       -0.280152   0.000000
   28        0.123497   0.000000
   29        0.314407   0.000000
   30        0.682348   0.000000
   31        0.807825   0.000000
   32        0.897445   0.000000

  0.4000000E+00  0.3742002E-15  0.1262379E-14  0.1333333E+00
    1      -15.298112   1.000000
    2      -14.458454   1.000000
    3      -13.297682   1.000000
    4      -13.203263   1.000000
    5      -12.687046   1.000000
    6       -8.389782   1.000000
    7       -8.239636   1.000000
    8       -7.776642   1.000000
    9       -7.378337   1.000000
   10       -6.815500   1.000000
   11       -6.627364   1.000000
   12       -6.293231   1.000000
   13       -5.912866   1.000000
   14       -5.808236   1.000000
   15       -5.312797   1.000000
   16       -5.077864   1.000000
   17       -4.954847   1.000000
   18       -4.405831   1.000000
   19       -4.203722   1.000000
   20       -3.925885   1.000000
   21       -3.593713   1.000000
   22       -3.464008   1.000000
   23       -2.997917   1.000000
   24       -2.543889   1.000000
   25       -1.015881   0.000000
   26       -0.562912   0.000000
   27       -0.098892   0.000000
   28        0.664902   0.000000
   29        0.857870   0.000000
   30        1.207125   0.000000
   31        1.274248   0.000000
   32        1.332572   0.000000

  0.3742002E-15  0.3333333E+00  0.1262379E-14  0.1333333E+00
    1      -15.346618   1.000000
    2      -14.622443   1.000000
    3      -13.764204   1.000000
    4      -12.713758   1.000000
    5      -11.635603   1.000000
    6       -8.854523   1.000000
    7       -8.665257   1.000000
    8       -8.626727   1.000000
    9       -7.980634   1.000000
   10       -7.546113   1.000000
   11       -7.121763   1.000000
   12       -5.756800   1.000000
   13       -5.470226   1.000000
   14       -5.253201   1.000000
   15       -4.907879   1.000000
   16       -4.726253   1.000000
   17       -4.303661   1.000000
   18       -4.120987   1.000000
   19       -3.795891   1.000000
   20       -3.691409   1.000000
   21       -3.418470   1.000000
   22       -3.101102   1.000000
   23       -2.898684   1.000000
   24       -2.244342   1.000000
   25       -1.318897   0.000000
   26       -0.719271   0.000000
   27       -0.404721   0.000000
   28       -0.021342   0.000000
   29        0.430628   0.000000
   30        0.512459   0.000000
   31        0.734644   0.000000
   32        0.810763   0.000000

  0.2000000E+00  0.3333333E+00  0.1262379E-14  0.1333333E+00
    1      -15.327490   1.000000
    2      -14.570920   1.000000
    3      -13.639017   1.000000
    4      -12.910761   1.000000
    5      -12.016721   1.000000
    6       -8.628396   1.000000
    7       -8.480488   1.000000
    8       -8.064618   1.000000
    9       -7.897951   1.000000
   10       -7.374981   1.000000
   11       -7.103011   1.000000
   12       -6.378670   1.000000
   13       -5.770832   1.000000
   14       -5.320771   1.000000
   15       -4.759089   1.000000
   16       -4.581146   1.000000
   17       -4.291550   1.000000
   18       -4.028082   1.000000
   19       -3.829569   1.000000
   20       -3.682720   1.000000
   21       -3.575249   1.000000
   22       -3.514548   1.000000
   23       -3.002439   1.000000
   24       -2.710687   1.000000
   25       -1.159488   0.000000
   26       -0.600043   0.000000
   27       -0.281160   0.000000
   28        0.095498   0.000000
   29        0.373001   0.000000
   30        0.727776   0.000000
   31        0.814744   0.000000
   32        0.965161   0.000000

  0.4000000E+00  0.3333333E+00  0.1262379E-14  0.1333333E+00
    1      -15.297977   1.000000
    2      -14.457738   1.000000
    3      -13.278830   1.000000
    4      -13.223675   1.000000
    5      -12.691586   1.000000
    6       -8.308767   1.000000
    7       -8.180571   1.000000
    8       -7.693096   1.000000
    9       -7.273506   1.000000
   10       -7.025256   1.000000
   11       -6.782244   1.000000
   12       -6.584204   1.000000
   13       -6.423473   1.000000
   14       -5.441537   1.000000
   15       -5.178315   1.000000
   16       -4.894216   1.000000
   17       -4.523003   1.000000
   18       -4.182620   1.000000
   19       -4.075680   1.000000
   20       -3.906666   1.000000
   21       -3.672042   1.000000
   22       -3.449589   1.000000
   23       -3.300410   1.000000
   24       -2.861329   1.000000
   25       -0.961489   0.000000
   26       -0.545743   0.000000
   27       -0.095389   0.000000
   28        0.547884   0.000000
   29        0.673567   0.000000
   30        0.860838   0.000000
   31        1.141627   0.000000
   32        1.257224   0.000000

 -0.4000000E+00  0.3333333E+00  0.1262379E-14  0.1333333E+00
    1      -15.297992   1.000000
    2      -14.457642   1.000000
    3      -13.283997   1.000000
    4      -13.218160   1.000000
    5      -12.691992   1.000000
    6       -8.319847   1.000000
    7       -8.189807   1.000000
    8       -7.618397   1.000000
    9       -7.268654   1.000000
   10       -7.108649   1.000000
   11       -6.793171   1.000000
   12       -6.608498   1.000000
   13       -6.368601   1.000000
   14       -5.446425   1.000000
   15       -5.162207   1.000000
   16       -4.873591   1.000000
   17       -4.481088   1.000000
   18       -4.262507   1.000000
   19       -4.118669   1.000000
   20       -3.889396   1.000000
   21       -3.648361   1.000000
   22       -3.467831   1.000000
   23       -3.248095   1.000000
   24       -2.877818   1.000000
   25       -1.077389   0.000000
   26       -0.369846   0.000000
   27       -0.037151   0.000000
   28        0.441743   0.000000
   29        0.684932   0.000000
   30        0.824693   0.000000
   31        1.015277   0.000000
   32        1.442921   0.000000

 -0.2000000E+00  0.3333333E+00  0.1262379E-14  0.1333333E+00
    1      -15.327518   1.000000
    2      -14.570785   1.000000
    3      -13.639409   1.000000
    4      -12.910289   1.000000
    5      -12.016856   1.000000
    6       -8.620161   1.000000
    7       -8.516262   1.000000
    8       -8.062491   1.000000
    9       -7.788796   1.000000
   10       -7.485959   1.000000
   11       -7.077129   1.000000
   12       -6.405104   1.000000
   13       -5.764215   1.000000
   14       -5.280911   1.000000
   15       -4.718609   1.000000
   16       -4.614845   1.000000
   17       -4.266561   1.000000
   18       -4.121472   1.000000
   19       -3.859799   1.000000
   20       -3.649163   1.000000
   21       -3.571653   1.000000
   22       -3.432825   1.000000
   23       -3.047250   1.000000
   24       -2.711735   1.000000
   25       -1.250787   0.000000
   26       -0.386045   0.000000
   27       -0.295033   0.000000
   28       -0.006563   0.000000
   29        0.402758   0.000000
   30        0.643887   0.000000
   31        0.868975   0.000000
   32        1.005973   0.000000
