       N       E                     dE             d eps       ncg     rms          rms(c)
DAV:   1     0.304639686876E+03    0.30464E+03   -0.13424E+04   512   0.924E+02
DAV:   2    -0.632637555084E+01   -0.31097E+03   -0.29455E+03   744   0.216E+02
DAV:   3    -0.877767725480E+02   -0.81450E+02   -0.80168E+02   824   0.102E+02
DAV:   4    -0.909000775228E+02   -0.31233E+01   -0.31143E+01   680   0.247E+01
DAV:   5    -0.910436429502E+02   -0.14357E+00   -0.14352E+00   840   0.533E+00
DAV:   6    -0.910457848461E+02   -0.21419E-02   -0.21413E-02   744   0.777E-01
DAV:   7    -0.910459136761E+02   -0.12883E-03   -0.12882E-03   816   0.143E-01    0.186E+01
DAV:   8    -0.736992844184E+02    0.17347E+02   -0.71187E+01   600   0.418E+01    0.555E+00
DAV:   9    -0.734174179753E+02    0.28187E+00   -0.53811E+00   648   0.113E+01    0.376E+00
DAV:  10    -0.728985823968E+02    0.51884E+00   -0.13885E+00   720   0.672E+00    0.896E-01
DAV:  11    -0.728565318072E+02    0.42051E-01   -0.13630E-01   744   0.208E+00    0.450E-01
DAV:  12    -0.728495198067E+02    0.70120E-02   -0.98794E-02   744   0.147E+00    0.330E-01
DAV:  13    -0.728447489398E+02    0.47709E-02   -0.18816E-02   752   0.770E-01    0.171E-01
DAV:  14    -0.728394544785E+02    0.52945E-02   -0.19983E-02   640   0.551E-01    0.109E-01
DAV:  15    -0.728406944690E+02   -0.12400E-02   -0.24591E-03   760   0.269E-01    0.797E-02
DAV:  16    -0.728437348128E+02   -0.30403E-02   -0.32913E-03   672   0.284E-01    0.718E-02
DAV:  17    -0.728448014280E+02   -0.10666E-02   -0.11889E-03   696   0.203E-01    0.290E-02
DAV:  18    -0.728461910622E+02   -0.13896E-02   -0.87651E-04   696   0.131E-01    0.362E-02
DAV:  19    -0.728477998434E+02   -0.16088E-02   -0.35997E-04   728   0.101E-01    0.122E-02
DAV:  20    -0.728487991133E+02   -0.99927E-03   -0.15093E-04   592   0.531E-02    0.112E-02
DAV:  21    -0.728494910955E+02   -0.69198E-03   -0.11193E-04   600   0.372E-02    0.408E-03
DAV:  22    -0.728496698249E+02   -0.17873E-03   -0.40132E-05   712   0.235E-02    0.592E-03
DAV:  23    -0.728497175774E+02   -0.47752E-04   -0.82947E-06   648   0.141E-02    0.181E-03
DAV:  24    -0.728497330044E+02   -0.15427E-04   -0.39784E-06   584   0.859E-03    0.140E-03
DAV:  25    -0.728497390847E+02   -0.60803E-05   -0.59737E-07   408   0.351E-03    0.115E-03
DAV:  26    -0.728497416869E+02   -0.26023E-05   -0.66727E-07   416   0.430E-03    0.353E-04
DAV:  27    -0.728497423080E+02   -0.62104E-06   -0.29159E-07   416   0.288E-03
   1 F= -.72849742E+02 E0= -.72849742E+02  d E =-.728497E+02
       N       E                     dE             d eps       ncg     rms          rms(c)
DAV:   1    -0.728497169266E+02    0.24760E-04   -0.31900E-05   592   0.359E-02    0.115E-03
DAV:   2    -0.728497170920E+02   -0.16542E-06   -0.10398E-06   512   0.634E-03
   2 F= -.72849717E+02 E0= -.72849717E+02  d E =0.252160E-04
       N       E                     dE             d eps       ncg     rms          rms(c)
DAV:   1    -0.728496756735E+02    0.41253E-04   -0.77543E-05   568   0.574E-02    0.182E-03
DAV:   2    -0.728496758791E+02   -0.20565E-06   -0.19929E-06   536   0.857E-03
   3 F= -.72849676E+02 E0= -.72849676E+02  d E =0.412128E-04
       N       E                     dE             d eps       ncg     rms          rms(c)
DAV:   1    -0.728496025563E+02    0.73117E-04   -0.27497E-04   528   0.108E-01    0.331E-03
DAV:   2    -0.728496034745E+02   -0.91816E-06   -0.99411E-06   776   0.175E-02
   4 F= -.72849603E+02 E0= -.72849603E+02  d E =0.724047E-04
       N       E                     dE             d eps       ncg     rms          rms(c)
DAV:   1    -0.728495433003E+02    0.59256E-04   -0.32479E-04   528   0.119E-01    0.407E-03
DAV:   2    -0.728495440729E+02   -0.77252E-06   -0.10144E-05   728   0.187E-02    0.276E-03
DAV:   3    -0.728495439953E+02    0.77532E-07   -0.42505E-07   416   0.450E-03
   5 F= -.72849544E+02 E0= -.72849544E+02  d E =0.594792E-04
       N       E                     dE             d eps       ncg     rms          rms(c)
DAV:   1    -0.728494938315E+02    0.50241E-04   -0.22060E-04   528   0.976E-02    0.268E-03
DAV:   2    -0.728494945089E+02   -0.67745E-06   -0.78552E-06   712   0.158E-02
   6 F= -.72849495E+02 E0= -.72849495E+02  d E =0.494864E-04
