Al   C    S    H                        
   1.0000000000000000     
     6.0191999999999997    0.0000000000000000    0.0000000000000000
     0.0000000000000000   10.1400000000000006    0.0000000000000000
     0.0000000000000000    0.0000000000000000   15.0000000000000000
   Al   C    S    H 
     8     4     1     2
Selective dynamics
Direct
  0.4165949772411913  0.8713654900495406  0.2460860005412755   T   T   T
  0.9171861109489211  0.8743630194736284  0.2469962952467838   T   T   T
  0.4338669736288912  0.6231558747980392  0.2948009001062409   T   T   T
  0.9101538682765830  0.6214339609933258  0.2724869264150043   T   T   T
  0.4226268785710274  0.3751290253240842  0.2513078392482608   T   T   T
  0.9074541239953471  0.3709554496407219  0.2562030709204125   T   T   T
  0.4180228537071297  0.1166311567355962  0.2367342546956832   T   T   T
  0.9162781125913146  0.1166234410067849  0.2375849638177484   T   T   T
  0.1673797425187842  0.9964934206041872  0.2427138800531136   T   T   T
  0.6668375822026265  0.9954494102107413  0.2354736707169278   T   T   T
  0.1652096169256514  0.4906086551838047  0.2950992778097214   T   T   T
  0.6680958393246800  0.4965760405240394  0.2479069390929537   T   T   T
  0.5686350373417149  0.6421780391248869  0.4380394839924638   T   T   T
  0.4497771212983659  0.7483129258856076  0.4660549809602630   T   T   T
  0.1600702102677687  0.4695733270574262  0.3681297499116943   T   T   T

  0.00000000E+00  0.00000000E+00  0.00000000E+00
  0.00000000E+00  0.00000000E+00  0.00000000E+00
  0.00000000E+00  0.00000000E+00  0.00000000E+00
  0.00000000E+00  0.00000000E+00  0.00000000E+00
  0.00000000E+00  0.00000000E+00  0.00000000E+00
  0.00000000E+00  0.00000000E+00  0.00000000E+00
  0.00000000E+00  0.00000000E+00  0.00000000E+00
  0.00000000E+00  0.00000000E+00  0.00000000E+00
  0.00000000E+00  0.00000000E+00  0.00000000E+00
  0.00000000E+00  0.00000000E+00  0.00000000E+00
  0.00000000E+00  0.00000000E+00  0.00000000E+00
  0.00000000E+00  0.00000000E+00  0.00000000E+00
  0.00000000E+00  0.00000000E+00  0.00000000E+00
  0.00000000E+00  0.00000000E+00  0.00000000E+00
  0.00000000E+00  0.00000000E+00  0.00000000E+00
