Al2C                                    
           1
     6.019200    0.000000    0.000000
     0.000000   10.140000    0.000000
     0.000000    0.000000   15.000000
   Al   C    S    H 
   8   4   1   2
Direct configuration=     1
   0.41659498  0.87136549  0.24608600
   0.91718611  0.87436302  0.24699630
   0.43386697  0.62315587  0.29480090
   0.91015387  0.62143396  0.27248693
   0.42262688  0.37512903  0.25130784
   0.90745412  0.37095545  0.25620307
   0.41802285  0.11663116  0.23673425
   0.91627811  0.11662344  0.23758496
   0.16737974  0.99649342  0.24271388
   0.66683758  0.99544941  0.23547367
   0.16520962  0.49060866  0.29509928
   0.66809584  0.49657604  0.24790694
   0.56863504  0.64217804  0.43803948
   0.44977712  0.74831293  0.46605498
   0.16007021  0.46957333  0.36812975
Direct configuration=     2
   0.41660021  0.87136603  0.24608874
   0.91719100  0.87436398  0.24699662
   0.43387240  0.62315733  0.29480365
   0.91016103  0.62143540  0.27248586
   0.42263178  0.37513061  0.25130889
   0.90745873  0.37095623  0.25620604
   0.41802809  0.11663248  0.23673512
   0.91628247  0.11662453  0.23758807
   0.16738420  0.99649453  0.24271528
   0.66684370  0.99545035  0.23547551
   0.16521436  0.49060995  0.29509883
   0.66810006  0.49657731  0.24790904
   0.56862966  0.64217957  0.43804371
   0.44975646  0.74830806  0.46605771
   0.16007473  0.46957526  0.36813169
Direct configuration=     3
   0.41660933  0.87136820  0.24609363
   0.91720029  0.87436630  0.24699736
   0.43388295  0.62315952  0.29480896
   0.91017265  0.62143726  0.27248383
   0.42264103  0.37513340  0.25131081
   0.90746569  0.37095815  0.25621130
   0.41803732  0.11663432  0.23673682
   0.91629098  0.11662667  0.23759370
   0.16739005  0.99649623  0.24271795
   0.66684896  0.99545220  0.23547888
   0.16522072  0.49061150  0.29510157
   0.66810765  0.49657958  0.24791277
   0.56862545  0.64217826  0.43804666
   0.44971983  0.74830107  0.46606291
   0.16008280  0.46957970  0.36813207
Direct configuration=     4
   0.41662423  0.87137187  0.24610257
   0.91721519  0.87437002  0.24699886
   0.43389971  0.62316309  0.29481731
   0.91019402  0.62144054  0.27248054
   0.42265554  0.37513795  0.25131464
   0.90747865  0.37096111  0.25622100
   0.41805185  0.11663776  0.23674015
   0.91630456  0.11663046  0.23760395
   0.16740461  0.99649971  0.24272298
   0.66686245  0.99545566  0.23548522
   0.16523456  0.49061403  0.29510416
   0.66812239  0.49658435  0.24791974
   0.56861268  0.64218578  0.43805508
   0.44966393  0.74828237  0.46607070
   0.16009701  0.46958668  0.36813601
Direct configuration=     5
   0.41663557  0.87137483  0.24611099
   0.91722643  0.87437339  0.24700093
   0.43391027  0.62316632  0.29482213
   0.91021324  0.62144358  0.27247811
   0.42266595  0.37514136  0.25131877
   0.90748964  0.37096315  0.25623021
   0.41806189  0.11664158  0.23674390
   0.91631493  0.11663380  0.23761339
   0.16742316  0.99650436  0.24272834
   0.66688076  0.99545961  0.23549279
   0.16525308  0.49061688  0.29510680
   0.66814041  0.49659010  0.24792603
   0.56860906  0.64218936  0.43806729
   0.44961785  0.74827098  0.46607888
   0.16010966  0.46959263  0.36814125
Direct configuration=     6
   0.41664911  0.87137853  0.24611879
   0.91724076  0.87437686  0.24700383
   0.43392447  0.62316894  0.29482870
   0.91023163  0.62144647  0.27247711
   0.42268028  0.37514555  0.25132311
   0.90750070  0.37096540  0.25623868
   0.41807591  0.11664456  0.23674798
   0.91632824  0.11663683  0.23762232
   0.16743273  0.99650844  0.24273390
   0.66689094  0.99546414  0.23549989
   0.16526710  0.49061888  0.29511269
   0.66815210  0.49659332  0.24793189
   0.56860494  0.64219428  0.43807754
   0.44958201  0.74826210  0.46608717
   0.16012281  0.46959858  0.36814398
