Al   C    O    H                        
   1.0000000000000000     
     6.0191999999999997    0.0000000000000000    0.0000000000000000
     0.0000000000000000   10.1400000000000006    0.0000000000000000
     0.0000000000000000    0.0000000000000000   15.0000000000000000
   Al   C    O    H 
     8     4     1     2
Selective dynamics
Direct
  0.4456200099957525  0.8161448986776731  0.3101439558352769   T   T   T
  0.9602913964270453  0.8195985881239303  0.2552876604816339   T   T   T
  0.4550751411883984  0.5649535527716134  0.2637798332792311   T   T   T
  0.9547880985698449  0.5634693933188635  0.2368919202714005   T   T   T
  0.4559448306338530  0.3217487974282879  0.2322681366362384   T   T   T
  0.9574783442526531  0.3229243204004048  0.2580948452678599   T   T   T
  0.4562007159589770  0.0597193332923592  0.2477684101494868   T   T   T
  0.9745783305293402  0.0691058590907761  0.2741782594875793   T   T   T
  0.2098807835659950  0.9406157699990702  0.2619808152147097   T   T   T
  0.7134798880447537  0.9478365781814589  0.2854419698070380   T   T   T
  0.2064184724225434  0.4424749949661265  0.2422511067611498   T   T   T
  0.7052204874491039  0.4415498471345637  0.2470253180273460   T   T   T
  0.4758987196534041  0.8031128688222195  0.4267702759299864   T   T   T
  0.7128802390083527  0.9447130638942566  0.3600637464295053   T   T   T
  0.4319851843489285  0.8747617759706475  0.4658056689622053   T   T   T

  0.00000000E+00  0.00000000E+00  0.00000000E+00
  0.00000000E+00  0.00000000E+00  0.00000000E+00
  0.00000000E+00  0.00000000E+00  0.00000000E+00
  0.00000000E+00  0.00000000E+00  0.00000000E+00
  0.00000000E+00  0.00000000E+00  0.00000000E+00
  0.00000000E+00  0.00000000E+00  0.00000000E+00
  0.00000000E+00  0.00000000E+00  0.00000000E+00
  0.00000000E+00  0.00000000E+00  0.00000000E+00
  0.00000000E+00  0.00000000E+00  0.00000000E+00
  0.00000000E+00  0.00000000E+00  0.00000000E+00
  0.00000000E+00  0.00000000E+00  0.00000000E+00
  0.00000000E+00  0.00000000E+00  0.00000000E+00
  0.00000000E+00  0.00000000E+00  0.00000000E+00
  0.00000000E+00  0.00000000E+00  0.00000000E+00
  0.00000000E+00  0.00000000E+00  0.00000000E+00
