Al   C    O    H                        
   1.0000000000000000     
     6.0191999999999997    0.0000000000000000    0.0000000000000000
     0.0000000000000000   10.1400000000000006    0.0000000000000000
     0.0000000000000000    0.0000000000000000   15.0000000000000000
   Al   C    O    H 
     8     4     1     2
Selective dynamics
Direct
  0.4442603170485030  0.8154678975571290  0.3094165874324180   T   T   T
  0.9596420484999357  0.8195100471659692  0.2561324381213453   T   T   T
  0.4565699186524643  0.5644684847650941  0.2634514353607871   T   T   T
  0.9567357556026800  0.5630864560046307  0.2383154043076506   T   T   T
  0.4579104740907500  0.3210945401493082  0.2337384576465334   T   T   T
  0.9590158091278849  0.3222456943850820  0.2585225154582941   T   T   T
  0.4563763514138145  0.0593875685586034  0.2488236970423387   T   T   T
  0.9730086068522098  0.0684732246542119  0.2762596675787912   T   T   T
  0.2090798757622332  0.9407064175708966  0.2625188849476073   T   T   T
  0.7129357399320949  0.9470850881641788  0.2866348780435964   T   T   T
  0.2080719043680434  0.4418037367911338  0.2427400512813765   T   T   T
  0.7070048577861504  0.4412257534796434  0.2480060217350833   T   T   T
  0.4794256460151263  0.8077733726452413  0.4264408408985160   T   T   T
  0.7036855696513157  0.9382528880348334  0.3611204128222242   T   T   T
  0.4199357130651031  0.8775688008184122  0.4636417167337736   T   T   T

  0.00000000E+00  0.00000000E+00  0.00000000E+00
  0.00000000E+00  0.00000000E+00  0.00000000E+00
  0.00000000E+00  0.00000000E+00  0.00000000E+00
  0.00000000E+00  0.00000000E+00  0.00000000E+00
  0.00000000E+00  0.00000000E+00  0.00000000E+00
  0.00000000E+00  0.00000000E+00  0.00000000E+00
  0.00000000E+00  0.00000000E+00  0.00000000E+00
  0.00000000E+00  0.00000000E+00  0.00000000E+00
  0.00000000E+00  0.00000000E+00  0.00000000E+00
  0.00000000E+00  0.00000000E+00  0.00000000E+00
  0.00000000E+00  0.00000000E+00  0.00000000E+00
  0.00000000E+00  0.00000000E+00  0.00000000E+00
  0.00000000E+00  0.00000000E+00  0.00000000E+00
  0.00000000E+00  0.00000000E+00  0.00000000E+00
  0.00000000E+00  0.00000000E+00  0.00000000E+00
