#VESTA_FORMAT_VERSION 3.5.4


CRYSTAL

TITLE
Al2C                                    

GROUP
1 1 P 1
SYMOP
 0.000000  0.000000  0.000000  1  0  0   0  1  0   0  0  1   1
 -1.0 -1.0 -1.0  0 0 0  0 0 0  0 0 0
TRANM 0
 0.000000  0.000000  0.000000  1  0  0   0  1  0   0  0  1
LTRANSL
 -1
 0.000000  0.000000  0.000000  0.000000  0.000000  0.000000
LORIENT
 -1   0   0   0   0
 1.000000  0.000000  0.000000  1.000000  0.000000  0.000000
 0.000000  0.000000  1.000000  0.000000  0.000000  1.000000
LMATRIX
 1.000000  0.000000  0.000000  0.000000
 0.000000  1.000000  0.000000  0.000000
 0.000000  0.000000  1.000000  0.000000
 0.000000  0.000000  0.000000  1.000000
 0.000000  0.000000  0.000000
CELLP
  6.019200  10.140000  15.000000  90.000000  90.000000  90.000000
  0.000000   0.000000   0.000000   0.000000   0.000000   0.000000
STRUC
  1 Al        Al1  1.0000   0.432417   0.876656   0.235538    1a       1
                            0.000000   0.000000   0.000000  0.00
  2 Al        Al2  1.0000   0.932125   0.877163   0.262330    1a       1
                            0.000000   0.000000   0.000000  0.00
  3 Al        Al3  1.0000   0.432800   0.617435   0.238547    1a       1
                            0.000000   0.000000   0.000000  0.00
  4 Al        Al4  1.0000   0.933667   0.619807   0.270046    1a       1
                            0.000000   0.000000   0.000000  0.00
  5 Al        Al5  1.0000   0.430482   0.375530   0.277680    1a       1
                            0.000000   0.000000   0.000000  0.00
  6 Al        Al6  1.0000   0.932650   0.377478   0.241988    1a       1
                            0.000000   0.000000   0.000000  0.00
  7 Al        Al7  1.0000   0.431548   0.118848   0.262929    1a       1
                            0.000000   0.000000   0.000000  0.00
  8 Al        Al8  1.0000   0.931827   0.118829   0.237225    1a       1
                            0.000000   0.000000   0.000000  0.00
  9  C         C1  1.0000   0.182110   0.997581   0.247733    1a       1
                            0.000000   0.000000   0.000000  0.00
 10  C         C2  1.0000   0.681888   0.997780   0.249438    1a       1
                            0.000000   0.000000   0.000000  0.00
 11  C         C3  1.0000   0.182662   0.498025   0.255929    1a       1
                            0.000000   0.000000   0.000000  0.00
 12  C         C4  1.0000   0.682440   0.498547   0.260968    1a       1
                            0.000000   0.000000   0.000000  0.00
 13 Te        Te1  1.0000   0.558017   0.438777   0.465515    1a       1
                            0.000000   0.000000   0.000000  0.00
 14  H         H1  1.0000   0.809608   0.367647   0.462422    1a       1
                            0.000000   0.000000   0.000000  0.00
 15  H         H2  1.0000   0.506529   0.351790   0.561112    1a       1
                            0.000000   0.000000   0.000000  0.00
  0 0 0 0 0 0 0
THERI 1
  1        Al1  0.000000
  2        Al2  0.000000
  3        Al3  0.000000
  4        Al4  0.000000
  5        Al5  0.000000
  6        Al6  0.000000
  7        Al7  0.000000
  8        Al8  0.000000
  9         C1  0.000000
 10         C2  0.000000
 11         C3  0.000000
 12         C4  0.000000
 13        Te1  0.000000
 14         H1  0.000000
 15         H2  0.000000
  0 0 0
SHAPE
  0       0       0       0   0.000000  0   192   192   192   192
BOUND
       0        1         0        1         0        1
  0   0   0   0  0
SBOND
  1    Te     H    0.00000    1.87998  0  1  1  0  1  0.250  2.000 127 127 127
  2    Al    Al    2.55000    2.65000  0  1  1  0  1  0.250  2.000 127 127 127
  3    Al     C    1.90000    2.10000  0  1  1  0  1  0.250  2.000 127 127 127
  0 0 0 0
SITET
  1        Al1  1.4300 129 178 214 129 178 214 204  0
  2        Al2  1.4300 129 178 214 129 178 214 204  0
  3        Al3  1.4300 129 178 214 129 178 214 204  0
  4        Al4  1.4300 129 178 214 129 178 214 204  0
  5        Al5  1.4300 129 178 214 129 178 214 204  0
  6        Al6  1.4300 129 178 214 129 178 214 204  0
  7        Al7  1.4300 129 178 214 129 178 214 204  0
  8        Al8  1.4300 129 178 214 129 178 214 204  0
  9         C1  0.7700 128  73  41 128  73  41 204  0
 10         C2  0.7700 128  73  41 128  73  41 204  0
 11         C3  0.7700 128  73  41 128  73  41 204  0
 12         C4  0.7700 128  73  41 128  73  41 204  0
 13        Te1  1.3700 173 162  81 173 162  81 204  0
 14         H1  0.4600 255 204 204 255 204 204 204  0
 15         H2  0.4600 255 204 204 255 204 204 204  0
  0 0 0 0 0 0
VECTR
 0 0 0 0 0
VECTT
 0 0 0 0 0
SPLAN
  0   0   0   0
LBLAT
 -1
LBLSP
 -1
DLATM
 -1
DLBND
 -1
DLPLY
 -1
PLN2D
  0   0   0   0
ATOMT
  1         Al  1.4300 129 178 214 129 178 214 204
  2          C  0.7700 128  73  41 128  73  41 204
  3         Te  1.3700 173 162  81 173 162  81 204
  4          H  0.4600 255 204 204 255 204 204 204
  0 0 0 0 0 0
SCENE
 1.000000 -0.000000 -0.000000  0.000000
 0.000000  1.000000 -0.000000  0.000000
 0.000000  0.000000  1.000000  0.000000
 0.000000  0.000000  0.000000  1.000000
  0.000   0.000
  0.000
  1.551
HBOND 0 2

STYLE
DISPF 37753794
MODEL   0  1  0
SURFS   0  1  1
SECTS  32  1
FORMS   0  1
ATOMS   0  0  1
BONDS   1
POLYS   1
VECTS 1.000000
FORMP
  1  1.0   0   0   0
ATOMP
 24  24   0  50  2.0   0
BONDP
  1  16  0.250  2.000 127 127 127
POLYP
 204 1  1.000 180 180 180
ISURF
  0   0   0   0
TEX3P
  1  0.00000E+00  1.00000E+00
SECTP
  1  9.76021E-01  1.79680E+00  0.00000E+00  0.00000E+00  0.00000E+00  0.00000E+00
CONTR
 0.1 -1 1 1 10 -1 2 5
 2 1 2 1
   0   0   0
   0   0   0
   0   0   0
   0   0   0
HKLPP
 192 1  1.000 255   0 255
UCOLP
   0   0  1.000   0   0   0
COMPS 1
LABEL 1    12  1.000 0
PROJT 0  0.962
BKGRC
 255 255 255
DPTHQ 1 -0.5000  3.5000
LIGHT0 1
 1.000000  0.000000  0.000000  0.000000
 0.000000  1.000000  0.000000  0.000000
 0.000000  0.000000  1.000000  0.000000
 0.000000  0.000000  0.000000  1.000000
 0.000000  0.000000 20.000000  0.000000
 0.000000  0.000000 -1.000000
  26  26  26 255
 179 179 179 255
 255 255 255 255
LIGHT1
 1.000000  0.000000  0.000000  0.000000
 0.000000  1.000000  0.000000  0.000000
 0.000000  0.000000  1.000000  0.000000
 0.000000  0.000000  0.000000  1.000000
 0.000000  0.000000 20.000000  0.000000
 0.000000  0.000000 -1.000000
   0   0   0   0
   0   0   0   0
   0   0   0   0
LIGHT2
 1.000000  0.000000  0.000000  0.000000
 0.000000  1.000000  0.000000  0.000000
 0.000000  0.000000  1.000000  0.000000
 0.000000  0.000000  0.000000  1.000000
 0.000000  0.000000 20.000000  0.000000
 0.000000  0.000000 -1.000000
   0   0   0   0
   0   0   0   0
   0   0   0   0
LIGHT3
 1.000000  0.000000  0.000000  0.000000
 0.000000  1.000000  0.000000  0.000000
 0.000000  0.000000  1.000000  0.000000
 0.000000  0.000000  0.000000  1.000000
 0.000000  0.000000 20.000000  0.000000
 0.000000  0.000000 -1.000000
   0   0   0   0
   0   0   0   0
   0   0   0   0
SECCL 0

TEXCL 0

ATOMM
 204 204 204 255
  25.600
BONDM
 255 255 255 255
 128.000
POLYM
 255 255 255 255
 128.000
SURFM
   0   0   0 255
 128.000
FORMM
 255 255 255 255
 128.000
HKLPM
 255 255 255 255
 128.000
