Al   C    Te   H                        
   1.0000000000000000     
     6.0191999999999997    0.0000000000000000    0.0000000000000000
     0.0000000000000000   10.1400000000000006    0.0000000000000000
     0.0000000000000000    0.0000000000000000   15.0000000000000000
   Al   C    Te   H 
     8     4     1     2
Selective dynamics
Direct
  0.4081204698343006  0.8691827415471070  0.2424874978272187   T   T   T
  0.9067474760497192  0.8689590422607024  0.2366004614879057   T   T   T
  0.4127263911111034  0.6131590653750867  0.2528746230061714   T   T   T
  0.8983935736708968  0.6134650942881573  0.2510158302290317   T   T   T
  0.4160351228681071  0.3623776640506827  0.2809866998777358   T   T   T
  0.8910679448780539  0.3626627863719398  0.2792406758152837   T   T   T
  0.4067059806543763  0.1131947098976312  0.2418738098443431   T   T   T
  0.9070767062109659  0.1117845356820326  0.2491480823151613   T   T   T
  0.1571919979587754  0.9892253623752886  0.2438389214491819   T   T   T
  0.6571850902115272  0.9898299535518409  0.2374229160635317   T   T   T
  0.1531975419722531  0.4939047268001870  0.2926887089445641   T   T   T
  0.6556149974944491  0.4906293661217085  0.2432710130644579   T   T   T
  0.6093474975268688  0.3526376086102833  0.4454098436414298   T   T   T
  0.5206658788395437  0.2065018691422716  0.4857820868642420   T   T   T
  0.1573270803231113  0.5129415948377000  0.3658944194732052   T   T   T

  0.00000000E+00  0.00000000E+00  0.00000000E+00
  0.00000000E+00  0.00000000E+00  0.00000000E+00
  0.00000000E+00  0.00000000E+00  0.00000000E+00
  0.00000000E+00  0.00000000E+00  0.00000000E+00
  0.00000000E+00  0.00000000E+00  0.00000000E+00
  0.00000000E+00  0.00000000E+00  0.00000000E+00
  0.00000000E+00  0.00000000E+00  0.00000000E+00
  0.00000000E+00  0.00000000E+00  0.00000000E+00
  0.00000000E+00  0.00000000E+00  0.00000000E+00
  0.00000000E+00  0.00000000E+00  0.00000000E+00
  0.00000000E+00  0.00000000E+00  0.00000000E+00
  0.00000000E+00  0.00000000E+00  0.00000000E+00
  0.00000000E+00  0.00000000E+00  0.00000000E+00
  0.00000000E+00  0.00000000E+00  0.00000000E+00
  0.00000000E+00  0.00000000E+00  0.00000000E+00
