Al   C    Te   H                        
   1.0000000000000000     
     6.0191999999999997    0.0000000000000000    0.0000000000000000
     0.0000000000000000   10.1400000000000006    0.0000000000000000
     0.0000000000000000    0.0000000000000000   15.0000000000000000
   Al   C    Te   H 
     8     4     1     2
Selective dynamics
Direct
  0.4081398965270635  0.8691339841778748  0.2423697288245552   T   T   T
  0.9067514914909476  0.8689105019045941  0.2365135635747970   T   T   T
  0.4129388337227068  0.6130840629299843  0.2529044996170780   T   T   T
  0.8985741892252667  0.6134562354472453  0.2512121960116209   T   T   T
  0.4163262187787602  0.3623057677961353  0.2811058755002897   T   T   T
  0.8914252196765677  0.3626054808224688  0.2791068747462364   T   T   T
  0.4067207706975544  0.1131674016793048  0.2417319430066243   T   T   T
  0.9070996314338589  0.1117326529228072  0.2489759314678528   T   T   T
  0.1572124408794504  0.9891867516297226  0.2436032750233506   T   T   T
  0.6571954176001237  0.9897917527783002  0.2373078887311263   T   T   T
  0.1534391053280842  0.4938561350504688  0.2927470032739584   T   T   T
  0.6558810995139990  0.4905728238985367  0.2433405011038093   T   T   T
  0.6092286896812641  0.3527572137081647  0.4454997786197391   T   T   T
  0.5189650901163765  0.2071518742810430  0.4861884884310095   T   T   T
  0.1576853095397806  0.5127795647351885  0.3659640108749011   T   T   T

  0.00000000E+00  0.00000000E+00  0.00000000E+00
  0.00000000E+00  0.00000000E+00  0.00000000E+00
  0.00000000E+00  0.00000000E+00  0.00000000E+00
  0.00000000E+00  0.00000000E+00  0.00000000E+00
  0.00000000E+00  0.00000000E+00  0.00000000E+00
  0.00000000E+00  0.00000000E+00  0.00000000E+00
  0.00000000E+00  0.00000000E+00  0.00000000E+00
  0.00000000E+00  0.00000000E+00  0.00000000E+00
  0.00000000E+00  0.00000000E+00  0.00000000E+00
  0.00000000E+00  0.00000000E+00  0.00000000E+00
  0.00000000E+00  0.00000000E+00  0.00000000E+00
  0.00000000E+00  0.00000000E+00  0.00000000E+00
  0.00000000E+00  0.00000000E+00  0.00000000E+00
  0.00000000E+00  0.00000000E+00  0.00000000E+00
  0.00000000E+00  0.00000000E+00  0.00000000E+00
