Al   C    S    H                        
   1.0000000000000000     
     6.0191999999999997    0.0000000000000000    0.0000000000000000
     0.0000000000000000   10.1400000000000006    0.0000000000000000
     0.0000000000000000    0.0000000000000000   15.0000000000000000
   Al   C    S    H 
     8     4     1     2
Selective dynamics
Direct
  0.4033285825917520  0.8721938995630453  0.2447667620882995   T   T   T
  0.9045603073280682  0.8733311125573734  0.2500745345696471   T   T   T
  0.4144038964280207  0.6225505123513799  0.2889665593568064   T   T   T
  0.8797338632723268  0.6228104837354099  0.2906336203642451   T   T   T
  0.4066879811328010  0.3737251561474252  0.2531159609316498   T   T   T
  0.8944385352290535  0.3740567004404979  0.2519753696979465   T   T   T
  0.4048088801875917  0.1166687130234950  0.2383736173842421   T   T   T
  0.9037381233638457  0.1169265152128206  0.2349271300459446   T   T   T
  0.1540597649128269  0.9963813008990633  0.2414792268050059   T   T   T
  0.6541865940614455  0.9953973262233374  0.2364015966797959   T   T   T
  0.1482990070321379  0.4920589608054772  0.3005218885094613   T   T   T
  0.6501358068478722  0.4955763572758696  0.2446837622771253   T   T   T
  0.6212229168161932  0.6330473526192356  0.4256685999622339   T   T   T
  0.5861415090613389  0.7582786943369276  0.4551952110267438   T   T   T
  0.1525083068435100  0.4627604362375247  0.3722203038257030   T   T   T

  0.00000000E+00  0.00000000E+00  0.00000000E+00
  0.00000000E+00  0.00000000E+00  0.00000000E+00
  0.00000000E+00  0.00000000E+00  0.00000000E+00
  0.00000000E+00  0.00000000E+00  0.00000000E+00
  0.00000000E+00  0.00000000E+00  0.00000000E+00
  0.00000000E+00  0.00000000E+00  0.00000000E+00
  0.00000000E+00  0.00000000E+00  0.00000000E+00
  0.00000000E+00  0.00000000E+00  0.00000000E+00
  0.00000000E+00  0.00000000E+00  0.00000000E+00
  0.00000000E+00  0.00000000E+00  0.00000000E+00
  0.00000000E+00  0.00000000E+00  0.00000000E+00
  0.00000000E+00  0.00000000E+00  0.00000000E+00
  0.00000000E+00  0.00000000E+00  0.00000000E+00
  0.00000000E+00  0.00000000E+00  0.00000000E+00
  0.00000000E+00  0.00000000E+00  0.00000000E+00
