   15   15  999    1
  0.6103469E+02  0.6019200E-09  0.1014000E-08  0.1500000E-08  0.3500000E-15
   1.0000000000000000E-004
  CAR 
 Al2C                                    
     48      8     32

  0.3742002E-15  0.3742002E-15  0.1262379E-14  0.6666667E-01
    1      -15.900117   1.000000
    2      -14.443075   1.000000
    3      -13.624521   1.000000
    4      -12.561326   1.000000
    5      -11.498948   1.000000
    6       -8.902926   1.000000
    7       -8.714805   1.000000
    8       -8.424718   1.000000
    9       -8.134547   1.000000
   10       -7.301526   1.000000
   11       -6.524394   1.000000
   12       -6.251005   1.000000
   13       -5.739294   1.000000
   14       -5.590120   1.000000
   15       -4.969549   1.000000
   16       -4.721415   1.000000
   17       -4.498798   1.000000
   18       -4.209683   1.000000
   19       -3.538836   1.000000
   20       -3.486831   1.000000
   21       -3.042250   1.000000
   22       -2.747640   1.000000
   23       -2.418689   1.000000
   24       -2.130071   1.000000
   25       -1.362875   0.000000
   26       -0.865463   0.000000
   27        0.002090   0.000000
   28        0.065773   0.000000
   29        0.321501   0.000000
   30        0.497495   0.000000
   31        0.600264   0.000000
   32        1.098611   0.000000

  0.2000000E+00  0.3742002E-15  0.1262379E-14  0.1333333E+00
    1      -15.889585   1.000000
    2      -14.386369   1.000000
    3      -13.500323   1.000000
    4      -12.748217   1.000000
    5      -11.879232   1.000000
    6       -8.809194   1.000000
    7       -8.439543   1.000000
    8       -8.036913   1.000000
    9       -7.878180   1.000000
   10       -7.186001   1.000000
   11       -6.589271   1.000000
   12       -6.454244   1.000000
   13       -6.094801   1.000000
   14       -5.364945   1.000000
   15       -5.036594   1.000000
   16       -4.713031   1.000000
   17       -4.424972   1.000000
   18       -4.135092   1.000000
   19       -3.810029   1.000000
   20       -3.469499   1.000000
   21       -3.446262   1.000000
   22       -3.226606   1.000000
   23       -2.595860   1.000000
   24       -2.407050   1.000000
   25       -1.125831   0.000000
   26       -0.254319   0.000000
   27       -0.028564   0.000000
   28        0.273984   0.000000
   29        0.532618   0.000000
   30        0.705297   0.000000
   31        0.839842   0.000000
   32        0.956738   0.000000

  0.4000000E+00  0.3742002E-15  0.1262379E-14  0.1333333E+00
    1      -15.872572   1.000000
    2      -14.268112   1.000000
    3      -13.150262   1.000000
    4      -13.038007   1.000000
    5      -12.551513   1.000000
    6       -8.611774   1.000000
    7       -8.108056   1.000000
    8       -7.874645   1.000000
    9       -7.385730   1.000000
   10       -6.689457   1.000000
   11       -6.489480   1.000000
   12       -6.260971   1.000000
   13       -5.869532   1.000000
   14       -5.806341   1.000000
   15       -5.257346   1.000000
   16       -5.020360   1.000000
   17       -4.838585   1.000000
   18       -4.458967   1.000000
   19       -4.273244   1.000000
   20       -4.018163   1.000000
   21       -3.423936   1.000000
   22       -3.278867   1.000000
   23       -2.844318   1.000000
   24       -2.440643   1.000000
   25       -0.842859   0.000000
   26       -0.291159   0.000000
   27        0.089278   0.000000
   28        0.796046   0.000000
   29        0.888769   0.000000
   30        1.123481   0.000000
   31        1.390409   0.000000
   32        1.425796   0.000000

  0.3742002E-15  0.3333333E+00  0.1262379E-14  0.1333333E+00
    1      -15.900009   1.000000
    2      -14.441539   1.000000
    3      -13.628252   1.000000
    4      -12.562973   1.000000
    5      -11.499771   1.000000
    6       -8.764662   1.000000
    7       -8.661152   1.000000
    8       -8.489815   1.000000
    9       -8.100036   1.000000
   10       -7.572326   1.000000
   11       -7.017932   1.000000
   12       -5.810861   1.000000
   13       -5.574050   1.000000
   14       -5.282432   1.000000
   15       -5.050898   1.000000
   16       -4.622523   1.000000
   17       -4.408381   1.000000
   18       -4.094535   1.000000
   19       -3.602935   1.000000
   20       -3.557617   1.000000
   21       -3.264083   1.000000
   22       -3.074707   1.000000
   23       -2.747885   1.000000
   24       -2.122887   1.000000
   25       -1.150472   0.000000
   26       -0.632231   0.000000
   27       -0.074222   0.000000
   28        0.096933   0.000000
   29        0.469939   0.000000
   30        0.767859   0.000000
   31        0.897184   0.000000
   32        0.921276   0.000000

  0.2000000E+00  0.3333333E+00  0.1262379E-14  0.1333333E+00
    1      -15.889471   1.000000
    2      -14.385006   1.000000
    3      -13.503135   1.000000
    4      -12.749749   1.000000
    5      -11.880949   1.000000
    6       -8.705619   1.000000
    7       -8.410304   1.000000
    8       -7.970594   1.000000
    9       -7.913055   1.000000
   10       -7.424890   1.000000
   11       -6.979915   1.000000
   12       -6.379580   1.000000
   13       -5.700239   1.000000
   14       -5.430896   1.000000
   15       -4.959513   1.000000
   16       -4.492006   1.000000
   17       -4.379307   1.000000
   18       -4.096258   1.000000
   19       -3.723726   1.000000
   20       -3.508170   1.000000
   21       -3.402788   1.000000
   22       -3.285651   1.000000
   23       -2.931800   1.000000
   24       -2.597791   1.000000
   25       -1.030410   0.000000
   26       -0.384628   0.000000
   27       -0.040723   0.000000
   28        0.278514   0.000000
   29        0.541020   0.000000
   30        0.819890   0.000000
   31        0.855629   0.000000
   32        1.070018   0.000000

  0.4000000E+00  0.3333333E+00  0.1262379E-14  0.1333333E+00
    1      -15.872512   1.000000
    2      -14.267265   1.000000
    3      -13.140043   1.000000
    4      -13.049469   1.000000
    5      -12.556125   1.000000
    6       -8.565173   1.000000
    7       -8.147247   1.000000
    8       -7.668920   1.000000
    9       -7.226906   1.000000
   10       -6.993093   1.000000
   11       -6.665587   1.000000
   12       -6.470838   1.000000
   13       -6.295391   1.000000
   14       -5.483219   1.000000
   15       -5.053173   1.000000
   16       -4.975211   1.000000
   17       -4.759113   1.000000
   18       -4.128411   1.000000
   19       -4.038378   1.000000
   20       -3.868354   1.000000
   21       -3.467516   1.000000
   22       -3.314098   1.000000
   23       -3.093057   1.000000
   24       -2.754015   1.000000
   25       -0.864727   0.000000
   26       -0.218170   0.000000
   27        0.119408   0.000000
   28        0.624287   0.000000
   29        0.812578   0.000000
   30        0.939753   0.000000
   31        1.131744   0.000000
   32        1.349382   0.000000

 -0.4000000E+00  0.3333333E+00  0.1262379E-14  0.1333333E+00
    1      -15.872513   1.000000
    2      -14.267239   1.000000
    3      -13.141201   1.000000
    4      -13.048201   1.000000
    5      -12.556248   1.000000
    6       -8.568079   1.000000
    7       -8.144178   1.000000
    8       -7.660442   1.000000
    9       -7.212695   1.000000
   10       -7.027944   1.000000
   11       -6.669231   1.000000
   12       -6.480875   1.000000
   13       -6.276158   1.000000
   14       -5.451100   1.000000
   15       -5.071310   1.000000
   16       -4.975157   1.000000
   17       -4.750842   1.000000
   18       -4.161678   1.000000
   19       -4.035612   1.000000
   20       -3.872130   1.000000
   21       -3.474090   1.000000
   22       -3.301899   1.000000
   23       -3.068319   1.000000
   24       -2.765737   1.000000
   25       -0.876361   0.000000
   26       -0.195098   0.000000
   27        0.143819   0.000000
   28        0.558887   0.000000
   29        0.802944   0.000000
   30        0.958383   0.000000
   31        1.133669   0.000000
   32        1.386515   0.000000

 -0.2000000E+00  0.3333333E+00  0.1262379E-14  0.1333333E+00
    1      -15.889472   1.000000
    2      -14.384973   1.000000
    3      -13.503273   1.000000
    4      -12.749589   1.000000
    5      -11.880982   1.000000
    6       -8.706845   1.000000
    7       -8.416986   1.000000
    8       -7.964218   1.000000
    9       -7.892058   1.000000
   10       -7.445060   1.000000
   11       -6.983730   1.000000
   12       -6.397159   1.000000
   13       -5.695952   1.000000
   14       -5.367362   1.000000
   15       -4.983657   1.000000
   16       -4.507793   1.000000
   17       -4.383745   1.000000
   18       -4.104622   1.000000
   19       -3.733304   1.000000
   20       -3.506530   1.000000
   21       -3.412888   1.000000
   22       -3.255042   1.000000
   23       -2.947613   1.000000
   24       -2.596053   1.000000
   25       -1.029601   0.000000
   26       -0.300869   0.000000
   27       -0.057572   0.000000
   28        0.225697   0.000000
   29        0.498416   0.000000
   30        0.786711   0.000000
   31        0.900665   0.000000
   32        1.097507   0.000000
