       N       E                     dE             d eps       ncg     rms          rms(c)
DAV:   1     0.305030813935E+03    0.30503E+03   -0.13426E+04   512   0.924E+02
DAV:   2    -0.746818961003E+01   -0.31250E+03   -0.29685E+03   752   0.216E+02
DAV:   3    -0.880459748655E+02   -0.80578E+02   -0.79493E+02   824   0.102E+02
DAV:   4    -0.910161483794E+02   -0.29702E+01   -0.29606E+01   680   0.244E+01
DAV:   5    -0.911490894143E+02   -0.13294E+00   -0.13289E+00   856   0.529E+00
DAV:   6    -0.911510729824E+02   -0.19836E-02   -0.19831E-02   760   0.769E-01
DAV:   7    -0.911511583122E+02   -0.85330E-04   -0.85325E-04   808   0.128E-01    0.185E+01
DAV:   8    -0.739215050467E+02    0.17230E+02   -0.71333E+01   648   0.430E+01    0.555E+00
DAV:   9    -0.736783820666E+02    0.24312E+00   -0.57617E+00   648   0.114E+01    0.381E+00
DAV:  10    -0.731563958985E+02    0.52199E+00   -0.15280E+00   728   0.707E+00    0.108E+00
DAV:  11    -0.730914060855E+02    0.64990E-01   -0.18822E-01   768   0.232E+00    0.490E-01
DAV:  12    -0.730810495896E+02    0.10356E-01   -0.97464E-02   736   0.141E+00    0.297E-01
DAV:  13    -0.730737190802E+02    0.73305E-02   -0.19603E-02   744   0.779E-01    0.171E-01
DAV:  14    -0.730669635979E+02    0.67555E-02   -0.15222E-02   640   0.493E-01    0.111E-01
DAV:  15    -0.730687267176E+02   -0.17631E-02   -0.51384E-03   720   0.350E-01    0.831E-02
DAV:  16    -0.730708458099E+02   -0.21191E-02   -0.13781E-03   640   0.204E-01    0.413E-02
DAV:  17    -0.730716584050E+02   -0.81260E-03   -0.96028E-04   624   0.131E-01    0.343E-02
DAV:  18    -0.730742668596E+02   -0.26085E-02   -0.57009E-04   704   0.129E-01    0.247E-02
DAV:  19    -0.730751828091E+02   -0.91595E-03   -0.17705E-04   688   0.702E-02    0.136E-02
DAV:  20    -0.730763665227E+02   -0.11837E-02   -0.18887E-04   648   0.566E-02    0.995E-03
DAV:  21    -0.730768785609E+02   -0.51204E-03   -0.71446E-05   648   0.371E-02    0.634E-03
DAV:  22    -0.730771361152E+02   -0.25755E-03   -0.42448E-05   672   0.282E-02    0.539E-03
DAV:  23    -0.730772132288E+02   -0.77114E-04   -0.11894E-05   696   0.172E-02    0.148E-03
DAV:  24    -0.730772529592E+02   -0.39730E-04   -0.62838E-06   552   0.993E-03    0.178E-03
DAV:  25    -0.730772647553E+02   -0.11796E-04   -0.13082E-06   504   0.523E-03    0.796E-04
DAV:  26    -0.730772687987E+02   -0.40434E-05   -0.86771E-07   424   0.453E-03    0.660E-04
DAV:  27    -0.730772703813E+02   -0.15825E-05   -0.35994E-07   432   0.378E-03    0.439E-04
DAV:  28    -0.730772710538E+02   -0.67251E-06   -0.20648E-07   416   0.219E-03
   1 F= -.73077271E+02 E0= -.73077271E+02  d E =-.730773E+02
       N       E                     dE             d eps       ncg     rms          rms(c)
DAV:   1    -0.730772845638E+02   -0.14183E-04   -0.83174E-05   640   0.553E-02    0.163E-03
DAV:   2    -0.730772849602E+02   -0.39638E-06   -0.36777E-06   592   0.114E-02
   2 F= -.73077285E+02 E0= -.73077285E+02  d E =-.139064E-04
       N       E                     dE             d eps       ncg     rms          rms(c)
DAV:   1    -0.730773041452E+02   -0.19581E-04   -0.18209E-04   584   0.866E-02    0.270E-03
DAV:   2    -0.730773045648E+02   -0.41958E-06   -0.59742E-06   648   0.141E-02
   3 F= -.73077305E+02 E0= -.73077305E+02  d E =-.196046E-04
       N       E                     dE             d eps       ncg     rms          rms(c)
DAV:   1    -0.730773375738E+02   -0.33429E-04   -0.72396E-04   560   0.172E-01    0.502E-03
DAV:   2    -0.730773399521E+02   -0.23782E-05   -0.28885E-05   792   0.305E-02    0.381E-03
DAV:   3    -0.730773397099E+02    0.24219E-06   -0.62985E-07   440   0.583E-03
   4 F= -.73077340E+02 E0= -.73077340E+02  d E =-.351451E-04
       N       E                     dE             d eps       ncg     rms          rms(c)
DAV:   1    -0.730773660475E+02   -0.26095E-04   -0.97636E-04   528   0.204E-01    0.508E-03
DAV:   2    -0.730773682295E+02   -0.21820E-05   -0.29073E-05   760   0.313E-02    0.338E-03
DAV:   3    -0.730773680157E+02    0.21377E-06   -0.78560E-07   432   0.621E-03
   5 F= -.73077368E+02 E0= -.73077368E+02  d E =-.283058E-04
       N       E                     dE             d eps       ncg     rms          rms(c)
DAV:   1    -0.730773922151E+02   -0.23986E-04   -0.81631E-04   528   0.184E-01    0.480E-03
DAV:   2    -0.730773943802E+02   -0.21650E-05   -0.26856E-05   768   0.297E-02    0.330E-03
DAV:   3    -0.730773942081E+02    0.17208E-06   -0.60830E-07   392   0.549E-03
   6 F= -.73077394E+02 E0= -.73077394E+02  d E =-.261924E-04
