Al   C    S    H                        
   1.0000000000000000     
     6.0191999999999997    0.0000000000000000    0.0000000000000000
     0.0000000000000000   10.1400000000000006    0.0000000000000000
     0.0000000000000000    0.0000000000000000   15.0000000000000000
   Al   C    S    H 
     8     4     1     2
Selective dynamics
Direct
  0.4032717289951984  0.8721740823056496  0.2447167909714345   T   T   T
  0.9044966496116706  0.8733115338934129  0.2500304619874261   T   T   T
  0.4143361064459641  0.6225280294702233  0.2889148909835199   T   T   T
  0.8796608400826864  0.6227883823035724  0.2905856772206362   T   T   T
  0.4066206777779806  0.3737027629998137  0.2530648144881719   T   T   T
  0.8943779553585159  0.3740361024443277  0.2519231261340267   T   T   T
  0.4047459391590340  0.1166493783643376  0.2383271568609663   T   T   T
  0.9036803681929577  0.1169061215138425  0.2348773998981230   T   T   T
  0.1539997732516739  0.9963596119285921  0.2414302002987946   T   T   T
  0.6541249942199711  0.9953812774121031  0.2363504391521674   T   T   T
  0.1482303660277746  0.4920357358742511  0.3004688956465476   T   T   T
  0.6500703409964055  0.4955554858939825  0.2446289043600226   T   T   T
  0.6211218804557888  0.6330132052519057  0.4256207130590461   T   T   T
  0.5859617730913792  0.7582396538525719  0.4551586036837059   T   T   T
  0.1524501755079533  0.4627391081224373  0.3721707571575502   T   T   T

  0.00000000E+00  0.00000000E+00  0.00000000E+00
  0.00000000E+00  0.00000000E+00  0.00000000E+00
  0.00000000E+00  0.00000000E+00  0.00000000E+00
  0.00000000E+00  0.00000000E+00  0.00000000E+00
  0.00000000E+00  0.00000000E+00  0.00000000E+00
  0.00000000E+00  0.00000000E+00  0.00000000E+00
  0.00000000E+00  0.00000000E+00  0.00000000E+00
  0.00000000E+00  0.00000000E+00  0.00000000E+00
  0.00000000E+00  0.00000000E+00  0.00000000E+00
  0.00000000E+00  0.00000000E+00  0.00000000E+00
  0.00000000E+00  0.00000000E+00  0.00000000E+00
  0.00000000E+00  0.00000000E+00  0.00000000E+00
  0.00000000E+00  0.00000000E+00  0.00000000E+00
  0.00000000E+00  0.00000000E+00  0.00000000E+00
  0.00000000E+00  0.00000000E+00  0.00000000E+00
