Al2C                                    
           1
     6.019200    0.000000    0.000000
     0.000000   10.140000    0.000000
     0.000000    0.000000   15.000000
   Al   C    S    H 
   8   4   1   2
Direct configuration=     1
   0.40327173  0.87217408  0.24471679
   0.90449665  0.87331153  0.25003046
   0.41433611  0.62252803  0.28891489
   0.87966084  0.62278838  0.29058568
   0.40662068  0.37370276  0.25306481
   0.89437796  0.37403610  0.25192313
   0.40474594  0.11664938  0.23832716
   0.90368037  0.11690612  0.23487740
   0.15399977  0.99635961  0.24143020
   0.65412499  0.99538128  0.23635044
   0.14823037  0.49203574  0.30046890
   0.65007034  0.49555549  0.24462890
   0.62112188  0.63301321  0.42562071
   0.58596177  0.75823965  0.45515860
   0.15245018  0.46273911  0.37217076
Direct configuration=     2
   0.40327683  0.87217582  0.24472087
   0.90450223  0.87331334  0.25003407
   0.41434207  0.62252981  0.28891946
   0.87966661  0.62279050  0.29058994
   0.40662752  0.37370561  0.25306893
   0.89438144  0.37403843  0.25192720
   0.40475147  0.11665114  0.23833092
   0.90368584  0.11690787  0.23488139
   0.15400131  0.99636067  0.24143330
   0.65412738  0.99538241  0.23635398
   0.14823487  0.49203590  0.30047549
   0.65007333  0.49555493  0.24463243
   0.62113137  0.63302115  0.42562622
   0.58598051  0.75823841  0.45516053
   0.15245447  0.46274170  0.37217248
Direct configuration=     3
   0.40328500  0.87217898  0.24472794
   0.90451055  0.87331642  0.25004028
   0.41435290  0.62253310  0.28892782
   0.87967699  0.62279376  0.29059693
   0.40663636  0.37370857  0.25307623
   0.89439018  0.37404171  0.25193465
   0.40475981  0.11665474  0.23833748
   0.90369375  0.11691159  0.23488828
   0.15400906  0.99636354  0.24143887
   0.65413531  0.99538375  0.23636061
   0.14824253  0.49204014  0.30047845
   0.65008153  0.49555847  0.24463995
   0.62114242  0.63301452  0.42562824
   0.58600551  0.75825060  0.45516703
   0.15246265  0.46274357  0.37218251
Direct configuration=     4
   0.40329968  0.87218408  0.24474128
   0.90452663  0.87332147  0.25005206
   0.41437168  0.62253905  0.28894172
   0.87969534  0.62279950  0.29060999
   0.40665375  0.37371393  0.25308969
   0.89440521  0.37404743  0.25194820
   0.40477566  0.11665970  0.23834991
   0.90370818  0.11691684  0.23490130
   0.15402454  0.99636861  0.24144936
   0.65414876  0.99538742  0.23637232
   0.14825688  0.49204336  0.30049456
   0.65009914  0.49556317  0.24465287
   0.62115900  0.63303314  0.42564057
   0.58606016  0.75825170  0.45517457
   0.15247799  0.46275042  0.37219196
Direct configuration=     5
   0.40331218  0.87218813  0.24475377
   0.90454149  0.87332626  0.25006305
   0.41438538  0.62254463  0.28895319
   0.87971409  0.62280459  0.29062127
   0.40666858  0.37371845  0.25310272
   0.89442175  0.37405095  0.25196162
   0.40478996  0.11666362  0.23836156
   0.90372073  0.11692072  0.23491387
   0.15404395  0.99637629  0.24146435
   0.65417218  0.99539274  0.23638703
   0.14828030  0.49205150  0.30050883
   0.65011926  0.49557176  0.24466904
   0.62119254  0.63303771  0.42565491
   0.58610077  0.75826811  0.45518524
   0.15249246  0.46275536  0.37220500
Direct configuration=     6
   0.40332858  0.87219390  0.24476676
   0.90456031  0.87333111  0.25007453
   0.41440390  0.62255051  0.28896656
   0.87973386  0.62281048  0.29063362
   0.40668798  0.37372516  0.25311596
   0.89443854  0.37405670  0.25197537
   0.40480888  0.11666871  0.23837362
   0.90373812  0.11692652  0.23492713
   0.15405976  0.99638130  0.24147923
   0.65418659  0.99539733  0.23640160
   0.14829901  0.49205896  0.30052189
   0.65013581  0.49557636  0.24468376
   0.62122292  0.63304735  0.42566860
   0.58614151  0.75827869  0.45519521
   0.15250831  0.46276044  0.37222030
