Al2C                                    
   1.0000000000000000     
     6.0191999999999997    0.0000000000000000    0.0000000000000000
     0.0000000000000000   10.1400000000000006    0.0000000000000000
     0.0000000000000000    0.0000000000000000   15.0000000000000000
   Al   C    S    H 
     8     4     1     2
Selective dynamics
Direct
  0.4421889431971861  0.8814959540371508  0.2642044648976072   T   T   T
  0.9418787664399592  0.8820563457098463  0.2143026225808887   T   T   T
  0.4434570735381863  0.6207386927879318  0.2696335213943293   T   T   T
  0.9423457214338462  0.6189230392399080  0.2172587740985694   T   T   T
  0.4408964750316291  0.3827716094299632  0.2170885009057402   T   T   T
  0.9407386611817776  0.3815519607011921  0.2689223982797800   T   T   T
  0.4414778815438150  0.1200798001748664  0.2150650985132194   T   T   T
  0.9416519376567311  0.1191625584600632  0.2662143120720217   T   T   T
  0.1917482126073534  0.0007934755492008  0.2401653174349601   T   T   T
  0.6918258480833260  0.0010475555517048  0.2394895692002029   T   T   T
  0.1917764140692325  0.5007601381438398  0.2460994274529056   T   T   T
  0.6915717508617206  0.5005949126269759  0.2426434794165657   T   T   T
  0.3976822664061507  0.5965866831306773  0.4909354482389898   T   T   T
  0.2349218823839515  0.6860750412953972  0.5054184600502947   T   T   T
  0.2606090321254750  0.5182557242855292  0.4425586054639070   T   T   T

  0.00000000E+00  0.00000000E+00  0.00000000E+00
  0.00000000E+00  0.00000000E+00  0.00000000E+00
  0.00000000E+00  0.00000000E+00  0.00000000E+00
  0.00000000E+00  0.00000000E+00  0.00000000E+00
  0.00000000E+00  0.00000000E+00  0.00000000E+00
  0.00000000E+00  0.00000000E+00  0.00000000E+00
  0.00000000E+00  0.00000000E+00  0.00000000E+00
  0.00000000E+00  0.00000000E+00  0.00000000E+00
  0.00000000E+00  0.00000000E+00  0.00000000E+00
  0.00000000E+00  0.00000000E+00  0.00000000E+00
  0.00000000E+00  0.00000000E+00  0.00000000E+00
  0.00000000E+00  0.00000000E+00  0.00000000E+00
  0.00000000E+00  0.00000000E+00  0.00000000E+00
  0.00000000E+00  0.00000000E+00  0.00000000E+00
  0.00000000E+00  0.00000000E+00  0.00000000E+00
