  15  15   0   0
  0.6103469E+02  0.6019200E-09  0.1014000E-08  0.1500000E-08  0.3500000E-15
   1.0000000000000000E-004
  CAR 
 Al2C                                    
      1.89782313    -17.99791315  301     -1.74765605      1.00000000
    -17.998  0.0000E+00  0.0000E+00
    -17.932  0.0000E+00  0.0000E+00
    -17.865  0.0000E+00  0.0000E+00
    -17.799  0.0000E+00  0.0000E+00
    -17.733  0.0000E+00  0.0000E+00
    -17.666  0.0000E+00  0.0000E+00
    -17.600  0.0000E+00  0.0000E+00
    -17.534  0.0000E+00  0.0000E+00
    -17.467  0.0000E+00  0.0000E+00
    -17.401  0.0000E+00  0.0000E+00
    -17.335  0.2830E-12  0.1877E-13
    -17.268  0.2495E-07  0.1655E-08
    -17.202  0.7372E-04  0.4891E-05
    -17.136  0.8293E-02  0.5549E-03
    -17.069  0.4769E-01  0.3717E-02
    -17.003  0.1891E-01  0.4971E-02
    -16.937  0.4301E-03  0.5000E-02
    -16.870  0.3988E-06  0.5000E-02
    -16.804  0.1273E-10  0.5000E-02
    -16.738  0.1507E-16  0.5000E-02
    -16.672  0.0000E+00  0.5000E-02
    -16.605  0.0000E+00  0.5000E-02
    -16.539  0.0000E+00  0.5000E-02
    -16.473  0.0000E+00  0.5000E-02
    -16.406  0.0000E+00  0.5000E-02
    -16.340  0.0000E+00  0.5000E-02
    -16.274  0.0000E+00  0.5000E-02
    -16.207  0.0000E+00  0.5000E-02
    -16.141  0.0000E+00  0.5000E-02
    -16.075  0.0000E+00  0.5000E-02
    -16.008  0.0000E+00  0.5000E-02
    -15.942  0.0000E+00  0.5000E-02
    -15.876  0.0000E+00  0.5000E-02
    -15.809  0.0000E+00  0.5000E-02
    -15.743  0.0000E+00  0.5000E-02
    -15.677  0.0000E+00  0.5000E-02
    -15.610  0.0000E+00  0.5000E-02
    -15.544  0.0000E+00  0.5000E-02
    -15.478  0.0000E+00  0.5000E-02
    -15.411  0.0000E+00  0.5000E-02
    -15.345  0.0000E+00  0.5000E-02
    -15.279  0.0000E+00  0.5000E-02
    -15.213  0.0000E+00  0.5000E-02
    -15.146  0.0000E+00  0.5000E-02
    -15.080  0.0000E+00  0.5000E-02
    -15.014  0.0000E+00  0.5000E-02
    -14.947  0.0000E+00  0.5000E-02
    -14.881  0.0000E+00  0.5000E-02
    -14.815  0.0000E+00  0.5000E-02
    -14.748  0.0000E+00  0.5000E-02
    -14.682  0.0000E+00  0.5000E-02
    -14.616  0.0000E+00  0.5000E-02
    -14.549  0.0000E+00  0.5000E-02
    -14.483  0.0000E+00  0.5000E-02
    -14.417  0.0000E+00  0.5000E-02
    -14.350  0.0000E+00  0.5000E-02
    -14.284  0.0000E+00  0.5000E-02
    -14.218  0.0000E+00  0.5000E-02
    -14.151  0.0000E+00  0.5000E-02
    -14.085  0.0000E+00  0.5000E-02
    -14.019  0.0000E+00  0.5000E-02
    -13.952  0.0000E+00  0.5000E-02
    -13.886  0.0000E+00  0.5000E-02
    -13.820  0.0000E+00  0.5000E-02
    -13.753  0.0000E+00  0.5000E-02
    -13.687  0.7049E-14  0.5000E-02
    -13.621  0.8067E-09  0.5000E-02
    -13.555  0.3136E-05  0.5000E-02
    -13.488  0.5115E-03  0.5034E-02
    -13.422  0.5969E-02  0.5430E-02
    -13.356  0.1103E-01  0.6162E-02
    -13.289  0.2327E-01  0.7705E-02
    -13.223  0.2353E-01  0.9266E-02
    -13.157  0.1915E-01  0.1054E-01
    -13.090  0.6721E-02  0.1098E-01
    -13.024  0.4471E-03  0.1101E-01
    -12.958  0.5697E-02  0.1139E-01
    -12.891  0.1970E-01  0.1270E-01
    -12.825  0.2031E-01  0.1404E-01
    -12.759  0.1309E-01  0.1491E-01
    -12.692  0.1342E-02  0.1500E-01
    -12.626  0.1042E-04  0.1500E-01
    -12.560  0.3864E-08  0.1500E-01
    -12.493  0.2459E-05  0.1500E-01
    -12.427  0.6561E-03  0.1504E-01
    -12.361  0.1111E-01  0.1578E-01
    -12.294  0.2328E-01  0.1732E-01
    -12.228  0.2036E-01  0.1867E-01
    -12.162  0.4810E-02  0.1899E-01
    -12.096  0.1080E-03  0.1900E-01
    -12.029  0.1280E-06  0.1900E-01
    -11.963  0.5645E-11  0.1900E-01
    -11.897  0.4754E-10  0.1900E-01
    -11.830  0.6159E-06  0.1900E-01
    -11.764  0.3219E-03  0.1902E-01
    -11.698  0.9327E-02  0.1964E-01
    -11.631  0.2848E-01  0.2153E-01
    -11.565  0.1987E-01  0.2285E-01
    -11.499  0.2301E-02  0.2300E-01
    -11.432  0.2174E-04  0.2300E-01
    -11.366  0.5771E-03  0.2304E-01
    -11.300  0.9379E-02  0.2366E-01
    -11.233  0.1640E-01  0.2475E-01
    -11.167  0.3724E-02  0.2500E-01
    -11.101  0.7197E-04  0.2500E-01
    -11.034  0.6988E-07  0.2500E-01
    -10.968  0.2622E-11  0.2500E-01
    -10.902  0.3348E-17  0.2500E-01
    -10.835  0.0000E+00  0.2500E-01
    -10.769  0.0000E+00  0.2500E-01
    -10.703  0.0000E+00  0.2500E-01
    -10.636  0.0000E+00  0.2500E-01
    -10.570  0.0000E+00  0.2500E-01
    -10.504  0.0000E+00  0.2500E-01
    -10.438  0.0000E+00  0.2500E-01
    -10.371  0.0000E+00  0.2500E-01
    -10.305  0.0000E+00  0.2500E-01
    -10.239  0.0000E+00  0.2500E-01
    -10.172  0.0000E+00  0.2500E-01
    -10.106  0.0000E+00  0.2500E-01
    -10.040  0.0000E+00  0.2500E-01
     -9.973  0.0000E+00  0.2500E-01
     -9.907  0.0000E+00  0.2500E-01
     -9.841  0.0000E+00  0.2500E-01
     -9.774  0.9566E-12  0.2500E-01
     -9.708  0.5960E-07  0.2500E-01
     -9.642  0.1276E-03  0.2501E-01
     -9.575  0.1078E-01  0.2572E-01
     -9.509  0.4875E-01  0.2896E-01
     -9.443  0.1546E-01  0.2998E-01
     -9.376  0.2760E-03  0.3000E-01
     -9.310  0.1997E-06  0.3000E-01
     -9.244  0.5005E-11  0.3000E-01
     -9.177  0.3348E-17  0.3000E-01
     -9.111  0.0000E+00  0.3000E-01
     -9.045  0.0000E+00  0.3000E-01
     -8.979  0.0000E+00  0.3000E-01
     -8.912  0.0000E+00  0.3000E-01
     -8.846  0.0000E+00  0.3000E-01
     -8.780  0.0000E+00  0.3000E-01
     -8.713  0.0000E+00  0.3000E-01
     -8.647  0.1593E-15  0.3000E-01
     -8.581  0.4659E-10  0.3000E-01
     -8.514  0.4457E-06  0.3000E-01
     -8.448  0.1538E-03  0.3001E-01
     -8.382  0.2679E-02  0.3019E-01
     -8.315  0.7132E-02  0.3066E-01
     -8.249  0.5432E-02  0.3102E-01
     -8.183  0.6740E-02  0.3147E-01
     -8.116  0.8655E-02  0.3204E-01
     -8.050  0.9614E-02  0.3268E-01
     -7.984  0.4989E-02  0.3301E-01
     -7.917  0.5000E-02  0.3334E-01
     -7.851  0.5653E-02  0.3372E-01
     -7.785  0.1634E-01  0.3480E-01
     -7.718  0.2923E-01  0.3674E-01
     -7.652  0.4268E-01  0.3957E-01
     -7.586  0.5408E-01  0.4316E-01
     -7.519  0.1662E-01  0.4426E-01
     -7.453  0.5852E-02  0.4465E-01
     -7.387  0.6384E-02  0.4507E-01
     -7.321  0.1227E-01  0.4588E-01
     -7.254  0.1745E-02  0.4600E-01
     -7.188  0.5018E-03  0.4603E-01
     -7.122  0.5416E-02  0.4639E-01
     -7.055  0.5178E-02  0.4674E-01
     -6.989  0.1325E-01  0.4761E-01
     -6.923  0.1384E-01  0.4853E-01
     -6.856  0.2358E-02  0.4869E-01
     -6.790  0.7687E-02  0.4920E-01
     -6.724  0.1113E-01  0.4994E-01
     -6.657  0.6920E-02  0.5040E-01
     -6.591  0.1993E-01  0.5172E-01
     -6.525  0.2059E-01  0.5308E-01
     -6.458  0.3737E-02  0.5333E-01
     -6.392  0.4617E-04  0.5333E-01
     -6.326  0.6769E-04  0.5334E-01
     -6.259  0.3528E-02  0.5357E-01
     -6.193  0.1724E-01  0.5472E-01
     -6.127  0.1566E-01  0.5575E-01
     -6.060  0.9241E-02  0.5637E-01
     -5.994  0.7286E-02  0.5685E-01
     -5.928  0.2548E-02  0.5702E-01
     -5.862  0.8567E-02  0.5759E-01
     -5.795  0.2189E-01  0.5904E-01
     -5.729  0.1390E-01  0.5996E-01
     -5.663  0.1170E-01  0.6074E-01
     -5.596  0.1184E-01  0.6152E-01
     -5.530  0.9587E-02  0.6216E-01
     -5.464  0.5086E-02  0.6249E-01
     -5.397  0.6498E-02  0.6293E-01
     -5.331  0.3910E-02  0.6319E-01
     -5.265  0.1346E-01  0.6408E-01
     -5.198  0.1011E-01  0.6475E-01
     -5.132  0.1280E-01  0.6560E-01
     -5.066  0.2283E-01  0.6711E-01
     -4.999  0.2948E-01  0.6907E-01
     -4.933  0.1639E-01  0.7015E-01
     -4.867  0.1906E-01  0.7142E-01
     -4.800  0.1369E-01  0.7232E-01
     -4.734  0.1478E-01  0.7330E-01
     -4.668  0.2760E-01  0.7514E-01
     -4.601  0.2827E-01  0.7701E-01
     -4.535  0.1636E-01  0.7810E-01
     -4.469  0.1176E-01  0.7888E-01
     -4.402  0.2633E-01  0.8062E-01
     -4.336  0.2888E-01  0.8254E-01
     -4.270  0.3257E-01  0.8470E-01
     -4.204  0.2227E-01  0.8617E-01
     -4.137  0.2754E-02  0.8636E-01
     -4.071  0.7953E-02  0.8688E-01
     -4.005  0.1096E-01  0.8761E-01
     -3.938  0.6009E-02  0.8801E-01
     -3.872  0.1952E-01  0.8930E-01
     -3.806  0.1698E-01  0.9043E-01
     -3.739  0.1178E-01  0.9121E-01
     -3.673  0.9460E-02  0.9184E-01
     -3.607  0.2066E-01  0.9321E-01
     -3.540  0.2640E-01  0.9496E-01
     -3.474  0.1706E-01  0.9609E-01
     -3.408  0.1868E-01  0.9733E-01
     -3.341  0.3001E-01  0.9932E-01
     -3.275  0.4149E-01  0.1021E+00
     -3.209  0.3512E-01  0.1044E+00
     -3.142  0.8797E-02  0.1050E+00
     -3.076  0.2592E-03  0.1050E+00
     -3.010  0.2379E-02  0.1052E+00
     -2.943  0.1859E-01  0.1064E+00
     -2.877  0.1684E-01  0.1075E+00
     -2.811  0.6315E-02  0.1079E+00
     -2.745  0.1533E-01  0.1089E+00
     -2.678  0.3139E-01  0.1110E+00
     -2.612  0.4261E-01  0.1139E+00
     -2.546  0.2568E-01  0.1156E+00
     -2.479  0.9010E-02  0.1162E+00
     -2.413  0.2979E-02  0.1163E+00
     -2.347  0.5531E-02  0.1167E+00
     -2.280  0.9464E-02  0.1173E+00
     -2.214  0.9489E-02  0.1180E+00
     -2.148  0.6777E-02  0.1184E+00
     -2.081  0.9463E-02  0.1191E+00
     -2.015  0.9347E-02  0.1197E+00
     -1.949  0.4701E-02  0.1200E+00
     -1.882  0.2687E-03  0.1200E+00
     -1.816  0.7088E-06  0.1200E+00
     -1.750  0.6686E-10  0.1200E+00
     -1.683  0.2054E-15  0.1200E+00
     -1.617  0.0000E+00  0.1200E+00
     -1.551  0.0000E+00  0.1200E+00
     -1.484  0.1010E-15  0.1200E+00
     -1.418  0.3887E-10  0.1200E+00
     -1.352  0.4867E-06  0.1200E+00
     -1.285  0.2162E-03  0.1200E+00
     -1.219  0.4223E-02  0.1203E+00
     -1.153  0.5244E-02  0.1206E+00
     -1.087  0.3918E-02  0.1209E+00
     -1.020  0.1605E-01  0.1220E+00
     -0.954  0.1620E-01  0.1230E+00
     -0.888  0.8925E-02  0.1236E+00
     -0.821  0.5189E-03  0.1237E+00
     -0.755  0.1292E-02  0.1238E+00
     -0.689  0.1138E-01  0.1245E+00
     -0.622  0.7320E-02  0.1250E+00
     -0.556  0.5737E-02  0.1254E+00
     -0.490  0.1509E-01  0.1264E+00
     -0.423  0.1218E-01  0.1272E+00
     -0.357  0.2302E-01  0.1287E+00
     -0.291  0.1529E-01  0.1297E+00
     -0.224  0.2513E-01  0.1314E+00
     -0.158  0.2442E-01  0.1330E+00
     -0.092  0.9771E-02  0.1337E+00
     -0.025  0.1680E-01  0.1348E+00
      0.041  0.2537E-01  0.1365E+00
      0.107  0.2483E-01  0.1381E+00
      0.174  0.1013E-01  0.1388E+00
      0.240  0.1510E-01  0.1398E+00
      0.306  0.3833E-01  0.1423E+00
      0.372  0.2782E-01  0.1442E+00
      0.439  0.1399E-01  0.1451E+00
      0.505  0.2519E-01  0.1468E+00
      0.571  0.3113E-01  0.1488E+00
      0.638  0.4056E-01  0.1515E+00
      0.704  0.3244E-01  0.1537E+00
      0.770  0.2005E-01  0.1550E+00
      0.837  0.1430E-01  0.1559E+00
      0.903  0.2160E-01  0.1574E+00
      0.969  0.1997E-01  0.1587E+00
      1.036  0.1755E-01  0.1599E+00
      1.102  0.2047E-02  0.1600E+00
      1.168  0.1424E-04  0.1600E+00
      1.235  0.4317E-08  0.1600E+00
      1.301  0.4775E-13  0.1600E+00
      1.367  0.0000E+00  0.1600E+00
      1.434  0.0000E+00  0.1600E+00
      1.500  0.0000E+00  0.1600E+00
      1.566  0.0000E+00  0.1600E+00
      1.633  0.0000E+00  0.1600E+00
      1.699  0.0000E+00  0.1600E+00
      1.765  0.0000E+00  0.1600E+00
      1.832  0.0000E+00  0.1600E+00
      1.898  0.0000E+00  0.1600E+00
