   15   15  400    1
  0.6103469E+02  0.6019200E-09  0.1014000E-08  0.1500000E-08  0.3500000E-15
   1.0000000000000000E-004
  CAR 
 Al2C                                    
     48      8     32

  0.3742002E-15  0.3742002E-15  0.1262379E-14  0.6666667E-01
    1      -17.093526   1.000000
    2      -13.440133   1.000000
    3      -13.280698   1.000000
    4      -11.311093   1.000000
    5      -11.250838   1.000000
    6       -9.541860   1.000000
    7       -8.381720   1.000000
    8       -8.203713   1.000000
    9       -8.082110   1.000000
   10       -7.622570   1.000000
   11       -6.144951   1.000000
   12       -5.745574   1.000000
   13       -5.539485   1.000000
   14       -5.041646   1.000000
   15       -4.906738   1.000000
   16       -4.445788   1.000000
   17       -4.345552   1.000000
   18       -3.898782   1.000000
   19       -3.543921   1.000000
   20       -2.607567   1.000000
   21       -2.584248   1.000000
   22       -2.354010   1.000000
   23       -2.207272   1.000000
   24       -2.119700   1.000000
   25       -1.056574   0.000000
   26       -0.508975   0.000000
   27       -0.259160   0.000000
   28       -0.152056   0.000000
   29       -0.122791   0.000000
   30       -0.013594   0.000000
   31        0.579686   0.000000
   32        0.658859   0.000000

  0.2000000E+00  0.3742002E-15  0.1262379E-14  0.1333333E+00
    1      -17.092889   1.000000
    2      -13.314792   1.000000
    3      -13.158759   1.000000
    4      -11.693354   1.000000
    5      -11.602685   1.000000
    6       -9.538551   1.000000
    7       -8.060010   1.000000
    8       -7.795069   1.000000
    9       -7.639777   1.000000
   10       -7.512450   1.000000
   11       -6.110866   1.000000
   12       -6.020940   1.000000
   13       -5.645855   1.000000
   14       -5.125665   1.000000
   15       -4.716409   1.000000
   16       -4.601683   1.000000
   17       -4.285388   1.000000
   18       -3.808981   1.000000
   19       -3.304899   1.000000
   20       -3.268754   1.000000
   21       -3.248376   1.000000
   22       -2.907203   1.000000
   23       -2.614645   1.000000
   24       -2.016941   1.000000
   25       -1.213986   0.000000
   26       -0.350072   0.000000
   27       -0.009307   0.000000
   28        0.068605   0.000000
   29        0.207369   0.000000
   30        0.553949   0.000000
   31        0.697887   0.000000
   32        0.830026   0.000000

  0.4000000E+00  0.3742002E-15  0.1262379E-14  0.1333333E+00
    1      -17.091832   1.000000
    2      -12.946889   1.000000
    3      -12.801578   1.000000
    4      -12.369601   1.000000
    5      -12.244560   1.000000
    6       -9.535004   1.000000
    7       -7.670235   1.000000
    8       -7.632640   1.000000
    9       -6.955851   1.000000
   10       -6.554489   1.000000
   11       -6.237692   1.000000
   12       -5.689948   1.000000
   13       -5.581653   1.000000
   14       -5.207346   1.000000
   15       -5.018353   1.000000
   16       -4.700801   1.000000
   17       -4.390491   1.000000
   18       -4.384129   1.000000
   19       -4.271397   1.000000
   20       -3.926522   1.000000
   21       -3.673817   1.000000
   22       -3.319152   1.000000
   23       -2.500921   1.000000
   24       -2.091292   1.000000
   25       -1.028569   0.000000
   26       -0.512169   0.000000
   27        0.267563   0.000000
   28        0.367839   0.000000
   29        0.594148   0.000000
   30        0.613947   0.000000
   31        0.712159   0.000000
   32        0.993471   0.000000

  0.3742002E-15  0.3333333E+00  0.1262379E-14  0.1333333E+00
    1      -17.093562   1.000000
    2      -13.402601   1.000000
    3      -13.322851   1.000000
    4      -11.296656   1.000000
    5      -11.265902   1.000000
    6       -9.542063   1.000000
    7       -8.315854   1.000000
    8       -8.167989   1.000000
    9       -7.918547   1.000000
   10       -7.622583   1.000000
   11       -7.129362   1.000000
   12       -5.439846   1.000000
   13       -4.996955   1.000000
   14       -4.891865   1.000000
   15       -4.637665   1.000000
   16       -4.549564   1.000000
   17       -4.396253   1.000000
   18       -3.769875   1.000000
   19       -3.556231   1.000000
   20       -2.971539   1.000000
   21       -2.602270   1.000000
   22       -2.590486   1.000000
   23       -2.326235   1.000000
   24       -2.237403   1.000000
   25       -1.057179   0.000000
   26       -0.547665   0.000000
   27       -0.412502   0.000000
   28       -0.204805   0.000000
   29        0.043239   0.000000
   30        0.323876   0.000000
   31        0.345048   0.000000
   32        0.767852   0.000000

  0.2000000E+00  0.3333333E+00  0.1262379E-14  0.1333333E+00
    1      -17.092848   1.000000
    2      -13.277997   1.000000
    3      -13.199970   1.000000
    4      -11.671660   1.000000
    5      -11.625737   1.000000
    6       -9.538524   1.000000
    7       -7.779928   1.000000
    8       -7.736656   1.000000
    9       -7.641197   1.000000
   10       -7.597697   1.000000
   11       -7.001073   1.000000
   12       -5.853249   1.000000
   13       -5.288094   1.000000
   14       -5.022546   1.000000
   15       -4.629409   1.000000
   16       -4.453819   1.000000
   17       -4.317431   1.000000
   18       -3.460940   1.000000
   19       -3.346510   1.000000
   20       -3.281228   1.000000
   21       -3.224326   1.000000
   22       -2.956567   1.000000
   23       -2.682393   1.000000
   24       -2.658498   1.000000
   25       -0.951596   0.000000
   26       -0.392324   0.000000
   27       -0.209482   0.000000
   28        0.092574   0.000000
   29        0.271232   0.000000
   30        0.456625   0.000000
   31        0.491569   0.000000
   32        0.869090   0.000000

  0.4000000E+00  0.3333333E+00  0.1262379E-14  0.1333333E+00
    1      -17.091778   1.000000
    2      -12.912478   1.000000
    3      -12.839796   1.000000
    4      -12.339905   1.000000
    5      -12.277008   1.000000
    6       -9.535001   1.000000
    7       -7.668036   1.000000
    8       -7.367222   1.000000
    9       -6.786343   1.000000
   10       -6.640044   1.000000
   11       -6.568175   1.000000
   12       -6.194181   1.000000
   13       -5.804642   1.000000
   14       -5.103653   1.000000
   15       -4.863703   1.000000
   16       -4.732729   1.000000
   17       -4.246387   1.000000
   18       -4.065767   1.000000
   19       -3.875372   1.000000
   20       -3.635807   1.000000
   21       -3.565906   1.000000
   22       -3.383771   1.000000
   23       -2.778461   1.000000
   24       -2.689844   1.000000
   25       -0.694839   0.000000
   26       -0.272288   0.000000
   27       -0.036177   0.000000
   28        0.294844   0.000000
   29        0.509345   0.000000
   30        0.620746   0.000000
   31        0.913562   0.000000
   32        0.974681   0.000000

 -0.4000000E+00  0.3333333E+00  0.1262379E-14  0.1333333E+00
    1      -17.091795   1.000000
    2      -12.912567   1.000000
    3      -12.839698   1.000000
    4      -12.339763   1.000000
    5      -12.277163   1.000000
    6       -9.534975   1.000000
    7       -7.668055   1.000000
    8       -7.369900   1.000000
    9       -6.775206   1.000000
   10       -6.634703   1.000000
   11       -6.578048   1.000000
   12       -6.203111   1.000000
   13       -5.796849   1.000000
   14       -5.109967   1.000000
   15       -4.863417   1.000000
   16       -4.732687   1.000000
   17       -4.251549   1.000000
   18       -4.060436   1.000000
   19       -3.876446   1.000000
   20       -3.628120   1.000000
   21       -3.560933   1.000000
   22       -3.389009   1.000000
   23       -2.782768   1.000000
   24       -2.686847   1.000000
   25       -0.706330   0.000000
   26       -0.263072   0.000000
   27       -0.025391   0.000000
   28        0.274808   0.000000
   29        0.545034   0.000000
   30        0.642611   0.000000
   31        0.870482   0.000000
   32        0.976190   0.000000

 -0.2000000E+00  0.3333333E+00  0.1262379E-14  0.1333333E+00
    1      -17.092852   1.000000
    2      -13.278038   1.000000
    3      -13.199925   1.000000
    4      -11.671490   1.000000
    5      -11.625917   1.000000
    6       -9.538553   1.000000
    7       -7.781091   1.000000
    8       -7.738158   1.000000
    9       -7.640936   1.000000
   10       -7.595734   1.000000
   11       -6.998966   1.000000
   12       -5.851225   1.000000
   13       -5.296658   1.000000
   14       -5.021593   1.000000
   15       -4.632812   1.000000
   16       -4.452023   1.000000
   17       -4.315356   1.000000
   18       -3.455549   1.000000
   19       -3.349787   1.000000
   20       -3.282790   1.000000
   21       -3.222314   1.000000
   22       -2.943848   1.000000
   23       -2.688644   1.000000
   24       -2.658901   1.000000
   25       -0.963506   0.000000
   26       -0.392972   0.000000
   27       -0.200841   0.000000
   28        0.092478   0.000000
   29        0.269053   0.000000
   30        0.461494   0.000000
   31        0.609664   0.000000
   32        0.695810   0.000000
