Al2C                                    
           1
     6.019200    0.000000    0.000000
     0.000000   10.140000    0.000000
     0.000000    0.000000   15.000000
   Al   C    S    H 
   8   4   1   2
Direct configuration=     1
   0.43778478  0.87755859  0.25500781
   0.93711089  0.87752017  0.23122393
   0.44119694  0.62139385  0.27561170
   0.93771579  0.61880228  0.24008645
   0.43502744  0.37976875  0.23621802
   0.93520689  0.37683195  0.26646989
   0.43621034  0.12040472  0.22989982
   0.93660152  0.11962602  0.25490027
   0.18702092  0.99873501  0.24320796
   0.68683151  0.99921597  0.23973623
   0.18684355  0.49840909  0.26272300
   0.68632067  0.49824351  0.25179307
   0.41974306  0.60534998  0.46178647
   0.25407482  0.69259730  0.47853740
   0.27708176  0.52643629  0.41279800
Direct configuration=     2
   0.43777344  0.87719827  0.25519214
   0.93712158  0.87714751  0.23103248
   0.44127639  0.62183518  0.27519471
   0.93778126  0.61913748  0.23983710
   0.43501020  0.37940588  0.23591152
   0.93527179  0.37644539  0.26671408
   0.43619538  0.12079590  0.22970467
   0.93660727  0.12000468  0.25510445
   0.18702354  0.99872786  0.24321413
   0.68685187  0.99918810  0.23978492
   0.18681156  0.49841857  0.26254656
   0.68621533  0.49827560  0.25187209
   0.41897480  0.60518857  0.46208293
   0.25425799  0.69256561  0.47862721
   0.27759847  0.52655889  0.41318102
Direct configuration=     3
   0.43776598  0.87696109  0.25531349
   0.93712862  0.87690219  0.23090645
   0.44132869  0.62212569  0.27492020
   0.93782436  0.61935813  0.23967296
   0.43499886  0.37916701  0.23570976
   0.93531451  0.37619093  0.26687483
   0.43618553  0.12105341  0.22957621
   0.93661105  0.12025394  0.25523886
   0.18702527  0.99872316  0.24321819
   0.68686527  0.99916975  0.23981696
   0.18679050  0.49842481  0.26243041
   0.68614598  0.49829673  0.25192411
   0.41846906  0.60508232  0.46227809
   0.25437856  0.69254475  0.47868633
   0.27793861  0.52663960  0.41343315
Direct configuration=     4
   0.43775714  0.87703918  0.25549542
   0.93714281  0.87691887  0.23068104
   0.44131939  0.62217532  0.27442393
   0.93785116  0.61928551  0.23939081
   0.43497417  0.37918768  0.23539426
   0.93533364  0.37624392  0.26714652
   0.43618870  0.12103635  0.22935246
   0.93661072  0.12021020  0.25547352
   0.18703314  0.99872202  0.24322843
   0.68686527  0.99915813  0.23988231
   0.18681822  0.49842917  0.26217028
   0.68618475  0.49828274  0.25198702
   0.41848275  0.60494477  0.46276605
   0.25413837  0.69269454  0.47883828
   0.27807064  0.52656509  0.41376967
Direct configuration=     5
   0.43773064  0.87727347  0.25604120
   0.93718537  0.87696892  0.23000482
   0.44129150  0.62232421  0.27293512
   0.93793154  0.61906764  0.23854435
   0.43490013  0.37924967  0.23444777
   0.93539102  0.37640290  0.26796158
   0.43619821  0.12098518  0.22868121
   0.93660973  0.12007898  0.25617749
   0.18705675  0.99871861  0.24325915
   0.68686528  0.99912329  0.24007835
   0.18690137  0.49844227  0.26138988
   0.68630104  0.49824078  0.25217578
   0.41852380  0.60453212  0.46422991
   0.25341779  0.69314390  0.47929415
   0.27846672  0.52634154  0.41477923
Direct configuration=     6
   0.43767764  0.87774206  0.25713278
   0.93727049  0.87706903  0.22865238
   0.44123570  0.62262198  0.26995750
   0.93809232  0.61863191  0.23685145
   0.43475203  0.37937365  0.23255479
   0.93550577  0.37672086  0.26959171
   0.43621723  0.12088284  0.22733870
   0.93660773  0.11981655  0.25758543
   0.18710396  0.99871179  0.24332058
   0.68686530  0.99905361  0.24047043
   0.18706767  0.49846846  0.25982908
   0.68653362  0.49815686  0.25255329
   0.41860591  0.60370681  0.46715765
   0.25197663  0.69404261  0.48020588
   0.27925887  0.52589445  0.41679836
Direct configuration=     7
   0.43767815  0.87790210  0.25729208
   0.93727686  0.87716429  0.22841462
   0.44114030  0.62250464  0.26958318
   0.93806907  0.61849873  0.23654994
   0.43481664  0.37947573  0.23228853
   0.93551045  0.37683901  0.26982463
   0.43623375  0.12076588  0.22710738
   0.93660366  0.11969836  0.25785988
   0.18707151  0.99873477  0.24332725
   0.68689878  0.99907445  0.24053318
   0.18717297  0.49850111  0.25952262
   0.68656828  0.49811695  0.25253923
   0.41799733  0.60378460  0.46762958
   0.25218485  0.69395144  0.48035589
   0.27954825  0.52588144  0.41717200
Direct configuration=     8
   0.43767971  0.87838224  0.25777000
   0.93729599  0.87745007  0.22770133
   0.44085409  0.62215262  0.26846021
   0.93799933  0.61809921  0.23564543
   0.43501047  0.37978195  0.23148977
   0.93552449  0.37719344  0.27052339
   0.43628332  0.12041498  0.22641343
   0.93659146  0.11934380  0.25868321
   0.18697416  0.99880370  0.24334726
   0.68699922  0.99913696  0.24072144
   0.18748887  0.49859906  0.25860327
   0.68667229  0.49799721  0.25249707
   0.41617160  0.60401795  0.46904536
   0.25280952  0.69367793  0.48080591
   0.28041636  0.52584239  0.41829292
Direct configuration=     9
   0.43768282  0.87934250  0.25872585
   0.93733423  0.87802162  0.22627476
   0.44028166  0.62144856  0.26621428
   0.93785986  0.61730017  0.23383640
   0.43539812  0.38039439  0.22989224
   0.93555257  0.37790231  0.27192090
   0.43638245  0.11971318  0.22502552
   0.93656705  0.11863467  0.26032988
   0.18677944  0.99894156  0.24338728
   0.68720010  0.99926199  0.24109796
   0.18812066  0.49879495  0.25676455
   0.68688029  0.49775774  0.25241274
   0.41252014  0.60448465  0.47187693
   0.25405887  0.69313092  0.48170594
   0.28215260  0.52576428  0.42053476
Direct configuration=    10
   0.43768056  0.87864302  0.25802959
   0.93730637  0.87760529  0.22731391
   0.44069863  0.62196141  0.26785028
   0.93796145  0.61788221  0.23515414
   0.43511574  0.37994827  0.23105592
   0.93553211  0.37738595  0.27090292
   0.43631024  0.12022439  0.22603651
   0.93658483  0.11915121  0.25913040
   0.18692128  0.99884114  0.24335813
   0.68705377  0.99917092  0.24082370
   0.18766044  0.49865225  0.25810392
   0.68672878  0.49793218  0.25247417
   0.41517996  0.60414469  0.46981434
   0.25314881  0.69352938  0.48105033
   0.28088788  0.52582117  0.41890174
Direct configuration=    11
   0.43769450  0.87874173  0.25825762
   0.93729518  0.87768886  0.22689972
   0.44048438  0.62179954  0.26754820
   0.93785074  0.61777273  0.23460666
   0.43536754  0.37994764  0.23070693
   0.93563870  0.37749170  0.27117683
   0.43634393  0.12012597  0.22564570
   0.93658404  0.11908480  0.25967642
   0.18684645  0.99891127  0.24335348
   0.68713690  0.99924431  0.24090908
   0.18771537  0.49869818  0.25753264
   0.68681008  0.49786989  0.25229156
   0.41488915  0.60402431  0.47054358
   0.25282195  0.69366777  0.48136603
   0.28129196  0.52582479  0.41948556
Direct configuration=    12
   0.43773634  0.87903786  0.25894172
   0.93726160  0.87793959  0.22565715
   0.43984161  0.62131390  0.26664196
   0.93751860  0.61744429  0.23296421
   0.43612292  0.37994576  0.22965994
   0.93595848  0.37780893  0.27199859
   0.43644500  0.11983072  0.22447327
   0.93658167  0.11888556  0.26131447
   0.18662197  0.99912167  0.24333951
   0.68738628  0.99946448  0.24116522
   0.18788013  0.49883596  0.25581881
   0.68705400  0.49768302  0.25174374
   0.41401672  0.60366316  0.47273130
   0.25184134  0.69408293  0.48231310
   0.28250419  0.52583566  0.42123700
Direct configuration=    13
   0.43782002  0.87963012  0.26030992
   0.93719443  0.87844104  0.22317200
   0.43855607  0.62034264  0.26482949
   0.93685433  0.61678741  0.22967932
   0.43763369  0.37994199  0.22756597
   0.93659803  0.37844341  0.27364210
   0.43664714  0.11924021  0.22212840
   0.93657694  0.11848709  0.26459056
   0.18617302  0.99954246  0.24331159
   0.68788503  0.99990481  0.24167750
   0.18820966  0.49911152  0.25239115
   0.68754185  0.49730928  0.25064809
   0.41227185  0.60294087  0.47710675
   0.24988014  0.69491326  0.48420726
   0.28492867  0.52585738  0.42473990
Direct configuration=    14
   0.43780493  0.87954723  0.26069237
   0.93716864  0.87856340  0.22247471
   0.43856508  0.62048440  0.26464465
   0.93670087  0.61682512  0.22867130
   0.43786055  0.37958755  0.22698705
   0.93699806  0.37854349  0.27392230
   0.43666658  0.11929719  0.22152532
   0.93664006  0.11852098  0.26554736
   0.18629559  0.99957016  0.24327198
   0.68781612  0.99992480  0.24178072
   0.18795293  0.49893296  0.25148416
   0.68764180  0.49730654  0.25026781
   0.41220278  0.60315960  0.47849022
   0.24940270  0.69503306  0.48475057
   0.28505418  0.52559699  0.42548949
Direct configuration=    15
   0.43777563  0.87938629  0.26143500
   0.93711856  0.87880100  0.22112074
   0.43858259  0.62075967  0.26428572
   0.93640290  0.61689834  0.22671399
   0.43830105  0.37889932  0.22586292
   0.93777481  0.37873783  0.27446636
   0.43670434  0.11940784  0.22035428
   0.93676265  0.11858681  0.26740523
   0.18653357  0.99962396  0.24319507
   0.68768231  0.99996360  0.24198114
   0.18745441  0.49858625  0.24972303
   0.68783588  0.49730121  0.24952940
   0.41206866  0.60358432  0.48117657
   0.24847562  0.69526569  0.48580554
   0.28529790  0.52509137  0.42694501
Direct configuration=    16
   0.43772445  0.87934638  0.26169051
   0.93711100  0.87913452  0.22066833
   0.43884372  0.62081286  0.26451350
   0.93638297  0.61693884  0.22592461
   0.43819043  0.37874345  0.22548201
   0.93800545  0.37892845  0.27438695
   0.43671763  0.11936499  0.22007817
   0.93687326  0.11840633  0.26800886
   0.18667091  0.99956017  0.24313364
   0.68758728  0.99990498  0.24201096
   0.18754942  0.49834280  0.24923149
   0.68766994  0.49737417  0.24920545
   0.41128434  0.60363234  0.48184400
   0.24833883  0.69521710  0.48622579
   0.28582122  0.52518611  0.42759571
Direct configuration=    17
   0.43764230  0.87928233  0.26210059
   0.93709887  0.87966979  0.21994223
   0.43926284  0.62089823  0.26487908
   0.93635099  0.61700383  0.22465771
   0.43801288  0.37849328  0.22487067
   0.93837562  0.37923440  0.27425951
   0.43673895  0.11929621  0.21963503
   0.93705080  0.11811667  0.26897767
   0.18689133  0.99945780  0.24303505
   0.68743476  0.99981090  0.24205881
   0.18770192  0.49795209  0.24844259
   0.68740361  0.49749126  0.24868553
   0.41002556  0.60370942  0.48291519
   0.24811930  0.69513913  0.48690029
   0.28666114  0.52533816  0.42864006
Direct configuration=    18
   0.43747801  0.87915421  0.26292075
   0.93707460  0.88074033  0.21849004
   0.44010108  0.62106897  0.26561024
   0.93628702  0.61713382  0.22212389
   0.43765780  0.37799295  0.22364799
   0.93911595  0.37984629  0.27400462
   0.43678160  0.11915865  0.21874874
   0.93740586  0.11753735  0.27091528
   0.18733218  0.99925306  0.24283786
   0.68712972  0.99962273  0.24215450
   0.18800691  0.49717066  0.24686479
   0.68687095  0.49772543  0.24764568
   0.40750799  0.60386358  0.48505757
   0.24768024  0.69498317  0.48824928
   0.28834097  0.52564227  0.43072875
Direct configuration=    19
   0.43759745  0.87924735  0.26232448
   0.93709224  0.87996203  0.21954581
   0.43949167  0.62094484  0.26507867
   0.93633353  0.61703932  0.22396602
   0.43791595  0.37835670  0.22453690
   0.93857771  0.37940143  0.27418993
   0.43675060  0.11925865  0.21939309
   0.93714772  0.11795853  0.26950660
   0.18701168  0.99940191  0.24298122
   0.68735149  0.99975953  0.24208493
   0.18778518  0.49773877  0.24801188
   0.68725820  0.49755518  0.24840167
   0.40933831  0.60375151  0.48350002
   0.24799944  0.69509655  0.48726854
   0.28711970  0.52542118  0.42921023
Direct configuration=    20
   0.43756452  0.87928243  0.26266409
   0.93708757  0.88038983  0.21895618
   0.43962110  0.62062193  0.26557713
   0.93651726  0.61689751  0.22291808
   0.43778846  0.37847674  0.22403083
   0.93847666  0.37970819  0.27388687
   0.43682399  0.11902940  0.21918303
   0.93726468  0.11759628  0.27015092
   0.18704143  0.99934209  0.24290461
   0.68736100  0.99973273  0.24212200
   0.18810461  0.49777022  0.24752186
   0.68730560  0.49764209  0.24793754
   0.40931535  0.60365101  0.48439649
   0.24708797  0.69534621  0.48784529
   0.28741066  0.52540683  0.42990510
Direct configuration=    21
   0.43750869  0.87934190  0.26323986
   0.93707964  0.88111511  0.21795652
   0.43984053  0.62007447  0.26642219
   0.93682876  0.61665709  0.22114142
   0.43757232  0.37868026  0.22317286
   0.93830534  0.38022825  0.27337307
   0.43694842  0.11864073  0.21882691
   0.93746297  0.11698212  0.27124327
   0.18709187  0.99924068  0.24277472
   0.68737712  0.99968729  0.24218485
   0.18864618  0.49782353  0.24669109
   0.68738597  0.49778944  0.24715068
   0.40927643  0.60348064  0.48591633
   0.24554268  0.69576946  0.48882310
   0.28790394  0.52538251  0.43108314
Direct configuration=    22
   0.43757767  0.87923666  0.26361234
   0.93706909  0.88103283  0.21735389
   0.43971301  0.61968366  0.26699214
   0.93726111  0.61654900  0.22019704
   0.43777634  0.37891021  0.22260301
   0.93795044  0.38025421  0.27300423
   0.43705402  0.11851955  0.21876841
   0.93748009  0.11688549  0.27159648
   0.18705064  0.99925244  0.24275723
   0.68749473  0.99972086  0.24226488
   0.18848484  0.49830335  0.24646299
   0.68791181  0.49781848  0.24667563
   0.40878302  0.60394887  0.48673906
   0.24534468  0.69557854  0.48937653
   0.28781937  0.52519934  0.43159613
Direct configuration=    23
   0.43762506  0.87916438  0.26386818
   0.93706185  0.88097631  0.21693999
   0.43962543  0.61941524  0.26738360
   0.93755804  0.61647477  0.21954842
   0.43791646  0.37906814  0.22221163
   0.93770669  0.38027205  0.27275091
   0.43712654  0.11843632  0.21872823
   0.93749185  0.11681912  0.27183907
   0.18702232  0.99926052  0.24274522
   0.68757551  0.99974392  0.24231985
   0.18837402  0.49863289  0.24630632
   0.68827297  0.49783843  0.24634936
   0.40844414  0.60427046  0.48730413
   0.24520869  0.69544742  0.48975663
   0.28776130  0.52507353  0.43194846
Direct configuration=    24
   0.43763763  0.87914520  0.26393604
   0.93705993  0.88096132  0.21683019
   0.43960219  0.61934403  0.26748745
   0.93763682  0.61645508  0.21937635
   0.43795363  0.37911004  0.22210780
   0.93764203  0.38027678  0.27268371
   0.43714578  0.11841424  0.21871757
   0.93749497  0.11680151  0.27190343
   0.18701481  0.99926267  0.24274204
   0.68759694  0.99975004  0.24233443
   0.18834463  0.49872031  0.24626476
   0.68836878  0.49784372  0.24626281
   0.40835423  0.60435577  0.48745403
   0.24517261  0.69541263  0.48985747
   0.28774589  0.52504016  0.43204192
Direct configuration=    25
   0.43776604  0.87901060  0.26432623
   0.93708202  0.88070390  0.21630341
   0.43969538  0.61919976  0.26800818
   0.93793910  0.61658260  0.21860376
   0.43818141  0.37943161  0.22149096
   0.93761422  0.38004524  0.27236936
   0.43719865  0.11844850  0.21876499
   0.93748164  0.11684397  0.27190216
   0.18700981  0.99919838  0.24279445
   0.68772281  0.99966542  0.24245857
   0.18816251  0.49900424  0.24627597
   0.68852327  0.49793094  0.24576872
   0.40789792  0.60419035  0.48784412
   0.24449598  0.69545588  0.49037773
   0.28800009  0.52518211  0.43271139
Direct configuration=    26
   0.43785676  0.87891551  0.26460187
   0.93709763  0.88052204  0.21593128
   0.43976121  0.61909785  0.26837604
   0.93815265  0.61667269  0.21805797
   0.43834233  0.37965878  0.22105520
   0.93759457  0.37988167  0.27214729
   0.43723599  0.11847270  0.21879849
   0.93747223  0.11687397  0.27190127
   0.18700628  0.99915296  0.24283148
   0.68781173  0.99960563  0.24254627
   0.18803386  0.49920482  0.24628388
   0.68863242  0.49799256  0.24541967
   0.40757557  0.60407349  0.48811969
   0.24401797  0.69548642  0.49074526
   0.28817967  0.52528239  0.43318433
Direct configuration=    27
   0.43797048  0.87898565  0.26499977
   0.93720782  0.88061621  0.21555111
   0.44013868  0.61916319  0.26880878
   0.93815352  0.61672430  0.21747217
   0.43822565  0.38009023  0.22037941
   0.93789062  0.37984323  0.27185436
   0.43724295  0.11846500  0.21889993
   0.93751197  0.11670348  0.27156548
   0.18709537  0.99893348  0.24292744
   0.68786023  0.99935707  0.24267539
   0.18818056  0.49906203  0.24645638
   0.68858576  0.49818355  0.24488942
   0.40757793  0.60419944  0.48861044
   0.24335582  0.69543494  0.49125611
   0.28777350  0.52513170  0.43365382
Direct configuration=    28
   0.43806017  0.87904096  0.26531359
   0.93729473  0.88069048  0.21525128
   0.44043639  0.61921472  0.26915008
   0.93815421  0.61676501  0.21701016
   0.43813364  0.38043051  0.21984642
   0.93812411  0.37981291  0.27162332
   0.43724844  0.11845893  0.21897994
   0.93754332  0.11656902  0.27130064
   0.18716564  0.99876038  0.24300312
   0.68789849  0.99916103  0.24277722
   0.18829626  0.49894940  0.24659243
   0.68854896  0.49833418  0.24447120
   0.40757979  0.60429878  0.48899749
   0.24283358  0.69539433  0.49165902
   0.28745315  0.52501285  0.43402410
Direct configuration=    29
   0.43809584  0.87906296  0.26543839
   0.93732930  0.88072001  0.21513203
   0.44055479  0.61923522  0.26928581
   0.93815448  0.61678120  0.21682641
   0.43809704  0.38056585  0.21963444
   0.93821697  0.37980086  0.27153144
   0.43725063  0.11845651  0.21901176
   0.93755578  0.11651554  0.27119532
   0.18719358  0.99869153  0.24303321
   0.68791370  0.99908306  0.24281772
   0.18834228  0.49890461  0.24664654
   0.68853432  0.49839409  0.24430488
   0.40758053  0.60433829  0.48915142
   0.24262588  0.69537818  0.49181926
   0.28732574  0.52496558  0.43417136
Direct configuration=    30
   0.43811868  0.87911945  0.26576634
   0.93750669  0.88088569  0.21501547
   0.44074010  0.61933801  0.26949922
   0.93832732  0.61652335  0.21661652
   0.43789928  0.38068686  0.21906934
   0.93811356  0.38002890  0.27130869
   0.43730946  0.11837867  0.21904123
   0.93764350  0.11638923  0.27074627
   0.18750522  0.99855820  0.24310898
   0.68775258  0.99896811  0.24286388
   0.18850290  0.49901010  0.24685914
   0.68894002  0.49851403  0.24380944
   0.40671186  0.60456776  0.48934634
   0.24264878  0.69500379  0.49226644
   0.28705093  0.52492133  0.43468270
Direct configuration=    31
   0.43811581  0.87911237  0.26572524
   0.93748446  0.88086493  0.21503008
   0.44071687  0.61932513  0.26947248
   0.93830566  0.61655566  0.21664282
   0.43792407  0.38067169  0.21914016
   0.93812652  0.38000032  0.27133661
   0.43730209  0.11838843  0.21903754
   0.93763251  0.11640506  0.27080255
   0.18746616  0.99857491  0.24309948
   0.68777277  0.99898252  0.24285810
   0.18848277  0.49899688  0.24683250
   0.68888918  0.49849900  0.24387153
   0.40682072  0.60453901  0.48932191
   0.24264591  0.69505071  0.49221039
   0.28708537  0.52492688  0.43461862
Direct configuration=    32
   0.43813572  0.87906006  0.26596290
   0.93764114  0.88083838  0.21509081
   0.44086041  0.61933962  0.26949321
   0.93873750  0.61644050  0.21664778
   0.43782996  0.38066764  0.21875652
   0.93785898  0.38014629  0.27120296
   0.43739644  0.11832247  0.21897218
   0.93772389  0.11649539  0.27039354
   0.18768664  0.99859914  0.24313838
   0.68772407  0.99902141  0.24282187
   0.18878987  0.49922775  0.24702262
   0.68891556  0.49849357  0.24346179
   0.40679064  0.60440547  0.48943767
   0.24207975  0.69501265  0.49258126
   0.28660031  0.52482314  0.43501650
Direct configuration=    33
   0.43815129  0.87901916  0.26614875
   0.93776367  0.88081761  0.21513831
   0.44097265  0.61935095  0.26950942
   0.93907520  0.61635045  0.21665165
   0.43775637  0.38066448  0.21845650
   0.93764977  0.38026044  0.27109845
   0.43747022  0.11827089  0.21892107
   0.93779535  0.11656603  0.27007370
   0.18785905  0.99861810  0.24316880
   0.68768598  0.99905182  0.24279354
   0.18903003  0.49940829  0.24717130
   0.68893619  0.49848933  0.24314138
   0.40676711  0.60430105  0.48952819
   0.24163702  0.69498289  0.49287129
   0.28622098  0.52474201  0.43532764
Direct configuration=    34
   0.43826427  0.87902004  0.26630788
   0.93786756  0.88068782  0.21528971
   0.44129207  0.61931772  0.26946200
   0.93947016  0.61651090  0.21670249
   0.43767312  0.38069760  0.21819925
   0.93758864  0.38026630  0.27099114
   0.43755519  0.11823274  0.21878409
   0.93786554  0.11680401  0.26973782
   0.18785232  0.99866849  0.24319007
   0.68788793  0.99907113  0.24271715
   0.18916517  0.49943122  0.24733833
   0.68874451  0.49847965  0.24276243
   0.40664501  0.60441612  0.48968486
   0.24138815  0.69478957  0.49321394
   0.28551123  0.52450019  0.43561883
Direct configuration=    35
   0.43839310  0.87902104  0.26648933
   0.93798603  0.88053982  0.21546236
   0.44165631  0.61927982  0.26940793
   0.93992055  0.61669387  0.21676047
   0.43757820  0.38073536  0.21790590
   0.93751894  0.38027298  0.27086877
   0.43765208  0.11818924  0.21862788
   0.93794558  0.11707539  0.26935479
   0.18784465  0.99872596  0.24321432
   0.68811822  0.99909314  0.24263003
   0.18931927  0.49945736  0.24752881
   0.68852593  0.49846861  0.24233031
   0.40650577  0.60454735  0.48986352
   0.24110436  0.69456911  0.49360468
   0.28470187  0.52422444  0.43595089
Direct configuration=    36
   0.43856852  0.87916718  0.26656926
   0.93810183  0.88046063  0.21568692
   0.44198749  0.61924177  0.26934323
   0.94012137  0.61686812  0.21685172
   0.43743833  0.38076075  0.21772713
   0.93752480  0.38029334  0.27072676
   0.43772443  0.11811735  0.21843892
   0.93799762  0.11731242  0.26906993
   0.18787495  0.99875395  0.24322576
   0.68829786  0.99908847  0.24252525
   0.18923181  0.49936190  0.24768304
   0.68872898  0.49850349  0.24195570
   0.40620060  0.60444443  0.48989663
   0.24079820  0.69441400  0.49396016
   0.28417407  0.52410569  0.43633961
Direct configuration=    37
   0.43886417  0.87941348  0.26670398
   0.93829700  0.88032717  0.21606539
   0.44254567  0.61917765  0.26923419
   0.94045985  0.61716179  0.21700551
   0.43720259  0.38080354  0.21742582
   0.93753468  0.38032765  0.27048740
   0.43784636  0.11799620  0.21812042
   0.93808533  0.11771192  0.26858983
   0.18792603  0.99880113  0.24324505
   0.68860063  0.99908059  0.24234864
   0.18908440  0.49920103  0.24794297
   0.68907121  0.49856227  0.24132433
   0.40568625  0.60427095  0.48995242
   0.24028219  0.69415258  0.49455929
   0.28328450  0.52390555  0.43699475
Direct configuration=    38
   0.43903292  0.87958460  0.26666800
   0.93848988  0.88038687  0.21633108
   0.44261105  0.61912196  0.26917048
   0.94049209  0.61719328  0.21712982
   0.43715468  0.38083818  0.21736969
   0.93746928  0.38034530  0.27028267
   0.43789879  0.11793840  0.21789527
   0.93811658  0.11776217  0.26840893
   0.18812658  0.99885052  0.24324870
   0.68861694  0.99915778  0.24221609
   0.18929597  0.49919648  0.24804832
   0.68932474  0.49860785  0.24100593
   0.40570744  0.60418560  0.49005326
   0.23988554  0.69405813  0.49489396
   0.28254839  0.52366637  0.43727779
Direct configuration=    39
   0.43916731  0.87972087  0.26663935
   0.93864349  0.88043442  0.21654266
   0.44266311  0.61907761  0.26911975
   0.94051777  0.61721836  0.21722883
   0.43711653  0.38086577  0.21732499
   0.93741720  0.38035936  0.27011962
   0.43794054  0.11789237  0.21771597
   0.93814147  0.11780220  0.26826487
   0.18828629  0.99888985  0.24325161
   0.68862992  0.99921925  0.24211053
   0.18946445  0.49919285  0.24813222
   0.68952664  0.49864415  0.24075237
   0.40572431  0.60411763  0.49013356
   0.23956967  0.69398292  0.49516049
   0.28196217  0.52347589  0.43750319
Direct configuration=    40
   0.43936772  0.87973436  0.26651871
   0.93890415  0.88048429  0.21683881
   0.44266028  0.61912699  0.26905267
   0.94066737  0.61725962  0.21738786
   0.43728372  0.38085489  0.21733346
   0.93743131  0.38030448  0.26982388
   0.43798572  0.11799636  0.21742292
   0.93820246  0.11779582  0.26814577
   0.18847545  0.99901054  0.24325555
   0.68871819  0.99938641  0.24193823
   0.18971737  0.49925942  0.24820516
   0.68942174  0.49865685  0.24046058
   0.40526909  0.60406458  0.49020139
   0.23945823  0.69371245  0.49554759
   0.28120806  0.52324644  0.43786740
Direct configuration=    41
   0.43945316  0.87974011  0.26646729
   0.93901527  0.88050554  0.21696506
   0.44265908  0.61914804  0.26902407
   0.94073115  0.61727721  0.21745565
   0.43735499  0.38085025  0.21733708
   0.93743732  0.38028108  0.26969781
   0.43800498  0.11804070  0.21729800
   0.93822846  0.11779311  0.26809500
   0.18855609  0.99906199  0.24325723
   0.68875582  0.99945767  0.24186477
   0.18982520  0.49928780  0.24823626
   0.68937702  0.49866226  0.24033619
   0.40507502  0.60404196  0.49023030
   0.23941073  0.69359715  0.49571262
   0.28088658  0.52314862  0.43802267
Direct configuration=    42
   0.43962404  0.87975162  0.26636443
   0.93923752  0.88054806  0.21721757
   0.44265667  0.61919015  0.26896688
   0.94085870  0.61731240  0.21759124
   0.43749753  0.38084097  0.21734430
   0.93744935  0.38023429  0.26944566
   0.43804350  0.11812936  0.21704815
   0.93828046  0.11778767  0.26799346
   0.18871737  0.99916489  0.24326060
   0.68883107  0.99960020  0.24171787
   0.19004084  0.49934456  0.24829845
   0.68928758  0.49867308  0.24008741
   0.40468690  0.60399672  0.49028813
   0.23931572  0.69336654  0.49604266
   0.28024362  0.52295299  0.43833320
Direct configuration=    43
   0.43952876  0.87974520  0.26642178
   0.93911360  0.88052435  0.21707677
   0.44265801  0.61916667  0.26899877
   0.94078758  0.61729278  0.21751563
   0.43741805  0.38084614  0.21734027
   0.93744264  0.38026038  0.26958626
   0.43802202  0.11807992  0.21718747
   0.93825146  0.11779070  0.26805008
   0.18862744  0.99910752  0.24325872
   0.68878911  0.99952072  0.24179978
   0.18992060  0.49931291  0.24826377
   0.68933746  0.49866705  0.24022613
   0.40490332  0.60402194  0.49025588
   0.23936870  0.69349513  0.49585863
   0.28060213  0.52306207  0.43816005
Direct configuration=    44
   0.43977906  0.87973606  0.26621212
   0.93933036  0.88045477  0.21730784
   0.44274437  0.61933668  0.26892096
   0.94103579  0.61739205  0.21770104
   0.43761266  0.38079765  0.21737089
   0.93760337  0.38018485  0.26921690
   0.43808104  0.11828148  0.21691203
   0.93838104  0.11791220  0.26799570
   0.18888155  0.99924428  0.24326586
   0.68889999  0.99965274  0.24158625
   0.18978583  0.49931918  0.24829121
   0.68929226  0.49870363  0.24002376
   0.40472210  0.60366704  0.49031273
   0.23887780  0.69337710  0.49630416
   0.27974366  0.52283380  0.43857856
Direct configuration=    45
   0.43978554  0.87973582  0.26620669
   0.93933597  0.88045296  0.21731382
   0.44274661  0.61934108  0.26891894
   0.94104221  0.61739462  0.21770584
   0.43761769  0.38079640  0.21737168
   0.93760753  0.38018289  0.26920734
   0.43808256  0.11828670  0.21690490
   0.93838439  0.11791535  0.26799429
   0.18888813  0.99924782  0.24326604
   0.68890286  0.99965615  0.24158072
   0.18978234  0.49931934  0.24829192
   0.68929109  0.49870458  0.24001853
   0.40471741  0.60365786  0.49031421
   0.23886509  0.69337404  0.49631570
   0.27972144  0.52282789  0.43858939
Direct configuration=    46
   0.43993244  0.87985811  0.26602920
   0.93940394  0.88041012  0.21733841
   0.44281345  0.61936809  0.26885028
   0.94110638  0.61748499  0.21781283
   0.43758391  0.38086597  0.21740327
   0.93768394  0.38014930  0.26899132
   0.43816202  0.11833228  0.21685141
   0.93850514  0.11803055  0.26798863
   0.18899635  0.99928681  0.24327207
   0.68901147  0.99966366  0.24143822
   0.18973730  0.49926723  0.24825674
   0.68943946  0.49877467  0.24002359
   0.40457507  0.60357969  0.49040491
   0.23875268  0.69320698  0.49656900
   0.27906732  0.52261504  0.43877011
Direct configuration=    47
   0.44003706  0.87994520  0.26590279
   0.93945235  0.88037960  0.21735593
   0.44286106  0.61938733  0.26880138
   0.94115208  0.61754936  0.21788904
   0.43755986  0.38091552  0.21742576
   0.93773836  0.38012538  0.26883746
   0.43821861  0.11836474  0.21681330
   0.93859114  0.11811261  0.26798459
   0.18907343  0.99931458  0.24327636
   0.68908883  0.99966900  0.24133673
   0.18970523  0.49923011  0.24823169
   0.68954513  0.49882459  0.24002719
   0.40447369  0.60352402  0.49046952
   0.23867262  0.69308799  0.49674942
   0.27860142  0.52246345  0.43889882
Direct configuration=    48
   0.44013979  0.88001800  0.26573940
   0.93954561  0.88042911  0.21731762
   0.44288396  0.61938677  0.26872608
   0.94117997  0.61763832  0.21798319
   0.43755928  0.38100993  0.21745448
   0.93774098  0.38010062  0.26866716
   0.43832715  0.11839554  0.21683195
   0.93869091  0.11812234  0.26794737
   0.18906029  0.99935129  0.24327665
   0.68930619  0.99971058  0.24119580
   0.18983486  0.49923127  0.24816601
   0.68960987  0.49888718  0.24009854
   0.40416439  0.60331587  0.49048682
   0.23858001  0.69293208  0.49698863
   0.27814761  0.52236459  0.43912029
Direct configuration=    49
   0.44024493  0.88009251  0.26557219
   0.93964106  0.88047977  0.21727840
   0.44290739  0.61938620  0.26864902
   0.94120851  0.61772935  0.21807954
   0.43755869  0.38110654  0.21748387
   0.93774367  0.38007528  0.26849286
   0.43843823  0.11842707  0.21685103
   0.93879301  0.11813231  0.26790927
   0.18904685  0.99938887  0.24327696
   0.68952863  0.99975314  0.24105158
   0.18996753  0.49923246  0.24809880
   0.68967613  0.49895123  0.24017155
   0.40384785  0.60310284  0.49050452
   0.23848523  0.69277251  0.49723345
   0.27768316  0.52226341  0.43934696
Direct configuration=    50
   0.44033155  0.88007776  0.26543123
   0.93977641  0.88054697  0.21719717
   0.44290118  0.61944537  0.26858281
   0.94125994  0.61780082  0.21816324
   0.43767110  0.38113484  0.21750140
   0.93776036  0.38006802  0.26836638
   0.43854472  0.11849700  0.21690540
   0.93886575  0.11812203  0.26784008
   0.18915696  0.99942938  0.24326895
   0.68962089  0.99981918  0.24091648
   0.19000857  0.49929606  0.24800921
   0.68970233  0.49899540  0.24027252
   0.40373223  0.60291111  0.49056230
   0.23832943  0.69264328  0.49746853
   0.27710945  0.52210626  0.43951428
Direct configuration=    51
   0.44059141  0.88003353  0.26500838
   0.94018248  0.88074859  0.21695348
   0.44288256  0.61962286  0.26838420
   0.94141425  0.61801524  0.21841434
   0.43800832  0.38121976  0.21755401
   0.93781043  0.38004622  0.26798694
   0.43886416  0.11870681  0.21706852
   0.93908400  0.11809121  0.26763249
   0.18948730  0.99955090  0.24324490
   0.68989764  0.00001733  0.24051119
   0.19013170  0.49948683  0.24774045
   0.68978095  0.49912791  0.24057542
   0.40338537  0.60233593  0.49073562
   0.23786201  0.69225560  0.49817378
   0.27538829  0.52163479  0.44001626
Direct configuration=    52
   0.44073746  0.88000956  0.26486481
   0.94033969  0.88080587  0.21683760
   0.44285502  0.61970293  0.26832559
   0.94143177  0.61808696  0.21848294
   0.43816664  0.38123317  0.21758084
   0.93794284  0.38006697  0.26789263
   0.43894540  0.11883479  0.21713455
   0.93916277  0.11814187  0.26752563
   0.18973659  0.99958586  0.24322268
   0.68987869  0.00003044  0.24037440
   0.19009126  0.49954408  0.24762201
   0.68983459  0.49919217  0.24068856
   0.40304089  0.60219437  0.49080028
   0.23786688  0.69200892  0.49844504
   0.27474040  0.52145554  0.44020242
Direct configuration=    53
   0.44085846  0.87998970  0.26474586
   0.94046994  0.88085333  0.21674158
   0.44283221  0.61976927  0.26827703
   0.94144628  0.61814639  0.21853978
   0.43829781  0.38124428  0.21760307
   0.93805254  0.38008415  0.26781450
   0.43901271  0.11894083  0.21718925
   0.93922802  0.11818384  0.26743709
   0.18994313  0.99961482  0.24320427
   0.68986299  0.00004130  0.24026107
   0.19005775  0.49959151  0.24752388
   0.68987902  0.49924542  0.24078229
   0.40275549  0.60207708  0.49085386
   0.23787091  0.69180455  0.49866979
   0.27420361  0.52130703  0.44035666
Direct configuration=    54
   0.44097765  0.87998960  0.26468654
   0.94055340  0.88088989  0.21666934
   0.44278332  0.61978065  0.26826522
   0.94138166  0.61818749  0.21853568
   0.43837505  0.38128758  0.21763898
   0.93821512  0.38012880  0.26782127
   0.43902812  0.11902884  0.21722095
   0.93926733  0.11822987  0.26734026
   0.19001546  0.99963690  0.24317254
   0.68991704  0.00000586  0.24020139
   0.19008811  0.49959174  0.24743846
   0.68991381  0.49929137  0.24084221
   0.40260406  0.60190287  0.49086078
   0.23777678  0.69170511  0.49883654
   0.27387397  0.52123692  0.44046984
Direct configuration=    55
   0.44133520  0.87998928  0.26450859
   0.94080379  0.88099956  0.21645263
   0.44263666  0.61981480  0.26822979
   0.94118780  0.61831078  0.21852337
   0.43860678  0.38141751  0.21774674
   0.93870286  0.38026275  0.26784157
   0.43907436  0.11929287  0.21731604
   0.93938526  0.11836797  0.26704974
   0.19023244  0.99970315  0.24307733
   0.69007918 -0.00010047  0.24002233
   0.19017920  0.49959245  0.24718221
   0.69001816  0.49942923  0.24102196
   0.40214977  0.60138026  0.49088153
   0.23749439  0.69140678  0.49933680
   0.27288503  0.52102658  0.44080937
Direct configuration=    56
   0.44125065  0.87998935  0.26455067
   0.94074458  0.88097362  0.21650388
   0.44267135  0.61980672  0.26823817
   0.94123364  0.61828163  0.21852628
   0.43855198  0.38138678  0.21772126
   0.93858752  0.38023108  0.26783677
   0.43906342  0.11923043  0.21729356
   0.93935737  0.11833532  0.26711844
   0.19018113  0.99968749  0.24309984
   0.69004084 -0.00007533  0.24006467
   0.19015766  0.49959228  0.24724281
   0.68999348  0.49939663  0.24097945
   0.40225720  0.60150384  0.49087662
   0.23756117  0.69147733  0.49921850
   0.27311889  0.52107632  0.44072908
Direct configuration=    57
   0.44132489  0.88000816  0.26450481
   0.94083404  0.88100052  0.21644045
   0.44262175  0.61981697  0.26824227
   0.94118145  0.61831665  0.21849302
   0.43864104  0.38142838  0.21775845
   0.93870628  0.38028260  0.26786725
   0.43910810  0.11926588  0.21731723
   0.93938640  0.11835880  0.26701573
   0.19020939  0.99971895  0.24305663
   0.69012890 -0.00006142  0.24001545
   0.19020310  0.49961394  0.24715920
   0.69004666  0.49942368  0.24103595
   0.40217074  0.60139683  0.49091388
   0.23748943  0.69136162  0.49937952
   0.27271871  0.52096194  0.44080014
Direct configuration=    58
   0.44151320  0.88005586  0.26438850
   0.94106097  0.88106873  0.21627958
   0.44249594  0.61984294  0.26825267
   0.94104907  0.61840547  0.21840867
   0.43886694  0.38153390  0.21785280
   0.93900751  0.38041330  0.26794455
   0.43922141  0.11935579  0.21737728
   0.93946004  0.11841835  0.26675522
   0.19028105  0.99979874  0.24294702
   0.69035226 -0.00002615  0.23989062
   0.19031836  0.49966890  0.24694711
   0.69018156  0.49949231  0.24117926
   0.40195143  0.60112539  0.49100840
   0.23730746  0.69106814  0.49978794
   0.27170366  0.52067183  0.44098039
Direct configuration=    59
   0.44150517  0.88010845  0.26435418
   0.94114126  0.88106869  0.21622924
   0.44250211  0.61988244  0.26828184
   0.94107526  0.61841822  0.21833598
   0.43898489  0.38152434  0.21788075
   0.93902906  0.38044997  0.26799376
   0.43932960  0.11932845  0.21738226
   0.93950179  0.11845291  0.26666459
   0.19034716  0.99983021  0.24288202
   0.69039490  0.00004349  0.23984284
   0.19033073  0.49975614  0.24686830
   0.69023695  0.49951302  0.24124664
   0.40174976  0.60100294  0.49101530
   0.23727900  0.69091958  0.49995667
   0.27136322  0.52059464  0.44106563
Direct configuration=    60
   0.44148108  0.88026624  0.26425121
   0.94138216  0.88106856  0.21607822
   0.44252062  0.62000093  0.26836936
   0.94115384  0.61845645  0.21811790
   0.43933874  0.38149565  0.21796461
   0.93909371  0.38056001  0.26814141
   0.43965417  0.11924644  0.21739718
   0.93962703  0.11855658  0.26639271
   0.19054548  0.99992461  0.24268704
   0.69052281  0.00025242  0.23969950
   0.19036785  0.50001788  0.24663187
   0.69040313  0.49957515  0.24144876
   0.40114475  0.60063560  0.49103600
   0.23719360  0.69047390  0.50046286
   0.27034189  0.52036306  0.44132137
Direct configuration=    61
   0.44148763  0.88022333  0.26427921
   0.94131664  0.88106860  0.21611930
   0.44251559  0.61996871  0.26834556
   0.94113247  0.61844606  0.21817721
   0.43924250  0.38150345  0.21794181
   0.93907613  0.38053008  0.26810125
   0.43956589  0.11926874  0.21739312
   0.93959297  0.11852839  0.26646665
   0.19049154  0.99989893  0.24274007
   0.69048802  0.00019560  0.23973848
   0.19035776  0.49994669  0.24669617
   0.69035793  0.49955825  0.24139379
   0.40130930  0.60073550  0.49103037
   0.23721683  0.69059511  0.50032519
   0.27061967  0.52042605  0.44125181
Direct configuration=    62
   0.44148388  0.88027201  0.26425392
   0.94134398  0.88108377  0.21607673
   0.44258049  0.62001967  0.26838722
   0.94118995  0.61844042  0.21807534
   0.43931543  0.38149716  0.21796414
   0.93910282  0.38058306  0.26815454
   0.43968338  0.11928567  0.21736395
   0.93968238  0.11858367  0.26638935
   0.19051189  0.99992599  0.24265337
   0.69058717  0.00022320  0.23969150
   0.19041276  0.50001618  0.24662379
   0.69037004  0.49959876  0.24147679
   0.40121627  0.60054723  0.49103624
   0.23706905  0.69047728  0.50051967
   0.27022139  0.52033941  0.44133343
Direct configuration=    63
   0.44147568  0.88037830  0.26419872
   0.94140365  0.88111688  0.21598382
   0.44272216  0.62013092  0.26847817
   0.94131543  0.61842813  0.21785296
   0.43947462  0.38148343  0.21801290
   0.93916108  0.38069873  0.26827086
   0.43993987  0.11932263  0.21730028
   0.93987756  0.11870434  0.26622060
   0.19055630  0.99998505  0.24246411
   0.69080363  0.00028346  0.23958894
   0.19053282  0.50016787  0.24646577
   0.69039646  0.49968721  0.24165798
   0.40101320  0.60013622  0.49104907
   0.23674643  0.69022005  0.50094421
   0.26935196  0.52015027  0.44151161
Direct configuration=    64
   0.44152247  0.88042844  0.26417788
   0.94138497  0.88114187  0.21593303
   0.44281608  0.62018641  0.26853603
   0.94137469  0.61840670  0.21771821
   0.43948427  0.38153508  0.21803284
   0.93925223  0.38080762  0.26832794
   0.44005011  0.11939111  0.21722256
   0.94002442  0.11877766  0.26615325
   0.19059550  0.00002739  0.24233991
   0.69090015  0.00026599  0.23954481
   0.19064793  0.50017798  0.24639524
   0.69042161  0.49974665  0.24176581
   0.40082028  0.59998687  0.49107168
   0.23667294  0.68999542  0.50118950
   0.26880321  0.52001831  0.44159133
Direct configuration=    65
   0.44160778  0.88051987  0.26413987
   0.94135090  0.88118742  0.21584041
   0.44298735  0.62028760  0.26864153
   0.94148276  0.61836762  0.21747248
   0.43950187  0.38162927  0.21806919
   0.93941844  0.38100619  0.26843203
   0.44025113  0.11951599  0.21708085
   0.94029224  0.11891135  0.26603043
   0.19066697  0.00010461  0.24211341
   0.69107617  0.00023413  0.23946432
   0.19085784  0.50019642  0.24626662
   0.69046748  0.49985505  0.24196243
   0.40046847  0.59971451  0.49111291
   0.23653892  0.68958580  0.50163681
   0.26780253  0.51977768  0.44173670
Direct configuration=    66
   0.44167464  0.88057884  0.26412620
   0.94137533  0.88120061  0.21577622
   0.44300387  0.62033045  0.26870064
   0.94152212  0.61836100  0.21736989
   0.43955084  0.38172995  0.21806133
   0.93954949  0.38109996  0.26847442
   0.44031659  0.11955387  0.21696603
   0.94038651  0.11893261  0.26600525
   0.19080868  0.00015704  0.24198772
   0.69105322  0.00027414  0.23945525
   0.19090211  0.50019293  0.24623344
   0.69058440  0.49989520  0.24204526
   0.40021863  0.59949590  0.49108646
   0.23643983  0.68937732  0.50187685
   0.26738460  0.51971368  0.44183505
Direct configuration=    67
   0.44174123  0.88063759  0.26411258
   0.94139966  0.88121376  0.21571226
   0.44302032  0.62037315  0.26875953
   0.94156133  0.61835441  0.21726768
   0.43959963  0.38183024  0.21805350
   0.93968004  0.38119336  0.26851665
   0.44038178  0.11959160  0.21685165
   0.94048041  0.11895378  0.26598017
   0.19094985  0.00020928  0.24186251
   0.69103036  0.00031400  0.23944621
   0.19094622  0.50018944  0.24620039
   0.69070087  0.49993519  0.24212777
   0.39996976  0.59927812  0.49106010
   0.23634113  0.68916965  0.50211596
   0.26696828  0.51964991  0.44193302
Direct configuration=    68
   0.44179920  0.88069382  0.26410646
   0.94147324  0.88126068  0.21563089
   0.44299267  0.62040154  0.26882381
   0.94160440  0.61837352  0.21719904
   0.43973841  0.38192202  0.21801336
   0.93981009  0.38120934  0.26855973
   0.44042899  0.11963721  0.21670530
   0.94053261  0.11893608  0.26598295
   0.19101736  0.00024695  0.24172449
   0.69108777  0.00039454  0.23945876
   0.19099079  0.50024330  0.24618557
   0.69079382  0.49999081  0.24219699
   0.39986020  0.59907527  0.49105593
   0.23619074  0.68896813  0.50236328
   0.26645058  0.51954029  0.44199347
Direct configuration=    69
   0.44196804  0.88085761  0.26408864
   0.94168754  0.88139737  0.21539384
   0.44291212  0.62048424  0.26901103
   0.94172987  0.61842917  0.21699908
   0.44014267  0.38218938  0.21789642
   0.94018893  0.38125588  0.26868520
   0.44056648  0.11977008  0.21627899
   0.94068466  0.11888450  0.26599103
   0.19121399  0.00035669  0.24132248
   0.69125498  0.00062913  0.23949531
   0.19112059  0.50040015  0.24614242
   0.69106457  0.50015280  0.24239859
   0.39954110  0.59848438  0.49104376
   0.23575270  0.68838114  0.50308366
   0.26494261  0.51922098  0.44216953
Direct configuration=    70
   0.44202014  0.88093530  0.26408601
   0.94173925  0.88146709  0.21528504
   0.44292531  0.62052321  0.26908435
   0.94177110  0.61846962  0.21696660
   0.44031517  0.38226005  0.21782575
   0.94028698  0.38124251  0.26872852
   0.44062846  0.11982308  0.21611886
   0.94077215  0.11889725  0.26601454
   0.19125022  0.00038293  0.24117936
   0.69134499  0.00067939  0.23951045
   0.19120207  0.50046812  0.24613148
   0.69110875  0.50021689  0.24245433
   0.39926683  0.59833441  0.49104061
   0.23572982  0.68809050  0.50334499
   0.26440962  0.51910314  0.44222913
Direct configuration=    71
   0.44208352  0.88102982  0.26408280
   0.94180215  0.88155192  0.21515268
   0.44294136  0.62057062  0.26917354
   0.94182125  0.61851882  0.21692709
   0.44052502  0.38234602  0.21773976
   0.94040627  0.38122624  0.26878121
   0.44070385  0.11988756  0.21592405
   0.94087859  0.11891277  0.26604314
   0.19129428  0.00041486  0.24100525
   0.69145449  0.00074054  0.23952887
   0.19130120  0.50055080  0.24611818
   0.69116249  0.50029486  0.24252213
   0.39893316  0.59815196  0.49103676
   0.23570199  0.68773692  0.50366290
   0.26376123  0.51895978  0.44230163
Direct configuration=    72
   0.44211370  0.88111432  0.26408798
   0.94179204  0.88161386  0.21502692
   0.44301839  0.62062425  0.26924558
   0.94185753  0.61856049  0.21695358
   0.44063503  0.38239692  0.21764881
   0.94044616  0.38125451  0.26880956
   0.44078956  0.11990519  0.21578966
   0.94100527  0.11895736  0.26608270
   0.19135247  0.00045639  0.24087636
   0.69150694  0.00076554  0.23953610
   0.19137879  0.50057601  0.24611002
   0.69121802  0.50033963  0.24255767
   0.39873216  0.59792654  0.49100523
   0.23558664  0.68752141  0.50390727
   0.26333817  0.51888107  0.44236255
Direct configuration=    73
   0.44220421  0.88136781  0.26410352
   0.94176169  0.88179968  0.21464961
   0.44324947  0.62078516  0.26946172
   0.94196636  0.61868549  0.21703305
   0.44096505  0.38254962  0.21737596
   0.94056582  0.38133933  0.26889461
   0.44104669  0.11995810  0.21538648
   0.94138530  0.11909113  0.26620135
   0.19152702  0.00058098  0.24048967
   0.69166431  0.00084053  0.23955779
   0.19161157  0.50065164  0.24608557
   0.69138460  0.50047393  0.24266431
   0.39812917  0.59725029  0.49091065
   0.23524061  0.68687489  0.50464039
   0.26206900  0.51864493  0.44254530
Direct configuration=    74
   0.44218302  0.88130846  0.26409988
   0.94176879  0.88175618  0.21473794
   0.44319537  0.62074749  0.26941112
   0.94194088  0.61865623  0.21701444
   0.44088779  0.38251387  0.21743984
   0.94053781  0.38131947  0.26887470
   0.44098650  0.11994572  0.21548087
   0.94129633  0.11905981  0.26617358
   0.19148616  0.00055181  0.24058020
   0.69162747  0.00082297  0.23955271
   0.19155707  0.50063393  0.24609129
   0.69134560  0.50044249  0.24263935
   0.39827033  0.59740860  0.49093279
   0.23532162  0.68702624  0.50446877
   0.26236612  0.51870021  0.44250252
Direct configuration=    75
   0.44219062  0.88138496  0.26411961
   0.94174205  0.88183317  0.21457474
   0.44329947  0.62078719  0.26949315
   0.94203523  0.61870373  0.21708423
   0.44092717  0.38260487  0.21732042
   0.94059595  0.38142968  0.26889544
   0.44114497  0.11995109  0.21532982
   0.94144843  0.11908667  0.26621453
   0.19155159  0.00063487  0.24043423
   0.69170587  0.00089463  0.23955003
   0.19164273  0.50063084  0.24608133
   0.69143290  0.50047755  0.24266627
   0.39817565  0.59718183  0.49094132
   0.23515175  0.68676078  0.50477194
   0.26172647  0.51853164  0.44252293
Direct configuration=    76
   0.44219371  0.88141612  0.26412765
   0.94173116  0.88186454  0.21450826
   0.44334188  0.62080336  0.26952657
   0.94207367  0.61872308  0.21711266
   0.44094321  0.38264195  0.21727176
   0.94061963  0.38147458  0.26890389
   0.44120953  0.11995328  0.21526828
   0.94151040  0.11909761  0.26623122
   0.19157825  0.00066871  0.24037476
   0.69173781  0.00092382  0.23954894
   0.19167763  0.50062958  0.24607727
   0.69146847  0.50049183  0.24267723
   0.39813708  0.59708944  0.49094480
   0.23508255  0.68665263  0.50489546
   0.26146588  0.51846296  0.44253125
Direct configuration=    77
   0.44219990  0.88147845  0.26414373
   0.94170937  0.88192728  0.21437528
   0.44342670  0.62083570  0.26959341
   0.94215054  0.61876179  0.21716952
   0.44097529  0.38271609  0.21717446
   0.94066701  0.38156438  0.26892079
   0.44133866  0.11995767  0.21514520
   0.94163433  0.11911949  0.26626460
   0.19163156  0.00073639  0.24025582
   0.69180169  0.00098220  0.23954675
   0.19174743  0.50062707  0.24606915
   0.69153961  0.50052039  0.24269917
   0.39805994  0.59690466  0.49095175
   0.23494414  0.68643633  0.50514249
   0.26094469  0.51832561  0.44254788
Direct configuration=    78
   0.44219552  0.88143425  0.26413233
   0.94172482  0.88188279  0.21446958
   0.44336655  0.62081276  0.26954601
   0.94209602  0.61873434  0.21712920
   0.44095254  0.38266351  0.21724347
   0.94063341  0.38150069  0.26890881
   0.44124709  0.11995456  0.21523248
   0.94154644  0.11910397  0.26624093
   0.19159375  0.00068840  0.24034017
   0.69175638  0.00094080  0.23954830
   0.19169793  0.50062885  0.24607491
   0.69148916  0.50050014  0.24268361
   0.39811465  0.59703570  0.49094682
   0.23504230  0.68658972  0.50496730
   0.26131431  0.51842302  0.44253608
Direct configuration=    79
   0.44219778  0.88145704  0.26413821
   0.94171685  0.88190573  0.21442095
   0.44339757  0.62082459  0.26957046
   0.94212414  0.61874850  0.21715000
   0.44096428  0.38269063  0.21720787
   0.94065074  0.38153354  0.26891499
   0.44129432  0.11995616  0.21518747
   0.94159177  0.11911198  0.26625313
   0.19161325  0.00071315  0.24029667
   0.69177975  0.00096215  0.23954750
   0.19172346  0.50062793  0.24607194
   0.69151518  0.50051058  0.24269163
   0.39808643  0.59696811  0.49094936
   0.23499167  0.68651061  0.50505765
   0.26112368  0.51837278  0.44254217
Direct configuration=    80
   0.44219636  0.88144275  0.26413452
   0.94172185  0.88189134  0.21445145
   0.44337811  0.62081717  0.26955513
   0.94210651  0.61873962  0.21713695
   0.44095692  0.38267362  0.21723019
   0.94063987  0.38151294  0.26891111
   0.44126470  0.11995516  0.21521570
   0.94156334  0.11910696  0.26624548
   0.19160102  0.00069763  0.24032395
   0.69176510  0.00094876  0.23954800
   0.19170745  0.50062851  0.24607380
   0.69149886  0.50050403  0.24268660
   0.39810413  0.59701050  0.49094777
   0.23502342  0.68656022  0.50500099
   0.26124323  0.51840429  0.44253835
Direct configuration=    81
   0.44217714  0.88147804  0.26416238
   0.94173534  0.88196327  0.21433870
   0.44343547  0.62079388  0.26960542
   0.94222893  0.61879555  0.21720379
   0.44092622  0.38274532  0.21714275
   0.94069920  0.38158628  0.26892336
   0.44140815  0.11998622  0.21511423
   0.94164393  0.11912015  0.26625937
   0.19165631  0.00075584  0.24022335
   0.69183788  0.00102090  0.23953398
   0.19179227  0.50065619  0.24607191
   0.69153127  0.50054553  0.24269046
   0.39785407  0.59683337  0.49094235
   0.23499407  0.68630326  0.50522524
   0.26085061  0.51830969  0.44256271
Direct configuration=    82
   0.44217101  0.88148931  0.26417128
   0.94173965  0.88198624  0.21430269
   0.44345380  0.62078644  0.26962149
   0.94226804  0.61881342  0.21722513
   0.44091642  0.38276823  0.21711482
   0.94071815  0.38160971  0.26892727
   0.44145398  0.11999615  0.21508181
   0.94166968  0.11912436  0.26626381
   0.19167397  0.00077443  0.24019122
   0.69186112  0.00104394  0.23952950
   0.19181936  0.50066503  0.24607131
   0.69154163  0.50055878  0.24269169
   0.39777419  0.59677679  0.49094062
   0.23498469  0.68622118  0.50529687
   0.26072519  0.51827948  0.44257049
Direct configuration=    83
   0.44217380  0.88149398  0.26418461
   0.94179221  0.88201510  0.21429628
   0.44345523  0.62076346  0.26962769
   0.94230876  0.61885628  0.21723957
   0.44090948  0.38276527  0.21710066
   0.94073077  0.38158144  0.26892922
   0.44147223  0.12003279  0.21507003
   0.94166805  0.11914378  0.26624969
   0.19170357  0.00077623  0.24017676
   0.69184290  0.00104564  0.23951578
   0.19180810  0.50070910  0.24608003
   0.69154463  0.50057913  0.24267669
   0.39771239  0.59667734  0.49092442
   0.23494926  0.68616976  0.50534952
   0.26069948  0.51828419  0.44257905
Direct configuration=    84
   0.44217473  0.88149553  0.26418902
   0.94180962  0.88202466  0.21429416
   0.44345570  0.62075585  0.26962974
   0.94232224  0.61887048  0.21724435
   0.44090718  0.38276429  0.21709597
   0.94073495  0.38157207  0.26892987
   0.44147828  0.12004493  0.21506613
   0.94166751  0.11915021  0.26624502
   0.19171337  0.00077683  0.24017197
   0.69183686  0.00104621  0.23951124
   0.19180438  0.50072370  0.24608292
   0.69154562  0.50058586  0.24267172
   0.39769192  0.59664440  0.49091905
   0.23493753  0.68615273  0.50536695
   0.26069097  0.51828575  0.44258189
Direct configuration=    85
   0.44218894  0.88149595  0.26420446
   0.94187877  0.88205635  0.21430262
   0.44345707  0.62073869  0.26963352
   0.94234572  0.61892304  0.21725877
   0.44089648  0.38277161  0.21708850
   0.94073866  0.38155196  0.26892240
   0.44147788  0.12007980  0.21506510
   0.94165194  0.11916256  0.26621431
   0.19174821  0.00079348  0.24016532
   0.69182585  0.00104756  0.23948957
   0.19177641  0.50076014  0.24609943
   0.69157175  0.50059491  0.24264348
   0.39768227  0.59658668  0.49093545
   0.23492188  0.68607504  0.50541846
   0.26060903  0.51825572  0.44255861
