V2O5                                    
   1.0000000000000000     
    15.0000000000000000    0.0000000000000000    0.0000000000000000
     0.0000000000000000   15.0000000000000000    0.0000000000000000
     0.0000000000000000    0.0000000000000000   15.0000000000000018
   O    H 
     1     2
Selective dynamics
Direct
  0.5054716328169214  0.5054689817643987  0.5001106763061244   T   T   T
  0.5708177588363205  0.4897108885143833  0.4999982086492314   T   T   T
  0.4897106083467611  0.5708201297212206  0.4998911150446517   T   T   T

  0.00000000E+00  0.00000000E+00  0.00000000E+00
  0.00000000E+00  0.00000000E+00  0.00000000E+00
  0.00000000E+00  0.00000000E+00  0.00000000E+00
