Al   C    Te   H                        
   1.0000000000000000     
     6.0191999999999997    0.0000000000000000    0.0000000000000000
     0.0000000000000000   10.1400000000000006    0.0000000000000000
     0.0000000000000000    0.0000000000000000   15.0000000000000000
   Al   C    Te   H 
     8     4     1     2
Selective dynamics
Direct
  0.4324174943003882  0.8766562893614207  0.2355377877882603   F   F   F
  0.9321249628573440  0.8771631940168589  0.2623299147148330   F   F   F
  0.4328004755086212  0.6174345230307097  0.2385470832237075   F   F   F
  0.9336674246636036  0.6198074656141586  0.2700463462171356   F   F   F
  0.4304822922827043  0.3755298697869236  0.2776796784630307   F   F   F
  0.9326496877507964  0.3774782903000826  0.2419875363099209   F   F   F
  0.4315481453618588  0.1188478497275156  0.2629287848067534   F   F   F
  0.9318271358798640  0.1188291845821823  0.2372246598665768   F   F   F
  0.1821101061304233  0.9975809033657299  0.2477334413844829   F   F   F
  0.6818876074777123  0.9977800923802391  0.2494384320317522   F   F   F
  0.1826620351866453  0.4980250598088318  0.2559291146268166   F   F   F
  0.6824397995686340  0.4985468455608810  0.2609683047285927   F   F   F
  0.5580168596149946  0.4387769898684724  0.4655148566518434   T   T   T
  0.8096075913708916  0.3676470503707421  0.4624223211416876   T   T   T
  0.5065292486058581  0.3517898833495110  0.5601117380445947   T   T   T

  0.00000000E+00  0.00000000E+00  0.00000000E+00
  0.00000000E+00  0.00000000E+00  0.00000000E+00
  0.00000000E+00  0.00000000E+00  0.00000000E+00
  0.00000000E+00  0.00000000E+00  0.00000000E+00
  0.00000000E+00  0.00000000E+00  0.00000000E+00
  0.00000000E+00  0.00000000E+00  0.00000000E+00
  0.00000000E+00  0.00000000E+00  0.00000000E+00
  0.00000000E+00  0.00000000E+00  0.00000000E+00
  0.00000000E+00  0.00000000E+00  0.00000000E+00
  0.00000000E+00  0.00000000E+00  0.00000000E+00
  0.00000000E+00  0.00000000E+00  0.00000000E+00
  0.00000000E+00  0.00000000E+00  0.00000000E+00
  0.00000000E+00  0.00000000E+00  0.00000000E+00
  0.00000000E+00  0.00000000E+00  0.00000000E+00
  0.00000000E+00  0.00000000E+00  0.00000000E+00
