Al   C    Te   H 
   1.0000000000000000     
   6.0191999999999997   0.0000000000000000   0.0000000000000000
   0.0000000000000000  10.1400000000000006   0.0000000000000000
   0.0000000000000000   0.0000000000000000  15.0000000000000000
Al   C    Te   H 
8  4  1  2  
Selective dynamics
Direct
  0.4324174943003864  0.8766562893614186  0.2355377877882615 F F F
  0.9321249628573440  0.8771631940168555  0.2623299147148311 F F F
  0.4328004755086213  0.6174345230307108  0.2385470832237070 F F F
  0.9336674246636012  0.6198074656141617  0.2700463462171345 F F F
  0.4304822922827053  0.3755298697869263  0.2776796784630287 F F F
  0.9326496877507992  0.3774782903000805  0.2419875363099181 F F F
  0.4315481453618580  0.1188478497275171  0.2629287848067536 F F F
  0.9318271358798637  0.1188291845821802  0.2372246598665798 F F F
  0.1821101061304207  0.9975809033657328  0.2477334413844846 F F F
  0.6818876074777118  0.9977800923802410  0.2494384320317540 F F F
  0.1826620351866423  0.4980250598088290  0.2559291146268183 F F F
  0.6824397995686362  0.4985468455608789  0.2609683047285956 F F F
  0.5580168596149925  0.4387769898684700  0.4655148566518405 T T T
  0.8096075913708943  0.3676470503707453  0.4624223211416906 T T T
  0.5065292486058617  0.3517898833495143  0.5611117380445926 T T T
