Al2C                                    
   1.0000000000000000     
     6.0191999999999997    0.0000000000000000    0.0000000000000000
     0.0000000000000000   10.1400000000000006    0.0000000000000000
     0.0000000000000000    0.0000000000000000   15.0000000000000000
   Al   C    O    H 
     8     4     1     2
Selective dynamics
Direct
  0.4623285375987943  0.8181936072256943  0.2902343984944335   T   T   T
  0.9643119230101493  0.8204492758006120  0.2527964653550588   T   T   T
  0.4628700584864717  0.5607934594574656  0.2656685916721515   T   T   T
  0.9631113760744013  0.5607640682720492  0.2441886664656751   T   T   T
  0.4632661419844621  0.3192605156699798  0.2405139762405029   T   T   T
  0.9631378026010354  0.3196575569237554  0.2623698344273175   T   T   T
  0.4643773817695546  0.0578469167570422  0.2466775056813711   T   T   T
  0.9653208858315512  0.0618362137214568  0.2737970603439589   T   T   T
  0.2144394794235779  0.9404567366046673  0.2668998210951691   T   T   T
  0.7148350381372665  0.9411864336476757  0.2699378975856297   T   T   T
  0.2132533653559304  0.4396790192021021  0.2513925219660007   T   T   T
  0.7129497460202389  0.4397901827079790  0.2517346158722289   T   T   T
  0.5024000810579159  0.8388111233229176  0.4270668644662179   T   T   T
  0.6189738455649835  0.9040076054261312  0.4139662926875716   T   T   T
  0.3751952036440218  0.8891607763847041  0.4469554876466939   T   T   T

  0.00000000E+00  0.00000000E+00  0.00000000E+00
  0.00000000E+00  0.00000000E+00  0.00000000E+00
  0.00000000E+00  0.00000000E+00  0.00000000E+00
  0.00000000E+00  0.00000000E+00  0.00000000E+00
  0.00000000E+00  0.00000000E+00  0.00000000E+00
  0.00000000E+00  0.00000000E+00  0.00000000E+00
  0.00000000E+00  0.00000000E+00  0.00000000E+00
  0.00000000E+00  0.00000000E+00  0.00000000E+00
  0.00000000E+00  0.00000000E+00  0.00000000E+00
  0.00000000E+00  0.00000000E+00  0.00000000E+00
  0.00000000E+00  0.00000000E+00  0.00000000E+00
  0.00000000E+00  0.00000000E+00  0.00000000E+00
  0.00000000E+00  0.00000000E+00  0.00000000E+00
  0.00000000E+00  0.00000000E+00  0.00000000E+00
  0.00000000E+00  0.00000000E+00  0.00000000E+00
