Al   C    Te   H                        
   1.0000000000000000     
     6.0191999999999997    0.0000000000000000    0.0000000000000000
     0.0000000000000000   10.1400000000000006    0.0000000000000000
     0.0000000000000000    0.0000000000000000   15.0000000000000000
   Al   C    Te   H 
     8     4     1     2
Selective dynamics
Direct
  0.4084405463158964  0.8704691045364877  0.2495951603502662   T   T   T
  0.9097669451240105  0.8698491077667534  0.2416925747144975   T   T   T
  0.4226242314150770  0.6146746944540092  0.2568929685437501   T   T   T
  0.9116116351638377  0.6158316400002869  0.2604206174650380   T   T   T
  0.4304671718872234  0.3611428737804537  0.2700278091590059   T   T   T
  0.9061076465687993  0.3647796208064297  0.2670935612069425   T   T   T
  0.4097720599731339  0.1131872535410413  0.2369622386942724   T   T   T
  0.9064840891862204  0.1123799491429229  0.2502933418981275   T   T   T
  0.1586810953514269  0.9914361216958484  0.2457667302477739   T   T   T
  0.6588518706577633  0.9891727043741967  0.2403760955527147   T   T   T
  0.1666857171072742  0.4901908958680906  0.2882612946498214   T   T   T
  0.6688630242332251  0.4941965271146257  0.2431803375804549   T   T   T
  0.5783044069830052  0.3496911146726103  0.4425544689999047   T   T   T
  0.4225289810533113  0.2343714908421924  0.4947553387156091   T   T   T
  0.2010957994271774  0.4796617532452908  0.3612399554860714   T   T   T

  0.00000000E+00  0.00000000E+00  0.00000000E+00
  0.00000000E+00  0.00000000E+00  0.00000000E+00
  0.00000000E+00  0.00000000E+00  0.00000000E+00
  0.00000000E+00  0.00000000E+00  0.00000000E+00
  0.00000000E+00  0.00000000E+00  0.00000000E+00
  0.00000000E+00  0.00000000E+00  0.00000000E+00
  0.00000000E+00  0.00000000E+00  0.00000000E+00
  0.00000000E+00  0.00000000E+00  0.00000000E+00
  0.00000000E+00  0.00000000E+00  0.00000000E+00
  0.00000000E+00  0.00000000E+00  0.00000000E+00
  0.00000000E+00  0.00000000E+00  0.00000000E+00
  0.00000000E+00  0.00000000E+00  0.00000000E+00
  0.00000000E+00  0.00000000E+00  0.00000000E+00
  0.00000000E+00  0.00000000E+00  0.00000000E+00
  0.00000000E+00  0.00000000E+00  0.00000000E+00
