Al   C    Te   H                        
   1.0000000000000000     
     6.0191999999999997    0.0000000000000000    0.0000000000000000
     0.0000000000000000   10.1400000000000006    0.0000000000000000
     0.0000000000000000    0.0000000000000000   15.0000000000000000
   Al   C    Te   H 
     8     4     1     2
Selective dynamics
Direct
  0.4094757707508082  0.8703073878453720  0.2497053008047598   T   T   T
  0.9106315535836527  0.8697396465322355  0.2417656436325575   T   T   T
  0.4233144779542634  0.6144722787862233  0.2564119448619516   T   T   T
  0.9119031669513833  0.6157617617191108  0.2599574972144794   T   T   T
  0.4310617209022952  0.3610583217411741  0.2705519185915068   T   T   T
  0.9071431959914584  0.3647561205879219  0.2663412624987742   T   T   T
  0.4106418137164624  0.1130982190052024  0.2374269700601453   T   T   T
  0.9074734932931566  0.1121815679690063  0.2507322088458104   T   T   T
  0.1596366158058244  0.9912278109482521  0.2461986360580939   T   T   T
  0.6597826346424364  0.9890849519570276  0.2407066066528087   T   T   T
  0.1671382183532109  0.4903653532881386  0.2878264033606378   T   T   T
  0.6694248212535499  0.4938545377921421  0.2429563928723032   T   T   T
  0.5763059717486891  0.3491419865806198  0.4431024414440580   T   T   T
  0.4159789756321146  0.2351303645853343  0.4942987780182810   T   T   T
  0.1996403457472130  0.4807074342785367  0.3609838446745067   T   T   T

  0.00000000E+00  0.00000000E+00  0.00000000E+00
  0.00000000E+00  0.00000000E+00  0.00000000E+00
  0.00000000E+00  0.00000000E+00  0.00000000E+00
  0.00000000E+00  0.00000000E+00  0.00000000E+00
  0.00000000E+00  0.00000000E+00  0.00000000E+00
  0.00000000E+00  0.00000000E+00  0.00000000E+00
  0.00000000E+00  0.00000000E+00  0.00000000E+00
  0.00000000E+00  0.00000000E+00  0.00000000E+00
  0.00000000E+00  0.00000000E+00  0.00000000E+00
  0.00000000E+00  0.00000000E+00  0.00000000E+00
  0.00000000E+00  0.00000000E+00  0.00000000E+00
  0.00000000E+00  0.00000000E+00  0.00000000E+00
  0.00000000E+00  0.00000000E+00  0.00000000E+00
  0.00000000E+00  0.00000000E+00  0.00000000E+00
  0.00000000E+00  0.00000000E+00  0.00000000E+00
