Al   C    Se   H                        
   1.0000000000000000     
     6.0191999999999997    0.0000000000000000    0.0000000000000000
     0.0000000000000000   10.1400000000000006    0.0000000000000000
     0.0000000000000000    0.0000000000000000   15.0000000000000000
   Al   C    Se   H 
     8     4     1     2
Selective dynamics
Direct
  0.4075617084976315  0.8644449198011728  0.2370596633056152   T   T   T
  0.9063355214339452  0.8643116210759700  0.2391718479871727   T   T   T
  0.4109349433833245  0.6068495842466248  0.2506698599140194   T   T   T
  0.8970573287106660  0.6086837787397670  0.2536734485106891   T   T   T
  0.4196186434758431  0.3590359064550128  0.2911561998372676   T   T   T
  0.8911404922434727  0.3586311546741783  0.2817609845584670   T   T   T
  0.4067812449623887  0.1087005691297236  0.2494289371943665   T   T   T
  0.9071209633778992  0.1073175230818961  0.2486584267667524   T   T   T
  0.1571346006336967  0.9846825471385117  0.2439844269354055   T   T   T
  0.6568309568904240  0.9855007476012645  0.2378371636040342   T   T   T
  0.1529795927677355  0.4900244958415101  0.2964428282682832   T   T   T
  0.6554204538807937  0.4850607410836005  0.2450901697063870   T   T   T
  0.6054110998800297  0.3588380342426802  0.4390843812080192   T   T   T
  0.5153229977478944  0.2359780693625027  0.4804717553183480   T   T   T
  0.1547273903420390  0.5149956701579939  0.3688736672309005   T   T   T

  0.00000000E+00  0.00000000E+00  0.00000000E+00
  0.00000000E+00  0.00000000E+00  0.00000000E+00
  0.00000000E+00  0.00000000E+00  0.00000000E+00
  0.00000000E+00  0.00000000E+00  0.00000000E+00
  0.00000000E+00  0.00000000E+00  0.00000000E+00
  0.00000000E+00  0.00000000E+00  0.00000000E+00
  0.00000000E+00  0.00000000E+00  0.00000000E+00
  0.00000000E+00  0.00000000E+00  0.00000000E+00
  0.00000000E+00  0.00000000E+00  0.00000000E+00
  0.00000000E+00  0.00000000E+00  0.00000000E+00
  0.00000000E+00  0.00000000E+00  0.00000000E+00
  0.00000000E+00  0.00000000E+00  0.00000000E+00
  0.00000000E+00  0.00000000E+00  0.00000000E+00
  0.00000000E+00  0.00000000E+00  0.00000000E+00
  0.00000000E+00  0.00000000E+00  0.00000000E+00
