   15   15  999    1
  0.6103469E+02  0.6019200E-09  0.1014000E-08  0.1500000E-08  0.3500000E-15
   1.0000000000000000E-004
  CAR 
 Al2C                                    
     48      8     32

  0.3742002E-15  0.3742002E-15  0.1262379E-14  0.6666667E-01
    1      -15.461261   1.000000
    2      -14.538368   1.000000
    3      -13.696279   1.000000
    4      -12.649025   1.000000
    5      -11.569763   1.000000
    6       -8.844215   1.000000
    7       -8.808869   1.000000
    8       -8.511759   1.000000
    9       -7.676294   1.000000
   10       -7.306481   1.000000
   11       -6.560485   1.000000
   12       -6.188665   1.000000
   13       -5.816523   1.000000
   14       -5.144435   1.000000
   15       -4.991651   1.000000
   16       -4.708577   1.000000
   17       -4.335941   1.000000
   18       -4.114761   1.000000
   19       -3.570707   1.000000
   20       -3.530112   1.000000
   21       -3.105427   1.000000
   22       -2.830084   1.000000
   23       -2.491935   1.000000
   24       -2.186806   1.000000
   25       -1.422340   0.000000
   26       -0.980336   0.000000
   27       -0.087284   0.000000
   28        0.022318   0.000000
   29        0.123312   0.000000
   30        0.471676   0.000000
   31        0.596656   0.000000
   32        1.047792   0.000000

  0.2000000E+00  0.3742002E-15  0.1262379E-14  0.1333333E+00
    1      -15.441809   1.000000
    2      -14.490074   1.000000
    3      -13.572190   1.000000
    4      -12.840608   1.000000
    5      -11.950351   1.000000
    6       -8.709902   1.000000
    7       -8.510692   1.000000
    8       -7.970716   1.000000
    9       -7.560377   1.000000
   10       -7.242795   1.000000
   11       -6.578175   1.000000
   12       -6.466294   1.000000
   13       -6.076393   1.000000
   14       -5.278116   1.000000
   15       -4.833466   1.000000
   16       -4.547888   1.000000
   17       -4.227248   1.000000
   18       -4.175637   1.000000
   19       -3.876864   1.000000
   20       -3.541600   1.000000
   21       -3.515929   1.000000
   22       -3.279835   1.000000
   23       -2.652789   1.000000
   24       -2.478076   1.000000
   25       -1.207267   0.000000
   26       -0.310987   0.000000
   27       -0.136464   0.000000
   28        0.195846   0.000000
   29        0.367821   0.000000
   30        0.663398   0.000000
   31        0.802332   0.000000
   32        0.902323   0.000000

  0.4000000E+00  0.3742002E-15  0.1262379E-14  0.1333333E+00
    1      -15.410666   1.000000
    2      -14.386104   1.000000
    3      -13.229046   1.000000
    4      -13.128389   1.000000
    5      -12.622891   1.000000
    6       -8.342445   1.000000
    7       -8.159326   1.000000
    8       -7.683771   1.000000
    9       -7.288125   1.000000
   10       -6.753602   1.000000
   11       -6.561830   1.000000
   12       -6.231385   1.000000
   13       -5.854616   1.000000
   14       -5.762565   1.000000
   15       -5.216850   1.000000
   16       -5.016547   1.000000
   17       -4.864068   1.000000
   18       -4.346647   1.000000
   19       -4.112855   1.000000
   20       -3.930996   1.000000
   21       -3.468772   1.000000
   22       -3.374911   1.000000
   23       -2.919672   1.000000
   24       -2.506024   1.000000
   25       -0.909634   0.000000
   26       -0.402576   0.000000
   27       -0.043293   0.000000
   28        0.703253   0.000000
   29        0.849681   0.000000
   30        1.088320   0.000000
   31        1.277415   0.000000
   32        1.391767   0.000000

  0.3742002E-15  0.3333333E+00  0.1262379E-14  0.1333333E+00
    1      -15.460983   1.000000
    2      -14.536982   1.000000
    3      -13.700150   1.000000
    4      -12.650814   1.000000
    5      -11.570649   1.000000
    6       -8.762842   1.000000
    7       -8.608751   1.000000
    8       -8.569855   1.000000
    9       -7.920085   1.000000
   10       -7.460737   1.000000
   11       -6.986373   1.000000
   12       -5.726825   1.000000
   13       -5.328320   1.000000
   14       -5.176688   1.000000
   15       -4.877972   1.000000
   16       -4.676237   1.000000
   17       -4.306105   1.000000
   18       -4.098690   1.000000
   19       -3.672169   1.000000
   20       -3.626679   1.000000
   21       -3.310250   1.000000
   22       -3.082751   1.000000
   23       -2.830417   1.000000
   24       -2.180392   1.000000
   25       -1.221860   0.000000
   26       -0.685627   0.000000
   27       -0.218902   0.000000
   28        0.035517   0.000000
   29        0.407168   0.000000
   30        0.600430   0.000000
   31        0.774762   0.000000
   32        0.878558   0.000000

  0.2000000E+00  0.3333333E+00  0.1262379E-14  0.1333333E+00
    1      -15.441598   1.000000
    2      -14.488763   1.000000
    3      -13.575195   1.000000
    4      -12.842146   1.000000
    5      -11.952237   1.000000
    6       -8.549089   1.000000
    7       -8.444256   1.000000
    8       -7.999296   1.000000
    9       -7.747964   1.000000
   10       -7.340317   1.000000
   11       -7.005933   1.000000
   12       -6.354421   1.000000
   13       -5.700541   1.000000
   14       -5.169397   1.000000
   15       -4.629419   1.000000
   16       -4.556969   1.000000
   17       -4.245552   1.000000
   18       -4.109610   1.000000
   19       -3.805070   1.000000
   20       -3.581001   1.000000
   21       -3.489057   1.000000
   22       -3.319628   1.000000
   23       -2.999631   1.000000
   24       -2.651583   1.000000
   25       -1.131242   0.000000
   26       -0.342513   0.000000
   27       -0.153190   0.000000
   28        0.085928   0.000000
   29        0.417944   0.000000
   30        0.669561   0.000000
   31        0.860859   0.000000
   32        1.024735   0.000000

  0.4000000E+00  0.3333333E+00  0.1262379E-14  0.1333333E+00
    1      -15.410579   1.000000
    2      -14.385256   1.000000
    3      -13.216132   1.000000
    4      -13.142538   1.000000
    5      -12.627883   1.000000
    6       -8.252150   1.000000
    7       -8.120089   1.000000
    8       -7.542918   1.000000
    9       -7.202607   1.000000
   10       -7.011549   1.000000
   11       -6.730912   1.000000
   12       -6.542673   1.000000
   13       -6.315447   1.000000
   14       -5.352455   1.000000
   15       -5.097709   1.000000
   16       -4.780355   1.000000
   17       -4.463432   1.000000
   18       -4.193200   1.000000
   19       -4.061790   1.000000
   20       -3.853926   1.000000
   21       -3.538265   1.000000
   22       -3.387297   1.000000
   23       -3.140773   1.000000
   24       -2.823057   1.000000
   25       -0.965721   0.000000
   26       -0.276656   0.000000
   27        0.064876   0.000000
   28        0.464083   0.000000
   29        0.723818   0.000000
   30        0.852200   0.000000
   31        1.010305   0.000000
   32        1.333788   0.000000

 -0.4000000E+00  0.3333333E+00  0.1262379E-14  0.1333333E+00
    1      -15.410575   1.000000
    2      -14.385304   1.000000
    3      -13.213672   1.000000
    4      -13.145203   1.000000
    5      -12.627647   1.000000
    6       -8.236994   1.000000
    7       -8.129607   1.000000
    8       -7.571112   1.000000
    9       -7.222561   1.000000
   10       -6.960740   1.000000
   11       -6.718080   1.000000
   12       -6.518079   1.000000
   13       -6.354774   1.000000
   14       -5.365008   1.000000
   15       -5.102996   1.000000
   16       -4.791203   1.000000
   17       -4.491906   1.000000
   18       -4.127731   1.000000
   19       -4.025200   1.000000
   20       -3.875668   1.000000
   21       -3.556723   1.000000
   22       -3.374271   1.000000
   23       -3.182399   1.000000
   24       -2.810021   1.000000
   25       -0.906003   0.000000
   26       -0.344337   0.000000
   27       -0.021169   0.000000
   28        0.551593   0.000000
   29        0.739147   0.000000
   30        0.853707   0.000000
   31        1.096824   0.000000
   32        1.191992   0.000000

 -0.2000000E+00  0.3333333E+00  0.1262379E-14  0.1333333E+00
    1      -15.441589   1.000000
    2      -14.488830   1.000000
    3      -13.574976   1.000000
    4      -12.842418   1.000000
    5      -11.952157   1.000000
    6       -8.545394   1.000000
    7       -8.437774   1.000000
    8       -7.999648   1.000000
    9       -7.789667   1.000000
   10       -7.309695   1.000000
   11       -7.003177   1.000000
   12       -6.330415   1.000000
   13       -5.711039   1.000000
   14       -5.213489   1.000000
   15       -4.670726   1.000000
   16       -4.520714   1.000000
   17       -4.222337   1.000000
   18       -4.062212   1.000000
   19       -3.796403   1.000000
   20       -3.596491   1.000000
   21       -3.487474   1.000000
   22       -3.385819   1.000000
   23       -2.963411   1.000000
   24       -2.651387   1.000000
   25       -1.082946   0.000000
   26       -0.473126   0.000000
   27       -0.152604   0.000000
   28        0.160151   0.000000
   29        0.443279   0.000000
   30        0.715981   0.000000
   31        0.778832   0.000000
   32        0.995572   0.000000
