       N       E                     dE             d eps       ncg     rms          rms(c)
DAV:   1     0.303354454922E+03    0.30335E+03   -0.13388E+04   512   0.924E+02
DAV:   2    -0.652103019606E+01   -0.30988E+03   -0.29179E+03   720   0.215E+02
DAV:   3    -0.869815628618E+02   -0.80461E+02   -0.79302E+02   832   0.102E+02
DAV:   4    -0.899246124045E+02   -0.29430E+01   -0.29348E+01   656   0.243E+01
DAV:   5    -0.900449144863E+02   -0.12030E+00   -0.12024E+00   824   0.501E+00
DAV:   6    -0.900463998227E+02   -0.14853E-02   -0.14848E-02   664   0.667E-01
DAV:   7    -0.900465005387E+02   -0.10072E-03   -0.10071E-03   840   0.124E-01    0.185E+01
DAV:   8    -0.728227044081E+02    0.17224E+02   -0.71303E+01   624   0.424E+01    0.545E+00
DAV:   9    -0.726177307806E+02    0.20497E+00   -0.58748E+00   640   0.116E+01    0.377E+00
DAV:  10    -0.721122442668E+02    0.50549E+00   -0.15618E+00   752   0.721E+00    0.109E+00
DAV:  11    -0.720539469202E+02    0.58297E-01   -0.16109E-01   728   0.226E+00    0.576E-01
DAV:  12    -0.720456051567E+02    0.83418E-02   -0.16182E-01   752   0.182E+00    0.376E-01
DAV:  13    -0.720397702702E+02    0.58349E-02   -0.25058E-02   792   0.848E-01    0.185E-01
DAV:  14    -0.720328757934E+02    0.68945E-02   -0.23799E-02   640   0.631E-01    0.126E-01
DAV:  15    -0.720335650516E+02   -0.68926E-03   -0.31935E-03   696   0.322E-01    0.872E-02
DAV:  16    -0.720363443654E+02   -0.27793E-02   -0.49155E-03   688   0.341E-01    0.860E-02
DAV:  17    -0.720376942437E+02   -0.13499E-02   -0.12330E-03   656   0.209E-01    0.386E-02
DAV:  18    -0.720389838946E+02   -0.12897E-02   -0.15588E-03   736   0.180E-01    0.445E-02
DAV:  19    -0.720409276480E+02   -0.19438E-02   -0.68342E-04   736   0.140E-01    0.133E-02
DAV:  20    -0.720416817139E+02   -0.75407E-03   -0.13805E-04   608   0.573E-02    0.957E-03
DAV:  21    -0.720423491399E+02   -0.66743E-03   -0.12284E-04   616   0.417E-02    0.726E-03
DAV:  22    -0.720425113333E+02   -0.16219E-03   -0.24814E-05   688   0.229E-02    0.422E-03
DAV:  23    -0.720426169811E+02   -0.10565E-03   -0.17773E-05   600   0.160E-02    0.194E-03
DAV:  24    -0.720426382062E+02   -0.21225E-04   -0.23090E-06   568   0.590E-03    0.142E-03
DAV:  25    -0.720426505604E+02   -0.12354E-04   -0.18071E-06   480   0.514E-03    0.492E-04
DAV:  26    -0.720426532455E+02   -0.26850E-05   -0.27835E-07   432   0.269E-03    0.429E-04
DAV:  27    -0.720426556614E+02   -0.24159E-05   -0.38267E-07   400   0.230E-03    0.287E-04
DAV:  28    -0.720426561807E+02   -0.51934E-06   -0.14873E-07   448   0.172E-03
   1 F= -.72042656E+02 E0= -.72042656E+02  d E =-.720427E+02
