Al   C    Se   H                        
   1.0000000000000000     
     6.0191999999999997    0.0000000000000000    0.0000000000000000
     0.0000000000000000   10.1400000000000006    0.0000000000000000
     0.0000000000000000    0.0000000000000000   15.0000000000000000
   Al   C    Se   H 
     8     4     1     2
Selective dynamics
Direct
  0.4075617084976327  0.8644449198011758  0.2370596633056185   T   T   T
  0.9063355214339419  0.8643116210759676  0.2391718479871736   T   T   T
  0.4109349433833248  0.6068495842466262  0.2506698599140218   T   T   T
  0.8970573287106640  0.6086837787397693  0.2536734485106860   T   T   T
  0.4196186434758415  0.3590359064550111  0.2911561998372708   T   T   T
  0.8911404922434727  0.3586311546741773  0.2817609845584697   T   T   T
  0.4067812449623884  0.1087005691297222  0.2494289371943641   T   T   T
  0.9071209633778975  0.1073175230818958  0.2486584267667556   T   T   T
  0.1571346006336982  0.9846825471385123  0.2439844269354075   T   T   T
  0.6568309568904227  0.9855007476012621  0.2378371636040326   T   T   T
  0.1529795927677363  0.4900244958415098  0.2964428282682861   T   T   T
  0.6554204538807935  0.4850607410836030  0.2450901697063837   T   T   T
  0.6054110998800267  0.3588380342426774  0.4390843812080208   T   T   T
  0.5153229977478917  0.2359780693625040  0.4804717553183492   T   T   T
  0.1547273903420421  0.5149956701579957  0.3688736672309021   T   T   T

  0.00000000E+00  0.00000000E+00  0.00000000E+00
  0.00000000E+00  0.00000000E+00  0.00000000E+00
  0.00000000E+00  0.00000000E+00  0.00000000E+00
  0.00000000E+00  0.00000000E+00  0.00000000E+00
  0.00000000E+00  0.00000000E+00  0.00000000E+00
  0.00000000E+00  0.00000000E+00  0.00000000E+00
  0.00000000E+00  0.00000000E+00  0.00000000E+00
  0.00000000E+00  0.00000000E+00  0.00000000E+00
  0.00000000E+00  0.00000000E+00  0.00000000E+00
  0.00000000E+00  0.00000000E+00  0.00000000E+00
  0.00000000E+00  0.00000000E+00  0.00000000E+00
  0.00000000E+00  0.00000000E+00  0.00000000E+00
  0.00000000E+00  0.00000000E+00  0.00000000E+00
  0.00000000E+00  0.00000000E+00  0.00000000E+00
  0.00000000E+00  0.00000000E+00  0.00000000E+00
