Al2C                                    
           1
     6.019200    0.000000    0.000000
     0.000000   10.140000    0.000000
     0.000000    0.000000   15.000000
   Al   C    Se   H 
   8   4   1   2
Direct configuration=     1
   0.40756171  0.86444492  0.23705966
   0.90633552  0.86431162  0.23917185
   0.41093494  0.60684958  0.25066986
   0.89705733  0.60868378  0.25367345
   0.41961864  0.35903591  0.29115620
   0.89114049  0.35863115  0.28176098
   0.40678124  0.10870057  0.24942894
   0.90712096  0.10731752  0.24865843
   0.15713460  0.98468255  0.24398443
   0.65683096  0.98550075  0.23783716
   0.15297959  0.49002450  0.29644283
   0.65542045  0.48506074  0.24509017
   0.60541110  0.35883803  0.43908438
   0.51532300  0.23597807  0.48047176
   0.15472739  0.51499567  0.36887367
