Al   C    S    H                        
   1.0000000000000000     
     6.0191999999999997    0.0000000000000000    0.0000000000000000
     0.0000000000000000   10.1400000000000006    0.0000000000000000
     0.0000000000000000    0.0000000000000000   15.0000000000000000
   Al   C    S    H 
     8     4     1     2
Selective dynamics
Direct
  0.4379478021348853  0.8767573554138994  0.2560106567819507   T   T   T
  0.9378670080877912  0.8789273499587289  0.2333579926973278   T   T   T
  0.4537003011698871  0.6266030171444350  0.3010447174184221   T   T   T
  0.9376120779879488  0.6232134082105385  0.2522875147947907   T   T   T
  0.4398842432336214  0.3817496699096946  0.2443906981022072   T   T   T
  0.9227565412751142  0.3739642150584889  0.2694286677205374   T   T   T
  0.4366274432344949  0.1206565413072078  0.2293970908688781   T   T   T
  0.9353457077453381  0.1197021819631187  0.2529079495944848   T   T   T
  0.1874855821238905  0.0005556144534029  0.2435629273371998   T   T   T
  0.6864969434091681  0.0000600761065799  0.2368540287195889   T   T   T
  0.1846341098834862  0.4956243231708609  0.2856021686146317   T   T   T
  0.6875509022778366  0.5017918560918059  0.2527814290488871   T   T   T
  0.4755847055693504  0.6290009095743541  0.4544246418858806   T   T   T
  0.2792048505008043  0.6920654799206101  0.4677169542152043   T   T   T
  0.1920727323120514  0.4902215190498653  0.3602326183785144   T   T   T

  0.00000000E+00  0.00000000E+00  0.00000000E+00
  0.00000000E+00  0.00000000E+00  0.00000000E+00
  0.00000000E+00  0.00000000E+00  0.00000000E+00
  0.00000000E+00  0.00000000E+00  0.00000000E+00
  0.00000000E+00  0.00000000E+00  0.00000000E+00
  0.00000000E+00  0.00000000E+00  0.00000000E+00
  0.00000000E+00  0.00000000E+00  0.00000000E+00
  0.00000000E+00  0.00000000E+00  0.00000000E+00
  0.00000000E+00  0.00000000E+00  0.00000000E+00
  0.00000000E+00  0.00000000E+00  0.00000000E+00
  0.00000000E+00  0.00000000E+00  0.00000000E+00
  0.00000000E+00  0.00000000E+00  0.00000000E+00
  0.00000000E+00  0.00000000E+00  0.00000000E+00
  0.00000000E+00  0.00000000E+00  0.00000000E+00
  0.00000000E+00  0.00000000E+00  0.00000000E+00
