   15   15  999    1
  0.6103469E+02  0.6019200E-09  0.1014000E-08  0.1500000E-08  0.3500000E-15
   1.0000000000000000E-004
  CAR 
 Al2C                                    
     48      8     32

  0.3742002E-15  0.3742002E-15  0.1262379E-14  0.6666667E-01
    1      -15.223779   1.000000
    2      -14.598091   1.000000
    3      -13.816809   1.000000
    4      -12.740169   1.000000
    5      -11.689560   1.000000
    6       -9.022468   1.000000
    7       -8.862122   1.000000
    8       -8.661446   1.000000
    9       -7.575785   1.000000
   10       -7.274652   1.000000
   11       -6.754280   1.000000
   12       -6.243005   1.000000
   13       -5.844528   1.000000
   14       -5.299599   1.000000
   15       -5.060646   1.000000
   16       -4.760456   1.000000
   17       -4.310223   1.000000
   18       -4.029469   1.000000
   19       -3.838011   1.000000
   20       -3.294812   1.000000
   21       -3.206662   1.000000
   22       -2.949753   1.000000
   23       -2.498133   1.000000
   24       -2.380452   1.000000
   25       -1.590186   0.000000
   26       -1.129227   0.000000
   27       -0.458659   0.000000
   28       -0.168945   0.000000
   29       -0.017962   0.000000
   30        0.449305   0.000000
   31        0.520017   0.000000
   32        0.739920   0.000000

  0.2000000E+00  0.3742002E-15  0.1262379E-14  0.1333333E+00
    1      -15.188037   1.000000
    2      -14.562379   1.000000
    3      -13.692817   1.000000
    4      -12.950127   1.000000
    5      -12.070087   1.000000
    6       -8.733845   1.000000
    7       -8.673902   1.000000
    8       -8.094085   1.000000
    9       -7.472936   1.000000
   10       -7.253694   1.000000
   11       -6.657974   1.000000
   12       -6.584984   1.000000
   13       -6.115171   1.000000
   14       -5.321940   1.000000
   15       -4.995510   1.000000
   16       -4.682779   1.000000
   17       -4.384827   1.000000
   18       -4.059139   1.000000
   19       -3.704605   1.000000
   20       -3.669542   1.000000
   21       -3.590969   1.000000
   22       -3.379982   1.000000
   23       -2.863765   1.000000
   24       -2.487439   1.000000
   25       -1.564507   0.000000
   26       -0.493597   0.000000
   27       -0.269529   0.000000
   28       -0.043717   0.000000
   29        0.220842   0.000000
   30        0.661963   0.000000
   31        0.734018   0.000000
   32        0.921777   0.000000

  0.4000000E+00  0.3742002E-15  0.1262379E-14  0.1333333E+00
    1      -15.130362   1.000000
    2      -14.475595   1.000000
    3      -13.356251   1.000000
    4      -13.258139   1.000000
    5      -12.742257   1.000000
    6       -8.344464   1.000000
    7       -8.212934   1.000000
    8       -7.656239   1.000000
    9       -7.275233   1.000000
   10       -6.857011   1.000000
   11       -6.683725   1.000000
   12       -6.331578   1.000000
   13       -5.927380   1.000000
   14       -5.797753   1.000000
   15       -5.323240   1.000000
   16       -5.065925   1.000000
   17       -5.003757   1.000000
   18       -4.475183   1.000000
   19       -4.268530   1.000000
   20       -3.860382   1.000000
   21       -3.681206   1.000000
   22       -3.476985   1.000000
   23       -2.963226   1.000000
   24       -2.527781   1.000000
   25       -1.261420   0.000000
   26       -0.730944   0.000000
   27       -0.190064   0.000000
   28        0.560108   0.000000
   29        0.795057   0.000000
   30        1.146533   0.000000
   31        1.323062   0.000000
   32        1.355318   0.000000

  0.3742002E-15  0.3333333E+00  0.1262379E-14  0.1333333E+00
    1      -15.223050   1.000000
    2      -14.597418   1.000000
    3      -13.820233   1.000000
    4      -12.742080   1.000000
    5      -11.690465   1.000000
    6       -8.992514   1.000000
    7       -8.710681   1.000000
    8       -8.596756   1.000000
    9       -7.892579   1.000000
   10       -7.393825   1.000000
   11       -7.164458   1.000000
   12       -5.722901   1.000000
   13       -5.399502   1.000000
   14       -5.252795   1.000000
   15       -5.006255   1.000000
   16       -4.783903   1.000000
   17       -4.241798   1.000000
   18       -4.044897   1.000000
   19       -3.855214   1.000000
   20       -3.626825   1.000000
   21       -3.274405   1.000000
   22       -3.071066   1.000000
   23       -2.950158   1.000000
   24       -2.378495   1.000000
   25       -1.410153   0.000000
   26       -0.793932   0.000000
   27       -0.582136   0.000000
   28       -0.233192   0.000000
   29        0.312369   0.000000
   30        0.498936   0.000000
   31        0.574088   0.000000
   32        0.714404   0.000000

  0.2000000E+00  0.3333333E+00  0.1262379E-14  0.1333333E+00
    1      -15.187444   1.000000
    2      -14.561769   1.000000
    3      -13.695030   1.000000
    4      -12.952192   1.000000
    5      -12.071887   1.000000
    6       -8.694443   1.000000
    7       -8.443176   1.000000
    8       -8.124370   1.000000
    9       -7.789366   1.000000
   10       -7.231755   1.000000
   11       -7.187335   1.000000
   12       -6.361487   1.000000
   13       -5.766273   1.000000
   14       -5.244907   1.000000
   15       -4.802576   1.000000
   16       -4.656973   1.000000
   17       -4.344538   1.000000
   18       -3.944975   1.000000
   19       -3.781539   1.000000
   20       -3.667244   1.000000
   21       -3.603439   1.000000
   22       -3.458396   1.000000
   23       -3.005866   1.000000
   24       -2.833575   1.000000
   25       -1.229079   0.000000
   26       -0.832636   0.000000
   27       -0.316882   0.000000
   28       -0.154731   0.000000
   29        0.433796   0.000000
   30        0.589094   0.000000
   31        0.724260   0.000000
   32        0.937451   0.000000

  0.4000000E+00  0.3333333E+00  0.1262379E-14  0.1333333E+00
    1      -15.130107   1.000000
    2      -14.475145   1.000000
    3      -13.335630   1.000000
    4      -13.280138   1.000000
    5      -12.746813   1.000000
    6       -8.310895   1.000000
    7       -8.039127   1.000000
    8       -7.557120   1.000000
    9       -7.303813   1.000000
   10       -7.013503   1.000000
   11       -6.841868   1.000000
   12       -6.628950   1.000000
   13       -6.418390   1.000000
   14       -5.475693   1.000000
   15       -5.226603   1.000000
   16       -4.814647   1.000000
   17       -4.474815   1.000000
   18       -4.314143   1.000000
   19       -4.228031   1.000000
   20       -3.853409   1.000000
   21       -3.619214   1.000000
   22       -3.523150   1.000000
   23       -3.267487   1.000000
   24       -2.888041   1.000000
   25       -1.016556   0.000000
   26       -0.847520   0.000000
   27       -0.229483   0.000000
   28        0.523413   0.000000
   29        0.650770   0.000000
   30        0.784767   0.000000
   31        1.023297   0.000000
   32        1.377132   0.000000

 -0.4000000E+00  0.3333333E+00  0.1262379E-14  0.1333333E+00
    1      -15.130133   1.000000
    2      -14.475002   1.000000
    3      -13.340912   1.000000
    4      -13.274553   1.000000
    5      -12.747225   1.000000
    6       -8.337163   1.000000
    7       -8.008172   1.000000
    8       -7.529742   1.000000
    9       -7.268635   1.000000
   10       -7.098894   1.000000
   11       -6.833183   1.000000
   12       -6.653827   1.000000
   13       -6.393363   1.000000
   14       -5.486892   1.000000
   15       -5.212367   1.000000
   16       -4.798252   1.000000
   17       -4.504029   1.000000
   18       -4.345345   1.000000
   19       -4.118564   1.000000
   20       -3.882691   1.000000
   21       -3.658749   1.000000
   22       -3.504388   1.000000
   23       -3.266659   1.000000
   24       -2.891397   1.000000
   25       -1.242451   0.000000
   26       -0.532357   0.000000
   27       -0.210576   0.000000
   28        0.443602   0.000000
   29        0.640802   0.000000
   30        0.718261   0.000000
   31        1.009891   0.000000
   32        1.278873   0.000000

 -0.2000000E+00  0.3333333E+00  0.1262379E-14  0.1333333E+00
    1      -15.187502   1.000000
    2      -14.561554   1.000000
    3      -13.695475   1.000000
    4      -12.951719   1.000000
    5      -12.072042   1.000000
    6       -8.704422   1.000000
    7       -8.452160   1.000000
    8       -8.115548   1.000000
    9       -7.708168   1.000000
   10       -7.368375   1.000000
   11       -7.120109   1.000000
   12       -6.376806   1.000000
   13       -5.776223   1.000000
   14       -5.241678   1.000000
   15       -4.795240   1.000000
   16       -4.675539   1.000000
   17       -4.279750   1.000000
   18       -3.969251   1.000000
   19       -3.728556   1.000000
   20       -3.676863   1.000000
   21       -3.592392   1.000000
   22       -3.476032   1.000000
   23       -3.031702   1.000000
   24       -2.841849   1.000000
   25       -1.424915   0.000000
   26       -0.559812   0.000000
   27       -0.332117   0.000000
   28       -0.148254   0.000000
   29        0.380185   0.000000
   30        0.537755   0.000000
   31        0.771297   0.000000
   32        0.893949   0.000000
