Al   C    S    H                        
   1.0000000000000000     
     6.0191999999999997    0.0000000000000000    0.0000000000000000
     0.0000000000000000   10.1400000000000006    0.0000000000000000
     0.0000000000000000    0.0000000000000000   15.0000000000000000
   Al   C    S    H 
     8     4     1     2
Selective dynamics
Direct
  0.4379410357856531  0.8767583089145476  0.2559803398373612   T   T   T
  0.9378510876238385  0.8789070930688158  0.2333389132134703   T   T   T
  0.4537125209697377  0.6266163845285497  0.3009341937599889   T   T   T
  0.9376471927959660  0.6231722773502578  0.2522705147145944   T   T   T
  0.4398193353279636  0.3817300080640829  0.2443649649882798   T   T   T
  0.9228350394068368  0.3739524421933819  0.2694759693595355   T   T   T
  0.4366052490599304  0.1206441298777666  0.2293962056121230   T   T   T
  0.9353555480593158  0.1196932800522071  0.2528955370971862   T   T   T
  0.1874712547434317  0.0005293900127353  0.2435487777944696   T   T   T
  0.6864901640967348  0.0000503152266853  0.2368820255576810   T   T   T
  0.1846378042830482  0.4956118002814089  0.2856929383357827   T   T   T
  0.6875584980026136  0.5017484485576612  0.2526577761394531   T   T   T
  0.4749836463061822  0.6286995619026025  0.4543911852847557   T   T   T
  0.2789846304578861  0.6921249843856410  0.4678333518471397   T   T   T
  0.1928779593450215  0.4906550976750233  0.3603373728347707   T   T   T

  0.00000000E+00  0.00000000E+00  0.00000000E+00
  0.00000000E+00  0.00000000E+00  0.00000000E+00
  0.00000000E+00  0.00000000E+00  0.00000000E+00
  0.00000000E+00  0.00000000E+00  0.00000000E+00
  0.00000000E+00  0.00000000E+00  0.00000000E+00
  0.00000000E+00  0.00000000E+00  0.00000000E+00
  0.00000000E+00  0.00000000E+00  0.00000000E+00
  0.00000000E+00  0.00000000E+00  0.00000000E+00
  0.00000000E+00  0.00000000E+00  0.00000000E+00
  0.00000000E+00  0.00000000E+00  0.00000000E+00
  0.00000000E+00  0.00000000E+00  0.00000000E+00
  0.00000000E+00  0.00000000E+00  0.00000000E+00
  0.00000000E+00  0.00000000E+00  0.00000000E+00
  0.00000000E+00  0.00000000E+00  0.00000000E+00
  0.00000000E+00  0.00000000E+00  0.00000000E+00
