 vasp.5.4.4.18Apr17-6-g9f103f2a35 (build Dec  6 2019 17:49:40) complex           
 POSCAR found type information on POSCAR  Al C  S  H 
 03/POSCAR found :  4 types and      15 ions
 scaLAPACK will be used
 LDA part: xc-table for Pade appr. of Perdew
 POSCAR found type information on POSCAR  Al C  S  H 
 00/POSCAR found :  4 types and      15 ions
 POSCAR found type information on POSCAR  Al C  S  H 
 09/POSCAR found :  4 types and      15 ions
 Jacobian:    15.248877391123434     
 POSCAR, INCAR and KPOINTS ok, starting setup
 FFT: planning ...
 WAVECAR not read
 entering main loop
       N       E                     dE             d eps       ncg     rms          rms(c)
DAV:   1     0.304186112147E+03    0.30419E+03   -0.13418E+04   512   0.924E+02
DAV:   2    -0.633193670688E+01   -0.31052E+03   -0.29141E+03   744   0.215E+02
DAV:   3    -0.880376286835E+02   -0.81706E+02   -0.80307E+02   832   0.102E+02
DAV:   4    -0.910767791695E+02   -0.30392E+01   -0.30297E+01   664   0.244E+01
DAV:   5    -0.912259899640E+02   -0.14921E+00   -0.14917E+00   840   0.543E+00
DAV:   6    -0.912281477455E+02   -0.21578E-02   -0.21574E-02   728   0.798E-01
DAV:   7    -0.912282806302E+02   -0.13288E-03   -0.13288E-03   808   0.145E-01    0.187E+01
DAV:   8    -0.735842434010E+02    0.17644E+02   -0.72472E+01   632   0.416E+01    0.561E+00
DAV:   9    -0.731957469831E+02    0.38850E+00   -0.47973E+00   640   0.105E+01    0.372E+00
DAV:  10    -0.726793316735E+02    0.51642E+00   -0.13187E+00   704   0.660E+00    0.816E-01
DAV:  11    -0.726461348267E+02    0.33197E-01   -0.11711E-01   704   0.209E+00    0.438E-01
DAV:  12    -0.726429286661E+02    0.32062E-02   -0.11468E-01   752   0.163E+00    0.380E-01
DAV:  13    -0.726383252453E+02    0.46034E-02   -0.23942E-02   696   0.899E-01    0.182E-01
DAV:  14    -0.726357351578E+02    0.25901E-02   -0.21931E-02   688   0.638E-01    0.108E-01
DAV:  15    -0.726371986532E+02   -0.14635E-02   -0.25945E-03   728   0.256E-01    0.847E-02
DAV:  16    -0.726408444222E+02   -0.36458E-02   -0.42022E-03   608   0.336E-01    0.705E-02
DAV:  17    -0.726420224608E+02   -0.11780E-02   -0.11346E-03   720   0.207E-01    0.286E-02
DAV:  18    -0.726432972157E+02   -0.12748E-02   -0.94361E-04   672   0.137E-01    0.348E-02
DAV:  19    -0.726445855936E+02   -0.12884E-02   -0.42347E-04   704   0.118E-01    0.124E-02
DAV:  20    -0.726453836747E+02   -0.79808E-03   -0.13136E-04   568   0.548E-02    0.124E-02
DAV:  21    -0.726460279670E+02   -0.64429E-03   -0.98639E-05   568   0.385E-02    0.595E-03
DAV:  22    -0.726462266947E+02   -0.19873E-03   -0.53155E-05   680   0.337E-02    0.804E-03
DAV:  23    -0.726463052900E+02   -0.78595E-04   -0.14513E-05   600   0.201E-02    0.368E-03
DAV:  24    -0.726463284409E+02   -0.23151E-04   -0.45655E-06   624   0.948E-03    0.182E-03
DAV:  25    -0.726463449259E+02   -0.16485E-04   -0.41291E-06   496   0.855E-03    0.128E-03
DAV:  26    -0.726463471925E+02   -0.22666E-05   -0.49759E-07   424   0.420E-03    0.132E-03
DAV:  27    -0.726463493367E+02   -0.21442E-05   -0.56136E-07   368   0.460E-03    0.472E-04
DAV:  28    -0.726463497651E+02   -0.42834E-06   -0.35689E-07   432   0.329E-03
   1 F= -.72646350E+02 E0= -.72646350E+02  d E =-.726463E+02
 BRION: g(F)=  0.105E-03 g(S)=  0.000E+00
 bond charge predicted
       N       E                     dE             d eps       ncg     rms          rms(c)
DAV:   1    -0.726466138323E+02   -0.26450E-03   -0.64933E-04   536   0.137E-01    0.544E-03
DAV:   2    -0.726466164581E+02   -0.26258E-05   -0.30778E-05   768   0.290E-02    0.304E-03
DAV:   3    -0.726466164582E+02   -0.94360E-10   -0.53502E-07   440   0.488E-03
   2 F= -.72646616E+02 E0= -.72646616E+02  d E =-.266693E-03
 BRION: g(F)=  0.890E-04 g(S)=  0.000E+00 retain N=  1 mean eig= 1.91
 eig:   1.909
 bond charge predicted
       N       E                     dE             d eps       ncg     rms          rms(c)
DAV:   1    -0.726469877120E+02   -0.37125E-03   -0.14074E-03   512   0.207E-01    0.800E-03
DAV:   2    -0.726469928100E+02   -0.50980E-05   -0.62323E-05   768   0.412E-02    0.446E-03
DAV:   3    -0.726469926753E+02    0.13469E-06   -0.11442E-06   488   0.666E-03
   3 F= -.72646993E+02 E0= -.72646993E+02  d E =-.376217E-03
 BRION: g(F)=  0.728E-04 g(S)=  0.000E+00 retain N=  2 mean eig= 2.72
 eig:   2.722  2.722
 bond charge predicted
       N       E                     dE             d eps       ncg     rms          rms(c)
DAV:   1    -0.726476224016E+02   -0.62959E-03   -0.40865E-03   512   0.354E-01    0.137E-02
DAV:   2    -0.726476372843E+02   -0.14883E-04   -0.17994E-04   760   0.697E-02    0.754E-03
DAV:   3    -0.726476368807E+02    0.40361E-06   -0.34588E-06   640   0.111E-02
   4 F= -.72647637E+02 E0= -.72647637E+02  d E =-.644205E-03
 BRION: g(F)=  0.472E-04 g(S)=  0.000E+00 retain N=  3 mean eig= 5.95
 eig:   2.045  7.902  7.902
 bond charge predicted
       N       E                     dE             d eps       ncg     rms          rms(c)
DAV:   1    -0.726481760383E+02   -0.53875E-03   -0.29238E-03   512   0.301E-01    0.120E-02
DAV:   2    -0.726481862169E+02   -0.10179E-04   -0.12435E-04   760   0.580E-02    0.656E-03
DAV:   3    -0.726481859679E+02    0.24894E-06   -0.21478E-06   512   0.905E-03
   5 F= -.72648186E+02 E0= -.72648186E+02  d E =-.549087E-03
 BRION: g(F)=  0.285E-04 g(S)=  0.000E+00 retain N=  3 mean eig= 5.61
 eig:   3.484  6.666  6.666
 bond charge predicted
       N       E                     dE             d eps       ncg     rms          rms(c)
DAV:   1    -0.726487228115E+02   -0.53659E-03   -0.29068E-03   512   0.295E-01    0.118E-02
DAV:   2    -0.726487336842E+02   -0.10873E-04   -0.13071E-04   760   0.593E-02    0.643E-03
DAV:   3    -0.726487334706E+02    0.21366E-06   -0.23530E-06   552   0.936E-03
   6 F= -.72648733E+02 E0= -.72648733E+02  d E =-.547503E-03
 BRION: g(F)=  0.206E-04 g(S)=  0.000E+00 retain N=  2 mean eig= 5.56
 eig:   5.564  5.564
 reached required accuracy - stopping structural energy minimisation
