Al2C                                    
           1
     6.019200    0.000000    0.000000
     0.000000   10.140000    0.000000
     0.000000    0.000000   15.000000
   Al   C    S    H 
   8   4   1   2
Direct configuration=     1
   0.43794104  0.87675831  0.25598034
   0.93785109  0.87890709  0.23333891
   0.45371252  0.62661638  0.30093419
   0.93764719  0.62317228  0.25227051
   0.43981934  0.38173001  0.24436496
   0.92283504  0.37395244  0.26947597
   0.43660525  0.12064413  0.22939621
   0.93535555  0.11969328  0.25289554
   0.18747125  0.00052939  0.24354878
   0.68649016  0.00005032  0.23688203
   0.18463780  0.49561180  0.28569294
   0.68755850  0.50174845  0.25265778
   0.47498365  0.62869956  0.45439119
   0.27898463  0.69212498  0.46783335
   0.19287796  0.49065510  0.36033737
Direct configuration=     2
   0.43794094  0.87675737  0.25598268
   0.93785047  0.87890774  0.23334174
   0.45371430  0.62661523  0.30094553
   0.93764332  0.62317633  0.25227467
   0.43982513  0.38173109  0.24436844
   0.92282052  0.37395467  0.26947449
   0.43660685  0.12064510  0.22939611
   0.93535236  0.11969241  0.25289621
   0.18747305  0.00053205  0.24354836
   0.68649185  0.00005177  0.23687817
   0.18463509  0.49561230  0.28568256
   0.68756017  0.50175363  0.25266916
   0.47505103  0.62873249  0.45439686
   0.27901348  0.69211981  0.46782096
   0.19279240  0.49061153  0.36032414
Direct configuration=     3
   0.43794134  0.87675729  0.25598668
   0.93785242  0.87890980  0.23334552
   0.45371598  0.62661255  0.30096207
   0.93763833  0.62318286  0.25227884
   0.43983496  0.38173374  0.24437281
   0.92280475  0.37395567  0.26947082
   0.43660942  0.12064683  0.22939612
   0.93535079  0.11969364  0.25289819
   0.18747432  0.00053503  0.24354843
   0.68649135  0.00005249  0.23687269
   0.18463343  0.49561401  0.28566457
   0.68755633  0.50176245  0.25268806
   0.47514946  0.62877862  0.45440400
   0.27904891  0.69211131  0.46780270
   0.19266917  0.49054723  0.36030856
Direct configuration=     4
   0.43794274  0.87675705  0.25599447
   0.93785618  0.87891455  0.23335157
   0.45371551  0.62660842  0.30099169
   0.93762908  0.62319407  0.25228432
   0.43985280  0.38173897  0.24437984
   0.92277973  0.37395907  0.26946174
   0.43661486  0.12064996  0.22939630
   0.93534812  0.11969542  0.25290202
   0.18747711  0.00054147  0.24355060
   0.68649241  0.00005504  0.23686349
   0.18463348  0.49561745  0.28563885
   0.68755198  0.50177496  0.25272274
   0.47531184  0.62885960  0.45441507
   0.27911185  0.69209404  0.46777042
   0.19245328  0.49043345  0.36027695
Direct configuration=     5
   0.43794512  0.87675700  0.25600264
   0.93786092  0.87892150  0.23335511
   0.45370728  0.62660604  0.30101918
   0.93762068  0.62320339  0.25228566
   0.43986820  0.38174428  0.24438503
   0.92276702  0.37396307  0.26944639
   0.43662121  0.12065356  0.22939660
   0.93534644  0.11969858  0.25290550
   0.18748106  0.00054845  0.24355629
   0.68649590  0.00005776  0.23685812
   0.18463398  0.49562131  0.28562072
   0.68755534  0.50178240  0.25275364
   0.47544608  0.62892925  0.45442011
   0.27915876  0.69207855  0.46774269
   0.19226294  0.49032836  0.36025238
Direct configuration=     6
   0.43794780  0.87675736  0.25601066
   0.93786701  0.87892735  0.23335799
   0.45370030  0.62660302  0.30104472
   0.93761208  0.62321341  0.25228751
   0.43988424  0.38174967  0.24439070
   0.92275654  0.37396422  0.26942867
   0.43662744  0.12065654  0.22939709
   0.93534571  0.11970218  0.25290795
   0.18748558  0.00055561  0.24356293
   0.68649694  0.00006008  0.23685403
   0.18463411  0.49562432  0.28560217
   0.68755090  0.50179186  0.25278143
   0.47558471  0.62900091  0.45442464
   0.27920485  0.69206548  0.46771695
   0.19207273  0.49022152  0.36023262
