#VESTA_FORMAT_VERSION 3.5.4


CRYSTAL

TITLE
Al   C    Se   H                        

GROUP
1 1 P 1
SYMOP
 0.000000  0.000000  0.000000  1  0  0   0  1  0   0  0  1   1
 -1.0 -1.0 -1.0  0 0 0  0 0 0  0 0 0
TRANM 0
 0.000000  0.000000  0.000000  1  0  0   0  1  0   0  0  1
LTRANSL
 -1
 0.000000  0.000000  0.000000  0.000000  0.000000  0.000000
LORIENT
 -1   0   0   0   0
 1.000000  0.000000  0.000000  1.000000  0.000000  0.000000
 0.000000  0.000000  1.000000  0.000000  0.000000  1.000000
LMATRIX
 1.000000  0.000000  0.000000  0.000000
 0.000000  1.000000  0.000000  0.000000
 0.000000  0.000000  1.000000  0.000000
 0.000000  0.000000  0.000000  1.000000
 0.000000  0.000000  0.000000
CELLP
  6.019200  10.140000  15.000000  90.000000  90.000000  90.000000
  0.000000   0.000000   0.000000   0.000000   0.000000   0.000000
STRUC
  1 Al        Al1  1.0000   0.417040   0.861934   0.233876    1a       1
                            0.000000   0.000000   0.000000  0.00
  2 Al        Al2  1.0000   0.917690   0.862564   0.253682    1a       1
                            0.000000   0.000000   0.000000  0.00
  3 Al        Al3  1.0000   0.418381   0.604085   0.239840    1a       1
                            0.000000   0.000000   0.000000  0.00
  4 Al        Al4  1.0000   0.919379   0.606014   0.264740    1a       1
                            0.000000   0.000000   0.000000  0.00
  5 Al        Al5  1.0000   0.425533   0.360017   0.268991    1a       1
                            0.000000   0.000000   0.000000  0.00
  6 Al        Al6  1.0000   0.921828   0.363201   0.243599    1a       1
                            0.000000   0.000000   0.000000  0.00
  7 Al        Al7  1.0000   0.418506   0.105158   0.252046    1a       1
                            0.000000   0.000000   0.000000  0.00
  8 Al        Al8  1.0000   0.917697   0.105156   0.234919    1a       1
                            0.000000   0.000000   0.000000  0.00
  9  C         C1  1.0000   0.167789   0.983771   0.244258    1a       1
                            0.000000   0.000000   0.000000  0.00
 10  C         C2  1.0000   0.667829   0.983106   0.240815    1a       1
                            0.000000   0.000000   0.000000  0.00
 11  C         C3  1.0000   0.171276   0.483698   0.265399    1a       1
                            0.000000   0.000000   0.000000  0.00
 12  C         C4  1.0000   0.670538   0.485056   0.249328    1a       1
                            0.000000   0.000000   0.000000  0.00
 13 Se        Se1  1.0000   0.488300   0.379691   0.461255    1a       1
                            0.000000   0.000000   0.000000  0.00
 14  H         H1  1.0000   0.315958   0.296140   0.504635    1a       1
                            0.000000   0.000000   0.000000  0.00
 15  H         H2  1.0000   0.309163   0.451089   0.407975    1a       1
                            0.000000   0.000000   0.000000  0.00
  0 0 0 0 0 0 0
THERI 1
  1        Al1  0.000000
  2        Al2  0.000000
  3        Al3  0.000000
  4        Al4  0.000000
  5        Al5  0.000000
  6        Al6  0.000000
  7        Al7  0.000000
  8        Al8  0.000000
  9         C1  0.000000
 10         C2  0.000000
 11         C3  0.000000
 12         C4  0.000000
 13        Se1  0.000000
 14         H1  0.000000
 15         H2  0.000000
  0 0 0
SHAPE
  0       0       0       0   0.000000  0   192   192   192   192
BOUND
       0        1         0        1         0        1
  0   0   0   0  0
SBOND
  1    Se     H    0.00000    1.58998  0  1  1  0  1  0.250  2.000 127 127 127
  2    Al    Al    2.55000    2.66000  0  1  1  0  1  0.250  2.000 127 127 127
  3    Al     C    1.91000    2.10000  0  1  1  0  1  0.250  2.000 127 127 127
  0 0 0 0
SITET
  1        Al1  1.4300 129 178 214 129 178 214 204  0
  2        Al2  1.4300 129 178 214 129 178 214 204  0
  3        Al3  1.4300 129 178 214 129 178 214 204  0
  4        Al4  1.4300 129 178 214 129 178 214 204  0
  5        Al5  1.4300 129 178 214 129 178 214 204  0
  6        Al6  1.4300 129 178 214 129 178 214 204  0
  7        Al7  1.4300 129 178 214 129 178 214 204  0
  8        Al8  1.4300 129 178 214 129 178 214 204  0
  9         C1  0.7700 128  73  41 128  73  41 204  0
 10         C2  0.7700 128  73  41 128  73  41 204  0
 11         C3  0.7700 128  73  41 128  73  41 204  0
 12         C4  0.7700 128  73  41 128  73  41 204  0
 13        Se1  1.0400 154 239  15 154 239  15 204  0
 14         H1  0.4600 255 204 204 255 204 204 204  0
 15         H2  0.4600 255 204 204 255 204 204 204  0
  0 0 0 0 0 0
VECTR
 0 0 0 0 0
VECTT
 0 0 0 0 0
SPLAN
  0   0   0   0
LBLAT
 -1
LBLSP
 -1
DLATM
 -1
DLBND
 -1
DLPLY
 -1
PLN2D
  0   0   0   0
ATOMT
  1         Al  1.4300 129 178 214 129 178 214 204
  2          C  0.7700 128  73  41 128  73  41 204
  3         Se  1.0400 154 239  15 154 239  15 204
  4          H  0.4600 255 204 204 255 204 204 204
  0 0 0 0 0 0
SCENE
 1.000000  0.000000  0.000000  0.000000
 0.000000  1.000000  0.000000  0.000000
 0.000000  0.000000  1.000000  0.000000
 0.000000  0.000000  0.000000  1.000000
  0.000   0.000
  0.000
  1.611
HBOND 0 2

STYLE
DISPF 37753794
MODEL   0  1  0
SURFS   0  1  1
SECTS  32  1
FORMS   0  1
ATOMS   0  0  1
BONDS   1
POLYS   1
VECTS 1.000000
FORMP
  1  1.0   0   0   0
ATOMP
 24  24   0  50  2.0   0
BONDP
  1  16  0.250  2.000 127 127 127
POLYP
 204 1  1.000 180 180 180
ISURF
  0   0   0   0
TEX3P
  1  0.00000E+00  1.00000E+00
SECTP
  1  9.76021E-01  1.79680E+00  0.00000E+00  0.00000E+00  0.00000E+00  0.00000E+00
CONTR
 0.1 -1 1 1 10 -1 2 5
 2 1 2 1
   0   0   0
   0   0   0
   0   0   0
   0   0   0
HKLPP
 192 1  1.000 255   0 255
UCOLP
   0   0  1.000   0   0   0
COMPS 1
LABEL 1    12  1.000 0
PROJT 0  0.962
BKGRC
 255 255 255
DPTHQ 1 -0.5000  3.5000
LIGHT0 1
 1.000000  0.000000  0.000000  0.000000
 0.000000  1.000000  0.000000  0.000000
 0.000000  0.000000  1.000000  0.000000
 0.000000  0.000000  0.000000  1.000000
 0.000000  0.000000 20.000000  0.000000
 0.000000  0.000000 -1.000000
  26  26  26 255
 179 179 179 255
 255 255 255 255
LIGHT1
 1.000000  0.000000  0.000000  0.000000
 0.000000  1.000000  0.000000  0.000000
 0.000000  0.000000  1.000000  0.000000
 0.000000  0.000000  0.000000  1.000000
 0.000000  0.000000 20.000000  0.000000
 0.000000  0.000000 -1.000000
   0   0   0   0
   0   0   0   0
   0   0   0   0
LIGHT2
 1.000000  0.000000  0.000000  0.000000
 0.000000  1.000000  0.000000  0.000000
 0.000000  0.000000  1.000000  0.000000
 0.000000  0.000000  0.000000  1.000000
 0.000000  0.000000 20.000000  0.000000
 0.000000  0.000000 -1.000000
   0   0   0   0
   0   0   0   0
   0   0   0   0
LIGHT3
 1.000000  0.000000  0.000000  0.000000
 0.000000  1.000000  0.000000  0.000000
 0.000000  0.000000  1.000000  0.000000
 0.000000  0.000000  0.000000  1.000000
 0.000000  0.000000 20.000000  0.000000
 0.000000  0.000000 -1.000000
   0   0   0   0
   0   0   0   0
   0   0   0   0
SECCL 0

TEXCL 0

ATOMM
 204 204 204 255
  25.600
BONDM
 255 255 255 255
 128.000
POLYM
 255 255 255 255
 128.000
SURFM
   0   0   0 255
 128.000
FORMM
 255 255 255 255
 128.000
HKLPM
 255 255 255 255
 128.000
