Al   C    Se   H                        
   1.0000000000000000     
     6.0191999999999997    0.0000000000000000    0.0000000000000000
     0.0000000000000000   10.1400000000000006    0.0000000000000000
     0.0000000000000000    0.0000000000000000   15.0000000000000000
   Al   C    Se   H 
     8     4     1     2
Selective dynamics
Direct
  0.4170395081614942  0.8619336439622387  0.2338762709851849   T   T   T
  0.9176903802179979  0.8625636471660911  0.2536824195547069   T   T   T
  0.4183809191016934  0.6040850022865172  0.2398400474197260   T   T   T
  0.9193789449897949  0.6060138267138413  0.2647401096901945   T   T   T
  0.4255326515776261  0.3600168291379546  0.2689913305599134   T   T   T
  0.9218279048196791  0.3632008089957637  0.2435991689141872   T   T   T
  0.4185063606067487  0.1051579709594179  0.2520463240911965   T   T   T
  0.9176970285178996  0.1051559184509472  0.2349185536234728   T   T   T
  0.1677887818716499  0.9837706769431378  0.2442576683559707   T   T   T
  0.6678285445880832  0.9831057548859050  0.2408148821483422   T   T   T
  0.1712756936681288  0.4836978683662565  0.2653988915254644   T   T   T
  0.6705381189359301  0.4850563988955869  0.2493276498099490   T   T   T
  0.4882996822836034  0.3796912398048917  0.4612548176310298   T   T   T
  0.3159584653259273  0.2961400435037405  0.5046354553132488   T   T   T
  0.3091631437733398  0.4510885949371328  0.4079752356483084   T   T   T

  0.00000000E+00  0.00000000E+00  0.00000000E+00
  0.00000000E+00  0.00000000E+00  0.00000000E+00
  0.00000000E+00  0.00000000E+00  0.00000000E+00
  0.00000000E+00  0.00000000E+00  0.00000000E+00
  0.00000000E+00  0.00000000E+00  0.00000000E+00
  0.00000000E+00  0.00000000E+00  0.00000000E+00
  0.00000000E+00  0.00000000E+00  0.00000000E+00
  0.00000000E+00  0.00000000E+00  0.00000000E+00
  0.00000000E+00  0.00000000E+00  0.00000000E+00
  0.00000000E+00  0.00000000E+00  0.00000000E+00
  0.00000000E+00  0.00000000E+00  0.00000000E+00
  0.00000000E+00  0.00000000E+00  0.00000000E+00
  0.00000000E+00  0.00000000E+00  0.00000000E+00
  0.00000000E+00  0.00000000E+00  0.00000000E+00
  0.00000000E+00  0.00000000E+00  0.00000000E+00
