   15   15  999    1
  0.6103469E+02  0.6019200E-09  0.1014000E-08  0.1500000E-08  0.3500000E-15
   1.0000000000000000E-004
  CAR 
 Al2C                                    
     48      8     32

  0.3742002E-15  0.3742002E-15  0.1262379E-14  0.6666667E-01
    1      -16.517969   1.000000
    2      -13.641148   1.000000
    3      -13.463279   1.000000
    4      -11.491107   1.000000
    5      -11.376736   1.000000
    6       -8.910244   1.000000
    7       -8.489735   1.000000
    8       -8.406472   1.000000
    9       -8.115031   1.000000
   10       -7.124710   1.000000
   11       -6.350862   1.000000
   12       -5.946102   1.000000
   13       -5.425792   1.000000
   14       -5.145777   1.000000
   15       -4.627810   1.000000
   16       -4.491960   1.000000
   17       -4.229333   1.000000
   18       -4.101378   1.000000
   19       -3.122882   1.000000
   20       -2.734675   1.000000
   21       -2.644862   1.000000
   22       -2.356168   1.000000
   23       -2.137854   1.000000
   24       -2.052072   1.000000
   25       -1.324117   0.000000
   26       -0.792978   0.000000
   27       -0.127795   0.000000
   28        0.323673   0.000000
   29        0.363507   0.000000
   30        0.521265   0.000000
   31        0.738366   0.000000
   32        0.962733   0.000000

  0.2000000E+00  0.3742002E-15  0.1262379E-14  0.1333333E+00
    1      -16.516467   1.000000
    2      -13.515778   1.000000
    3      -13.340140   1.000000
    4      -11.881112   1.000000
    5      -11.748905   1.000000
    6       -8.719004   1.000000
    7       -8.287825   1.000000
    8       -7.901109   1.000000
    9       -7.676816   1.000000
   10       -7.147238   1.000000
   11       -6.255338   1.000000
   12       -6.197051   1.000000
   13       -5.828138   1.000000
   14       -4.961827   1.000000
   15       -4.826624   1.000000
   16       -4.390755   1.000000
   17       -4.084693   1.000000
   18       -3.643453   1.000000
   19       -3.495116   1.000000
   20       -3.425894   1.000000
   21       -3.348569   1.000000
   22       -2.704437   1.000000
   23       -2.480630   1.000000
   24       -2.116094   1.000000
   25       -1.264703   0.000000
   26        0.073619   0.000000
   27        0.237113   0.000000
   28        0.422134   0.000000
   29        0.570783   0.000000
   30        0.646221   0.000000
   31        0.784895   0.000000
   32        1.108315   0.000000

  0.4000000E+00  0.3742002E-15  0.1262379E-14  0.1333333E+00
    1      -16.514002   1.000000
    2      -13.147249   1.000000
    3      -12.978743   1.000000
    4      -12.565214   1.000000
    5      -12.411029   1.000000
    6       -8.609605   1.000000
    7       -7.863297   1.000000
    8       -7.284731   1.000000
    9       -7.099757   1.000000
   10       -6.645291   1.000000
   11       -6.397058   1.000000
   12       -5.895503   1.000000
   13       -5.656989   1.000000
   14       -5.387973   1.000000
   15       -4.878085   1.000000
   16       -4.804872   1.000000
   17       -4.635458   1.000000
   18       -4.409330   1.000000
   19       -4.046417   1.000000
   20       -3.770720   1.000000
   21       -3.403890   1.000000
   22       -3.130242   1.000000
   23       -2.615815   1.000000
   24       -2.198438   1.000000
   25       -0.896788   0.000000
   26       -0.184680   0.000000
   27        0.471279   0.000000
   28        0.819742   0.000000
   29        0.895604   0.000000
   30        1.165515   0.000000
   31        1.294679   0.000000
   32        1.727755   0.000000

  0.3742002E-15  0.3333333E+00  0.1262379E-14  0.1333333E+00
    1      -16.518000   1.000000
    2      -13.606927   1.000000
    3      -13.502606   1.000000
    4      -11.482770   1.000000
    5      -11.385972   1.000000
    6       -8.896576   1.000000
    7       -8.433405   1.000000
    8       -8.224892   1.000000
    9       -8.093496   1.000000
   10       -7.358393   1.000000
   11       -7.121260   1.000000
   12       -5.268846   1.000000
   13       -5.125409   1.000000
   14       -4.865420   1.000000
   15       -4.668783   1.000000
   16       -4.575908   1.000000
   17       -4.141048   1.000000
   18       -3.936553   1.000000
   19       -3.435038   1.000000
   20       -3.026786   1.000000
   21       -2.733819   1.000000
   22       -2.645903   1.000000
   23       -2.346733   1.000000
   24       -2.060061   1.000000
   25       -1.066810   0.000000
   26       -0.321895   0.000000
   27       -0.237072   0.000000
   28        0.012403   0.000000
   29        0.390469   0.000000
   30        0.511558   0.000000
   31        0.896642   0.000000
   32        1.001745   0.000000

  0.2000000E+00  0.3333333E+00  0.1262379E-14  0.1333333E+00
    1      -16.516447   1.000000
    2      -13.482649   1.000000
    3      -13.378154   1.000000
    4      -11.865909   1.000000
    5      -11.765827   1.000000
    6       -8.708412   1.000000
    7       -8.016062   1.000000
    8       -7.857313   1.000000
    9       -7.735085   1.000000
   10       -7.244674   1.000000
   11       -7.125234   1.000000
   12       -5.972501   1.000000
   13       -5.382947   1.000000
   14       -4.929581   1.000000
   15       -4.565667   1.000000
   16       -4.422557   1.000000
   17       -4.035721   1.000000
   18       -3.485484   1.000000
   19       -3.438386   1.000000
   20       -3.369416   1.000000
   21       -3.337443   1.000000
   22       -2.937942   1.000000
   23       -2.640193   1.000000
   24       -2.527567   1.000000
   25       -0.967300   0.000000
   26       -0.153151   0.000000
   27        0.056072   0.000000
   28        0.317536   0.000000
   29        0.603467   0.000000
   30        0.689067   0.000000
   31        0.813244   0.000000
   32        1.040312   0.000000

  0.4000000E+00  0.3333333E+00  0.1262379E-14  0.1333333E+00
    1      -16.513984   1.000000
    2      -13.117557   1.000000
    3      -13.012632   1.000000
    4      -12.541167   1.000000
    5      -12.438260   1.000000
    6       -8.606187   1.000000
    7       -7.594783   1.000000
    8       -7.256881   1.000000
    9       -6.936282   1.000000
   10       -6.820920   1.000000
   11       -6.661696   1.000000
   12       -6.379366   1.000000
   13       -6.030518   1.000000
   14       -5.063921   1.000000
   15       -4.887246   1.000000
   16       -4.734075   1.000000
   17       -4.115922   1.000000
   18       -4.034959   1.000000
   19       -3.809505   1.000000
   20       -3.673285   1.000000
   21       -3.380473   1.000000
   22       -3.187384   1.000000
   23       -2.867866   1.000000
   24       -2.779544   1.000000
   25       -0.609873   0.000000
   26        0.037072   0.000000
   27        0.176222   0.000000
   28        0.574900   0.000000
   29        0.778180   0.000000
   30        1.024882   0.000000
   31        1.182440   0.000000
   32        1.322791   0.000000

 -0.4000000E+00  0.3333333E+00  0.1262379E-14  0.1333333E+00
    1      -16.513983   1.000000
    2      -13.117573   1.000000
    3      -13.012618   1.000000
    4      -12.541244   1.000000
    5      -12.438173   1.000000
    6       -8.605767   1.000000
    7       -7.600710   1.000000
    8       -7.248054   1.000000
    9       -6.926794   1.000000
   10       -6.829601   1.000000
   11       -6.667671   1.000000
   12       -6.384610   1.000000
   13       -6.024492   1.000000
   14       -5.059272   1.000000
   15       -4.886077   1.000000
   16       -4.733944   1.000000
   17       -4.098399   1.000000
   18       -4.028897   1.000000
   19       -3.847710   1.000000
   20       -3.672782   1.000000
   21       -3.387247   1.000000
   22       -3.178435   1.000000
   23       -2.867450   1.000000
   24       -2.776687   1.000000
   25       -0.563730   0.000000
   26       -0.036556   0.000000
   27        0.179691   0.000000
   28        0.585991   0.000000
   29        0.772399   0.000000
   30        1.040250   0.000000
   31        1.200334   0.000000
   32        1.295602   0.000000

 -0.2000000E+00  0.3333333E+00  0.1262379E-14  0.1333333E+00
    1      -16.516449   1.000000
    2      -13.482675   1.000000
    3      -13.378128   1.000000
    4      -11.866012   1.000000
    5      -11.765706   1.000000
    6       -8.707825   1.000000
    7       -8.015499   1.000000
    8       -7.858200   1.000000
    9       -7.739596   1.000000
   10       -7.224692   1.000000
   11       -7.140841   1.000000
   12       -5.979709   1.000000
   13       -5.374997   1.000000
   14       -4.926509   1.000000
   15       -4.554649   1.000000
   16       -4.421605   1.000000
   17       -4.043835   1.000000
   18       -3.479218   1.000000
   19       -3.444993   1.000000
   20       -3.377254   1.000000
   21       -3.346267   1.000000
   22       -2.951277   1.000000
   23       -2.637547   1.000000
   24       -2.519076   1.000000
   25       -0.922196   0.000000
   26       -0.189231   0.000000
   27        0.052845   0.000000
   28        0.310070   0.000000
   29        0.600312   0.000000
   30        0.697100   0.000000
   31        0.848431   0.000000
   32        1.036083   0.000000
