       N       E                     dE             d eps       ncg     rms          rms(c)
DAV:   1     0.299767330975E+03    0.29977E+03   -0.13389E+04   512   0.924E+02
DAV:   2    -0.672840914222E+01   -0.30650E+03   -0.29027E+03   736   0.214E+02
DAV:   3    -0.869720490600E+02   -0.80244E+02   -0.78994E+02   832   0.101E+02
DAV:   4    -0.899172123596E+02   -0.29452E+01   -0.29370E+01   664   0.241E+01
DAV:   5    -0.900335158561E+02   -0.11630E+00   -0.11627E+00   824   0.486E+00
DAV:   6    -0.900350386815E+02   -0.15228E-02   -0.15222E-02   688   0.664E-01
DAV:   7    -0.900351333281E+02   -0.94647E-04   -0.94637E-04   832   0.119E-01    0.190E+01
DAV:   8    -0.714292195942E+02    0.18606E+02   -0.77205E+01   648   0.445E+01    0.552E+00
DAV:   9    -0.711977854461E+02    0.23143E+00   -0.66118E+00   656   0.117E+01    0.386E+00
DAV:  10    -0.705944993482E+02    0.60329E+00   -0.14107E+00   720   0.720E+00    0.891E-01
DAV:  11    -0.705279498248E+02    0.66550E-01   -0.20395E-01   728   0.208E+00    0.505E-01
DAV:  12    -0.705227580101E+02    0.51918E-02   -0.21490E-01   760   0.214E+00    0.568E-01
DAV:  13    -0.705112319928E+02    0.11526E-01   -0.21988E-02   704   0.808E-01    0.422E-01
DAV:  14    -0.705029918328E+02    0.82402E-02   -0.54561E-02   728   0.124E+00    0.139E-01
DAV:  15    -0.705050795302E+02   -0.20877E-02   -0.88458E-03   648   0.506E-01    0.108E-01
DAV:  16    -0.705073768462E+02   -0.22973E-02   -0.62037E-03   704   0.377E-01    0.125E-01
DAV:  17    -0.705088402571E+02   -0.14634E-02   -0.53292E-03   712   0.331E-01    0.613E-02
DAV:  18    -0.705102342799E+02   -0.13940E-02   -0.26395E-03   696   0.255E-01    0.481E-02
DAV:  19    -0.705118879777E+02   -0.16537E-02   -0.91582E-04   712   0.138E-01    0.298E-02
DAV:  20    -0.705126781121E+02   -0.79013E-03   -0.24084E-04   736   0.723E-02    0.193E-02
DAV:  21    -0.705132164618E+02   -0.53835E-03   -0.14880E-04   672   0.531E-02    0.698E-03
DAV:  22    -0.705136828901E+02   -0.46643E-03   -0.59368E-05   616   0.270E-02    0.614E-03
DAV:  23    -0.705137980925E+02   -0.11520E-03   -0.13687E-05   664   0.157E-02    0.335E-03
DAV:  24    -0.705138528534E+02   -0.54761E-04   -0.11681E-05   648   0.141E-02    0.297E-03
DAV:  25    -0.705138661673E+02   -0.13314E-04   -0.18787E-06   512   0.800E-03    0.141E-03
DAV:  26    -0.705138731435E+02   -0.69763E-05   -0.12817E-06   400   0.543E-03    0.819E-04
DAV:  27    -0.705138762170E+02   -0.30735E-05   -0.54381E-07   440   0.405E-03    0.422E-04
DAV:  28    -0.705138780189E+02   -0.18018E-05   -0.46721E-07   408   0.330E-03    0.605E-04
DAV:  29    -0.705138786987E+02   -0.67982E-06   -0.18629E-07   432   0.261E-03
   1 F= -.70513879E+02 E0= -.70513879E+02  d E =-.705139E+02
