Al   C    Se   H                        
   1.0000000000000000     
     6.0191999999999997    0.0000000000000000    0.0000000000000000
     0.0000000000000000   10.1400000000000006    0.0000000000000000
     0.0000000000000000    0.0000000000000000   15.0000000000000000
   Al   C    Se   H 
     8     4     1     2
Selective dynamics
Direct
  0.4170395081614974  0.8619336439622388  0.2338762709851853   T   T   T
  0.9176903802179979  0.8625636471660894  0.2536824195547039   T   T   T
  0.4183809191016964  0.6040850022865156  0.2398400474197236   T   T   T
  0.9193789449897943  0.6060138267138413  0.2647401096901934   T   T   T
  0.4255326515776272  0.3600168291379532  0.2689913305599106   T   T   T
  0.9218279048196792  0.3632008089957658  0.2435991689141888   T   T   T
  0.4185063606067457  0.1051579709594178  0.2520463240911998   T   T   T
  0.9176970285179001  0.1051559184509454  0.2349185536234698   T   T   T
  0.1677887818716469  0.9837706769431378  0.2442576683559723   T   T   T
  0.6678285445880828  0.9831057548859053  0.2408148821483453   T   T   T
  0.1712756936681301  0.4836978683662589  0.2653988915254675   T   T   T
  0.6705381189359334  0.4850563988955836  0.2493276498099474   T   T   T
  0.4882996822836036  0.3796912398048894  0.4612548176310293   T   T   T
  0.3159584653259250  0.2961400435037418  0.5046354553132469   T   T   T
  0.3091631437733413  0.4510885949371338  0.4079752356483081   T   T   T

  0.00000000E+00  0.00000000E+00  0.00000000E+00
  0.00000000E+00  0.00000000E+00  0.00000000E+00
  0.00000000E+00  0.00000000E+00  0.00000000E+00
  0.00000000E+00  0.00000000E+00  0.00000000E+00
  0.00000000E+00  0.00000000E+00  0.00000000E+00
  0.00000000E+00  0.00000000E+00  0.00000000E+00
  0.00000000E+00  0.00000000E+00  0.00000000E+00
  0.00000000E+00  0.00000000E+00  0.00000000E+00
  0.00000000E+00  0.00000000E+00  0.00000000E+00
  0.00000000E+00  0.00000000E+00  0.00000000E+00
  0.00000000E+00  0.00000000E+00  0.00000000E+00
  0.00000000E+00  0.00000000E+00  0.00000000E+00
  0.00000000E+00  0.00000000E+00  0.00000000E+00
  0.00000000E+00  0.00000000E+00  0.00000000E+00
  0.00000000E+00  0.00000000E+00  0.00000000E+00
