Al2C                                    
           1
     6.019200    0.000000    0.000000
     0.000000   10.140000    0.000000
     0.000000    0.000000   15.000000
   Al   C    Se   H 
   8   4   1   2
Direct configuration=     1
   0.41703951  0.86193364  0.23387627
   0.91769038  0.86256365  0.25368242
   0.41838092  0.60408500  0.23984005
   0.91937894  0.60601383  0.26474011
   0.42553265  0.36001683  0.26899133
   0.92182790  0.36320081  0.24359917
   0.41850636  0.10515797  0.25204632
   0.91769703  0.10515592  0.23491855
   0.16778878  0.98377068  0.24425767
   0.66782854  0.98310575  0.24081488
   0.17127569  0.48369787  0.26539889
   0.67053812  0.48505640  0.24932765
   0.48829968  0.37969124  0.46125482
   0.31595847  0.29614004  0.50463546
   0.30916314  0.45108859  0.40797524
