Al2C                                    
   1.0000000000000000     
     6.0191999999999997    0.0000000000000000    0.0000000000000000
     0.0000000000000000   10.1400000000000006    0.0000000000000000
     0.0000000000000000    0.0000000000000000   15.0000000000000000
   Al   C    S    H 
     8     4     1     2
Selective dynamics
Direct
  0.4377847757288507  0.8775585874010474  0.2550078053906475   F   F   F
  0.9371108941454764  0.8775201747593471  0.2312239256067627   F   F   F
  0.4411969391185409  0.6213938509892785  0.2756117047135120   F   F   F
  0.9377157890436791  0.6188022837792531  0.2400864456154537   F   F   F
  0.4350274352300687  0.3797687533706338  0.2362180183468610   F   F   F
  0.9352068892165804  0.3768319485149902  0.2664698865972426   F   F   F
  0.4362103371970605  0.1204047167443889  0.2298998190913650   F   F   F
  0.9366015164493149  0.1196260215337688  0.2549002650108179   F   F   F
  0.1870209203789628  0.9987350130971961  0.2432079580166615   F   F   F
  0.6868315063216954  0.9992159727083205  0.2397362290703100   F   F   F
  0.1868435546916345  0.4984090946031188  0.2627229959878150   F   F   F
  0.6863206688096994  0.4982435104311023  0.2517930726475726   F   F   F
  0.4197430566556406  0.6053499800608790  0.4617864740660025   T   T   T
  0.2540748224391578  0.6925972977887724  0.4785373965762929   T   T   T
  0.2770817611339780  0.5264362853421503  0.4117980032626652   T   T   T

  0.00000000E+00  0.00000000E+00  0.00000000E+00
  0.00000000E+00  0.00000000E+00  0.00000000E+00
  0.00000000E+00  0.00000000E+00  0.00000000E+00
  0.00000000E+00  0.00000000E+00  0.00000000E+00
  0.00000000E+00  0.00000000E+00  0.00000000E+00
  0.00000000E+00  0.00000000E+00  0.00000000E+00
  0.00000000E+00  0.00000000E+00  0.00000000E+00
  0.00000000E+00  0.00000000E+00  0.00000000E+00
  0.00000000E+00  0.00000000E+00  0.00000000E+00
  0.00000000E+00  0.00000000E+00  0.00000000E+00
  0.00000000E+00  0.00000000E+00  0.00000000E+00
  0.00000000E+00  0.00000000E+00  0.00000000E+00
  0.00000000E+00  0.00000000E+00  0.00000000E+00
  0.00000000E+00  0.00000000E+00  0.00000000E+00
  0.00000000E+00  0.00000000E+00  0.00000000E+00
