Al2C                                    
   1.0000000000000000     
     6.0191999999999997    0.0000000000000000    0.0000000000000000
     0.0000000000000000   10.1400000000000006    0.0000000000000000
     0.0000000000000000    0.0000000000000000   15.0000000000000000
   Al   C    Se   H 
     8     4     1     2
Selective dynamics
Direct
  0.3443361370706768  0.8675660973332739  0.2478675769878222   T   T   T
  0.8426504433526318  0.8676025159136529  0.2483588280924778   T   T   T
  0.3281150038101899  0.6182505647154883  0.2909839948940700   T   T   T
  0.8597608341138354  0.6182118644128352  0.2912661257028049   T   T   T
  0.3373949951758988  0.3684862812208891  0.2561921064650434   T   T   T
  0.8498429175477611  0.3685783978164636  0.2558489274696001   T   T   T
  0.3428009703410027  0.1117445777636021  0.2393187533540839   T   T   T
  0.8441100073209640  0.1117721312855338  0.2388462525352750   T   T   T
  0.0934843808074461  0.9904141515987988  0.2386507394609581   T   T   T
  0.5935147019025209  0.9913421079832219  0.2424115207462023   T   T   T
  0.0937472604743803  0.4903447580357891  0.2484809311225149   T   T   T
  0.5938121945336974  0.4871104212449708  0.3031230197949952   T   T   T
  0.0950073310870749  0.6368222395054204  0.4367174359759929   T   T   T
  0.5937968041624728  0.4589397990589603  0.3750578724782443   T   T   T
  0.0957968848598014  0.7807075832353547  0.4568759149198911   T   T   T

  0.00000000E+00  0.00000000E+00  0.00000000E+00
  0.00000000E+00  0.00000000E+00  0.00000000E+00
  0.00000000E+00  0.00000000E+00  0.00000000E+00
  0.00000000E+00  0.00000000E+00  0.00000000E+00
  0.00000000E+00  0.00000000E+00  0.00000000E+00
  0.00000000E+00  0.00000000E+00  0.00000000E+00
  0.00000000E+00  0.00000000E+00  0.00000000E+00
  0.00000000E+00  0.00000000E+00  0.00000000E+00
  0.00000000E+00  0.00000000E+00  0.00000000E+00
  0.00000000E+00  0.00000000E+00  0.00000000E+00
  0.00000000E+00  0.00000000E+00  0.00000000E+00
  0.00000000E+00  0.00000000E+00  0.00000000E+00
  0.00000000E+00  0.00000000E+00  0.00000000E+00
  0.00000000E+00  0.00000000E+00  0.00000000E+00
  0.00000000E+00  0.00000000E+00  0.00000000E+00
