  15  15   0   0
  0.6103469E+02  0.6019200E-09  0.1014000E-08  0.1500000E-08  0.3500000E-15
   1.0000000000000000E-004
  CAR 
 Al2C                                    
      3.49084007    -18.82501653  301     -2.23224732      1.00000000
    -18.825  0.0000E+00  0.0000E+00
    -18.751  0.0000E+00  0.0000E+00
    -18.676  0.0000E+00  0.0000E+00
    -18.602  0.0000E+00  0.0000E+00
    -18.527  0.0000E+00  0.0000E+00
    -18.453  0.0000E+00  0.0000E+00
    -18.379  0.0000E+00  0.0000E+00
    -18.304  0.0000E+00  0.0000E+00
    -18.230  0.0000E+00  0.0000E+00
    -18.156  0.0000E+00  0.0000E+00
    -18.081  0.5930E-13  0.4411E-14
    -18.007  0.9803E-07  0.7292E-08
    -17.932  0.2423E-02  0.1803E-03
    -17.858  0.1112E+01  0.8292E-01
    -17.784  0.1500E+02  0.1199E+01
    -17.709  0.1043E+02  0.1975E+01
    -17.635  0.3347E+00  0.2000E+01
    -17.560  0.2681E-03  0.2000E+01
    -17.486  0.3543E-08  0.2000E+01
    -17.412  0.0000E+00  0.2000E+01
    -17.337  0.0000E+00  0.2000E+01
    -17.263  0.0000E+00  0.2000E+01
    -17.189  0.0000E+00  0.2000E+01
    -17.114  0.0000E+00  0.2000E+01
    -17.040  0.0000E+00  0.2000E+01
    -16.965  0.0000E+00  0.2000E+01
    -16.891  0.0000E+00  0.2000E+01
    -16.817  0.0000E+00  0.2000E+01
    -16.742  0.0000E+00  0.2000E+01
    -16.668  0.0000E+00  0.2000E+01
    -16.593  0.0000E+00  0.2000E+01
    -16.519  0.1617E-11  0.2000E+01
    -16.445  0.9294E-06  0.2000E+01
    -16.370  0.7436E-02  0.2001E+01
    -16.296  0.1047E+01  0.2078E+01
    -16.221  0.7048E+01  0.2603E+01
    -16.147  0.7720E+01  0.3177E+01
    -16.073  0.6338E+01  0.3648E+01
    -15.998  0.4597E+01  0.3990E+01
    -15.924  0.1293E+00  0.4000E+01
    -15.850  0.6989E-04  0.4000E+01
    -15.775  0.5485E-09  0.4000E+01
    -15.701  0.4279E-14  0.4000E+01
    -15.626  0.1177E-07  0.4000E+01
    -15.552  0.4431E-03  0.4000E+01
    -15.478  0.2568E+00  0.4019E+01
    -15.403  0.3340E+01  0.4268E+01
    -15.329  0.2787E+01  0.4475E+01
    -15.254  0.7470E+01  0.5031E+01
    -15.180  0.2258E+01  0.5199E+01
    -15.106  0.1990E-01  0.5200E+01
    -15.031  0.3648E-03  0.5200E+01
    -14.957  0.3157E+00  0.5224E+01
    -14.883  0.5941E+01  0.5665E+01
    -14.808  0.4943E+01  0.6033E+01
    -14.734  0.6872E+01  0.6544E+01
    -14.659  0.3381E+01  0.6796E+01
    -14.585  0.5603E-01  0.6800E+01
    -14.511  0.1556E+00  0.6812E+01
    -14.436  0.4876E+01  0.7174E+01
    -14.362  0.5506E+01  0.7584E+01
    -14.287  0.2554E+01  0.7774E+01
    -14.213  0.1116E+02  0.8604E+01
    -14.139  0.2612E+01  0.8798E+01
    -14.064  0.2065E-01  0.8800E+01
    -13.990  0.3362E-05  0.8800E+01
    -13.916  0.8575E-11  0.8800E+01
    -13.841  0.0000E+00  0.8800E+01
    -13.767  0.2038E-09  0.8800E+01
    -13.692  0.3509E-04  0.8800E+01
    -13.618  0.8688E-01  0.8806E+01
    -13.544  0.4015E+01  0.9105E+01
    -13.469  0.6268E+01  0.9571E+01
    -13.395  0.3846E+00  0.9600E+01
    -13.320  0.5072E-03  0.9600E+01
    -13.246  0.3955E-02  0.9600E+01
    -13.172  0.7534E+00  0.9656E+01
    -13.097  0.3802E+01  0.9939E+01
    -13.023  0.8134E+00  0.1000E+02
    -12.949  0.4681E-02  0.1000E+02
    -12.874  0.4437E-06  0.1000E+02
    -12.800  0.5799E-12  0.1000E+02
    -12.725  0.0000E+00  0.1000E+02
    -12.651  0.0000E+00  0.1000E+02
    -12.577  0.0000E+00  0.1000E+02
    -12.502  0.0000E+00  0.1000E+02
    -12.428  0.0000E+00  0.1000E+02
    -12.353  0.0000E+00  0.1000E+02
    -12.279  0.0000E+00  0.1000E+02
    -12.205  0.0000E+00  0.1000E+02
    -12.130  0.0000E+00  0.1000E+02
    -12.056  0.0000E+00  0.1000E+02
    -11.981  0.0000E+00  0.1000E+02
    -11.907  0.0000E+00  0.1000E+02
    -11.833  0.0000E+00  0.1000E+02
    -11.758  0.0000E+00  0.1000E+02
    -11.684  0.0000E+00  0.1000E+02
    -11.610  0.0000E+00  0.1000E+02
    -11.535  0.0000E+00  0.1000E+02
    -11.461  0.0000E+00  0.1000E+02
    -11.386  0.0000E+00  0.1000E+02
    -11.312  0.0000E+00  0.1000E+02
    -11.238  0.0000E+00  0.1000E+02
    -11.163  0.0000E+00  0.1000E+02
    -11.089  0.0000E+00  0.1000E+02
    -11.014  0.0000E+00  0.1000E+02
    -10.940  0.0000E+00  0.1000E+02
    -10.866  0.0000E+00  0.1000E+02
    -10.791  0.0000E+00  0.1000E+02
    -10.717  0.0000E+00  0.1000E+02
    -10.643  0.0000E+00  0.1000E+02
    -10.568  0.0000E+00  0.1000E+02
    -10.494  0.0000E+00  0.1000E+02
    -10.419  0.0000E+00  0.1000E+02
    -10.345  0.0000E+00  0.1000E+02
    -10.271  0.8259E-14  0.1000E+02
    -10.196  0.1478E-07  0.1000E+02
    -10.122  0.3568E-03  0.1000E+02
    -10.047  0.1346E+00  0.1001E+02
     -9.973  0.1235E+01  0.1010E+02
     -9.899  0.2030E+01  0.1025E+02
     -9.824  0.6195E+01  0.1071E+02
     -9.750  0.9303E+01  0.1141E+02
     -9.676  0.4112E+01  0.1171E+02
     -9.601  0.8769E+01  0.1236E+02
     -9.527  0.8477E+01  0.1299E+02
     -9.452  0.7334E+01  0.1354E+02
     -9.378  0.8038E+00  0.1360E+02
     -9.304  0.2844E-01  0.1360E+02
     -9.229  0.2342E+01  0.1378E+02
     -9.155  0.9777E+01  0.1450E+02
     -9.080  0.6416E+01  0.1498E+02
     -9.006  0.7855E+01  0.1556E+02
     -8.932  0.9730E+01  0.1629E+02
     -8.857  0.4639E+01  0.1663E+02
     -8.783  0.4468E+00  0.1667E+02
     -8.708  0.1068E+01  0.1675E+02
     -8.634  0.5203E+01  0.1713E+02
     -8.560  0.3131E+01  0.1737E+02
     -8.485  0.1624E+01  0.1749E+02
     -8.411  0.4764E+01  0.1784E+02
     -8.337  0.5204E+01  0.1823E+02
     -8.262  0.2150E+01  0.1839E+02
     -8.188  0.5079E+01  0.1877E+02
     -8.113  0.5508E+01  0.1918E+02
     -8.039  0.6357E+00  0.1922E+02
     -7.965  0.6388E+01  0.1970E+02
     -7.890  0.1029E+02  0.2046E+02
     -7.816  0.9334E+00  0.2053E+02
     -7.741  0.1904E-01  0.2053E+02
     -7.667  0.1481E+01  0.2064E+02
     -7.593  0.6907E+01  0.2116E+02
     -7.518  0.3461E+01  0.2142E+02
     -7.444  0.4223E+01  0.2173E+02
     -7.370  0.9446E+01  0.2243E+02
     -7.295  0.6914E+01  0.2295E+02
     -7.221  0.5126E+01  0.2333E+02
     -7.146  0.6258E+01  0.2379E+02
     -7.072  0.6091E+01  0.2425E+02
     -6.998  0.3766E+00  0.2428E+02
     -6.923  0.2024E+01  0.2443E+02
     -6.849  0.1415E+01  0.2453E+02
     -6.774  0.7431E-01  0.2454E+02
     -6.700  0.2329E+01  0.2471E+02
     -6.626  0.6708E+01  0.2521E+02
     -6.551  0.2247E+01  0.2538E+02
     -6.477  0.7415E+01  0.2593E+02
     -6.403  0.5873E+01  0.2636E+02
     -6.328  0.1749E+01  0.2649E+02
     -6.254  0.7079E+01  0.2702E+02
     -6.179  0.7583E+01  0.2759E+02
     -6.105  0.2309E+01  0.2776E+02
     -6.031  0.4079E+01  0.2806E+02
     -5.956  0.2716E+01  0.2826E+02
     -5.882  0.2480E+01  0.2845E+02
     -5.807  0.1199E+02  0.2934E+02
     -5.733  0.1580E+02  0.3051E+02
     -5.659  0.4177E+01  0.3082E+02
     -5.584  0.3260E+01  0.3107E+02
     -5.510  0.5667E+01  0.3149E+02
     -5.436  0.3318E+01  0.3174E+02
     -5.361  0.3265E+01  0.3198E+02
     -5.287  0.1087E+01  0.3206E+02
     -5.212  0.3044E+01  0.3229E+02
     -5.138  0.6966E+01  0.3280E+02
     -5.064  0.8902E+01  0.3347E+02
     -4.989  0.9245E+01  0.3415E+02
     -4.915  0.2273E+01  0.3432E+02
     -4.840  0.3064E+01  0.3455E+02
     -4.766  0.1012E+02  0.3530E+02
     -4.692  0.9455E+01  0.3601E+02
     -4.617  0.6600E+01  0.3650E+02
     -4.543  0.7148E+01  0.3703E+02
     -4.468  0.2048E+01  0.3718E+02
     -4.394  0.5323E+01  0.3758E+02
     -4.320  0.3910E+01  0.3787E+02
     -4.245  0.5903E+01  0.3831E+02
     -4.171  0.7164E+01  0.3884E+02
     -4.097  0.1083E+02  0.3965E+02
     -4.022  0.4275E+01  0.3996E+02
     -3.948  0.1383E+02  0.4099E+02
     -3.873  0.7798E+01  0.4157E+02
     -3.799  0.5404E+01  0.4197E+02
     -3.725  0.1444E+02  0.4305E+02
     -3.650  0.5377E+01  0.4345E+02
     -3.576  0.4533E+01  0.4379E+02
     -3.501  0.7058E+01  0.4431E+02
     -3.427  0.2753E+01  0.4452E+02
     -3.353  0.9083E+01  0.4519E+02
     -3.278  0.4642E+01  0.4554E+02
     -3.204  0.2485E+01  0.4572E+02
     -3.130  0.4914E+01  0.4609E+02
     -3.055  0.1300E+01  0.4618E+02
     -2.981  0.7044E+01  0.4671E+02
     -2.906  0.3556E+01  0.4697E+02
     -2.832  0.5650E+01  0.4739E+02
     -2.758  0.2731E+01  0.4760E+02
     -2.683  0.5341E-01  0.4760E+02
     -2.609  0.5503E-02  0.4760E+02
     -2.534  0.8662E+00  0.4766E+02
     -2.460  0.3792E+01  0.4795E+02
     -2.386  0.7106E+00  0.4800E+02
     -2.311  0.3536E-02  0.4800E+02
     -2.237  0.2907E-06  0.4800E+02
     -2.163  0.3325E-12  0.4800E+02
     -2.088  0.0000E+00  0.4800E+02
     -2.014  0.0000E+00  0.4800E+02
     -1.939  0.0000E+00  0.4800E+02
     -1.865  0.0000E+00  0.4800E+02
     -1.791  0.0000E+00  0.4800E+02
     -1.716  0.0000E+00  0.4800E+02
     -1.642  0.0000E+00  0.4800E+02
     -1.567  0.0000E+00  0.4800E+02
     -1.493  0.0000E+00  0.4800E+02
     -1.419  0.0000E+00  0.4800E+02
     -1.344  0.3126E-09  0.4800E+02
     -1.270  0.2713E-04  0.4800E+02
     -1.195  0.3465E-01  0.4800E+02
     -1.121  0.8876E+00  0.4807E+02
     -1.047  0.8412E+00  0.4813E+02
     -0.972  0.6864E-01  0.4814E+02
     -0.898  0.2027E+01  0.4829E+02
     -0.824  0.4793E+01  0.4864E+02
     -0.749  0.4780E+01  0.4900E+02
     -0.675  0.2743E+01  0.4920E+02
     -0.600  0.4226E+01  0.4952E+02
     -0.526  0.7480E+01  0.5007E+02
     -0.452  0.8033E+00  0.5013E+02
     -0.377  0.7825E+00  0.5019E+02
     -0.303  0.2469E+01  0.5038E+02
     -0.228  0.3282E+00  0.5040E+02
     -0.154  0.1899E-02  0.5040E+02
     -0.080  0.4091E+00  0.5043E+02
     -0.005  0.5512E+01  0.5084E+02
      0.069  0.7460E+01  0.5140E+02
      0.143  0.5803E+01  0.5183E+02
      0.218  0.2795E+01  0.5203E+02
      0.292  0.7929E+01  0.5262E+02
      0.367  0.7519E+01  0.5318E+02
      0.441  0.4835E+01  0.5354E+02
      0.515  0.8190E+01  0.5415E+02
      0.590  0.4901E+01  0.5452E+02
      0.664  0.7563E+01  0.5508E+02
      0.739  0.1949E+01  0.5523E+02
      0.813  0.3791E+01  0.5551E+02
      0.887  0.6941E+01  0.5602E+02
      0.962  0.8330E+01  0.5664E+02
      1.036  0.6466E+01  0.5712E+02
      1.110  0.6605E+01  0.5762E+02
      1.185  0.6561E+01  0.5810E+02
      1.259  0.1098E+02  0.5892E+02
      1.334  0.8412E+01  0.5955E+02
      1.408  0.1023E+02  0.6031E+02
      1.482  0.8137E+01  0.6091E+02
      1.557  0.5025E+01  0.6129E+02
      1.631  0.5050E+01  0.6166E+02
      1.706  0.3419E+01  0.6192E+02
      1.780  0.2685E+01  0.6212E+02
      1.854  0.2496E+01  0.6230E+02
      1.929  0.7066E+01  0.6283E+02
      2.003  0.4792E+01  0.6318E+02
      2.078  0.8102E+00  0.6324E+02
      2.152  0.2531E+01  0.6343E+02
      2.226  0.4650E+00  0.6347E+02
      2.301  0.4221E+00  0.6350E+02
      2.375  0.2527E+01  0.6369E+02
      2.449  0.1428E+01  0.6379E+02
      2.524  0.2469E+01  0.6398E+02
      2.598  0.3227E+00  0.6400E+02
      2.673  0.1032E-02  0.6400E+02
      2.747  0.5215E-07  0.6400E+02
      2.821  0.3582E-13  0.6400E+02
      2.896  0.0000E+00  0.6400E+02
      2.970  0.0000E+00  0.6400E+02
      3.045  0.0000E+00  0.6400E+02
      3.119  0.0000E+00  0.6400E+02
      3.193  0.0000E+00  0.6400E+02
      3.268  0.0000E+00  0.6400E+02
      3.342  0.0000E+00  0.6400E+02
      3.416  0.0000E+00  0.6400E+02
      3.491  0.0000E+00  0.6400E+02
