   15   15    1    1
  0.6103469E+02  0.6019200E-09  0.1014000E-08  0.1500000E-08  0.3500000E-15
   1.0000000000000000E-004
  CAR 
 Al2C                                    
     48      8     32

  0.3742002E-15  0.3742002E-15  0.1262379E-14  0.6666667E-01
    1      -17.810659   1.000000
    2      -16.265442   1.000000
    3      -15.416162   1.000000
    4      -14.235567   1.000000
    5      -13.133040   1.000000
    6       -9.996627   1.000000
    7       -9.840367   1.000000
    8       -9.536642   1.000000
    9       -9.183609   1.000000
   10       -8.293961   1.000000
   11       -7.419295   1.000000
   12       -7.128259   1.000000
   13       -6.504630   1.000000
   14       -6.486972   1.000000
   15       -5.729111   1.000000
   16       -5.405283   1.000000
   17       -5.168861   1.000000
   18       -4.772062   1.000000
   19       -4.165246   1.000000
   20       -3.982186   1.000000
   21       -3.517331   1.000000
   22       -3.391851   1.000000
   23       -2.853444   1.000000
   24       -2.502920   1.000000
   25       -1.122394   0.000000
   26       -0.588383   0.000000
   27        0.331874   0.000000
   28        0.410715   0.000000
   29        0.789796   0.000000
   30        0.867830   0.000000
   31        1.072972   0.000000
   32        1.590830   0.000000

  0.2000000E+00  0.3742002E-15  0.1262379E-14  0.1333333E+00
    1      -17.798541   1.000000
    2      -16.204862   1.000000
    3      -15.280818   1.000000
    4      -14.432518   1.000000
    5      -13.531752   1.000000
    6       -9.888434   1.000000
    7       -9.531085   1.000000
    8       -9.082590   1.000000
    9       -8.960310   1.000000
   10       -8.167317   1.000000
   11       -7.501305   1.000000
   12       -7.330482   1.000000
   13       -6.931809   1.000000
   14       -6.186426   1.000000
   15       -5.814663   1.000000
   16       -5.427846   1.000000
   17       -5.057097   1.000000
   18       -4.793944   1.000000
   19       -4.349700   1.000000
   20       -4.141583   1.000000
   21       -3.967063   1.000000
   22       -3.695811   1.000000
   23       -2.999198   1.000000
   24       -2.838038   1.000000
   25       -0.863277   0.000000
   26        0.044312   0.000000
   27        0.293228   0.000000
   28        0.637208   0.000000
   29        0.915489   0.000000
   30        1.061863   0.000000
   31        1.296229   0.000000
   32        1.645989   0.000000

  0.4000000E+00  0.3742002E-15  0.1262379E-14  0.1333333E+00
    1      -17.778994   1.000000
    2      -16.078736   1.000000
    3      -14.894099   1.000000
    4      -14.745528   1.000000
    5      -14.251791   1.000000
    6       -9.658390   1.000000
    7       -9.171274   1.000000
    8       -8.899028   1.000000
    9       -8.368059   1.000000
   10       -7.649076   1.000000
   11       -7.414001   1.000000
   12       -7.145276   1.000000
   13       -6.691238   1.000000
   14       -6.640097   1.000000
   15       -6.026818   1.000000
   16       -5.822448   1.000000
   17       -5.615551   1.000000
   18       -5.164496   1.000000
   19       -4.886726   1.000000
   20       -4.591904   1.000000
   21       -3.916013   1.000000
   22       -3.750264   1.000000
   23       -3.303754   1.000000
   24       -2.860663   1.000000
   25       -0.562600   0.000000
   26        0.026882   0.000000
   27        0.456508   0.000000
   28        1.207102   0.000000
   29        1.321732   0.000000
   30        1.731516   0.000000
   31        1.931909   0.000000
   32        2.342623   0.000000

  0.3742002E-15  0.3333333E+00  0.1262379E-14  0.1333333E+00
    1      -17.810501   1.000000
    2      -16.263917   1.000000
    3      -15.419909   1.000000
    4      -14.237115   1.000000
    5      -13.133885   1.000000
    6       -9.836054   1.000000
    7       -9.777600   1.000000
    8       -9.615374   1.000000
    9       -9.147959   1.000000
   10       -8.571028   1.000000
   11       -7.987506   1.000000
   12       -6.672135   1.000000
   13       -6.443871   1.000000
   14       -6.056502   1.000000
   15       -5.793152   1.000000
   16       -5.259744   1.000000
   17       -5.055058   1.000000
   18       -4.647096   1.000000
   19       -4.184074   1.000000
   20       -4.088896   1.000000
   21       -3.758001   1.000000
   22       -3.540024   1.000000
   23       -3.392028   1.000000
   24       -2.497797   1.000000
   25       -0.890161   0.000000
   26       -0.349862   0.000000
   27        0.265787   0.000000
   28        0.440674   0.000000
   29        0.793325   0.000000
   30        1.095279   0.000000
   31        1.408421   0.000000
   32        1.853105   0.000000

  0.2000000E+00  0.3333333E+00  0.1262379E-14  0.1333333E+00
    1      -17.798401   1.000000
    2      -16.203454   1.000000
    3      -15.283791   1.000000
    4      -14.433812   1.000000
    5      -13.533508   1.000000
    6       -9.773246   1.000000
    7       -9.497287   1.000000
    8       -9.033991   1.000000
    9       -8.961247   1.000000
   10       -8.425403   1.000000
   11       -7.940550   1.000000
   12       -7.282541   1.000000
   13       -6.493081   1.000000
   14       -6.231004   1.000000
   15       -5.755374   1.000000
   16       -5.130018   1.000000
   17       -5.020537   1.000000
   18       -4.763220   1.000000
   19       -4.275798   1.000000
   20       -4.151359   1.000000
   21       -3.969406   1.000000
   22       -3.758631   1.000000
   23       -3.381939   1.000000
   24       -3.002111   1.000000
   25       -0.759532   0.000000
   26       -0.020356   0.000000
   27        0.290847   0.000000
   28        0.618684   0.000000
   29        0.888379   0.000000
   30        1.257165   0.000000
   31        1.455558   0.000000
   32        1.940758   0.000000

  0.4000000E+00  0.3333333E+00  0.1262379E-14  0.1333333E+00
    1      -17.778919   1.000000
    2      -16.077812   1.000000
    3      -14.887780   1.000000
    4      -14.752856   1.000000
    5      -14.256605   1.000000
    6       -9.610876   1.000000
    7       -9.207955   1.000000
    8       -8.671661   1.000000
    9       -8.191991   1.000000
   10       -7.947985   1.000000
   11       -7.610821   1.000000
   12       -7.400820   1.000000
   13       -7.149880   1.000000
   14       -6.294206   1.000000
   15       -5.863243   1.000000
   16       -5.777745   1.000000
   17       -5.537855   1.000000
   18       -4.760901   1.000000
   19       -4.609071   1.000000
   20       -4.442629   1.000000
   21       -3.971093   1.000000
   22       -3.794858   1.000000
   23       -3.575711   1.000000
   24       -3.178288   1.000000
   25       -0.594325   0.000000
   26        0.127938   0.000000
   27        0.509341   0.000000
   28        0.979952   0.000000
   29        1.203133   0.000000
   30        1.379764   0.000000
   31        1.512962   0.000000
   32        2.476483   0.000000

 -0.4000000E+00  0.3333333E+00  0.1262379E-14  0.1333333E+00
    1      -17.778923   1.000000
    2      -16.077815   1.000000
    3      -14.887737   1.000000
    4      -14.752898   1.000000
    5      -14.256605   1.000000
    6       -9.610816   1.000000
    7       -9.208132   1.000000
    8       -8.671902   1.000000
    9       -8.191863   1.000000
   10       -7.946944   1.000000
   11       -7.611176   1.000000
   12       -7.400212   1.000000
   13       -7.150671   1.000000
   14       -6.295613   1.000000
   15       -5.862301   1.000000
   16       -5.778133   1.000000
   17       -5.538175   1.000000
   18       -4.761123   1.000000
   19       -4.610210   1.000000
   20       -4.438664   1.000000
   21       -3.969322   1.000000
   22       -3.797195   1.000000
   23       -3.577684   1.000000
   24       -3.177262   1.000000
   25       -0.594411   0.000000
   26        0.126475   0.000000
   27        0.509269   0.000000
   28        0.986985   0.000000
   29        1.218934   0.000000
   30        1.362671   0.000000
   31        1.571117   0.000000
   32        2.112038   0.000000

 -0.2000000E+00  0.3333333E+00  0.1262379E-14  0.1333333E+00
    1      -17.798401   1.000000
    2      -16.203457   1.000000
    3      -15.283782   1.000000
    4      -14.433818   1.000000
    5      -13.533509   1.000000
    6       -9.773490   1.000000
    7       -9.496520   1.000000
    8       -9.033373   1.000000
    9       -8.963826   1.000000
   10       -8.423092   1.000000
   11       -7.941144   1.000000
   12       -7.281817   1.000000
   13       -6.493282   1.000000
   14       -6.233602   1.000000
   15       -5.754595   1.000000
   16       -5.129426   1.000000
   17       -5.021759   1.000000
   18       -4.762811   1.000000
   19       -4.274193   1.000000
   20       -4.151306   1.000000
   21       -3.967421   1.000000
   22       -3.760534   1.000000
   23       -3.381230   1.000000
   24       -3.002307   1.000000
   25       -0.761089   0.000000
   26       -0.026497   0.000000
   27        0.292229   0.000000
   28        0.623890   0.000000
   29        0.884552   0.000000
   30        1.172377   0.000000
   31        1.418383   0.000000
   32        1.900606   0.000000
