       N       E                     dE             d eps       ncg     rms          ort
DAV:   1     0.565088475119E+03    0.56509E+03   -0.11537E+04   256   0.962E+02
DAV:   2     0.275993403262E+03   -0.28910E+03   -0.27274E+03   256   0.256E+02
DAV:   3     0.138234476071E+03   -0.13776E+03   -0.12992E+03   256   0.197E+02
DAV:   4     0.660529403148E+02   -0.72182E+02   -0.68681E+02   256   0.151E+02
DAV:   5     0.268080069953E+02   -0.39245E+02   -0.37676E+02   256   0.107E+02
DAV:   6     0.570521214484E+01   -0.21103E+02   -0.20251E+02   256   0.762E+01
DAV:   7    -0.564130666736E+01   -0.11347E+02   -0.10900E+02   256   0.537E+01
SDA:   8    -0.591737049250E+02   -0.53532E+02   -0.36635E+02   256   0.916E+02 0.000E+00
DMP:   9    -0.767389997895E+02   -0.17565E+02   -0.58978E+01   256   0.156E+02-0.220E+01
DMP:  10    -0.799779040611E+02   -0.32389E+01   -0.45050E+01   256   0.108E+02 0.114E+01
DMP:  11    -0.825740311026E+02   -0.25961E+01   -0.11868E+01   256   0.238E+01 0.154E+01
DMP:  12    -0.832307840596E+02   -0.65675E+00   -0.66091E+00   256   0.159E+01 0.156E+00
DMP:  13    -0.836974256661E+02   -0.46664E+00   -0.32409E+00   256   0.580E+00 0.602E+00
DMP:  14    -0.839009831962E+02   -0.20356E+00   -0.11348E+00   256   0.218E+00 0.173E+00
DMP:  15    -0.839811139609E+02   -0.80131E-01   -0.57011E-01   256   0.102E+00 0.106E+00
DMP:  16    -0.840213573825E+02   -0.40243E-01   -0.22386E-01   256   0.349E-01 0.551E-01
DMP:  17    -0.840374889046E+02   -0.16132E-01   -0.10563E-01   256   0.175E-01 0.234E-01
DMP:  18    -0.840454261464E+02   -0.79372E-02   -0.49033E-02   256   0.740E-02 0.127E-01
DMP:  19    -0.840490159735E+02   -0.35898E-02   -0.19530E-02   256   0.281E-02 0.544E-02
DMP:  20    -0.840505233340E+02   -0.15074E-02   -0.90898E-03   256   0.130E-02 0.253E-02
DMP:  21    -0.840512491737E+02   -0.72584E-03   -0.42301E-03   256   0.563E-03 0.129E-02
DMP:  22    -0.840515954362E+02   -0.34626E-03   -0.21585E-03   256   0.295E-03 0.640E-03
DMP:  23    -0.840517783121E+02   -0.18288E-03   -0.12243E-03   256   0.170E-03 0.356E-03
DMP:  24    -0.840518844177E+02   -0.10611E-03   -0.74270E-04   256   0.104E-03 0.213E-03
DMP:  25    -0.840519505015E+02   -0.66084E-04   -0.46603E-04   256   0.638E-04 0.138E-03
DMP:  26    -0.840519930549E+02   -0.42553E-04   -0.30546E-04   256   0.412E-04 0.922E-04
DMP:  27    -0.840520213679E+02   -0.28313E-04   -0.20920E-04   256   0.283E-04 0.628E-04
DMP:  28    -0.840520409156E+02   -0.19548E-04   -0.15073E-04   256   0.209E-04 0.440E-04
DMP:  29    -0.840520550359E+02   -0.14120E-04   -0.11265E-04   256   0.159E-04 0.321E-04
DMP:  30    -0.840520655779E+02   -0.10542E-04   -0.85372E-05   256   0.121E-04 0.241E-04
DMP:  31    -0.840520735489E+02   -0.79711E-05   -0.64349E-05   256   0.909E-05 0.183E-04
   1 F= -.84052074E+02 E0= -.84052074E+02  d E =-.953042E-11
