--------------------------------------------------------------------------
[[10344,1],0]: A high-performance Open MPI point-to-point messaging module
was unable to find any relevant network interfaces:

Module: OpenFabrics (openib)
  Host: compute-0-2

Another transport will be used instead, although this may result in
lower performance.
--------------------------------------------------------------------------
 running on    4 total cores
 distrk:  each k-point on    4 cores,    1 groups
 distr:  one band on    1 cores,    4 groups
 using from now: INCAR     
 vasp.5.4.4.18Apr17-6-g9f103f2a35 (build Dec  6 2019 17:49:40) complex           
 POSCAR found type information on POSCAR  Al C  S  H 
 POSCAR found :  4 types and      15 ions
 scaLAPACK will be used
 LDA part: xc-table for Pade appr. of Perdew
 POSCAR found type information on POSCAR  Al C  S  H 
 POSCAR found :  4 types and      15 ions
 POSCAR, INCAR and KPOINTS ok, starting setup
 FFT: planning ...
[compute-0-2.cluster.gsc.inifta.unlp.edu.ar:10801] 3 more processes have sent help message help-mpi-btl-base.txt / btl:no-nics
[compute-0-2.cluster.gsc.inifta.unlp.edu.ar:10801] Set MCA parameter "orte_base_help_aggregate" to 0 to see all help / error messages
 WAVECAR not read
 entering main loop
       N       E                     dE             d eps       ncg     rms          ort
DAV:   1     0.565088475119E+03    0.56509E+03   -0.11537E+04   256   0.962E+02
DAV:   2     0.275993403262E+03   -0.28910E+03   -0.27274E+03   256   0.256E+02
DAV:   3     0.138234476071E+03   -0.13776E+03   -0.12992E+03   256   0.197E+02
DAV:   4     0.660529403148E+02   -0.72182E+02   -0.68681E+02   256   0.151E+02
DAV:   5     0.268080069953E+02   -0.39245E+02   -0.37676E+02   256   0.107E+02
DAV:   6     0.570521214484E+01   -0.21103E+02   -0.20251E+02   256   0.762E+01
DAV:   7    -0.564130666736E+01   -0.11347E+02   -0.10900E+02   256   0.537E+01
 gam= 0.000 g(H,U,f)=  0.875E+02 0.411E+01 0.158E-07 ort(H,U,f) = 0.000E+00 0.000E+00 0.000E+00
SDA:   8    -0.591737049250E+02   -0.53532E+02   -0.36635E+02   256   0.916E+02 0.000E+00
 gam= 0.382 g(H,U,f)=  0.152E+02 0.342E+00 0.185E-05 ort(H,U,f) =-0.267E+01 0.467E+00-0.720E-06
DMP:   9    -0.767389997895E+02   -0.17565E+02   -0.58978E+01   256   0.156E+02-0.220E+01
 gam= 0.382 g(H,U,f)=  0.104E+02 0.464E+00 0.115E-08 ort(H,U,f) = 0.103E+01 0.114E+00 0.513E-09
DMP:  10    -0.799779040611E+02   -0.32389E+01   -0.45050E+01   256   0.108E+02 0.114E+01
 gam= 0.382 g(H,U,f)=  0.208E+01 0.300E+00 0.509E-11 ort(H,U,f) = 0.113E+01 0.415E+00 0.853E-11
DMP:  11    -0.825740311026E+02   -0.25961E+01   -0.11868E+01   256   0.238E+01 0.154E+01
 gam= 0.382 g(H,U,f)=  0.138E+01 0.216E+00 0.204E-11 ort(H,U,f) =-0.198E+00 0.354E+00 0.470E-11
DMP:  12    -0.832307840596E+02   -0.65675E+00   -0.66091E+00   256   0.159E+01 0.156E+00
 gam= 0.382 g(H,U,f)=  0.465E+00 0.115E+00 0.285E-14 ort(H,U,f) = 0.349E+00 0.253E+00 0.684E-14
DMP:  13    -0.836974256661E+02   -0.46664E+00   -0.32409E+00   256   0.580E+00 0.602E+00
 gam= 0.382 g(H,U,f)=  0.166E+00 0.512E-01 0.211E-12 ort(H,U,f) = 0.370E-01 0.136E+00 0.341E-12
DMP:  14    -0.839009831962E+02   -0.20356E+00   -0.11348E+00   256   0.218E+00 0.173E+00
 gam= 0.382 g(H,U,f)=  0.787E-01 0.235E-01 0.652E-12 ort(H,U,f) = 0.367E-01 0.689E-01 0.120E-11
DMP:  15    -0.839811139609E+02   -0.80131E-01   -0.57011E-01   256   0.102E+00 0.106E+00
 gam= 0.382 g(H,U,f)=  0.235E-01 0.114E-01 0.354E-14 ort(H,U,f) = 0.202E-01 0.349E-01 0.872E-14
DMP:  16    -0.840213573825E+02   -0.40243E-01   -0.22386E-01   256   0.349E-01 0.551E-01
 gam= 0.382 g(H,U,f)=  0.118E-01 0.563E-02 0.140E-14 ort(H,U,f) = 0.603E-02 0.174E-01 0.580E-14
DMP:  17    -0.840374889046E+02   -0.16132E-01   -0.10563E-01   256   0.175E-01 0.234E-01
 gam= 0.382 g(H,U,f)=  0.500E-02 0.240E-02 0.736E-14 ort(H,U,f) = 0.463E-02 0.810E-02 0.265E-13
DMP:  18    -0.840454261464E+02   -0.79372E-02   -0.49033E-02   256   0.740E-02 0.127E-01
 gam= 0.382 g(H,U,f)=  0.188E-02 0.925E-03 0.134E-14 ort(H,U,f) = 0.206E-02 0.338E-02 0.405E-14
DMP:  19    -0.840490159735E+02   -0.35898E-02   -0.19530E-02   256   0.281E-02 0.544E-02
 gam= 0.382 g(H,U,f)=  0.934E-03 0.370E-03 0.656E-17 ort(H,U,f) = 0.115E-02 0.138E-02-0.474E-16
DMP:  20    -0.840505233340E+02   -0.15074E-02   -0.90898E-03   256   0.130E-02 0.253E-02
 gam= 0.382 g(H,U,f)=  0.411E-03 0.152E-03 0.837E-16 ort(H,U,f) = 0.721E-03 0.574E-03-0.415E-15
DMP:  21    -0.840512491737E+02   -0.72584E-03   -0.42301E-03   256   0.563E-03 0.129E-02
 gam= 0.382 g(H,U,f)=  0.233E-03 0.625E-04 0.223E-15 ort(H,U,f) = 0.403E-03 0.237E-03 0.856E-15
DMP:  22    -0.840515954362E+02   -0.34626E-03   -0.21585E-03   256   0.295E-03 0.640E-03
 gam= 0.382 g(H,U,f)=  0.145E-03 0.250E-04 0.236E-20 ort(H,U,f) = 0.260E-03 0.956E-04-0.207E-20
DMP:  23    -0.840517783121E+02   -0.18288E-03   -0.12243E-03   256   0.170E-03 0.356E-03
 gam= 0.382 g(H,U,f)=  0.945E-04 0.975E-05 0.410E-17 ort(H,U,f) = 0.176E-03 0.375E-04-0.766E-18
DMP:  24    -0.840518844177E+02   -0.10611E-03   -0.74270E-04   256   0.104E-03 0.213E-03
 gam= 0.382 g(H,U,f)=  0.599E-04 0.393E-05 0.606E-18 ort(H,U,f) = 0.123E-03 0.148E-04 0.263E-17
DMP:  25    -0.840519505015E+02   -0.66084E-04   -0.46603E-04   256   0.638E-04 0.138E-03
 gam= 0.382 g(H,U,f)=  0.395E-04 0.167E-05 0.519E-17 ort(H,U,f) = 0.862E-04 0.601E-05 0.238E-16
DMP:  26    -0.840519930549E+02   -0.42553E-04   -0.30546E-04   256   0.412E-04 0.922E-04
 gam= 0.382 g(H,U,f)=  0.276E-04 0.726E-06 0.416E-20 ort(H,U,f) = 0.602E-04 0.254E-05 0.127E-19
DMP:  27    -0.840520213679E+02   -0.28313E-04   -0.20920E-04   256   0.283E-04 0.628E-04
 gam= 0.382 g(H,U,f)=  0.205E-04 0.328E-06 0.356E-19 ort(H,U,f) = 0.429E-04 0.111E-05 0.131E-18
DMP:  28    -0.840520409156E+02   -0.19548E-04   -0.15073E-04   256   0.209E-04 0.440E-04
 gam= 0.382 g(H,U,f)=  0.157E-04 0.153E-06 0.284E-18 ort(H,U,f) = 0.316E-04 0.498E-06 0.970E-18
DMP:  29    -0.840520550359E+02   -0.14120E-04   -0.11265E-04   256   0.159E-04 0.321E-04
 gam= 0.382 g(H,U,f)=  0.121E-04 0.741E-07 0.108E-20 ort(H,U,f) = 0.239E-04 0.233E-06 0.617E-20
DMP:  30    -0.840520655779E+02   -0.10542E-04   -0.85372E-05   256   0.121E-04 0.241E-04
 gam= 0.382 g(H,U,f)=  0.905E-05 0.370E-07 0.239E-20 ort(H,U,f) = 0.182E-04 0.113E-06 0.147E-19
DMP:  31    -0.840520735489E+02   -0.79711E-05   -0.64349E-05   256   0.909E-05 0.183E-04
 final diagonalization
   1 F= -.84052074E+02 E0= -.84052074E+02  d E =-.953042E-11
