<?xml version="1.0" encoding="ISO-8859-1"?>
<modeling>
 <generator>
  <i name="program" type="string">vasp </i>
  <i name="version" type="string">5.4.4.18Apr17-6-g9f103f2a35  </i>
  <i name="subversion" type="string">(build Dec  6 2019 17:49:40) complex            parallel </i>
  <i name="platform" type="string">LinuxGNU </i>
  <i name="date" type="string">2022 05 24 </i>
  <i name="time" type="string">17:07:30 </i>
 </generator>
 <incar>
  <i type="string" name="SYSTEM"> Al2C</i>
  <i type="int" name="ISTART">     0</i>
  <i type="string" name="PREC">accurate</i>
  <i type="string" name="ALGO">Damped</i>
  <i type="int" name="NSIM">     4</i>
  <i type="int" name="NELM">   300</i>
  <i type="int" name="NELMDL">    -7</i>
  <i type="int" name="IBRION">    -1</i>
  <i name="EDIFF">      0.00001000</i>
  <i name="EDIFFG">     -0.01000000</i>
  <i type="int" name="NSW">     0</i>
  <i type="int" name="ISIF">     2</i>
  <i type="int" name="ISYM">     0</i>
  <i name="ENCUT">    450.00000000</i>
  <i name="POTIM">      0.35000000</i>
  <i type="string" name="LREAL"> auto</i>
  <v name="ROPT">     -0.00020000     -0.00020000     -0.00020000     -0.00020000</v>
  <i type="logical" name="LPLANE"> T  </i>
  <i name="TIME">      0.40000000</i>
  <i type="int" name="ISMEAR">     0</i>
  <i name="SIGMA">      0.05000000</i>
  <i type="int" name="NWRITE">     2</i>
  <i type="logical" name="LWAVE"> F  </i>
  <i type="logical" name="LCHARG"> T  </i>
  <i type="logical" name="LSCALU"> F  </i>
  <v type="int" name="KPOINT_BSE">    -1     0     0     0</v>
  <i type="int" name="NELM">   300</i>
  <i type="logical" name="LHFCALC"> T  </i>
  <i type="string" name="GGA"> PE</i>
  <i name="HFSCREEN">      0.20000000</i>
 </incar>
 <structure name="primitive_cell" >
  <crystal>
   <varray name="basis" >
    <v>       6.01920000       0.00000000       0.00000000 </v>
    <v>       0.00000000      10.14000000       0.00000000 </v>
    <v>       0.00000000       0.00000000      15.00000000 </v>
   </varray>
   <i name="volume">    915.52032000 </i>
   <varray name="rec_basis" >
    <v>       0.16613503       0.00000000       0.00000000 </v>
    <v>       0.00000000       0.09861933       0.00000000 </v>
    <v>       0.00000000       0.00000000       0.06666667 </v>
   </varray>
  </crystal>
  <varray name="positions" >
   <v>       0.38881330      -0.12994368       0.24401281 </v>
   <v>       0.13954257      -0.00628600       0.23717347 </v>
   <v>      -0.36043991      -0.00716828       0.23366505 </v>
   <v>       0.38994573       0.11428920       0.23334796 </v>
   <v>       0.40822719      -0.37967815       0.28759408 </v>
   <v>      -0.10966771      -0.13004789       0.24317135 </v>
   <v>      -0.35684337      -0.23435637       0.44479808 </v>
   <v>      -0.35788908      -0.36410812       0.42188120 </v>
   <v>      -0.11087085       0.11426223       0.23395444 </v>
   <v>      -0.12712809      -0.37960997       0.28713093 </v>
   <v>      -0.35972315       0.49266429       0.24217273 </v>
   <v>       0.14034386       0.48990383       0.29914442 </v>
   <v>       0.13992646       0.46029721       0.37083831 </v>
   <v>       0.39596906       0.37136923       0.25037773 </v>
   <v>      -0.11567336       0.37127876       0.25066244 </v>
  </varray>
 </structure>
 <varray name="primitive_index" >
  <v type="int" >        1 </v>
  <v type="int" >        9 </v>
  <v type="int" >       10 </v>
  <v type="int" >        7 </v>
  <v type="int" >        3 </v>
  <v type="int" >        2 </v>
  <v type="int" >       14 </v>
  <v type="int" >       13 </v>
  <v type="int" >        8 </v>
  <v type="int" >        4 </v>
  <v type="int" >       12 </v>
  <v type="int" >       11 </v>
  <v type="int" >       15 </v>
  <v type="int" >        5 </v>
  <v type="int" >        6 </v>
 </varray>
 <kpoints>
  <generation param="Gamma">
   <v type="int" name="divisions">       5        3        1 </v>
   <v name="usershift">      0.00000000       0.00000000       0.00000000 </v>
   <v name="genvec1">      0.20000000       0.00000000       0.00000000 </v>
   <v name="genvec2">      0.00000000       0.33333333       0.00000000 </v>
   <v name="genvec3">      0.00000000       0.00000000       1.00000000 </v>
   <v name="shift">      0.00000000       0.00000000       0.00000000 </v>
  </generation>
  <varray name="kpointlist" >
   <v>       0.00000000       0.00000000       0.00000000 </v>
   <v>       0.20000000       0.00000000       0.00000000 </v>
   <v>       0.40000000       0.00000000       0.00000000 </v>
   <v>       0.00000000       0.33333333       0.00000000 </v>
   <v>       0.20000000       0.33333333       0.00000000 </v>
   <v>       0.40000000       0.33333333       0.00000000 </v>
   <v>      -0.40000000       0.33333333       0.00000000 </v>
   <v>      -0.20000000       0.33333333       0.00000000 </v>
  </varray>
  <varray name="weights" >
   <v>       0.06666667 </v>
   <v>       0.13333333 </v>
   <v>       0.13333333 </v>
   <v>       0.13333333 </v>
   <v>       0.13333333 </v>
   <v>       0.13333333 </v>
   <v>       0.13333333 </v>
   <v>       0.13333333 </v>
  </varray>
 </kpoints>
 <parameters>
  <separator name="general" >
   <i type="string" name="SYSTEM">Al2C</i>
   <i type="logical" name="LCOMPAT"> F  </i>
  </separator>
  <separator name="electronic" >
   <i type="string" name="PREC">accura</i>
   <i name="ENMAX">    450.00000000</i>
   <i name="ENAUG">    644.87300000</i>
   <i name="EDIFF">      0.00001000</i>
   <i type="int" name="IALGO">    53</i>
   <i type="int" name="IWAVPR">    10</i>
   <i type="int" name="NBANDS">    32</i>
   <i name="NELECT">     48.00000000</i>
   <i type="int" name="TURBO">     0</i>
   <i type="int" name="IRESTART">     0</i>
   <i type="int" name="NREBOOT">     0</i>
   <i type="int" name="NMIN">     0</i>
   <i name="EREF">      0.00000000</i>
   <separator name="electronic smearing" >
    <i type="int" name="ISMEAR">     0</i>
    <i name="SIGMA">      0.05000000</i>
    <i name="KSPACING">      0.50000000</i>
    <i type="logical" name="KGAMMA"> T  </i>
   </separator>
   <separator name="electronic projectors" >
    <i type="logical" name="LREAL"> T  </i>
    <v name="ROPT">     -0.00020000     -0.00020000     -0.00020000     -0.00020000</v>
    <i type="int" name="LMAXPAW">  -100</i>
    <i type="int" name="LMAXMIX">     2</i>
    <i type="logical" name="NLSPLINE"> F  </i>
   </separator>
   <separator name="electronic startup" >
    <i type="int" name="ISTART">     0</i>
    <i type="int" name="ICHARG">     2</i>
    <i type="int" name="INIWAV">     1</i>
   </separator>
   <separator name="electronic spin" >
    <i type="int" name="ISPIN">     1</i>
    <i type="logical" name="LNONCOLLINEAR"> F  </i>
    <v name="MAGMOM">      1.00000000      1.00000000      1.00000000      1.00000000      1.00000000      1.00000000      1.00000000      1.00000000      1.00000000      1.00000000      1.00000000      1.00000000      1.00000000      1.00000000      1.00000000</v>
    <i name="NUPDOWN">     -1.00000000</i>
    <i type="logical" name="LSORBIT"> F  </i>
    <v name="SAXIS">      0.00000000      0.00000000      1.00000000</v>
    <i type="logical" name="LSPIRAL"> F  </i>
    <v name="QSPIRAL">      0.00000000      0.00000000      0.00000000</v>
    <i type="logical" name="LZEROZ"> F  </i>
   </separator>
   <separator name="electronic exchange-correlation" >
    <i type="logical" name="LASPH"> F  </i>
    <i type="logical" name="LMETAGGA"> F  </i>
   </separator>
   <separator name="electronic convergence" >
    <i type="int" name="NELM">   300</i>
    <i type="int" name="NELMDL">    -7</i>
    <i type="int" name="NELMIN">     2</i>
    <i name="ENINI">    450.00000000</i>
    <separator name="electronic convergence detail" >
     <i type="logical" name="LDIAG"> T  </i>
     <i type="logical" name="LSUBROT"> F  </i>
     <i name="WEIMIN">      0.00000000</i>
     <i name="EBREAK">      0.00000008</i>
     <i name="DEPER">      0.30000000</i>
     <i type="int" name="NRMM">     4</i>
     <i name="TIME">      0.40000000</i>
    </separator>
   </separator>
   <separator name="electronic mixer" >
    <i name="AMIX">      0.40000000</i>
    <i name="BMIX">      1.00000000</i>
    <i name="AMIN">      0.10000000</i>
    <i name="AMIX_MAG">      1.60000000</i>
    <i name="BMIX_MAG">      1.00000000</i>
    <separator name="electronic mixer details" >
     <i type="int" name="IMIX">     4</i>
     <i type="logical" name="MIXFIRST"> F  </i>
     <i type="int" name="MAXMIX">   -45</i>
     <i name="WC">    100.00000000</i>
     <i type="int" name="INIMIX">     1</i>
     <i type="int" name="MIXPRE">     1</i>
     <i type="int" name="MREMOVE">     5</i>
    </separator>
   </separator>
   <separator name="electronic dipolcorrection" >
    <i type="logical" name="LDIPOL"> F  </i>
    <i type="logical" name="LMONO"> F  </i>
    <i type="int" name="IDIPOL">     0</i>
    <i name="EPSILON">      1.00000000</i>
    <v name="DIPOL">   -100.00000000   -100.00000000   -100.00000000</v>
    <i name="EFIELD">      0.00000000</i>
   </separator>
  </separator>
  <separator name="grids" >
   <i type="int" name="NGX">    42</i>
   <i type="int" name="NGY">    70</i>
   <i type="int" name="NGZ">   108</i>
   <i type="int" name="NGXF">    84</i>
   <i type="int" name="NGYF">   140</i>
   <i type="int" name="NGZF">   216</i>
   <i type="logical" name="ADDGRID"> F  </i>
  </separator>
  <separator name="ionic" >
   <i type="int" name="NSW">     0</i>
   <i type="int" name="IBRION">    -1</i>
   <i type="int" name="MDALGO">     0</i>
   <i type="int" name="ISIF">     2</i>
   <i name="PSTRESS">      0.00000000</i>
   <i name="EDIFFG">     -0.01000000</i>
   <i type="int" name="NFREE">     0</i>
   <i name="POTIM">      0.35000000</i>
   <i name="SMASS">     -3.00000000</i>
   <i name="SCALEE">      1.00000000</i>
  </separator>
  <separator name="ionic md" >
   <i name="TEBEG">      0.00010000</i>
   <i name="TEEND">      0.00010000</i>
   <i type="int" name="NBLOCK">     1</i>
   <i type="int" name="KBLOCK">     1</i>
   <i type="int" name="NPACO">   256</i>
   <i name="APACO">     16.00000000</i>
  </separator>
  <separator name="symmetry" >
   <i type="int" name="ISYM">     0</i>
   <i name="SYMPREC">      0.00001000</i>
  </separator>
  <separator name="dos" >
   <i type="int" name="LORBIT">     0</i>
   <v name="RWIGS">     -1.00000000     -1.00000000     -1.00000000     -1.00000000</v>
   <i type="int" name="NEDOS">   301</i>
   <i name="EMIN">     10.00000000</i>
   <i name="EMAX">    -10.00000000</i>
   <i name="EFERMI">      0.00000000</i>
  </separator>
  <separator name="writing" >
   <i type="int" name="NWRITE">     2</i>
   <i type="logical" name="LWAVE"> F  </i>
   <i type="logical" name="LDOWNSAMPLE"> F  </i>
   <i type="logical" name="LCHARG"> T  </i>
   <i type="logical" name="LPARD"> F  </i>
   <i type="logical" name="LVTOT"> F  </i>
   <i type="logical" name="LVHAR"> F  </i>
   <i type="logical" name="LELF"> F  </i>
   <i type="logical" name="LOPTICS"> F  </i>
   <v name="STM">      0.00000000      0.00000000      0.00000000      0.00000000      0.00000000      0.00000000      0.00000000</v>
  </separator>
  <separator name="performance" >
   <i type="int" name="NPAR">     4</i>
   <i type="int" name="NSIM">     4</i>
   <i type="int" name="NBLK">    -1</i>
   <i type="logical" name="LPLANE"> T  </i>
   <i type="logical" name="LSCALAPACK"> T  </i>
   <i type="logical" name="LSCAAWARE"> F  </i>
   <i type="logical" name="LSCALU"> F  </i>
   <i type="logical" name="LASYNC"> F  </i>
   <i type="logical" name="LORBITALREAL"> F  </i>
  </separator>
  <separator name="miscellaneous" >
   <i type="int" name="IDIOT">     3</i>
   <i type="int" name="ISPECIAL">     0</i>
   <i type="logical" name="LMUSIC"> F  </i>
   <v name="POMASS">     26.98200000     12.01100000     32.06600000      1.00000000</v>
   <v name="DARWINR">      0.00000000      0.00000000      0.00000000      0.00000000</v>
   <v name="DARWINV">      1.00000000      1.00000000      1.00000000      1.00000000</v>
   <i type="logical" name="LCORR"> T  </i>
  </separator>
  <i type="logical" name="GGA_COMPAT"> T  </i>
  <i type="logical" name="LBERRY"> F  </i>
  <i type="int" name="ICORELEVEL">     0</i>
  <i type="logical" name="LDAU"> F  </i>
  <i type="int" name="I_CONSTRAINED_M">     0</i>
  <separator name="electronic exchange-correlation" >
   <i type="string" name="GGA">PE</i>
   <i type="int" name="VOSKOWN">     0</i>
   <i type="logical" name="LHFCALC"> T  </i>
   <i type="string" name="PRECFOCK">normal</i>
   <i type="logical" name="LSYMGRAD"> F  </i>
   <i type="logical" name="LHFONE"> F  </i>
   <i type="logical" name="LRHFCALC"> F  </i>
   <i type="logical" name="LTHOMAS"> F  </i>
   <i type="logical" name="LMODELHF"> F  </i>
   <i name="ENCUT4O">     -1.00000000</i>
   <i type="int" name="EXXOEP">     0</i>
   <i type="int" name="FOURORBIT">     0</i>
   <i name="AEXX">      0.25000000</i>
   <i name="HFALPHA">     -1.00000000</i>
   <i name="MCALPHA">      0.00000000</i>
   <i name="ALDAX">      0.75000000</i>
   <i name="AGGAX">      0.75000000</i>
   <i name="ALDAC">      1.00000000</i>
   <i name="AGGAC">      1.00000000</i>
   <i type="int" name="NKREDX">     1</i>
   <i type="int" name="NKREDY">     1</i>
   <i type="int" name="NKREDZ">     1</i>
   <i type="logical" name="SHIFTRED"> F  </i>
   <i type="logical" name="ODDONLY"> F  </i>
   <i type="logical" name="EVENONLY"> F  </i>
   <i type="int" name="LMAXFOCK">     4</i>
   <i type="int" name="NMAXFOCKAE">     1</i>
   <i type="logical" name="LFOCKAEDFT"> F  </i>
   <i name="HFSCREEN">      0.20000000</i>
   <i name="HFSCREENC">      0.20000000</i>
   <i type="int" name="NBANDSGWLOW">     1</i>
  </separator>
  <separator name="vdW DFT" >
   <i type="logical" name="LUSE_VDW"> F  </i>
   <i name="Zab_VDW">     -0.84910000</i>
   <i name="PARAM1">      0.12340000</i>
   <i name="PARAM2">      1.00000000</i>
   <i name="PARAM3">      0.00000000</i>
  </separator>
  <separator name="model GW" >
   <i type="int" name="MODEL_GW">     0</i>
   <i name="MODEL_EPS0">     36.62081280</i>
   <i name="MODEL_ALPHA">      1.00000000</i>
  </separator>
  <separator name="linear response parameters" >
   <i type="logical" name="LEPSILON"> F  </i>
   <i type="logical" name="LRPA"> F  </i>
   <i type="logical" name="LNABLA"> F  </i>
   <i type="logical" name="LVEL"> F  </i>
   <i type="int" name="KINTER">     0</i>
   <i name="CSHIFT">      0.10000000</i>
   <i name="OMEGAMAX">     -1.00000000</i>
   <i name="DEG_THRESHOLD">      0.00200000</i>
   <i name="RTIME">     -0.10000000</i>
   <i name="WPLASMAI">      0.00000000</i>
   <v name="DFIELD">      0.00000000      0.00000000      0.00000000</v>
   <v name="WPLASMA">      0.00000000      0.00000000      0.00000000      0.00000000      0.00000000      0.00000000      0.00000000      0.00000000      0.00000000</v>
  </separator>
  <separator name="orbital magnetization" >
   <i type="logical" name="NUCIND"> F  </i>
   <v name="MAGPOS">      0.00000000      0.00000000      0.00000000</v>
   <i type="logical" name="LNICSALL"> T  </i>
   <i type="logical" name="ORBITALMAG"> F  </i>
   <i type="logical" name="LMAGBLOCH"> F  </i>
   <i type="logical" name="LCHIMAG"> F  </i>
   <i type="logical" name="LGAUGE"> T  </i>
   <i type="int" name="MAGATOM">     0</i>
   <v name="MAGDIPOL">      0.00000000      0.00000000      0.00000000</v>
   <v name="AVECCONST">      0.00000000      0.00000000      0.00000000</v>
  </separator>
  <separator name="response functions" >
   <i type="logical" name="LADDER"> F  </i>
   <i type="logical" name="LRPAFORCE"> F  </i>
   <i type="logical" name="LFXC"> F  </i>
   <i type="logical" name="LHARTREE"> T  </i>
   <i type="int" name="IBSE">     0</i>
   <v type="int" name="KPOINT">    -1     0     0     0</v>
   <i type="logical" name="LTCTE"> F  </i>
   <i type="logical" name="LTETE"> F  </i>
   <i type="logical" name="LTRIPLET"> F  </i>
   <i type="logical" name="LFXCEPS"> F  </i>
   <i type="logical" name="LFXHEG"> F  </i>
   <i type="int" name="NATURALO">     2</i>
   <i type="logical" name="L2ORDER"> F  </i>
   <i type="logical" name="LMP2LT"> F  </i>
   <i type="logical" name="LUSEW"> F  </i>
   <i name="ENCUTGW">     -2.00000000</i>
   <i name="ENCUTGWSOFT">     -2.00000000</i>
   <i name="ENCUTLF">     -1.00000000</i>
   <i type="int" name="LMAXMP2">    -1</i>
   <i name="SCISSOR">      0.00000000</i>
   <i type="int" name="NOMEGA">     0</i>
   <i type="int" name="NOMEGAR">     0</i>
   <i type="int" name="NBANDSGW">    -1</i>
   <i type="int" name="NBANDSO">    -1</i>
   <i type="int" name="NBANDSV">    -1</i>
   <i type="int" name="NELM">   300</i>
   <i type="int" name="NELMHF">     1</i>
   <i type="int" name="DIM">     3</i>
   <i type="int" name="ANTIRES">     0</i>
   <i name="OMEGAMAX">    -30.00000000</i>
   <i name="OMEGAMIN">    -30.00000000</i>
   <i name="OMEGATL">   -200.00000000</i>
   <i type="int" name="OMEGAGRID">   140</i>
   <i name="CSHIFT">     -0.10000000</i>
   <i type="logical" name="SELFENERGY"> F  </i>
   <i type="logical" name="LSPECTRAL"> F  </i>
   <i type="logical" name="LSPECTRALGW"> F  </i>
   <i type="logical" name="LSINGLES"> F  </i>
   <i type="logical" name="LFERMIGW"> F  </i>
   <i type="logical" name="ODDONLYGW"> F  </i>
   <i type="logical" name="EVENONLYGW"> F  </i>
   <i type="int" name="NKREDLFX">     1</i>
   <i type="int" name="NKREDLFY">     1</i>
   <i type="int" name="NKREDLFZ">     1</i>
   <i type="int" name="MAXMEM">  2800</i>
   <i type="int" name="TELESCOPE">     0</i>
   <i type="int" name="TAUPAR">     1</i>
   <i type="int" name="OMEGAPAR">    -1</i>
   <i name="LAMBDA">      1.00000000</i>
  </separator>
  <separator name="External order field" >
   <i name="OFIELD_KAPPA">      0.00000000</i>
   <v name="OFIELD_K">      0.00000000      0.00000000      0.00000000</v>
   <i name="OFIELD_Q6_NEAR">      0.00000000</i>
   <i name="OFIELD_Q6_FAR">      0.00000000</i>
   <i name="OFIELD_A">      0.00000000</i>
  </separator>
 </parameters>
 <atominfo>
  <atoms>      15 </atoms>
  <types>       4 </types>
  <array name="atoms" >
   <dimension dim="1">ion</dimension>
   <field type="string">element</field>
   <field type="int">atomtype</field>
   <set>
    <rc><c>Al</c><c>   1</c></rc>
    <rc><c>Al</c><c>   1</c></rc>
    <rc><c>Al</c><c>   1</c></rc>
    <rc><c>Al</c><c>   1</c></rc>
    <rc><c>Al</c><c>   1</c></rc>
    <rc><c>Al</c><c>   1</c></rc>
    <rc><c>Al</c><c>   1</c></rc>
    <rc><c>Al</c><c>   1</c></rc>
    <rc><c>C </c><c>   2</c></rc>
    <rc><c>C </c><c>   2</c></rc>
    <rc><c>C </c><c>   2</c></rc>
    <rc><c>C </c><c>   2</c></rc>
    <rc><c>S </c><c>   3</c></rc>
    <rc><c>H </c><c>   4</c></rc>
    <rc><c>H </c><c>   4</c></rc>
   </set>
  </array>
  <array name="atomtypes" >
   <dimension dim="1">type</dimension>
   <field type="int">atomspertype</field>
   <field type="string">element</field>
   <field>mass</field>
   <field>valence</field>
   <field type="string">pseudopotential</field>
   <set>
    <rc><c>   8</c><c>Al</c><c>     26.98200000</c><c>      3.00000000</c><c>  PAW Al_GW 19Mar2012                   </c></rc>
    <rc><c>   4</c><c>C </c><c>     12.01100000</c><c>      4.00000000</c><c>  PAW C_GW 28Sep2005                    </c></rc>
    <rc><c>   1</c><c>S </c><c>     32.06600000</c><c>      6.00000000</c><c>  PAW S_GW 19Mar2012                    </c></rc>
    <rc><c>   2</c><c>H </c><c>      1.00000000</c><c>      1.00000000</c><c>  PAW H_GW 21Apr2008                    </c></rc>
   </set>
  </array>
 </atominfo>
 <structure name="initialpos" >
  <crystal>
   <varray name="basis" >
    <v>       6.01920000       0.00000000       0.00000000 </v>
    <v>       0.00000000      10.14000000       0.00000000 </v>
    <v>       0.00000000       0.00000000      15.00000000 </v>
   </varray>
   <i name="volume">    915.52032000 </i>
   <varray name="rec_basis" >
    <v>       0.16613503       0.00000000       0.00000000 </v>
    <v>       0.00000000       0.09861933       0.00000000 </v>
    <v>       0.00000000       0.00000000       0.06666667 </v>
   </varray>
  </crystal>
  <varray name="positions" >
   <v>       0.38881330       0.87005632       0.24401281 </v>
   <v>       0.89033229       0.86995211       0.24317135 </v>
   <v>       0.40822719       0.62032185       0.28759408 </v>
   <v>       0.87287191       0.62039003       0.28713093 </v>
   <v>       0.39596906       0.37136923       0.25037773 </v>
   <v>       0.88432664       0.37127876       0.25066244 </v>
   <v>       0.38994573       0.11428920       0.23334796 </v>
   <v>       0.88912915       0.11426223       0.23395444 </v>
   <v>       0.13954257       0.99371400       0.23717347 </v>
   <v>       0.63956009       0.99283172       0.23366505 </v>
   <v>       0.14034386       0.48990383       0.29914442 </v>
   <v>       0.64027685       0.49266429       0.24217273 </v>
   <v>       0.64211092       0.63589188       0.42188120 </v>
   <v>       0.64315663       0.76564363       0.44479808 </v>
   <v>       0.13992646       0.46029721       0.37083831 </v>
  </varray>
  <varray name="selective"  type="logical" >
   <v type="logical" >  T  T  T </v>
   <v type="logical" >  T  T  T </v>
   <v type="logical" >  T  T  T </v>
   <v type="logical" >  T  T  T </v>
   <v type="logical" >  T  T  T </v>
   <v type="logical" >  T  T  T </v>
   <v type="logical" >  T  T  T </v>
   <v type="logical" >  T  T  T </v>
   <v type="logical" >  T  T  T </v>
   <v type="logical" >  T  T  T </v>
   <v type="logical" >  T  T  T </v>
   <v type="logical" >  T  T  T </v>
   <v type="logical" >  T  T  T </v>
   <v type="logical" >  T  T  T </v>
   <v type="logical" >  T  T  T </v>
  </varray>
  <nose>
   <v>      -3.00000000       0.00000000       0.00010000       0.00010000 </v>
  </nose>
 </structure>
 <calculation>
  <scstep>
   <time name="total">   13.83   13.88</time>
   <energy>
    <i name="alphaZ">     14.13034224 </i>
    <i name="ewald">   1591.16114996 </i>
    <i name="hartreedc">  -2604.24826853 </i>
    <i name="XCdc">   -118.76512657 </i>
    <i name="pawpsdc">   1153.11953838 </i>
    <i name="pawaedc">   -948.04351678 </i>
    <i name="eentropy">     -0.00967840 </i>
    <i name="bandstr">    173.13057859 </i>
    <i name="atom">   1304.61345622 </i>
    <i name="e_fr_energy">    565.08847512 </i>
    <i name="e_wo_entrp">    565.09815352 </i>
    <i name="e_0_energy">    565.09331432 </i>
   </energy>
  </scstep>
  <scstep>
   <time name="total">   14.95   15.05</time>
   <energy>
    <i name="e_fr_energy">    275.99340326 </i>
    <i name="e_wo_entrp">    276.00258419 </i>
    <i name="e_0_energy">    275.99799372 </i>
   </energy>
  </scstep>
  <scstep>
   <time name="total">   14.97   15.03</time>
   <energy>
    <i name="e_fr_energy">    138.23447607 </i>
    <i name="e_wo_entrp">    138.24183745 </i>
    <i name="e_0_energy">    138.23815676 </i>
   </energy>
  </scstep>
  <scstep>
   <time name="total">   15.01   15.04</time>
   <energy>
    <i name="e_fr_energy">     66.05294031 </i>
    <i name="e_wo_entrp">     66.05983207 </i>
    <i name="e_0_energy">     66.05638619 </i>
   </energy>
  </scstep>
  <scstep>
   <time name="total">   14.94   15.02</time>
   <energy>
    <i name="e_fr_energy">     26.80800700 </i>
    <i name="e_wo_entrp">     26.81227699 </i>
    <i name="e_0_energy">     26.81014199 </i>
   </energy>
  </scstep>
  <scstep>
   <time name="total">   14.92   15.00</time>
   <energy>
    <i name="e_fr_energy">      5.70521214 </i>
    <i name="e_wo_entrp">      5.70587851 </i>
    <i name="e_0_energy">      5.70554533 </i>
   </energy>
  </scstep>
  <scstep>
   <time name="total">   15.56   15.62</time>
   <energy>
    <i name="e_fr_energy">     -5.64130667 </i>
    <i name="e_wo_entrp">     -5.64130666 </i>
    <i name="e_0_energy">     -5.64130666 </i>
   </energy>
  </scstep>
  <scstep>
   <time name="total">  294.29  294.35</time>
   <energy>
    <i name="e_fr_energy">    -59.17370492 </i>
    <i name="e_wo_entrp">    -59.17370489 </i>
    <i name="e_0_energy">    -59.17370491 </i>
   </energy>
  </scstep>
  <scstep>
   <time name="total">  293.21  293.88</time>
   <energy>
    <i name="e_fr_energy">    -76.73899979 </i>
    <i name="e_wo_entrp">    -76.73899979 </i>
    <i name="e_0_energy">    -76.73899979 </i>
   </energy>
  </scstep>
  <scstep>
   <time name="total">  294.00  294.43</time>
   <energy>
    <i name="e_fr_energy">    -79.97790406 </i>
    <i name="e_wo_entrp">    -79.97790406 </i>
    <i name="e_0_energy">    -79.97790406 </i>
   </energy>
  </scstep>
  <scstep>
   <time name="total">  293.43  294.00</time>
   <energy>
    <i name="e_fr_energy">    -82.57403110 </i>
    <i name="e_wo_entrp">    -82.57403110 </i>
    <i name="e_0_energy">    -82.57403110 </i>
   </energy>
  </scstep>
  <scstep>
   <time name="total">  293.49  294.30</time>
   <energy>
    <i name="e_fr_energy">    -83.23078406 </i>
    <i name="e_wo_entrp">    -83.23078406 </i>
    <i name="e_0_energy">    -83.23078406 </i>
   </energy>
  </scstep>
  <scstep>
   <time name="total">  293.69  293.99</time>
   <energy>
    <i name="e_fr_energy">    -83.69742567 </i>
    <i name="e_wo_entrp">    -83.69742567 </i>
    <i name="e_0_energy">    -83.69742567 </i>
   </energy>
  </scstep>
  <scstep>
   <time name="total">  293.97  294.38</time>
   <energy>
    <i name="e_fr_energy">    -83.90098320 </i>
    <i name="e_wo_entrp">    -83.90098320 </i>
    <i name="e_0_energy">    -83.90098320 </i>
   </energy>
  </scstep>
  <scstep>
   <time name="total">  293.50  294.01</time>
   <energy>
    <i name="e_fr_energy">    -83.98111396 </i>
    <i name="e_wo_entrp">    -83.98111396 </i>
    <i name="e_0_energy">    -83.98111396 </i>
   </energy>
  </scstep>
  <scstep>
   <time name="total">  293.48  294.00</time>
   <energy>
    <i name="e_fr_energy">    -84.02135738 </i>
    <i name="e_wo_entrp">    -84.02135738 </i>
    <i name="e_0_energy">    -84.02135738 </i>
   </energy>
  </scstep>
  <scstep>
   <time name="total">  293.23  293.95</time>
   <energy>
    <i name="e_fr_energy">    -84.03748890 </i>
    <i name="e_wo_entrp">    -84.03748890 </i>
    <i name="e_0_energy">    -84.03748890 </i>
   </energy>
  </scstep>
  <scstep>
   <time name="total">  293.15  294.00</time>
   <energy>
    <i name="e_fr_energy">    -84.04542615 </i>
    <i name="e_wo_entrp">    -84.04542615 </i>
    <i name="e_0_energy">    -84.04542615 </i>
   </energy>
  </scstep>
  <scstep>
   <time name="total">  293.89  294.05</time>
   <energy>
    <i name="e_fr_energy">    -84.04901597 </i>
    <i name="e_wo_entrp">    -84.04901597 </i>
    <i name="e_0_energy">    -84.04901597 </i>
   </energy>
  </scstep>
  <scstep>
   <time name="total">  293.78  293.98</time>
   <energy>
    <i name="e_fr_energy">    -84.05052333 </i>
    <i name="e_wo_entrp">    -84.05052333 </i>
    <i name="e_0_energy">    -84.05052333 </i>
   </energy>
  </scstep>
  <scstep>
   <time name="total">  293.57  294.38</time>
   <energy>
    <i name="e_fr_energy">    -84.05124917 </i>
    <i name="e_wo_entrp">    -84.05124917 </i>
    <i name="e_0_energy">    -84.05124917 </i>
   </energy>
  </scstep>
  <scstep>
   <time name="total">  294.66  294.89</time>
   <energy>
    <i name="e_fr_energy">    -84.05159544 </i>
    <i name="e_wo_entrp">    -84.05159544 </i>
    <i name="e_0_energy">    -84.05159544 </i>
   </energy>
  </scstep>
  <scstep>
   <time name="total">  294.39  294.74</time>
   <energy>
    <i name="e_fr_energy">    -84.05177831 </i>
    <i name="e_wo_entrp">    -84.05177831 </i>
    <i name="e_0_energy">    -84.05177831 </i>
   </energy>
  </scstep>
  <scstep>
   <time name="total">  293.15  294.02</time>
   <energy>
    <i name="e_fr_energy">    -84.05188442 </i>
    <i name="e_wo_entrp">    -84.05188442 </i>
    <i name="e_0_energy">    -84.05188442 </i>
   </energy>
  </scstep>
  <scstep>
   <time name="total">  294.19  294.72</time>
   <energy>
    <i name="e_fr_energy">    -84.05195050 </i>
    <i name="e_wo_entrp">    -84.05195050 </i>
    <i name="e_0_energy">    -84.05195050 </i>
   </energy>
  </scstep>
  <scstep>
   <time name="total">  294.41  294.52</time>
   <energy>
    <i name="e_fr_energy">    -84.05199305 </i>
    <i name="e_wo_entrp">    -84.05199305 </i>
    <i name="e_0_energy">    -84.05199305 </i>
   </energy>
  </scstep>
  <scstep>
   <time name="total">  294.61  294.82</time>
   <energy>
    <i name="e_fr_energy">    -84.05202137 </i>
    <i name="e_wo_entrp">    -84.05202137 </i>
    <i name="e_0_energy">    -84.05202137 </i>
   </energy>
  </scstep>
  <scstep>
   <time name="total">  292.72  293.70</time>
   <energy>
    <i name="e_fr_energy">    -84.05204092 </i>
    <i name="e_wo_entrp">    -84.05204092 </i>
    <i name="e_0_energy">    -84.05204092 </i>
   </energy>
  </scstep>
  <scstep>
   <time name="total">  292.85  293.69</time>
   <energy>
    <i name="e_fr_energy">    -84.05205504 </i>
    <i name="e_wo_entrp">    -84.05205504 </i>
    <i name="e_0_energy">    -84.05205504 </i>
   </energy>
  </scstep>
  <scstep>
   <time name="total">  293.12  294.09</time>
   <energy>
    <i name="e_fr_energy">    -84.05206558 </i>
    <i name="e_wo_entrp">    -84.05206558 </i>
    <i name="e_0_energy">    -84.05206558 </i>
   </energy>
  </scstep>
  <scstep>
   <time name="total">  583.01  583.74</time>
   <energy>
    <i name="alphaZ">     14.13034224 </i>
    <i name="ewald">   1591.16114996 </i>
    <i name="hartreedc">  -2775.41994522 </i>
    <i name="XCdc">   -112.65039743 </i>
    <i name="pawpsdc">   1730.49756677 </i>
    <i name="pawaedc">  -1526.33801979 </i>
    <i name="eentropy">     -0.00000000 </i>
    <i name="bandstr">   -388.71935551 </i>
    <i name="atom">   1304.61345622 </i>
    <i name="e_fr_energy">    -84.05207355 </i>
    <i name="e_wo_entrp">    -84.05207355 </i>
    <i name="e_0_energy">    -84.05207355 </i>
   </energy>
  </scstep>
  <structure>
   <crystal>
    <varray name="basis" >
     <v>       6.01920000       0.00000000       0.00000000 </v>
     <v>       0.00000000      10.14000000       0.00000000 </v>
     <v>       0.00000000       0.00000000      15.00000000 </v>
    </varray>
    <i name="volume">    915.52032000 </i>
    <varray name="rec_basis" >
     <v>       0.16613503       0.00000000       0.00000000 </v>
     <v>       0.00000000       0.09861933       0.00000000 </v>
     <v>       0.00000000       0.00000000       0.06666667 </v>
    </varray>
   </crystal>
   <varray name="positions" >
    <v>       0.38881330       0.87005632       0.24401281 </v>
    <v>       0.89033229       0.86995211       0.24317135 </v>
    <v>       0.40822719       0.62032185       0.28759408 </v>
    <v>       0.87287191       0.62039003       0.28713093 </v>
    <v>       0.39596906       0.37136923       0.25037773 </v>
    <v>       0.88432664       0.37127876       0.25066244 </v>
    <v>       0.38994573       0.11428920       0.23334796 </v>
    <v>       0.88912915       0.11426223       0.23395444 </v>
    <v>       0.13954257       0.99371400       0.23717347 </v>
    <v>       0.63956009       0.99283172       0.23366505 </v>
    <v>       0.14034386       0.48990383       0.29914442 </v>
    <v>       0.64027685       0.49266429       0.24217273 </v>
    <v>       0.64211092       0.63589188       0.42188120 </v>
    <v>       0.64315663       0.76564363       0.44479808 </v>
    <v>       0.13992646       0.46029721       0.37083831 </v>
   </varray>
  </structure>
  <varray name="forces" >
   <v>      -0.00520353       0.25812763      -0.00953833 </v>
   <v>       0.00796533       0.25743196       0.00012063 </v>
   <v>       0.09168183      -0.18208771       0.01723869 </v>
   <v>      -0.09324765      -0.18435809       0.02110385 </v>
   <v>       0.12708076       0.26838072       0.05760945 </v>
   <v>      -0.12516745       0.26752190       0.05694807 </v>
   <v>      -0.00372091      -0.30583700       0.02657223 </v>
   <v>       0.00650770      -0.30273798       0.02439001 </v>
   <v>       0.00919343       0.03109743      -0.00564931 </v>
   <v>      -0.00046140       0.04886378       0.03326238 </v>
   <v>       0.00046934      -0.04904184       0.02210990 </v>
   <v>      -0.00407916      -0.14129910       0.12607317 </v>
   <v>      -0.00508366       0.28785993      -0.09594958 </v>
   <v>      -0.00740443      -0.29801077      -0.06982993 </v>
   <v>       0.00146980       0.04408913      -0.20446121 </v>
  </varray>
  <varray name="stress" >
   <v>      -9.87089586      -0.02758038      -0.05618131 </v>
   <v>      -0.02758038     -13.76610030      -0.32375081 </v>
   <v>      -0.05618130      -0.32375083      -2.56763378 </v>
  </varray>
  <energy>
   <i name="e_fr_energy">    -84.05207355 </i>
   <i name="e_wo_entrp">    -84.05207355 </i>
   <i name="e_0_energy">     -0.00000000 </i>
  </energy>
  <time name="totalsc"> 7935.76 7957.62</time>
  <eigenvalues>
   <array>
    <dimension dim="1">band</dimension>
    <dimension dim="2">kpoint</dimension>
    <dimension dim="3">spin</dimension>
    <field>eigene</field>
    <field>occ</field>
    <set>
     <set comment="spin 1">
      <set comment="kpoint 1">
       <r>  -17.8107    1.0000 </r>
       <r>  -16.2654    1.0000 </r>
       <r>  -15.4162    1.0000 </r>
       <r>  -14.2356    1.0000 </r>
       <r>  -13.1330    1.0000 </r>
       <r>   -9.9966    1.0000 </r>
       <r>   -9.8404    1.0000 </r>
       <r>   -9.5366    1.0000 </r>
       <r>   -9.1836    1.0000 </r>
       <r>   -8.2940    1.0000 </r>
       <r>   -7.4193    1.0000 </r>
       <r>   -7.1283    1.0000 </r>
       <r>   -6.5046    1.0000 </r>
       <r>   -6.4870    1.0000 </r>
       <r>   -5.7291    1.0000 </r>
       <r>   -5.4053    1.0000 </r>
       <r>   -5.1689    1.0000 </r>
       <r>   -4.7721    1.0000 </r>
       <r>   -4.1652    1.0000 </r>
       <r>   -3.9822    1.0000 </r>
       <r>   -3.5173    1.0000 </r>
       <r>   -3.3919    1.0000 </r>
       <r>   -2.8534    1.0000 </r>
       <r>   -2.5029    1.0000 </r>
       <r>   -1.1224    0.0000 </r>
       <r>   -0.5884    0.0000 </r>
       <r>    0.3319    0.0000 </r>
       <r>    0.4107    0.0000 </r>
       <r>    0.7898    0.0000 </r>
       <r>    0.8678    0.0000 </r>
       <r>    1.0730    0.0000 </r>
       <r>    1.5908    0.0000 </r>
      </set>
      <set comment="kpoint 2">
       <r>  -17.7985    1.0000 </r>
       <r>  -16.2049    1.0000 </r>
       <r>  -15.2808    1.0000 </r>
       <r>  -14.4325    1.0000 </r>
       <r>  -13.5318    1.0000 </r>
       <r>   -9.8884    1.0000 </r>
       <r>   -9.5311    1.0000 </r>
       <r>   -9.0826    1.0000 </r>
       <r>   -8.9603    1.0000 </r>
       <r>   -8.1673    1.0000 </r>
       <r>   -7.5013    1.0000 </r>
       <r>   -7.3305    1.0000 </r>
       <r>   -6.9318    1.0000 </r>
       <r>   -6.1864    1.0000 </r>
       <r>   -5.8147    1.0000 </r>
       <r>   -5.4278    1.0000 </r>
       <r>   -5.0571    1.0000 </r>
       <r>   -4.7939    1.0000 </r>
       <r>   -4.3497    1.0000 </r>
       <r>   -4.1416    1.0000 </r>
       <r>   -3.9671    1.0000 </r>
       <r>   -3.6958    1.0000 </r>
       <r>   -2.9992    1.0000 </r>
       <r>   -2.8380    1.0000 </r>
       <r>   -0.8633    0.0000 </r>
       <r>    0.0443    0.0000 </r>
       <r>    0.2932    0.0000 </r>
       <r>    0.6372    0.0000 </r>
       <r>    0.9155    0.0000 </r>
       <r>    1.0619    0.0000 </r>
       <r>    1.2962    0.0000 </r>
       <r>    1.6460    0.0000 </r>
      </set>
      <set comment="kpoint 3">
       <r>  -17.7790    1.0000 </r>
       <r>  -16.0787    1.0000 </r>
       <r>  -14.8941    1.0000 </r>
       <r>  -14.7455    1.0000 </r>
       <r>  -14.2518    1.0000 </r>
       <r>   -9.6584    1.0000 </r>
       <r>   -9.1713    1.0000 </r>
       <r>   -8.8990    1.0000 </r>
       <r>   -8.3681    1.0000 </r>
       <r>   -7.6491    1.0000 </r>
       <r>   -7.4140    1.0000 </r>
       <r>   -7.1453    1.0000 </r>
       <r>   -6.6912    1.0000 </r>
       <r>   -6.6401    1.0000 </r>
       <r>   -6.0268    1.0000 </r>
       <r>   -5.8224    1.0000 </r>
       <r>   -5.6156    1.0000 </r>
       <r>   -5.1645    1.0000 </r>
       <r>   -4.8867    1.0000 </r>
       <r>   -4.5919    1.0000 </r>
       <r>   -3.9160    1.0000 </r>
       <r>   -3.7503    1.0000 </r>
       <r>   -3.3038    1.0000 </r>
       <r>   -2.8607    1.0000 </r>
       <r>   -0.5626    0.0000 </r>
       <r>    0.0269    0.0000 </r>
       <r>    0.4565    0.0000 </r>
       <r>    1.2071    0.0000 </r>
       <r>    1.3217    0.0000 </r>
       <r>    1.7315    0.0000 </r>
       <r>    1.9319    0.0000 </r>
       <r>    2.3426    0.0000 </r>
      </set>
      <set comment="kpoint 4">
       <r>  -17.8105    1.0000 </r>
       <r>  -16.2639    1.0000 </r>
       <r>  -15.4199    1.0000 </r>
       <r>  -14.2371    1.0000 </r>
       <r>  -13.1339    1.0000 </r>
       <r>   -9.8361    1.0000 </r>
       <r>   -9.7776    1.0000 </r>
       <r>   -9.6154    1.0000 </r>
       <r>   -9.1480    1.0000 </r>
       <r>   -8.5710    1.0000 </r>
       <r>   -7.9875    1.0000 </r>
       <r>   -6.6721    1.0000 </r>
       <r>   -6.4439    1.0000 </r>
       <r>   -6.0565    1.0000 </r>
       <r>   -5.7932    1.0000 </r>
       <r>   -5.2597    1.0000 </r>
       <r>   -5.0551    1.0000 </r>
       <r>   -4.6471    1.0000 </r>
       <r>   -4.1841    1.0000 </r>
       <r>   -4.0889    1.0000 </r>
       <r>   -3.7580    1.0000 </r>
       <r>   -3.5400    1.0000 </r>
       <r>   -3.3920    1.0000 </r>
       <r>   -2.4978    1.0000 </r>
       <r>   -0.8902    0.0000 </r>
       <r>   -0.3499    0.0000 </r>
       <r>    0.2658    0.0000 </r>
       <r>    0.4407    0.0000 </r>
       <r>    0.7933    0.0000 </r>
       <r>    1.0953    0.0000 </r>
       <r>    1.4084    0.0000 </r>
       <r>    1.8531    0.0000 </r>
      </set>
      <set comment="kpoint 5">
       <r>  -17.7984    1.0000 </r>
       <r>  -16.2035    1.0000 </r>
       <r>  -15.2838    1.0000 </r>
       <r>  -14.4338    1.0000 </r>
       <r>  -13.5335    1.0000 </r>
       <r>   -9.7732    1.0000 </r>
       <r>   -9.4973    1.0000 </r>
       <r>   -9.0340    1.0000 </r>
       <r>   -8.9612    1.0000 </r>
       <r>   -8.4254    1.0000 </r>
       <r>   -7.9406    1.0000 </r>
       <r>   -7.2825    1.0000 </r>
       <r>   -6.4931    1.0000 </r>
       <r>   -6.2310    1.0000 </r>
       <r>   -5.7554    1.0000 </r>
       <r>   -5.1300    1.0000 </r>
       <r>   -5.0205    1.0000 </r>
       <r>   -4.7632    1.0000 </r>
       <r>   -4.2758    1.0000 </r>
       <r>   -4.1514    1.0000 </r>
       <r>   -3.9694    1.0000 </r>
       <r>   -3.7586    1.0000 </r>
       <r>   -3.3819    1.0000 </r>
       <r>   -3.0021    1.0000 </r>
       <r>   -0.7595    0.0000 </r>
       <r>   -0.0204    0.0000 </r>
       <r>    0.2908    0.0000 </r>
       <r>    0.6187    0.0000 </r>
       <r>    0.8884    0.0000 </r>
       <r>    1.2572    0.0000 </r>
       <r>    1.4556    0.0000 </r>
       <r>    1.9408    0.0000 </r>
      </set>
      <set comment="kpoint 6">
       <r>  -17.7789    1.0000 </r>
       <r>  -16.0778    1.0000 </r>
       <r>  -14.8878    1.0000 </r>
       <r>  -14.7529    1.0000 </r>
       <r>  -14.2566    1.0000 </r>
       <r>   -9.6109    1.0000 </r>
       <r>   -9.2080    1.0000 </r>
       <r>   -8.6717    1.0000 </r>
       <r>   -8.1920    1.0000 </r>
       <r>   -7.9480    1.0000 </r>
       <r>   -7.6108    1.0000 </r>
       <r>   -7.4008    1.0000 </r>
       <r>   -7.1499    1.0000 </r>
       <r>   -6.2942    1.0000 </r>
       <r>   -5.8632    1.0000 </r>
       <r>   -5.7777    1.0000 </r>
       <r>   -5.5379    1.0000 </r>
       <r>   -4.7609    1.0000 </r>
       <r>   -4.6091    1.0000 </r>
       <r>   -4.4426    1.0000 </r>
       <r>   -3.9711    1.0000 </r>
       <r>   -3.7949    1.0000 </r>
       <r>   -3.5757    1.0000 </r>
       <r>   -3.1783    1.0000 </r>
       <r>   -0.5943    0.0000 </r>
       <r>    0.1279    0.0000 </r>
       <r>    0.5093    0.0000 </r>
       <r>    0.9800    0.0000 </r>
       <r>    1.2031    0.0000 </r>
       <r>    1.3798    0.0000 </r>
       <r>    1.5130    0.0000 </r>
       <r>    2.4765    0.0000 </r>
      </set>
      <set comment="kpoint 7">
       <r>  -17.7789    1.0000 </r>
       <r>  -16.0778    1.0000 </r>
       <r>  -14.8877    1.0000 </r>
       <r>  -14.7529    1.0000 </r>
       <r>  -14.2566    1.0000 </r>
       <r>   -9.6108    1.0000 </r>
       <r>   -9.2081    1.0000 </r>
       <r>   -8.6719    1.0000 </r>
       <r>   -8.1919    1.0000 </r>
       <r>   -7.9469    1.0000 </r>
       <r>   -7.6112    1.0000 </r>
       <r>   -7.4002    1.0000 </r>
       <r>   -7.1507    1.0000 </r>
       <r>   -6.2956    1.0000 </r>
       <r>   -5.8623    1.0000 </r>
       <r>   -5.7781    1.0000 </r>
       <r>   -5.5382    1.0000 </r>
       <r>   -4.7611    1.0000 </r>
       <r>   -4.6102    1.0000 </r>
       <r>   -4.4387    1.0000 </r>
       <r>   -3.9693    1.0000 </r>
       <r>   -3.7972    1.0000 </r>
       <r>   -3.5777    1.0000 </r>
       <r>   -3.1773    1.0000 </r>
       <r>   -0.5944    0.0000 </r>
       <r>    0.1265    0.0000 </r>
       <r>    0.5093    0.0000 </r>
       <r>    0.9870    0.0000 </r>
       <r>    1.2189    0.0000 </r>
       <r>    1.3627    0.0000 </r>
       <r>    1.5711    0.0000 </r>
       <r>    2.1120    0.0000 </r>
      </set>
      <set comment="kpoint 8">
       <r>  -17.7984    1.0000 </r>
       <r>  -16.2035    1.0000 </r>
       <r>  -15.2838    1.0000 </r>
       <r>  -14.4338    1.0000 </r>
       <r>  -13.5335    1.0000 </r>
       <r>   -9.7735    1.0000 </r>
       <r>   -9.4965    1.0000 </r>
       <r>   -9.0334    1.0000 </r>
       <r>   -8.9638    1.0000 </r>
       <r>   -8.4231    1.0000 </r>
       <r>   -7.9411    1.0000 </r>
       <r>   -7.2818    1.0000 </r>
       <r>   -6.4933    1.0000 </r>
       <r>   -6.2336    1.0000 </r>
       <r>   -5.7546    1.0000 </r>
       <r>   -5.1294    1.0000 </r>
       <r>   -5.0218    1.0000 </r>
       <r>   -4.7628    1.0000 </r>
       <r>   -4.2742    1.0000 </r>
       <r>   -4.1513    1.0000 </r>
       <r>   -3.9674    1.0000 </r>
       <r>   -3.7605    1.0000 </r>
       <r>   -3.3812    1.0000 </r>
       <r>   -3.0023    1.0000 </r>
       <r>   -0.7611    0.0000 </r>
       <r>   -0.0265    0.0000 </r>
       <r>    0.2922    0.0000 </r>
       <r>    0.6239    0.0000 </r>
       <r>    0.8846    0.0000 </r>
       <r>    1.1724    0.0000 </r>
       <r>    1.4184    0.0000 </r>
       <r>    1.9006    0.0000 </r>
      </set>
     </set>
    </set>
   </array>
  </eigenvalues>
  <separator name="orbital magnetization" >
   <v name="MAGDIPOLOUT">      0.00000000      0.00000000      0.00000000</v>
  </separator>
  <dos>
   <i name="efermi">     -2.23224732 </i>
   <total>
    <array>
     <dimension dim="1">gridpoints</dimension>
     <dimension dim="2">spin</dimension>
     <field>energy</field>
     <field>total</field>
     <field>integrated</field>
     <set>
      <set comment="spin 1">
       <r>   -18.8250     0.0000     0.0000 </r>
       <r>   -18.7506     0.0000     0.0000 </r>
       <r>   -18.6762     0.0000     0.0000 </r>
       <r>   -18.6019     0.0000     0.0000 </r>
       <r>   -18.5275     0.0000     0.0000 </r>
       <r>   -18.4531     0.0000     0.0000 </r>
       <r>   -18.3787     0.0000     0.0000 </r>
       <r>   -18.3043     0.0000     0.0000 </r>
       <r>   -18.2299     0.0000     0.0000 </r>
       <r>   -18.1555     0.0000     0.0000 </r>
       <r>   -18.0812     0.0000     0.0000 </r>
       <r>   -18.0068     0.0000     0.0000 </r>
       <r>   -17.9324     0.0024     0.0002 </r>
       <r>   -17.8580     1.1123     0.0829 </r>
       <r>   -17.7836    15.0028     1.1989 </r>
       <r>   -17.7092    10.4342     1.9751 </r>
       <r>   -17.6348     0.3347     2.0000 </r>
       <r>   -17.5605     0.0003     2.0000 </r>
       <r>   -17.4861     0.0000     2.0000 </r>
       <r>   -17.4117     0.0000     2.0000 </r>
       <r>   -17.3373     0.0000     2.0000 </r>
       <r>   -17.2629     0.0000     2.0000 </r>
       <r>   -17.1885     0.0000     2.0000 </r>
       <r>   -17.1141     0.0000     2.0000 </r>
       <r>   -17.0397     0.0000     2.0000 </r>
       <r>   -16.9654     0.0000     2.0000 </r>
       <r>   -16.8910     0.0000     2.0000 </r>
       <r>   -16.8166     0.0000     2.0000 </r>
       <r>   -16.7422     0.0000     2.0000 </r>
       <r>   -16.6678     0.0000     2.0000 </r>
       <r>   -16.5934     0.0000     2.0000 </r>
       <r>   -16.5190     0.0000     2.0000 </r>
       <r>   -16.4447     0.0000     2.0000 </r>
       <r>   -16.3703     0.0074     2.0006 </r>
       <r>   -16.2959     1.0472     2.0785 </r>
       <r>   -16.2215     7.0480     2.6027 </r>
       <r>   -16.1471     7.7197     3.1770 </r>
       <r>   -16.0727     6.3378     3.6484 </r>
       <r>   -15.9983     4.5972     3.9904 </r>
       <r>   -15.9240     0.1293     4.0000 </r>
       <r>   -15.8496     0.0001     4.0000 </r>
       <r>   -15.7752     0.0000     4.0000 </r>
       <r>   -15.7008     0.0000     4.0000 </r>
       <r>   -15.6264     0.0000     4.0000 </r>
       <r>   -15.5520     0.0004     4.0000 </r>
       <r>   -15.4776     0.2568     4.0191 </r>
       <r>   -15.4033     3.3401     4.2676 </r>
       <r>   -15.3289     2.7873     4.4749 </r>
       <r>   -15.2545     7.4700     5.0306 </r>
       <r>   -15.1801     2.2575     5.1985 </r>
       <r>   -15.1057     0.0199     5.2000 </r>
       <r>   -15.0313     0.0004     5.2000 </r>
       <r>   -14.9569     0.3157     5.2235 </r>
       <r>   -14.8825     5.9414     5.6655 </r>
       <r>   -14.8082     4.9426     6.0331 </r>
       <r>   -14.7338     6.8720     6.5443 </r>
       <r>   -14.6594     3.3814     6.7958 </r>
       <r>   -14.5850     0.0560     6.8000 </r>
       <r>   -14.5106     0.1556     6.8116 </r>
       <r>   -14.4362     4.8764     7.1743 </r>
       <r>   -14.3618     5.5059     7.5839 </r>
       <r>   -14.2875     2.5544     7.7739 </r>
       <r>   -14.2131    11.1618     8.6042 </r>
       <r>   -14.1387     2.6120     8.7985 </r>
       <r>   -14.0643     0.0207     8.8000 </r>
       <r>   -13.9899     0.0000     8.8000 </r>
       <r>   -13.9155     0.0000     8.8000 </r>
       <r>   -13.8411     0.0000     8.8000 </r>
       <r>   -13.7668     0.0000     8.8000 </r>
       <r>   -13.6924     0.0000     8.8000 </r>
       <r>   -13.6180     0.0869     8.8065 </r>
       <r>   -13.5436     4.0148     9.1051 </r>
       <r>   -13.4692     6.2678     9.5714 </r>
       <r>   -13.3948     0.3846     9.6000 </r>
       <r>   -13.3204     0.0005     9.6000 </r>
       <r>   -13.2461     0.0040     9.6003 </r>
       <r>   -13.1717     0.7534     9.6563 </r>
       <r>   -13.0973     3.8019     9.9391 </r>
       <r>   -13.0229     0.8134     9.9997 </r>
       <r>   -12.9485     0.0047    10.0000 </r>
       <r>   -12.8741     0.0000    10.0000 </r>
       <r>   -12.7997     0.0000    10.0000 </r>
       <r>   -12.7253     0.0000    10.0000 </r>
       <r>   -12.6510     0.0000    10.0000 </r>
       <r>   -12.5766     0.0000    10.0000 </r>
       <r>   -12.5022     0.0000    10.0000 </r>
       <r>   -12.4278     0.0000    10.0000 </r>
       <r>   -12.3534     0.0000    10.0000 </r>
       <r>   -12.2790     0.0000    10.0000 </r>
       <r>   -12.2046     0.0000    10.0000 </r>
       <r>   -12.1303     0.0000    10.0000 </r>
       <r>   -12.0559     0.0000    10.0000 </r>
       <r>   -11.9815     0.0000    10.0000 </r>
       <r>   -11.9071     0.0000    10.0000 </r>
       <r>   -11.8327     0.0000    10.0000 </r>
       <r>   -11.7583     0.0000    10.0000 </r>
       <r>   -11.6839     0.0000    10.0000 </r>
       <r>   -11.6096     0.0000    10.0000 </r>
       <r>   -11.5352     0.0000    10.0000 </r>
       <r>   -11.4608     0.0000    10.0000 </r>
       <r>   -11.3864     0.0000    10.0000 </r>
       <r>   -11.3120     0.0000    10.0000 </r>
       <r>   -11.2376     0.0000    10.0000 </r>
       <r>   -11.1632     0.0000    10.0000 </r>
       <r>   -11.0889     0.0000    10.0000 </r>
       <r>   -11.0145     0.0000    10.0000 </r>
       <r>   -10.9401     0.0000    10.0000 </r>
       <r>   -10.8657     0.0000    10.0000 </r>
       <r>   -10.7913     0.0000    10.0000 </r>
       <r>   -10.7169     0.0000    10.0000 </r>
       <r>   -10.6425     0.0000    10.0000 </r>
       <r>   -10.5681     0.0000    10.0000 </r>
       <r>   -10.4938     0.0000    10.0000 </r>
       <r>   -10.4194     0.0000    10.0000 </r>
       <r>   -10.3450     0.0000    10.0000 </r>
       <r>   -10.2706     0.0000    10.0000 </r>
       <r>   -10.1962     0.0000    10.0000 </r>
       <r>   -10.1218     0.0004    10.0000 </r>
       <r>   -10.0474     0.1346    10.0100 </r>
       <r>    -9.9731     1.2351    10.1019 </r>
       <r>    -9.8987     2.0298    10.2529 </r>
       <r>    -9.8243     6.1946    10.7137 </r>
       <r>    -9.7499     9.3027    11.4057 </r>
       <r>    -9.6755     4.1119    11.7116 </r>
       <r>    -9.6011     8.7689    12.3638 </r>
       <r>    -9.5267     8.4773    12.9944 </r>
       <r>    -9.4524     7.3342    13.5400 </r>
       <r>    -9.3780     0.8038    13.5998 </r>
       <r>    -9.3036     0.0284    13.6019 </r>
       <r>    -9.2292     2.3418    13.7761 </r>
       <r>    -9.1548     9.7766    14.5033 </r>
       <r>    -9.0804     6.4165    14.9806 </r>
       <r>    -9.0060     7.8546    15.5649 </r>
       <r>    -8.9317     9.7300    16.2887 </r>
       <r>    -8.8573     4.6385    16.6337 </r>
       <r>    -8.7829     0.4468    16.6670 </r>
       <r>    -8.7085     1.0682    16.7464 </r>
       <r>    -8.6341     5.2032    17.1335 </r>
       <r>    -8.5597     3.1313    17.3664 </r>
       <r>    -8.4853     1.6237    17.4872 </r>
       <r>    -8.4110     4.7637    17.8415 </r>
       <r>    -8.3366     5.2039    18.2286 </r>
       <r>    -8.2622     2.1496    18.3885 </r>
       <r>    -8.1878     5.0786    18.7663 </r>
       <r>    -8.1134     5.5081    19.1760 </r>
       <r>    -8.0390     0.6357    19.2233 </r>
       <r>    -7.9646     6.3885    19.6986 </r>
       <r>    -7.8902    10.2867    20.4637 </r>
       <r>    -7.8159     0.9334    20.5332 </r>
       <r>    -7.7415     0.0190    20.5346 </r>
       <r>    -7.6671     1.4811    20.6448 </r>
       <r>    -7.5927     6.9073    21.1586 </r>
       <r>    -7.5183     3.4609    21.4160 </r>
       <r>    -7.4439     4.2226    21.7301 </r>
       <r>    -7.3695     9.4457    22.4328 </r>
       <r>    -7.2952     6.9136    22.9470 </r>
       <r>    -7.2208     5.1264    23.3284 </r>
       <r>    -7.1464     6.2580    23.7939 </r>
       <r>    -7.0720     6.0913    24.2470 </r>
       <r>    -6.9976     0.3766    24.2750 </r>
       <r>    -6.9232     2.0241    24.4256 </r>
       <r>    -6.8488     1.4147    24.5308 </r>
       <r>    -6.7745     0.0743    24.5363 </r>
       <r>    -6.7001     2.3295    24.7096 </r>
       <r>    -6.6257     6.7083    25.2086 </r>
       <r>    -6.5513     2.2466    25.3757 </r>
       <r>    -6.4769     7.4152    25.9273 </r>
       <r>    -6.4025     5.8729    26.3642 </r>
       <r>    -6.3281     1.7493    26.4943 </r>
       <r>    -6.2538     7.0791    27.0209 </r>
       <r>    -6.1794     7.5835    27.5850 </r>
       <r>    -6.1050     2.3086    27.7567 </r>
       <r>    -6.0306     4.0793    28.0602 </r>
       <r>    -5.9562     2.7156    28.2622 </r>
       <r>    -5.8818     2.4805    28.4467 </r>
       <r>    -5.8074    11.9906    29.3386 </r>
       <r>    -5.7330    15.8032    30.5142 </r>
       <r>    -5.6587     4.1766    30.8248 </r>
       <r>    -5.5843     3.2601    31.0673 </r>
       <r>    -5.5099     5.6666    31.4889 </r>
       <r>    -5.4355     3.3178    31.7357 </r>
       <r>    -5.3611     3.2655    31.9786 </r>
       <r>    -5.2867     1.0873    32.0594 </r>
       <r>    -5.2123     3.0443    32.2859 </r>
       <r>    -5.1380     6.9656    32.8040 </r>
       <r>    -5.0636     8.9016    33.4662 </r>
       <r>    -4.9892     9.2453    34.1539 </r>
       <r>    -4.9148     2.2731    34.3230 </r>
       <r>    -4.8404     3.0637    34.5509 </r>
       <r>    -4.7660    10.1185    35.3036 </r>
       <r>    -4.6916     9.4545    36.0069 </r>
       <r>    -4.6173     6.6000    36.4978 </r>
       <r>    -4.5429     7.1476    37.0295 </r>
       <r>    -4.4685     2.0481    37.1818 </r>
       <r>    -4.3941     5.3229    37.5778 </r>
       <r>    -4.3197     3.9099    37.8686 </r>
       <r>    -4.2453     5.9029    38.3077 </r>
       <r>    -4.1709     7.1636    38.8406 </r>
       <r>    -4.0966    10.8293    39.6461 </r>
       <r>    -4.0222     4.2753    39.9642 </r>
       <r>    -3.9478    13.8302    40.9929 </r>
       <r>    -3.8734     7.7983    41.5730 </r>
       <r>    -3.7990     5.4037    41.9750 </r>
       <r>    -3.7246    14.4410    43.0492 </r>
       <r>    -3.6502     5.3768    43.4492 </r>
       <r>    -3.5758     4.5327    43.7863 </r>
       <r>    -3.5015     7.0583    44.3114 </r>
       <r>    -3.4271     2.7531    44.5162 </r>
       <r>    -3.3527     9.0835    45.1919 </r>
       <r>    -3.2783     4.6415    45.5371 </r>
       <r>    -3.2039     2.4848    45.7220 </r>
       <r>    -3.1295     4.9137    46.0875 </r>
       <r>    -3.0551     1.2999    46.1842 </r>
       <r>    -2.9808     7.0437    46.7081 </r>
       <r>    -2.9064     3.5555    46.9726 </r>
       <r>    -2.8320     5.6502    47.3929 </r>
       <r>    -2.7576     2.7308    47.5960 </r>
       <r>    -2.6832     0.0534    47.6000 </r>
       <r>    -2.6088     0.0055    47.6004 </r>
       <r>    -2.5344     0.8662    47.6648 </r>
       <r>    -2.4601     3.7915    47.9469 </r>
       <r>    -2.3857     0.7106    47.9997 </r>
       <r>    -2.3113     0.0035    48.0000 </r>
       <r>    -2.2369     0.0000    48.0000 </r>
       <r>    -2.1625     0.0000    48.0000 </r>
       <r>    -2.0881     0.0000    48.0000 </r>
       <r>    -2.0137     0.0000    48.0000 </r>
       <r>    -1.9394     0.0000    48.0000 </r>
       <r>    -1.8650     0.0000    48.0000 </r>
       <r>    -1.7906     0.0000    48.0000 </r>
       <r>    -1.7162     0.0000    48.0000 </r>
       <r>    -1.6418     0.0000    48.0000 </r>
       <r>    -1.5674     0.0000    48.0000 </r>
       <r>    -1.4930     0.0000    48.0000 </r>
       <r>    -1.4186     0.0000    48.0000 </r>
       <r>    -1.3443     0.0000    48.0000 </r>
       <r>    -1.2699     0.0000    48.0000 </r>
       <r>    -1.1955     0.0346    48.0026 </r>
       <r>    -1.1211     0.8876    48.0686 </r>
       <r>    -1.0467     0.8412    48.1312 </r>
       <r>    -0.9723     0.0686    48.1363 </r>
       <r>    -0.8979     2.0266    48.2870 </r>
       <r>    -0.8236     4.7926    48.6435 </r>
       <r>    -0.7492     4.7797    48.9991 </r>
       <r>    -0.6748     2.7431    49.2031 </r>
       <r>    -0.6004     4.2257    49.5175 </r>
       <r>    -0.5260     7.4799    50.0739 </r>
       <r>    -0.4516     0.8033    50.1336 </r>
       <r>    -0.3772     0.7825    50.1918 </r>
       <r>    -0.3029     2.4694    50.3755 </r>
       <r>    -0.2285     0.3282    50.3999 </r>
       <r>    -0.1541     0.0019    50.4001 </r>
       <r>    -0.0797     0.4091    50.4305 </r>
       <r>    -0.0053     5.5121    50.8405 </r>
       <r>     0.0691     7.4599    51.3954 </r>
       <r>     0.1435     5.8028    51.8271 </r>
       <r>     0.2178     2.7949    52.0350 </r>
       <r>     0.2922     7.9293    52.6248 </r>
       <r>     0.3666     7.5190    53.1841 </r>
       <r>     0.4410     4.8352    53.5438 </r>
       <r>     0.5154     8.1901    54.1530 </r>
       <r>     0.5898     4.9014    54.5176 </r>
       <r>     0.6642     7.5633    55.0802 </r>
       <r>     0.7386     1.9491    55.2252 </r>
       <r>     0.8129     3.7912    55.5072 </r>
       <r>     0.8873     6.9409    56.0235 </r>
       <r>     0.9617     8.3303    56.6432 </r>
       <r>     1.0361     6.4656    57.1241 </r>
       <r>     1.1105     6.6049    57.6155 </r>
       <r>     1.1849     6.5611    58.1035 </r>
       <r>     1.2593    10.9824    58.9205 </r>
       <r>     1.3336     8.4124    59.5462 </r>
       <r>     1.4080    10.2278    60.3070 </r>
       <r>     1.4824     8.1371    60.9123 </r>
       <r>     1.5568     5.0249    61.2861 </r>
       <r>     1.6312     5.0498    61.6617 </r>
       <r>     1.7056     3.4190    61.9161 </r>
       <r>     1.7800     2.6851    62.1158 </r>
       <r>     1.8543     2.4960    62.3015 </r>
       <r>     1.9287     7.0665    62.8271 </r>
       <r>     2.0031     4.7916    63.1835 </r>
       <r>     2.0775     0.8102    63.2438 </r>
       <r>     2.1519     2.5306    63.4320 </r>
       <r>     2.2263     0.4650    63.4666 </r>
       <r>     2.3007     0.4221    63.4980 </r>
       <r>     2.3750     2.5269    63.6860 </r>
       <r>     2.4494     1.4280    63.7922 </r>
       <r>     2.5238     2.4694    63.9759 </r>
       <r>     2.5982     0.3227    63.9999 </r>
       <r>     2.6726     0.0010    64.0000 </r>
       <r>     2.7470     0.0000    64.0000 </r>
       <r>     2.8214     0.0000    64.0000 </r>
       <r>     2.8958     0.0000    64.0000 </r>
       <r>     2.9701     0.0000    64.0000 </r>
       <r>     3.0445     0.0000    64.0000 </r>
       <r>     3.1189     0.0000    64.0000 </r>
       <r>     3.1933     0.0000    64.0000 </r>
       <r>     3.2677     0.0000    64.0000 </r>
       <r>     3.3421     0.0000    64.0000 </r>
       <r>     3.4165     0.0000    64.0000 </r>
       <r>     3.4908     0.0000    64.0000 </r>
      </set>
     </set>
    </array>
   </total>
  </dos>
 </calculation>
 <structure name="finalpos" >
  <crystal>
   <varray name="basis" >
    <v>       6.01920000       0.00000000       0.00000000 </v>
    <v>       0.00000000      10.14000000       0.00000000 </v>
    <v>       0.00000000       0.00000000      15.00000000 </v>
   </varray>
   <i name="volume">    915.52032000 </i>
   <varray name="rec_basis" >
    <v>       0.16613503       0.00000000       0.00000000 </v>
    <v>       0.00000000       0.09861933       0.00000000 </v>
    <v>       0.00000000       0.00000000       0.06666667 </v>
   </varray>
  </crystal>
  <varray name="positions" >
   <v>       0.38881330       0.87005632       0.24401281 </v>
   <v>       0.89033229       0.86995211       0.24317135 </v>
   <v>       0.40822719       0.62032185       0.28759408 </v>
   <v>       0.87287191       0.62039003       0.28713093 </v>
   <v>       0.39596906       0.37136923       0.25037773 </v>
   <v>       0.88432664       0.37127876       0.25066244 </v>
   <v>       0.38994573       0.11428920       0.23334796 </v>
   <v>       0.88912915       0.11426223       0.23395444 </v>
   <v>       0.13954257       0.99371400       0.23717347 </v>
   <v>       0.63956009       0.99283172       0.23366505 </v>
   <v>       0.14034386       0.48990383       0.29914442 </v>
   <v>       0.64027685       0.49266429       0.24217273 </v>
   <v>       0.64211092       0.63589188       0.42188120 </v>
   <v>       0.64315663       0.76564363       0.44479808 </v>
   <v>       0.13992646       0.46029721       0.37083831 </v>
  </varray>
  <varray name="selective"  type="logical" >
   <v type="logical" >  T  T  T </v>
   <v type="logical" >  T  T  T </v>
   <v type="logical" >  T  T  T </v>
   <v type="logical" >  T  T  T </v>
   <v type="logical" >  T  T  T </v>
   <v type="logical" >  T  T  T </v>
   <v type="logical" >  T  T  T </v>
   <v type="logical" >  T  T  T </v>
   <v type="logical" >  T  T  T </v>
   <v type="logical" >  T  T  T </v>
   <v type="logical" >  T  T  T </v>
   <v type="logical" >  T  T  T </v>
   <v type="logical" >  T  T  T </v>
   <v type="logical" >  T  T  T </v>
   <v type="logical" >  T  T  T </v>
  </varray>
  <nose>
   <v>      -3.00000000       0.00000000       0.00010000       0.00010000 </v>
  </nose>
 </structure>
</modeling>
