Al2C                                    
           1
     6.019200    0.000000    0.000000
     0.000000   10.140000    0.000000
     0.000000    0.000000   15.000000
   Al   C    S    H 
   8   4   1   2
Direct configuration=     1
   0.38881330  0.87005632  0.24401281
   0.89033229  0.86995211  0.24317135
   0.40822719  0.62032185  0.28759408
   0.87287191  0.62039003  0.28713093
   0.39596906  0.37136923  0.25037773
   0.88432664  0.37127876  0.25066244
   0.38994573  0.11428920  0.23334796
   0.88912915  0.11426223  0.23395444
   0.13954257  0.99371400  0.23717347
   0.63956009  0.99283172  0.23366505
   0.14034386  0.48990383  0.29914442
   0.64027685  0.49266429  0.24217273
   0.64211092  0.63589188  0.42188120
   0.64315663  0.76564363  0.44479808
   0.13992646  0.46029721  0.37083831
