Al   C    O    H                        
   1.0000000000000000     
     6.0191999999999997    0.0000000000000000    0.0000000000000000
     0.0000000000000000   10.1400000000000006    0.0000000000000000
     0.0000000000000000    0.0000000000000000   15.0000000000000000
   Al   C    O    H 
     8     4     1     2
Selective dynamics
Direct
  0.4461147471973846  0.8162332857638782  0.3105101425006584   T   T   T
  0.9615564136227894  0.8192501840321206  0.2583896794455102   T   T   T
  0.4574587431000500  0.5657736050158720  0.2623310602676558   T   T   T
  0.9567515673240161  0.5640506131057414  0.2380056258280124   T   T   T
  0.4580272993072838  0.3222214940849252  0.2323068513924665   T   T   T
  0.9598412188134221  0.3231100697848526  0.2547621356184732   T   T   T
  0.4581051586057885  0.0604661022740923  0.2492828961129635   T   T   T
  0.9767497257891722  0.0695941829364265  0.2701050773964132   T   T   T
  0.2116766122651374  0.9406403317903139  0.2592888233147480   T   T   T
  0.7149880591024449  0.9485886975942516  0.2898408024951198   T   T   T
  0.2086730728291297  0.4430948775576137  0.2407861976697160   T   T   T
  0.7074126502264355  0.4418389232050898  0.2465592369796547   T   T   T
  0.4467874338747551  0.7936019098434643  0.4266666939995093   T   T   T
  0.7261076773245708  0.9560844081901140  0.3640367288852384   T   T   T
  0.4222683960088323  0.8669597166859048  0.4670162508808421   T   T   T

  0.00000000E+00  0.00000000E+00  0.00000000E+00
  0.00000000E+00  0.00000000E+00  0.00000000E+00
  0.00000000E+00  0.00000000E+00  0.00000000E+00
  0.00000000E+00  0.00000000E+00  0.00000000E+00
  0.00000000E+00  0.00000000E+00  0.00000000E+00
  0.00000000E+00  0.00000000E+00  0.00000000E+00
  0.00000000E+00  0.00000000E+00  0.00000000E+00
  0.00000000E+00  0.00000000E+00  0.00000000E+00
  0.00000000E+00  0.00000000E+00  0.00000000E+00
  0.00000000E+00  0.00000000E+00  0.00000000E+00
  0.00000000E+00  0.00000000E+00  0.00000000E+00
  0.00000000E+00  0.00000000E+00  0.00000000E+00
  0.00000000E+00  0.00000000E+00  0.00000000E+00
  0.00000000E+00  0.00000000E+00  0.00000000E+00
  0.00000000E+00  0.00000000E+00  0.00000000E+00
