Al   C    O    H                        
   1.0000000000000000     
     6.0191999999999997    0.0000000000000000    0.0000000000000000
     0.0000000000000000   10.1400000000000006    0.0000000000000000
     0.0000000000000000    0.0000000000000000   15.0000000000000000
   Al   C    O    H 
     8     4     1     2
Selective dynamics
Direct
  0.4449040265220108  0.8155246562968105  0.3104348926545753   T   T   T
  0.9613711418601889  0.8188716377377998  0.2584490648035059   T   T   T
  0.4597268044390284  0.5649520556795481  0.2630226140296221   T   T   T
  0.9593057625542851  0.5633208811029720  0.2389552508099835   T   T   T
  0.4605582084981286  0.3214142223235920  0.2334625669166022   T   T   T
  0.9621563649864148  0.3223807970194394  0.2563281411687496   T   T   T
  0.4584036987599709  0.0597348547476145  0.2497381762864223   T   T   T
  0.9762386885026889  0.0688595204020071  0.2726507935701780   T   T   T
  0.2112737965162076  0.9403605087138136  0.2598210027805937   T   T   T
  0.7148140434020294  0.9475318171676804  0.2900926309232844   T   T   T
  0.2110293325479974  0.4422419029089751  0.2417458790268686   T   T   T
  0.7098244938645032  0.4412095888952941  0.2477105919965363   T   T   T
  0.4478544035113623  0.7983547646122423  0.4271670806109755   T   T   T
  0.7188438230069752  0.9500468938751493  0.3645522560939678   T   T   T
  0.4028646778791121  0.8716442037639720  0.4646087420784710   T   T   T

  0.00000000E+00  0.00000000E+00  0.00000000E+00
  0.00000000E+00  0.00000000E+00  0.00000000E+00
  0.00000000E+00  0.00000000E+00  0.00000000E+00
  0.00000000E+00  0.00000000E+00  0.00000000E+00
  0.00000000E+00  0.00000000E+00  0.00000000E+00
  0.00000000E+00  0.00000000E+00  0.00000000E+00
  0.00000000E+00  0.00000000E+00  0.00000000E+00
  0.00000000E+00  0.00000000E+00  0.00000000E+00
  0.00000000E+00  0.00000000E+00  0.00000000E+00
  0.00000000E+00  0.00000000E+00  0.00000000E+00
  0.00000000E+00  0.00000000E+00  0.00000000E+00
  0.00000000E+00  0.00000000E+00  0.00000000E+00
  0.00000000E+00  0.00000000E+00  0.00000000E+00
  0.00000000E+00  0.00000000E+00  0.00000000E+00
  0.00000000E+00  0.00000000E+00  0.00000000E+00
