Al2C                                    
   1.0000000000000000     
     6.0191999999999997    0.0000000000000000    0.0000000000000000
     0.0000000000000000   10.1400000000000006    0.0000000000000000
     0.0000000000000000    0.0000000000000000   15.0000000000000000
   Al   C    Te   H 
     8     4     1     2
Selective dynamics
Direct
  0.4322709897544241  0.8775874905897435  0.2392136984724443   T   T   T
  0.9321157428617367  0.8778458649295247  0.2604359539650016   T   T   T
  0.4326806697231220  0.6178157806547683  0.2409888488791533   T   T   T
  0.9334598152876182  0.6196193952656003  0.2667228794337716   T   T   T
  0.4311369980857382  0.3765091365661324  0.2738288286435249   T   T   T
  0.9329774327778106  0.3782533116518623  0.2438346470556408   T   T   T
  0.4318406657223006  0.1188999029289063  0.2612055577346036   T   T   T
  0.9319722516243698  0.1187150423559721  0.2408733204970808   T   T   T
  0.1821680552368569  0.9980555085998922  0.2495185163760298   T   T   T
  0.6819728012738701  0.9981324337744050  0.2500609925089432   T   T   T
  0.1826560155673355  0.4985210558380479  0.2558624612889844   T   T   T
  0.6826894641445125  0.4989452960979699  0.2591119521416826   T   T   T
  0.5575200565708343  0.4353177278778856  0.4657160501460782   T   T   T
  0.8085483217751956  0.3676670824177691  0.4619347152639839   T   T   T
  0.5067615861546139  0.3500084615757728  0.5600915775930723   T   T   T

  0.00000000E+00  0.00000000E+00  0.00000000E+00
  0.00000000E+00  0.00000000E+00  0.00000000E+00
  0.00000000E+00  0.00000000E+00  0.00000000E+00
  0.00000000E+00  0.00000000E+00  0.00000000E+00
  0.00000000E+00  0.00000000E+00  0.00000000E+00
  0.00000000E+00  0.00000000E+00  0.00000000E+00
  0.00000000E+00  0.00000000E+00  0.00000000E+00
  0.00000000E+00  0.00000000E+00  0.00000000E+00
  0.00000000E+00  0.00000000E+00  0.00000000E+00
  0.00000000E+00  0.00000000E+00  0.00000000E+00
  0.00000000E+00  0.00000000E+00  0.00000000E+00
  0.00000000E+00  0.00000000E+00  0.00000000E+00
  0.00000000E+00  0.00000000E+00  0.00000000E+00
  0.00000000E+00  0.00000000E+00  0.00000000E+00
  0.00000000E+00  0.00000000E+00  0.00000000E+00
