Al2C                                    
   1.0000000000000000     
     6.0191999999999997    0.0000000000000000    0.0000000000000000
     0.0000000000000000   10.1400000000000006    0.0000000000000000
     0.0000000000000000    0.0000000000000000   15.0000000000000000
   Al   C    Te   H 
     8     4     1     2
Selective dynamics
Direct
  0.4322535123913454  0.8775800983850329  0.2392295327600864   T   T   T
  0.9321056648669004  0.8778386774630174  0.2604361538426885   T   T   T
  0.4326384048046860  0.6178068312351557  0.2409881663437294   T   T   T
  0.9334140396551789  0.6196234804356175  0.2667104247321892   T   T   T
  0.4311685308488545  0.3765262090743557  0.2738248716934086   T   T   T
  0.9330087415276452  0.3782577423781014  0.2438356383259961   T   T   T
  0.4318641741182189  0.1189318958951116  0.2612026396195144   T   T   T
  0.9319905896684066  0.1187413063627468  0.2408764188670201   T   T   T
  0.1820891149587900  0.9980448328918017  0.2495256572165740   T   T   T
  0.6820377974772215  0.9981322799378838  0.2500676257434322   T   T   T
  0.1827778623305602  0.4985199366500220  0.2558711392574987   T   T   T
  0.6826151520630680  0.4989484351176000  0.2591095894240970   T   T   T
  0.5575438394610200  0.4352778020340841  0.4657123941343564   T   T   T
  0.8084942468989732  0.3676788008645861  0.4619292435137363   T   T   T
  0.5067691954894776  0.3499851623991499  0.5600805045256680   T   T   T

  0.00000000E+00  0.00000000E+00  0.00000000E+00
  0.00000000E+00  0.00000000E+00  0.00000000E+00
  0.00000000E+00  0.00000000E+00  0.00000000E+00
  0.00000000E+00  0.00000000E+00  0.00000000E+00
  0.00000000E+00  0.00000000E+00  0.00000000E+00
  0.00000000E+00  0.00000000E+00  0.00000000E+00
  0.00000000E+00  0.00000000E+00  0.00000000E+00
  0.00000000E+00  0.00000000E+00  0.00000000E+00
  0.00000000E+00  0.00000000E+00  0.00000000E+00
  0.00000000E+00  0.00000000E+00  0.00000000E+00
  0.00000000E+00  0.00000000E+00  0.00000000E+00
  0.00000000E+00  0.00000000E+00  0.00000000E+00
  0.00000000E+00  0.00000000E+00  0.00000000E+00
  0.00000000E+00  0.00000000E+00  0.00000000E+00
  0.00000000E+00  0.00000000E+00  0.00000000E+00
