 vasp.5.4.4.18Apr17-6-g9f103f2a35 (build Dec  6 2019 17:49:40) complex           
 executed on             LinuxGNU date 2021.11.12  21:01:20
 running on    4 total cores
 distrk:  each k-point on    4 cores,    1 groups
 distr:  one band on NCORES_PER_BAND=   1 cores,    4 groups


--------------------------------------------------------------------------------------------------------


 INCAR:
 POTCAR:    PAW Al_GW 19Mar2012                   
 POTCAR:    PAW C_GW 28Sep2005                    
 POTCAR:    PAW Te_GW 22Mar2012                   
 POTCAR:    PAW H_GW 21Apr2008                    
 POTCAR:    PAW Al_GW 19Mar2012                   
   VRHFIN =Al: s2p1                                                             
   LEXCH  = PE                                                                  
   EATOM  =    53.5387 eV,    3.9350 Ry                                         
                                                                                
   TITEL  = PAW Al_GW 19Mar2012                                                 
   LULTRA =        F    use ultrasoft PP ?                                      
   IUNSCR =        1    unscreen: 0-lin 1-nonlin 2-no                           
   RPACOR =    1.500    partial core radius                                     
   POMASS =   26.982; ZVAL   =    3.000    mass and valenz                      
   RCORE  =    2.000    outmost cutoff radius                                   
   RWIGS  =    2.000; RWIGS  =    1.058    wigner-seitz radius (au A)           
   ENMAX  =  240.300; ENMIN  =  180.225 eV                                      
   ICORE  =        3    local potential                                         
   LCOR   =        T    correct aug charges                                     
   LPAW   =        T    paw PP                                                  
   EAUG   =  482.059                                                            
   DEXC   =    0.000                                                            
   RMAX   =    2.051    core radius for proj-oper                               
   RAUG   =    1.300    factor for augmentation sphere                          
   RDEP   =    2.096    radius for radial grids                                 
   RDEPT  =    1.856    core radius for aug-charge                              
                                                                                
   Atomic configuration                                                         
    7 entries                                                                   
     n  l   j            E        occ.                                          
     1  0  0.50     -1511.1048   2.0000                                         
     2  0  0.50      -108.1629   2.0000                                         
     2  1  1.50       -69.6402   6.0000                                         
     3  0  0.50        -7.7528   2.0000                                         
     3  1  1.50        -2.7121   1.0000                                         
     3  2  2.50        -2.7212   0.0000                                         
     4  3  2.50        -2.7212   0.0000                                         
   Description                                                                  
     l       E           TYP  RCUT    TYP  RCUT                                 
     0     -7.7528455     23  1.900                                             
     0     68.0291300     23  1.900                                             
     1     -2.7120682     23  1.900                                             
     1     68.0291300     23  1.900                                             
     2     -1.3605826     23  1.900                                             
     2     81.6349560     23  1.900                                             
     3     74.8320430     23  2.000                                             
  local pseudopotential read in
  partial core-charges read in
  partial kinetic energy density read in
  kinetic energy density of atom read in
  atomic valenz-charges read in
  non local Contribution for L=           0  read in
    real space projection operators read in
  non local Contribution for L=           0  read in
    real space projection operators read in
  non local Contribution for L=           1  read in
    real space projection operators read in
  non local Contribution for L=           1  read in
    real space projection operators read in
  non local Contribution for L=           2  read in
    real space projection operators read in
  non local Contribution for L=           2  read in
    real space projection operators read in
    PAW grid and wavefunctions read in

   number of l-projection  operators is LMAX  =           6
   number of lm-projection operators is LMMAX =          18

 POTCAR:    PAW C_GW 28Sep2005                    
   VRHFIN =C: s2p2                                                              
   LEXCH  = PE                                                                  
   EATOM  =   147.1560 eV,   10.8157 Ry                                         
                                                                                
   TITEL  = PAW C_GW 28Sep2005                                                  
   LULTRA =        F    use ultrasoft PP ?                                      
   IUNSCR =        0    unscreen: 0-lin 1-nonlin 2-no                           
   RPACOR =    0.000    partial core radius                                     
   POMASS =   12.011; ZVAL   =    4.000    mass and valenz                      
   RCORE  =    1.500    outmost cutoff radius                                   
   RWIGS  =    1.630; RWIGS  =    0.863    wigner-seitz radius (au A)           
   ENMAX  =  413.992; ENMIN  =  310.494 eV                                      
   ICORE  =        2    local potential                                         
   LCOR   =        T    correct aug charges                                     
   LPAW   =        T    paw PP                                                  
   EAUG   =  644.873                                                            
   DEXC   =    0.000                                                            
   RMAX   =    1.529    core radius for proj-oper                               
   RAUG   =    1.300    factor for augmentation sphere                          
   RDEP   =    1.501    radius for radial grids                                 
   RDEPT  =    1.300    core radius for aug-charge                              
                                                                                
   Atomic configuration                                                         
    4 entries                                                                   
     n  l   j            E        occ.                                          
     1  0  0.50      -273.3789   2.0000                                         
     2  0  0.50       -13.7508   2.0000                                         
     2  1  0.50        -5.2854   2.0000                                         
     3  2  1.50        -5.4423   0.0000                                         
   Description                                                                  
     l       E           TYP  RCUT    TYP  RCUT                                 
     0    -13.7508457     23  1.200                                             
     0     95.2407820     23  1.200                                             
     1     -5.2854382     23  1.500                                             
     1    108.8466080     23  1.500                                             
     2     -5.4423304      7  1.500                                             
  local pseudopotential read in
  kinetic energy density of atom read in
  atomic valenz-charges read in
  non local Contribution for L=           0  read in
    real space projection operators read in
  non local Contribution for L=           0  read in
    real space projection operators read in
  non local Contribution for L=           1  read in
    real space projection operators read in
  non local Contribution for L=           1  read in
    real space projection operators read in
    PAW grid and wavefunctions read in

   number of l-projection  operators is LMAX  =           4
   number of lm-projection operators is LMMAX =           8

 POTCAR:    PAW Te_GW 22Mar2012                   
   VRHFIN =Te: s2p4                                                             
   LEXCH  = PE                                                                  
   EATOM  =   223.2721 eV,   16.4100 Ry                                         
                                                                                
   TITEL  = PAW Te_GW 22Mar2012                                                 
   LULTRA =        F    use ultrasoft PP ?                                      
   IUNSCR =        1    unscreen: 0-lin 1-nonlin 2-no                           
   RPACOR =    2.200    partial core radius                                     
   POMASS =  127.600; ZVAL   =    6.000    mass and valenz                      
   RCORE  =    2.600    outmost cutoff radius                                   
   RWIGS  =    2.900; RWIGS  =    1.535    wigner-seitz radius (au A)           
   ENMAX  =  174.982; ENMIN  =  131.236 eV                                      
   ICORE  =        3    local potential                                         
   LCOR   =        T    correct aug charges                                     
   LPAW   =        T    paw PP                                                  
   EAUG   =  368.792                                                            
   DEXC   =    0.000                                                            
   RMAX   =    2.665    core radius for proj-oper                               
   RAUG   =    1.300    factor for augmentation sphere                          
   RDEP   =    2.724    radius for radial grids                                 
   RDEPT  =    2.174    core radius for aug-charge                              
                                                                                
   Atomic configuration                                                         
   13 entries                                                                   
     n  l   j            E        occ.                                          
     1  0  0.50    -31621.2075   2.0000                                         
     2  0  0.50     -4848.7941   2.0000                                         
     2  1  1.50     -4352.1960   6.0000                                         
     3  0  0.50      -964.9612   2.0000                                         
     3  1  1.50      -803.6179   6.0000                                         
     3  2  2.50      -559.8710  10.0000                                         
     4  0  0.50      -164.3522   2.0000                                         
     4  1  1.50      -114.3756   6.0000                                         
     4  2  2.50       -41.6483  10.0000                                         
     5  0  0.50       -15.1072   2.0000                                         
     5  1  0.50        -5.9526   4.0000                                         
     5  2  1.50        -6.8029   0.0000                                         
     4  3  2.50        -6.8029   0.0000                                         
   Description                                                                  
     l       E           TYP  RCUT    TYP  RCUT                                 
     0    -15.1072389     23  2.300                                             
     0     68.0291300     23  2.300                                             
     1     -5.9526306     23  2.300                                             
     1     95.2407820     23  2.300                                             
     2      1.3605826     23  2.600                                             
     2     68.0291300     23  2.600                                             
     3     -1.3605826     23  2.300                                             
  local pseudopotential read in
  partial core-charges read in
  partial kinetic energy density read in
  kinetic energy density of atom read in
  atomic valenz-charges read in
  non local Contribution for L=           0  read in
    real space projection operators read in
  non local Contribution for L=           0  read in
    real space projection operators read in
  non local Contribution for L=           1  read in
    real space projection operators read in
  non local Contribution for L=           1  read in
    real space projection operators read in
  non local Contribution for L=           2  read in
    real space projection operators read in
  non local Contribution for L=           2  read in
    real space projection operators read in
    PAW grid and wavefunctions read in

   number of l-projection  operators is LMAX  =           6
   number of lm-projection operators is LMMAX =          18

 POTCAR:    PAW H_GW 21Apr2008                    
   VRHFIN =H: ultrasoft test                                                    
   LEXCH  = PE                                                                  
   EATOM  =    12.4884 eV,    0.9179 Ry                                         
                                                                                
   TITEL  = PAW H_GW 21Apr2008                                                  
   LULTRA =        F    use ultrasoft PP ?                                      
   IUNSCR =        0    unscreen: 0-lin 1-nonlin 2-no                           
   RPACOR =    0.000    partial core radius                                     
   POMASS =    1.000; ZVAL   =    1.000    mass and valenz                      
   RCORE  =    1.100    outmost cutoff radius                                   
   RWIGS  =    1.100; RWIGS  =    0.582    wigner-seitz radius (au A)           
   ENMAX  =  300.000; ENMIN  =  250.000 eV                                      
   RCLOC  =    0.701    cutoff for local pot                                    
   LCOR   =        T    correct aug charges                                     
   LPAW   =        T    paw PP                                                  
   EAUG   =  500.000                                                            
   RMAX   =    1.123    core radius for proj-oper                               
   RAUG   =    1.200    factor for augmentation sphere                          
   RDEP   =    1.112    radius for radial grids                                 
   RDEPT  =    1.100    core radius for aug-charge                              
                                                                                
   Atomic configuration                                                         
    3 entries                                                                   
     n  l   j            E        occ.                                          
     1  0  0.50        -6.4927   1.0000                                         
     2  1  0.50        -3.4015   0.0000                                         
     3  2  1.50        13.6058   0.0000                                         
   Description                                                                  
     l       E           TYP  RCUT    TYP  RCUT                                 
     0     -6.4927495     23  0.950                                             
     0      6.8029130     23  0.950                                             
     1     -4.0817478     23  1.100                                             
     1    108.8466080     23  1.100                                             
     2     81.6349560     23  1.100                                             
  local pseudopotential read in
  kinetic energy density of atom read in
  atomic valenz-charges read in
  non local Contribution for L=           0  read in
    real space projection operators read in
  non local Contribution for L=           0  read in
    real space projection operators read in
  non local Contribution for L=           1  read in
    real space projection operators read in
  non local Contribution for L=           1  read in
    real space projection operators read in
  non local Contribution for L=           2  read in
    real space projection operators read in
    PAW grid and wavefunctions read in

   number of l-projection  operators is LMAX  =           5
   number of lm-projection operators is LMMAX =          13

 Optimization of the real space projectors (new method)

 maximal supplied QI-value         = 18.90
 optimisation between [QCUT,QGAM] = [ 10.77, 21.73] = [ 32.49,132.25] Ry 
 Optimized for a Real-space Cutoff    1.60 Angstroem

   l    n(q)    QCUT    max X(q) W(low)/X(q) W(high)/X(q)  e(spline) 
   0     10    10.771    11.519    0.58E-04    0.59E-05    0.18E-06
   0     10    10.771     5.834    0.29E-04    0.42E-05    0.15E-06
   1     10    10.771    10.132    0.17E-04    0.63E-04    0.28E-06
   1     10    10.771     3.004    0.11E-04    0.44E-04    0.22E-06
   2      9    10.771     3.188    0.19E-03    0.85E-04    0.37E-06
   2      9    10.771     1.607    0.20E-04    0.14E-04    0.40E-06
 Optimization of the real space projectors (new method)

 maximal supplied QI-value         = 25.13
 optimisation between [QCUT,QGAM] = [ 10.81, 21.61] = [ 32.71,130.83] Ry 
 Optimized for a Real-space Cutoff    1.26 Angstroem

   l    n(q)    QCUT    max X(q) W(low)/X(q) W(high)/X(q)  e(spline) 
   0      8    10.807     6.744    0.14E-03    0.25E-03    0.15E-06
   0      8    10.807     2.789    0.17E-03    0.34E-03    0.18E-06
   1      8    10.807     2.977    0.14E-03    0.97E-04    0.55E-07
   1      8    10.807     2.397    0.19E-03    0.70E-04    0.28E-06
 Optimization of the real space projectors (new method)

 maximal supplied QI-value         = 14.36
 optimisation between [QCUT,QGAM] = [ 10.77, 21.69] = [ 32.49,131.70] Ry 
 Optimized for a Real-space Cutoff    1.65 Angstroem

   l    n(q)    QCUT    max X(q) W(low)/X(q) W(high)/X(q)  e(spline) 
   0     11    10.771    11.053    0.24E-04    0.29E-05    0.60E-07
   0     11    10.771     7.435    0.41E-04    0.55E-05    0.14E-06
   1     10    10.771     5.777    0.13E-04    0.90E-05    0.11E-06
   1     10    10.771     1.783    0.15E-04    0.11E-04    0.15E-06
   2     10    10.771     4.339    0.10E-03    0.19E-03    0.15E-06
   2     10    10.771     2.664    0.59E-04    0.11E-03    0.94E-07
 Optimization of the real space projectors (new method)

 maximal supplied QI-value         = 34.20
 optimisation between [QCUT,QGAM] = [ 10.60, 21.55] = [ 31.48,130.03] Ry 
 Optimized for a Real-space Cutoff    1.51 Angstroem

   l    n(q)    QCUT    max X(q) W(low)/X(q) W(high)/X(q)  e(spline) 
   0     10    10.603    26.161    0.94E-04    0.78E-04    0.97E-06
   0     10    10.603    15.773    0.86E-04    0.75E-04    0.95E-06
   1      9    10.603     3.022    0.64E-04    0.17E-03    0.10E-05
   1      9    10.603     2.445    0.31E-04    0.10E-03    0.83E-06
   2      9    10.603     6.097    0.15E-03    0.49E-03    0.94E-06
  PAW Al_GW 19Mar2012                   :
 energy of atom  1       EATOM=  -53.5387
 kinetic energy error for atom=    0.0004 (will be added to EATOM!!)
  PAW C_GW 28Sep2005                    :
 energy of atom  2       EATOM= -147.1560
 kinetic energy error for atom=    0.0116 (will be added to EATOM!!)
  PAW Te_GW 22Mar2012                   :
 energy of atom  3       EATOM= -223.2721
 kinetic energy error for atom=    0.0008 (will be added to EATOM!!)
  PAW H_GW 21Apr2008                    :
 energy of atom  4       EATOM=  -12.4884
 kinetic energy error for atom=    0.0187 (will be added to EATOM!!)


 POSCAR: Al2C                                    
  positions in direct lattice
  velocities in cartesian coordinates
 exchange correlation table for  LEXCH =        8
   RHO(1)=    0.500       N(1)  =     2000
   RHO(2)=  100.500       N(2)  =     4000

 VTST: version 3.2, (02/03/18)

 CHAIN: initializing optimizer
 
 OPT: Using VASP Conjugate-Gradient optimizer
 CHAIN: Read ICHAIN            0

 POSCAR: Al2C                                    
  positions in direct lattice
  velocities in cartesian coordinates



--------------------------------------------------------------------------------------------------------


 ion  position               nearest neighbor table
   1  0.432  0.877  0.236-  10 1.95   9 1.95   7 2.49
   2  0.932  0.877  0.262-  10 1.95   9 1.95   8 2.48
   3  0.433  0.617  0.239-  11 1.95  12 1.96   5 2.52
   4  0.934  0.620  0.270-  11 1.95  12 1.95   6 2.49
   5  0.430  0.376  0.278-  11 1.97  12 1.98   3 2.52  13 2.99
   6  0.933  0.377  0.242-  11 1.95  12 1.96   4 2.49
   7  0.432  0.119  0.263-   9 1.95  10 1.95   1 2.49
   8  0.932  0.119  0.237-  10 1.95   9 1.95   2 2.48
   9  0.182  0.998  0.248-   2 1.95   8 1.95   1 1.95   7 1.95
  10  0.682  0.998  0.249-   2 1.95   8 1.95   1 1.95   7 1.95
  11  0.183  0.498  0.256-   3 1.95   6 1.95   4 1.95   5 1.97
  12  0.682  0.499  0.261-   4 1.95   3 1.96   6 1.96   5 1.98
  13  0.558  0.439  0.466-  14 1.68  15 1.71   5 2.99
  14  0.810  0.368  0.462-  13 1.68
  15  0.507  0.352  0.561-  13 1.71


IMPORTANT INFORMATION: All symmetrisations will be switched off!
NOSYMM: (Re-)initialisation of all symmetry stuff for point group C_1.



 KPOINTS: Automatic mesh                          

Automatic generation of k-mesh.
Space group operators:
 irot       det(A)        alpha          n_x          n_y          n_z        tau_x        tau_y        tau_z
    1     1.000000     0.000000     1.000000     0.000000     0.000000     0.000000     0.000000     0.000000
 
 Subroutine IBZKPT returns following result:
 ===========================================
 
 Found      8 irreducible k-points:
 
 Following reciprocal coordinates:
            Coordinates               Weight
  0.000000  0.000000  0.000000      1.000000
  0.200000  0.000000  0.000000      2.000000
  0.400000  0.000000  0.000000      2.000000
  0.000000  0.333333  0.000000      2.000000
  0.200000  0.333333  0.000000      2.000000
  0.400000  0.333333  0.000000      2.000000
 -0.400000  0.333333  0.000000      2.000000
 -0.200000  0.333333  0.000000      2.000000
 
 Following cartesian coordinates:
            Coordinates               Weight
  0.000000  0.000000  0.000000      1.000000
  0.033227  0.000000  0.000000      2.000000
  0.066454  0.000000  0.000000      2.000000
  0.000000  0.032873  0.000000      2.000000
  0.033227  0.032873  0.000000      2.000000
  0.066454  0.032873  0.000000      2.000000
 -0.066454  0.032873  0.000000      2.000000
 -0.033227  0.032873  0.000000      2.000000
 
 
 Subroutine IBZKPT_HF returns following result:
 ==============================================
 
 Found     15 k-points in 1st BZ
 the following     15 k-points will be used (e.g. in the exchange kernel)
 Following reciprocal coordinates:   # in IRBZ
  0.000000  0.000000  0.000000    0.06666667   1 t-inv F
  0.200000  0.000000  0.000000    0.06666667   2 t-inv F
  0.400000  0.000000  0.000000    0.06666667   3 t-inv F
  0.000000  0.333333  0.000000    0.06666667   4 t-inv F
  0.200000  0.333333  0.000000    0.06666667   5 t-inv F
  0.400000  0.333333  0.000000    0.06666667   6 t-inv F
 -0.400000  0.333333  0.000000    0.06666667   7 t-inv F
 -0.200000  0.333333  0.000000    0.06666667   8 t-inv F
 -0.200000 -0.000000 -0.000000    0.06666667   2 t-inv T
 -0.400000 -0.000000 -0.000000    0.06666667   3 t-inv T
 -0.000000 -0.333333 -0.000000    0.06666667   4 t-inv T
 -0.200000 -0.333333 -0.000000    0.06666667   5 t-inv T
 -0.400000 -0.333333 -0.000000    0.06666667   6 t-inv T
  0.400000 -0.333333 -0.000000    0.06666667   7 t-inv T
  0.200000 -0.333333 -0.000000    0.06666667   8 t-inv T


--------------------------------------------------------------------------------------------------------




 Dimension of arrays:
   k-points           NKPTS =      8   k-points in BZ     NKDIM =     15   number of bands    NBANDS=     32
   number of dos      NEDOS =    301   number of ions     NIONS =     15
   non local maximal  LDIM  =      6   non local SUM 2l+1 LMDIM =     18
   total plane-waves  NPLWV = 317520
   max r-space proj   IRMAX =   6561   max aug-charges    IRDMAX=  20369
   dimension x,y,z NGX =    42 NGY =   70 NGZ =  108
   dimension x,y,z NGXF=    84 NGYF=  140 NGZF=  216
   support grid    NGXF=    84 NGYF=  140 NGZF=  216
   ions per type =               8   4   1   2
   NGX,Y,Z   is equivalent  to a cutoff of  11.60, 11.48, 11.97 a.u.
   NGXF,Y,Z  is equivalent  to a cutoff of  23.20, 22.95, 23.94 a.u.

 SYSTEM =  Al2C                                    
 POSCAR =  Al2C                                    

 Startparameter for this run:
   NWRITE =      2    write-flag & timer
   PREC   = accura    normal or accurate (medium, high low for compatibility)
   ISTART =      0    job   : 0-new  1-cont  2-samecut
   ICHARG =      2    charge: 1-file 2-atom 10-const
   ISPIN  =      1    spin polarized calculation?
   LNONCOLLINEAR =      F non collinear calculations
   LSORBIT =      F    spin-orbit coupling
   INIWAV =      1    electr: 0-lowe 1-rand  2-diag
   LASPH  =      F    aspherical Exc in radial PAW
   METAGGA=      F    non-selfconsistent MetaGGA calc.

 Electronic Relaxation 1
   ENCUT  =  450.0 eV  33.07 Ry    5.75 a.u.  10.41 17.54 25.95*2*pi/ulx,y,z
   ENINI  =  450.0     initial cutoff
   ENAUG  =  644.9 eV  augmentation charge cutoff
   NELM   =    300;   NELMIN=  2; NELMDL= -7     # of ELM steps 
   EDIFF  = 0.1E-04   stopping-criterion for ELM
   LREAL  =      T    real-space projection
   NLSPLINE    = F    spline interpolate recip. space projectors
   LCOMPAT=      F    compatible to vasp.4.4
   GGA_COMPAT  = T    GGA compatible to vasp.4.4-vasp.4.6
   LMAXPAW     = -100 max onsite density
   LMAXMIX     =    2 max onsite mixed and CHGCAR
   VOSKOWN=      0    Vosko Wilk Nusair interpolation
   ROPT   =   -0.00020  -0.00020  -0.00020  -0.00020
 Ionic relaxation
   EDIFFG = -.1E-01   stopping-criterion for IOM
   NSW    =    400    number of steps for IOM
   NBLOCK =      1;   KBLOCK =    400    inner block; outer block 
   IBRION =      2    ionic relax: 0-MD 1-quasi-New 2-CG
   NFREE  =      1    steps in history (QN), initial steepest desc. (CG)
   ISIF   =      2    stress and relaxation
   IWAVPR =     11    prediction:  0-non 1-charg 2-wave 3-comb
   ISYM   =      0    0-nonsym 1-usesym 2-fastsym
   LCORR  =      T    Harris-Foulkes like correction to forces

   POTIM  = 0.3500    time-step for ionic-motion
   TEIN   =    0.0    initial temperature
   TEBEG  =    0.0;   TEEND  =   0.0 temperature during run
   SMASS  =  -3.00    Nose mass-parameter (am)
   estimated Nose-frequenzy (Omega)   =  0.10E-29 period in steps =****** mass=  -0.828E-27a.u.
   SCALEE = 1.0000    scale energy and forces
   NPACO  =    256;   APACO  = 16.0  distance and # of slots for P.C.
   PSTRESS=    0.0 pullay stress

  Mass of Ions in am
   POMASS =  26.98 12.01127.60  1.00
  Ionic Valenz
   ZVAL   =   3.00  4.00  6.00  1.00
  Atomic Wigner-Seitz radii
   RWIGS  =  -1.00 -1.00 -1.00 -1.00
  virtual crystal weights 
   VCA    =   1.00  1.00  1.00  1.00
   NELECT =      48.0000    total number of electrons
   NUPDOWN=      -1.0000    fix difference up-down

 DOS related values:
   EMIN   =  10.00;   EMAX   =-10.00  energy-range for DOS
   EFERMI =   0.00
   ISMEAR =     0;   SIGMA  =   0.05  broadening in eV -4-tet -1-fermi 0-gaus

 Electronic relaxation 2 (details)
   IALGO  =     53    algorithm
   LDIAG  =      T    sub-space diagonalisation (order eigenvalues)
   LSUBROT=      F    optimize rotation matrix (better conditioning)
   TURBO    =      0    0=normal 1=particle mesh
   IRESTART =      0    0=no restart 2=restart with 2 vectors
   NREBOOT  =      0    no. of reboots
   NMIN     =      0    reboot dimension
   EREF     =   0.00    reference energy to select bands
   IMIX   =      4    mixing-type and parameters
     AMIX     =   0.40;   BMIX     =  1.00
     AMIX_MAG =   1.60;   BMIX_MAG =  1.00
     AMIN     =   0.10
     WC   =   100.;   INIMIX=   1;  MIXPRE=   1;  MAXMIX= -45

 Intra band minimization:
   WEIMIN = 0.0010     energy-eigenvalue tresh-hold
   EBREAK =  0.78E-07  absolut break condition
   DEPER  =   0.30     relativ break condition  

   TIME   =   0.40     timestep for ELM

  volume/ion in A,a.u.               =      61.03       411.88
  Fermi-wavevector in a.u.,A,eV,Ry     =   0.612725  1.157883  5.108069  0.375432
  Thomas-Fermi vector in A             =   1.669117

 Write flags
   LWAVE        =      F    write WAVECAR
   LDOWNSAMPLE  =      F    k-point downsampling of WAVECAR
   LCHARG       =      F    write CHGCAR
   LVTOT        =      F    write LOCPOT, total local potential
   LVHAR        =      F    write LOCPOT, Hartree potential only
   LELF         =      F    write electronic localiz. function (ELF)
   LORBIT       =      0    0 simple, 1 ext, 2 COOP (PROOUT), +10 PAW based schemes


 Dipole corrections
   LMONO  =      F    monopole corrections only (constant potential shift)
   LDIPOL =      F    correct potential (dipole corrections)
   IDIPOL =      0    1-x, 2-y, 3-z, 4-all directions 
   EPSILON=  1.0000000 bulk dielectric constant

 Exchange correlation treatment:
   GGA     =    PE    GGA type
   LEXCH   =     8    internal setting for exchange type
   VOSKOWN=      0    Vosko Wilk Nusair interpolation
   EXXOEP  =     0    0=HF, 1=EXX-LHF (local Hartree Fock) 2=EXX OEP
   LHFCALC =     T    Hartree Fock is set to
   LSYMGRAD=     F    symmetrize gradient (conserves proper symmetry)
   PRECFOCK=normal    Normal, Fast or Accurate (Low or Medium for compatibility)
   LRHFCALC=     F    long range Hartree Fock
   LRSCOR  =     F    long range correlation only (use DFT for short range part)
   LTHOMAS =     F    Thomas Fermi screening in HF
   LMODELHF=     F    short range full HF, long range fraction AEXX
   ENCUT4O =  -1.0   cutoff for four orbital integrals eV
   LMAXFOCK=     4    L truncation for augmentation on plane wave grid
   LMAXFOCKAE=  -1    L truncation for all-electron charge restoration on plane wave grid
   NMAXFOCKAE=   1    number of basis functions for all-electron charge restoration
   LFOCKAEDFT=     F  apply the AE augmentation even for DFT
   NKREDX  =     1    reduce k-point grid by
   NKREDY  =     1    reduce k-point grid by
   NKREDZ  =     1    reduce k-point grid by
   SHIFTRED=     F    shift reduced grid of Gamma
   HFKIDENT=     F    idential grid for each k-point
   ODDONLY =     F    use only odd q-grid points
   EVENONLY=     F    use only even q-grid points
   HFALPHA =   -1.0000 decay constant for conv. correction
   MCALPHA =    0.0000 extent of test-charge in conv. correction in multipole expansion
   AEXX    =    0.2500 exact exchange contribution
   HFSCREEN=    0.2000 screening length (either q_TF or 0.3 A-1)
   HFSCREENC=   0.2000 screening length for correlation (either q_TF or 0.3 A-1)
   HFRCUT  =    0.0000 spherical cutoff for potential kernel
   ALDAX   =    0.7500 LDA exchange part
   AGGAX   =    0.7500 GGA exchange part
   ALDAC   =    1.0000 LDA correlation
   AGGAC   =    1.0000 GGA correlation
   ENCUTFOCK=  -1.0 apply spherical cutoff to Coloumb kernel
   NBANDSGWLOW=     1    first orbital included in HF term
   NBLOCK_FOCK=    64    blocking factor in FOCK_ACC
 Linear response parameters
   LEPSILON=     F    determine dielectric tensor
   LRPA    =     F    only Hartree local field effects (RPA)
   LNABLA  =     F    use nabla operator in PAW spheres
   LVEL    =     F    velocity operator in full k-point grid
   LINTERFAST=   F  fast interpolation
   KINTER  =     0    interpolate to denser k-point grid
   CSHIFT  =0.1000    complex shift for real part using Kramers Kronig
   OMEGAMAX=  -1.0    maximum frequency
   DEG_THRESHOLD= 0.2000000E-02 threshold for treating states as degnerate
   RTIME   =   -0.100 relaxation time in fs
  (WPLASMAI=    0.000 imaginary part of plasma frequency in eV, 0.658/RTIME)
   DFIELD  = 0.0000000 0.0000000 0.0000000 field for delta impulse in time

 Orbital magnetization related:
   ORBITALMAG=     F  switch on orbital magnetization
   LCHIMAG   =     F  perturbation theory with respect to B field
   DQ        =  0.001000  dq finite difference perturbation B field
   LLRAUG    =     F  two centre corrections for induced B field



--------------------------------------------------------------------------------------------------------


 conjugate gradient relaxation of ions
   using selective dynamics as specified on POSCAR
 charge density and potential will be updated during run
 non-spin polarized calculation
 Conjugate gradient for all bands (Freysoldt, et al. PRB 79, 241103 (2009))
 perform sub-space diagonalisation
    before iterative eigenvector-optimisation
 modified Broyden-mixing scheme, WC =      100.0
 initial mixing is a Kerker type mixing with AMIX =  0.4000 and BMIX =      1.0000
 Hartree-type preconditioning will be used
 using additional bands            8
 real space projection scheme for non local part
 use partial core corrections
 no Harris-corrections to forces 
 use gradient corrections 
 use of overlap-Matrix (Vanderbilt PP)
 Gauss-broadening in eV      SIGMA  =   0.05


--------------------------------------------------------------------------------------------------------


  energy-cutoff  :      450.00
  volume of cell :      915.52
      direct lattice vectors                 reciprocal lattice vectors
     6.019200000  0.000000000  0.000000000     0.166135035  0.000000000  0.000000000
     0.000000000 10.140000000  0.000000000     0.000000000  0.098619329  0.000000000
     0.000000000  0.000000000 15.000000000     0.000000000  0.000000000  0.066666667

  length of vectors
     6.019200000 10.140000000 15.000000000     0.166135035  0.098619329  0.066666667



 k-points in units of 2pi/SCALE and weight: Automatic mesh                          
   0.00000000  0.00000000  0.00000000       0.067
   0.03322701  0.00000000  0.00000000       0.133
   0.06645401  0.00000000  0.00000000       0.133
   0.00000000  0.03287311  0.00000000       0.133
   0.03322701  0.03287311  0.00000000       0.133
   0.06645401  0.03287311  0.00000000       0.133
  -0.06645401  0.03287311  0.00000000       0.133
  -0.03322701  0.03287311  0.00000000       0.133

 k-points in reciprocal lattice and weights: Automatic mesh                          
   0.00000000  0.00000000  0.00000000       0.067
   0.20000000  0.00000000  0.00000000       0.133
   0.40000000  0.00000000  0.00000000       0.133
   0.00000000  0.33333333  0.00000000       0.133
   0.20000000  0.33333333  0.00000000       0.133
   0.40000000  0.33333333  0.00000000       0.133
  -0.40000000  0.33333333  0.00000000       0.133
  -0.20000000  0.33333333  0.00000000       0.133

 position of ions in fractional coordinates (direct lattice) 
   0.43241749  0.87665629  0.23553779
   0.93212496  0.87716319  0.26232991
   0.43280048  0.61743452  0.23854708
   0.93366742  0.61980747  0.27004635
   0.43048229  0.37552987  0.27767968
   0.93264969  0.37747829  0.24198754
   0.43154815  0.11884785  0.26292878
   0.93182714  0.11882918  0.23722466
   0.18211011  0.99758090  0.24773344
   0.68188761  0.99778009  0.24943843
   0.18266204  0.49802506  0.25592911
   0.68243980  0.49854685  0.26096830
   0.55801686  0.43877699  0.46551486
   0.80960759  0.36764705  0.46242232
   0.50652925  0.35178988  0.56111174

 position of ions in cartesian coordinates  (Angst):
   2.60280738  8.88929477  3.53306682
   5.61064658  8.89443479  3.93494872
   2.60511262  6.26078606  3.57820625
   5.61993096  6.28484770  4.05069519
   2.59115901  3.80787288  4.16519518
   5.61380500  3.82762986  3.62981304
   2.59757460  1.20511720  3.94393177
   5.60885390  1.20492793  3.55836990
   1.09615715 10.11547036  3.71600162
   4.10441789 10.11749014  3.74157648
   1.09947932  5.04997411  3.83893672
   4.10774164  5.05526501  3.91452457
   3.35881508  4.44919868  6.98272285
   4.87319001  3.72794109  6.93633482
   3.04890085  3.56714942  8.41667607



--------------------------------------------------------------------------------------------------------


 k-point  1 :   0.0000 0.0000 0.0000  plane waves:   19845
 k-point  2 :   0.2000 0.0000 0.0000  plane waves:   19863
 k-point  3 :   0.4000 0.0000 0.0000  plane waves:   19851
 k-point  4 :   0.0000 0.3333 0.0000  plane waves:   19883
 k-point  5 :   0.2000 0.3333 0.0000  plane waves:   19830
 k-point  6 :   0.4000 0.3333 0.0000  plane waves:   19821
 k-point  7 :  -0.4000 0.3333 0.0000  plane waves:   19821
 k-point  8 :  -0.2000 0.3333 0.0000  plane waves:   19830

 maximum and minimum number of plane-waves per node :     19883    19821

 maximum number of plane-waves:     19883
 maximum index in each direction: 
   IXMAX=   10   IYMAX=   17   IZMAX=   25
   IXMIN=  -10   IYMIN=  -17   IZMIN=  -25


 serial   3D FFT for wavefunctions
 parallel 3D FFT for charge:
    minimum data exchange during FFTs selected (reduces bandwidth)


 FFT grid for exact exchange (Hartree Fock) 
  NGX = 32; NGY = 54; NGZ = 80


 Radii for the augmentation spheres in the non-local exchange
 for species   1 augmentation radius   1.301 (default was   1.041)
       energy cutoff for augmentation   1800.0
 for species   2 augmentation radius   0.874 (default was   0.699)
       energy cutoff for augmentation   1800.0
 for species   3 augmentation radius   1.487 (default was   1.190)
       energy cutoff for augmentation   1800.0
 for species   4 augmentation radius   0.735 (default was   0.588)
       energy cutoff for augmentation   1800.0
 Maximum index for augmentation-charges in exchange         2082
  SETUP_FOCK is finished

 total amount of memory used by VASP MPI-rank0   189434. kBytes
=======================================================================

   base      :      30000. kBytes
   nonlr-proj:      15597. kBytes
   fftplans  :      22787. kBytes
   grid      :      58800. kBytes
   one-center:        233. kBytes
   HF        :        259. kBytes
   wavefun   :      61758. kBytes

     INWAV:  cpu time    0.0001: real time    0.0009
 Broyden mixing: mesh for mixing (old mesh)
   NGX = 21   NGY = 35   NGZ = 51
  (NGX  = 84   NGY  =140   NGZ  =216)
  gives a total of  37485 points

 initial charge density was supplied:
 charge density of overlapping atoms calculated
 number of electron      48.0000000 magnetization 
 keeping initial charge density in first step


--------------------------------------------------------------------------------------------------------


 Maximum index for non-local projection operator         6305
 Maximum index for augmentation-charges         4896 (set IRDMAX)


--------------------------------------------------------------------------------------------------------


 First call to EWALD:  gamma=   0.183
 Maximum number of real-space cells 4x 3x 2
 Maximum number of reciprocal cells 2x 3x 4

    FEWALD:  cpu time    0.0041: real time    0.0041


--------------------------------------- Iteration      1(   1)  ---------------------------------------


    POTLOK:  cpu time    8.3181: real time    8.3500
    SETDIJ:  cpu time    0.9266: real time    0.9309
    TRIAL :  cpu time   25.5504: real time   25.6845
    CORREC:  cpu time    0.0007: real time    0.0007
    --------------------------------------------
      LOOP:  cpu time   34.8615: real time   35.0320

 eigenvalue-minimisations  :   712
 total energy-change (2. order) : 0.5540854E+03  (-0.1151156E+04)
 number of electron      48.0000000 magnetization 
 augmentation part       48.0000000 magnetization 

 Free energy of the ion-electron system (eV)
  ---------------------------------------------------
  alpha Z        PSCENC =        13.10177784
  Ewald energy   TEWEN  =      1357.35810779
  -Hartree energ DENC   =     -2333.48262641
  -exchange      EXHF   =         0.00000000
  -V(xc)+E(xc)   XCENC  =      -148.32022268
  PAW double counting   =      1131.56821490     -901.58210649
  entropy T*S    EENTRO =        -0.00411160
  eigenvalues    EBANDS =       184.25313762
  atomic energy  EATOM  =      1251.19323263
  ---------------------------------------------------
  free energy    TOTEN  =       554.08540360 eV

  energy without entropy =      554.08951520  energy(sigma->0) =      554.08745940
  exchange ACFDT corr.  =         0.00000000  see jH, gK, PRB 81, 115126


--------------------------------------------------------------------------------------------------------




--------------------------------------- Iteration      1(   2)  ---------------------------------------


    TRIAL :  cpu time   35.0002: real time   35.2122
    CORREC:  cpu time    0.0006: real time    0.0006
    --------------------------------------------
      LOOP:  cpu time   35.0012: real time   35.2142

 eigenvalue-minimisations  :  1024
 total energy-change (2. order) :-0.2840055E+03  (-0.2673151E+03)
 number of electron      48.0000000 magnetization 
 augmentation part       48.0000000 magnetization 

 Free energy of the ion-electron system (eV)
  ---------------------------------------------------
  alpha Z        PSCENC =        13.10177784
  Ewald energy   TEWEN  =      1357.35810779
  -Hartree energ DENC   =     -2333.48262641
  -exchange      EXHF   =         0.00000000
  -V(xc)+E(xc)   XCENC  =      -148.32022268
  PAW double counting   =      1131.56821490     -901.58210649
  entropy T*S    EENTRO =        -0.01021394
  eigenvalues    EBANDS =       -99.74628763
  atomic energy  EATOM  =      1251.19323263
  ---------------------------------------------------
  free energy    TOTEN  =       270.07987601 eV

  energy without entropy =      270.09008995  energy(sigma->0) =      270.08498298
  exchange ACFDT corr.  =         0.00000000  see jH, gK, PRB 81, 115126


--------------------------------------------------------------------------------------------------------




--------------------------------------- Iteration      1(   3)  ---------------------------------------


    TRIAL :  cpu time   35.0952: real time   35.3115
    CORREC:  cpu time    0.0006: real time    0.0006
    --------------------------------------------
      LOOP:  cpu time   35.0961: real time   35.3130

 eigenvalue-minimisations  :  1024
 total energy-change (2. order) :-0.1351925E+03  (-0.1270231E+03)
 number of electron      48.0000000 magnetization 
 augmentation part       48.0000000 magnetization 

 Free energy of the ion-electron system (eV)
  ---------------------------------------------------
  alpha Z        PSCENC =        13.10177784
  Ewald energy   TEWEN  =      1357.35810779
  -Hartree energ DENC   =     -2333.48262641
  -exchange      EXHF   =         0.00000000
  -V(xc)+E(xc)   XCENC  =      -148.32022268
  PAW double counting   =      1131.56821490     -901.58210649
  entropy T*S    EENTRO =        -0.01352365
  eigenvalues    EBANDS =      -234.93546361
  atomic energy  EATOM  =      1251.19323263
  ---------------------------------------------------
  free energy    TOTEN  =       134.88739032 eV

  energy without entropy =      134.90091397  energy(sigma->0) =      134.89415215
  exchange ACFDT corr.  =         0.00000000  see jH, gK, PRB 81, 115126


--------------------------------------------------------------------------------------------------------




--------------------------------------- Iteration      1(   4)  ---------------------------------------


    TRIAL :  cpu time   35.1461: real time   35.3268
    CORREC:  cpu time    0.0006: real time    0.0006
    --------------------------------------------
      LOOP:  cpu time   35.1471: real time   35.3282

 eigenvalue-minimisations  :  1024
 total energy-change (2. order) :-0.7104312E+02  (-0.6748137E+02)
 number of electron      48.0000000 magnetization 
 augmentation part       48.0000000 magnetization 

 Free energy of the ion-electron system (eV)
  ---------------------------------------------------
  alpha Z        PSCENC =        13.10177784
  Ewald energy   TEWEN  =      1357.35810779
  -Hartree energ DENC   =     -2333.48262641
  -exchange      EXHF   =         0.00000000
  -V(xc)+E(xc)   XCENC  =      -148.32022268
  PAW double counting   =      1131.56821490     -901.58210649
  entropy T*S    EENTRO =        -0.00465687
  eigenvalues    EBANDS =      -305.98744903
  atomic energy  EATOM  =      1251.19323263
  ---------------------------------------------------
  free energy    TOTEN  =        63.84427169 eV

  energy without entropy =       63.84892855  energy(sigma->0) =       63.84660012
  exchange ACFDT corr.  =         0.00000000  see jH, gK, PRB 81, 115126


--------------------------------------------------------------------------------------------------------




--------------------------------------- Iteration      1(   5)  ---------------------------------------


    TRIAL :  cpu time   35.0831: real time   35.2034
    CORREC:  cpu time    0.0006: real time    0.0006
    --------------------------------------------
      LOOP:  cpu time   35.0841: real time   35.2049

 eigenvalue-minimisations  :  1024
 total energy-change (2. order) :-0.3817921E+02  (-0.3648404E+02)
 number of electron      48.0000000 magnetization 
 augmentation part       48.0000000 magnetization 

 Free energy of the ion-electron system (eV)
  ---------------------------------------------------
  alpha Z        PSCENC =        13.10177784
  Ewald energy   TEWEN  =      1357.35810779
  -Hartree energ DENC   =     -2333.48262641
  -exchange      EXHF   =         0.00000000
  -V(xc)+E(xc)   XCENC  =      -148.32022268
  PAW double counting   =      1131.56821490     -901.58210649
  entropy T*S    EENTRO =        -0.00005580
  eigenvalues    EBANDS =      -344.17126159
  atomic energy  EATOM  =      1251.19323263
  ---------------------------------------------------
  free energy    TOTEN  =        25.66506019 eV

  energy without entropy =       25.66511599  energy(sigma->0) =       25.66508809
  exchange ACFDT corr.  =         0.00000000  see jH, gK, PRB 81, 115126


--------------------------------------------------------------------------------------------------------




--------------------------------------- Iteration      1(   6)  ---------------------------------------


    TRIAL :  cpu time   35.0860: real time   35.2311
    CORREC:  cpu time    0.0007: real time    0.0007
    --------------------------------------------
      LOOP:  cpu time   35.0872: real time   35.2327

 eigenvalue-minimisations  :  1024
 total energy-change (2. order) :-0.2078750E+02  (-0.1979504E+02)
 number of electron      48.0000000 magnetization 
 augmentation part       48.0000000 magnetization 

 Free energy of the ion-electron system (eV)
  ---------------------------------------------------
  alpha Z        PSCENC =        13.10177784
  Ewald energy   TEWEN  =      1357.35810779
  -Hartree energ DENC   =     -2333.48262641
  -exchange      EXHF   =         0.00000000
  -V(xc)+E(xc)   XCENC  =      -148.32022268
  PAW double counting   =      1131.56821490     -901.58210649
  entropy T*S    EENTRO =        -0.00411821
  eigenvalues    EBANDS =      -364.95470092
  atomic energy  EATOM  =      1251.19323263
  ---------------------------------------------------
  free energy    TOTEN  =         4.87755845 eV

  energy without entropy =        4.88167667  energy(sigma->0) =        4.87961756
  exchange ACFDT corr.  =         0.00000000  see jH, gK, PRB 81, 115126


--------------------------------------------------------------------------------------------------------




--------------------------------------- Iteration      1(   7)  ---------------------------------------


    TRIAL :  cpu time   35.0918: real time   35.1795
    CORREC:  cpu time    0.0003: real time    0.0003
    CHARGE:  cpu time    1.6022: real time    1.6071
    --------------------------------------------
      LOOP:  cpu time   36.6948: real time   36.7879

 eigenvalue-minimisations  :  1024
 total energy-change (2. order) :-0.1136022E+02  (-0.1096035E+02)
 number of electron      48.0000002 magnetization 
 augmentation part       -0.8856890 magnetization 

 Free energy of the ion-electron system (eV)
  ---------------------------------------------------
  alpha Z        PSCENC =        13.10177784
  Ewald energy   TEWEN  =      1357.35810779
  -Hartree energ DENC   =     -2333.48262641
  -exchange      EXHF   =         0.00000000
  -V(xc)+E(xc)   XCENC  =      -148.32022268
  PAW double counting   =      1131.56821490     -901.58210649
  entropy T*S    EENTRO =        -0.00000000
  eigenvalues    EBANDS =      -376.31904332
  atomic energy  EATOM  =      1251.19323263
  ---------------------------------------------------
  free energy    TOTEN  =        -6.48266574 eV

  energy without entropy =       -6.48266574  energy(sigma->0) =       -6.48266574
  exchange ACFDT corr.  =         0.00000000  see jH, gK, PRB 81, 115126


--------------------------------------------------------------------------------------------------------




--------------------------------------- Iteration      1(   8)  ---------------------------------------


    POTLOK:  cpu time    8.3225: real time    8.3320
    SETDIJ:  cpu time    0.9410: real time    0.9421
    TRIAL :  cpu time  622.8358: real time  626.1211
    CORREC:  cpu time    0.0004: real time    0.0004
    CHARGE:  cpu time    1.5527: real time    1.5605
    --------------------------------------------
      LOOP:  cpu time  633.6529: real time  636.9574

 eigenvalue-minimisations  :     0
 total energy-change (2. order) :-0.4812538E+02  (-0.3717796E+02)
 number of electron      48.0000002 magnetization 
 augmentation part       -1.2795887 magnetization 

 Free energy of the ion-electron system (eV)
  ---------------------------------------------------
  alpha Z        PSCENC =        13.10177784
  Ewald energy   TEWEN  =      1357.35810779
  -Hartree energ DENC   =     -2563.60044688
  -exchange      EXHF   =        76.19514295
  -V(xc)+E(xc)   XCENC  =      -139.50815953
  PAW double counting   =      1804.08609975    -1575.15935147
  entropy T*S    EENTRO =        -0.00000000
  eigenvalues    EBANDS =      -278.27444990
  atomic energy  EATOM  =      1251.19323263
  ---------------------------------------------------
  free energy    TOTEN  =       -54.60804682 eV

  energy without entropy =      -54.60804682  energy(sigma->0) =      -54.60804682
  exchange ACFDT corr.  =        -0.00000000  see jH, gK, PRB 81, 115126


--------------------------------------------------------------------------------------------------------




--------------------------------------- Iteration      1(   9)  ---------------------------------------


    POTLOK:  cpu time    8.3198: real time    8.3340
    SETDIJ:  cpu time    0.9296: real time    0.9314
    TRIAL :  cpu time  617.5141: real time  620.2788
    CORREC:  cpu time    0.0004: real time    0.0004
    CHARGE:  cpu time    1.5670: real time    1.5757
    --------------------------------------------
      LOOP:  cpu time  628.3313: real time  631.1217

 eigenvalue-minimisations  :     0
 total energy-change (2. order) :-0.1771266E+02  (-0.6147919E+01)
 number of electron      48.0000002 magnetization 
 augmentation part       -1.3421010 magnetization 

 Free energy of the ion-electron system (eV)
  ---------------------------------------------------
  alpha Z        PSCENC =        13.10177784
  Ewald energy   TEWEN  =      1357.35810779
  -Hartree energ DENC   =     -2456.52126123
  -exchange      EXHF   =        72.58829888
  -V(xc)+E(xc)   XCENC  =      -143.75591502
  PAW double counting   =      1619.45690765    -1390.03576379
  entropy T*S    EENTRO =        -0.00000000
  eigenvalues    EBANDS =      -395.70609313
  atomic energy  EATOM  =      1251.19323263
  ---------------------------------------------------
  free energy    TOTEN  =       -72.32070839 eV

  energy without entropy =      -72.32070839  energy(sigma->0) =      -72.32070839
  exchange ACFDT corr.  =        -0.04145142  see jH, gK, PRB 81, 115126


--------------------------------------------------------------------------------------------------------




--------------------------------------- Iteration      1(  10)  ---------------------------------------


    POTLOK:  cpu time    8.3564: real time    8.3709
    SETDIJ:  cpu time    0.9399: real time    0.9420
    TRIAL :  cpu time  617.3498: real time  619.7780
    CORREC:  cpu time    0.0004: real time    0.0004
    CHARGE:  cpu time    1.5461: real time    1.5560
    --------------------------------------------
      LOOP:  cpu time  628.1930: real time  630.6487

 eigenvalue-minimisations  :     0
 total energy-change (2. order) :-0.3392612E+01  (-0.4810599E+01)
 number of electron      48.0000002 magnetization 
 augmentation part       -1.2604800 magnetization 

 Free energy of the ion-electron system (eV)
  ---------------------------------------------------
  alpha Z        PSCENC =        13.10177784
  Ewald energy   TEWEN  =      1357.35810779
  -Hartree energ DENC   =     -2463.19803086
  -exchange      EXHF   =        73.00580767
  -V(xc)+E(xc)   XCENC  =      -143.82263411
  PAW double counting   =      1635.11525347    -1405.64550930
  entropy T*S    EENTRO =        -0.00000000
  eigenvalues    EBANDS =      -392.82132598
  atomic energy  EATOM  =      1251.19323263
  ---------------------------------------------------
  free energy    TOTEN  =       -75.71332085 eV

  energy without entropy =      -75.71332085  energy(sigma->0) =      -75.71332085
  exchange ACFDT corr.  =        -0.00000000  see jH, gK, PRB 81, 115126


--------------------------------------------------------------------------------------------------------




--------------------------------------- Iteration      1(  11)  ---------------------------------------


    POTLOK:  cpu time    8.3364: real time    8.3545
    SETDIJ:  cpu time    0.9579: real time    0.9616
    TRIAL :  cpu time  624.0704: real time  626.8840
    CORREC:  cpu time    0.0004: real time    0.0004
    CHARGE:  cpu time    1.5576: real time    1.5650
    --------------------------------------------
      LOOP:  cpu time  634.9231: real time  637.7668

 eigenvalue-minimisations  :     0
 total energy-change (2. order) :-0.2777113E+01  (-0.1268278E+01)
 number of electron      48.0000002 magnetization 
 augmentation part       -1.2140183 magnetization 

 Free energy of the ion-electron system (eV)
  ---------------------------------------------------
  alpha Z        PSCENC =        13.10177784
  Ewald energy   TEWEN  =      1357.35810779
  -Hartree energ DENC   =     -2500.83466778
  -exchange      EXHF   =        74.63875922
  -V(xc)+E(xc)   XCENC  =      -142.52278709
  PAW double counting   =      1695.81569001    -1466.56601840
  entropy T*S    EENTRO =        -0.00000000
  eigenvalues    EBANDS =      -360.67452788
  atomic energy  EATOM  =      1251.19323263
  ---------------------------------------------------
  free energy    TOTEN  =       -78.49043365 eV

  energy without entropy =      -78.49043365  energy(sigma->0) =      -78.49043365
  exchange ACFDT corr.  =        -0.00000000  see jH, gK, PRB 81, 115126


--------------------------------------------------------------------------------------------------------




--------------------------------------- Iteration      1(  12)  ---------------------------------------


    POTLOK:  cpu time    8.3469: real time    8.3645
    SETDIJ:  cpu time    0.9450: real time    0.9471
    TRIAL :  cpu time  623.7259: real time  626.4694
    CORREC:  cpu time    0.0003: real time    0.0003
    CHARGE:  cpu time    1.5525: real time    1.5606
    --------------------------------------------
      LOOP:  cpu time  634.5710: real time  637.3432

 eigenvalue-minimisations  :     0
 total energy-change (2. order) :-0.6968328E+00  (-0.7186907E+00)
 number of electron      48.0000002 magnetization 
 augmentation part       -1.2307418 magnetization 

 Free energy of the ion-electron system (eV)
  ---------------------------------------------------
  alpha Z        PSCENC =        13.10177784
  Ewald energy   TEWEN  =      1357.35810779
  -Hartree energ DENC   =     -2517.62472793
  -exchange      EXHF   =        75.42857475
  -V(xc)+E(xc)   XCENC  =      -141.91425471
  PAW double counting   =      1718.18981090    -1489.08324600
  entropy T*S    EENTRO =        -0.00000000
  eigenvalues    EBANDS =      -345.83654176
  atomic energy  EATOM  =      1251.19323263
  ---------------------------------------------------
  free energy    TOTEN  =       -79.18726648 eV

  energy without entropy =      -79.18726648  energy(sigma->0) =      -79.18726648
  exchange ACFDT corr.  =        -0.00000000  see jH, gK, PRB 81, 115126


--------------------------------------------------------------------------------------------------------




--------------------------------------- Iteration      1(  13)  ---------------------------------------


    POTLOK:  cpu time    8.3373: real time    8.3625
    SETDIJ:  cpu time    0.9500: real time    0.9519
    TRIAL :  cpu time  620.3340: real time  623.1382
    CORREC:  cpu time    0.0004: real time    0.0004
    CHARGE:  cpu time    1.5438: real time    1.5486
    --------------------------------------------
      LOOP:  cpu time  631.1667: real time  634.0035

 eigenvalue-minimisations  :     0
 total energy-change (2. order) :-0.5163260E+00  (-0.3587727E+00)
 number of electron      48.0000002 magnetization 
 augmentation part       -1.2561704 magnetization 

 Free energy of the ion-electron system (eV)
  ---------------------------------------------------
  alpha Z        PSCENC =        13.10177784
  Ewald energy   TEWEN  =      1357.35810779
  -Hartree energ DENC   =     -2511.88701408
  -exchange      EXHF   =        75.32028792
  -V(xc)+E(xc)   XCENC  =      -142.07606957
  PAW double counting   =      1707.23958555    -1478.10638440
  entropy T*S    EENTRO =        -0.00000000
  eigenvalues    EBANDS =      -351.84711616
  atomic energy  EATOM  =      1251.19323263
  ---------------------------------------------------
  free energy    TOTEN  =       -79.70359247 eV

  energy without entropy =      -79.70359247  energy(sigma->0) =      -79.70359247
  exchange ACFDT corr.  =        -0.00000000  see jH, gK, PRB 81, 115126


--------------------------------------------------------------------------------------------------------




--------------------------------------- Iteration      1(  14)  ---------------------------------------


    POTLOK:  cpu time    8.3278: real time    8.3631
    SETDIJ:  cpu time    0.9428: real time    0.9444
    TRIAL :  cpu time  621.5541: real time  623.5678
    CORREC:  cpu time    0.0004: real time    0.0004
    CHARGE:  cpu time    1.5312: real time    1.5466
    --------------------------------------------
      LOOP:  cpu time  632.3567: real time  634.4236

 eigenvalue-minimisations  :     0
 total energy-change (2. order) :-0.2295238E+00  (-0.1335257E+00)
 number of electron      48.0000002 magnetization 
 augmentation part       -1.2604771 magnetization 

 Free energy of the ion-electron system (eV)
  ---------------------------------------------------
  alpha Z        PSCENC =        13.10177784
  Ewald energy   TEWEN  =      1357.35810779
  -Hartree energ DENC   =     -2503.97491959
  -exchange      EXHF   =        75.09501337
  -V(xc)+E(xc)   XCENC  =      -142.31311473
  PAW double counting   =      1695.90117456    -1466.71414239
  entropy T*S    EENTRO =        -0.00000000
  eigenvalues    EBANDS =      -359.58024577
  atomic energy  EATOM  =      1251.19323263
  ---------------------------------------------------
  free energy    TOTEN  =       -79.93311630 eV

  energy without entropy =      -79.93311630  energy(sigma->0) =      -79.93311630
  exchange ACFDT corr.  =        -0.00000000  see jH, gK, PRB 81, 115126


--------------------------------------------------------------------------------------------------------




--------------------------------------- Iteration      1(  15)  ---------------------------------------


    POTLOK:  cpu time    8.3167: real time    8.3404
    SETDIJ:  cpu time    0.9453: real time    0.9476
    TRIAL :  cpu time  612.7738: real time  616.0953
    CORREC:  cpu time    0.0004: real time    0.0004
    CHARGE:  cpu time    1.5497: real time    1.5566
    --------------------------------------------
      LOOP:  cpu time  623.5864: real time  626.9414

 eigenvalue-minimisations  :     0
 total energy-change (2. order) :-0.9785496E-01  (-0.6964608E-01)
 number of electron      48.0000002 magnetization 
 augmentation part       -1.2538604 magnetization 

 Free energy of the ion-electron system (eV)
  ---------------------------------------------------
  alpha Z        PSCENC =        13.10177784
  Ewald energy   TEWEN  =      1357.35810779
  -Hartree energ DENC   =     -2503.88673378
  -exchange      EXHF   =        75.11486237
  -V(xc)+E(xc)   XCENC  =      -142.30932128
  PAW double counting   =      1696.57953798    -1467.39228379
  entropy T*S    EENTRO =        -0.00000000
  eigenvalues    EBANDS =      -359.79015100
  atomic energy  EATOM  =      1251.19323263
  ---------------------------------------------------
  free energy    TOTEN  =       -80.03097125 eV

  energy without entropy =      -80.03097125  energy(sigma->0) =      -80.03097125
  exchange ACFDT corr.  =        -0.00000000  see jH, gK, PRB 81, 115126


--------------------------------------------------------------------------------------------------------




--------------------------------------- Iteration      1(  16)  ---------------------------------------


    POTLOK:  cpu time    8.3102: real time    8.3328
    SETDIJ:  cpu time    0.9391: real time    0.9465
    TRIAL :  cpu time  622.8627: real time  625.1868
    CORREC:  cpu time    0.0004: real time    0.0004
    CHARGE:  cpu time    1.5421: real time    1.5582
    --------------------------------------------
      LOOP:  cpu time  633.6550: real time  636.0259

 eigenvalue-minimisations  :     0
 total energy-change (2. order) :-0.5045757E-01  (-0.2876365E-01)
 number of electron      48.0000002 magnetization 
 augmentation part       -1.2486951 magnetization 

 Free energy of the ion-electron system (eV)
  ---------------------------------------------------
  alpha Z        PSCENC =        13.10177784
  Ewald energy   TEWEN  =      1357.35810779
  -Hartree energ DENC   =     -2506.52584469
  -exchange      EXHF   =        75.20960895
  -V(xc)+E(xc)   XCENC  =      -142.22380816
  PAW double counting   =      1700.86764889    -1471.70001930
  entropy T*S    EENTRO =        -0.00000000
  eigenvalues    EBANDS =      -357.36213276
  atomic energy  EATOM  =      1251.19323263
  ---------------------------------------------------
  free energy    TOTEN  =       -80.08142882 eV

  energy without entropy =      -80.08142882  energy(sigma->0) =      -80.08142882
  exchange ACFDT corr.  =        -0.00000000  see jH, gK, PRB 81, 115126


--------------------------------------------------------------------------------------------------------




--------------------------------------- Iteration      1(  17)  ---------------------------------------


    POTLOK:  cpu time    8.2752: real time    8.3177
    SETDIJ:  cpu time    0.9429: real time    0.9479
    TRIAL :  cpu time  627.8305: real time  631.1269
    CORREC:  cpu time    0.0004: real time    0.0004
    CHARGE:  cpu time    1.5462: real time    1.5530
    --------------------------------------------
      LOOP:  cpu time  638.5956: real time  641.9473

 eigenvalue-minimisations  :     0
 total energy-change (2. order) :-0.2157709E-01  (-0.1444294E-01)
 number of electron      48.0000002 magnetization 
 augmentation part       -1.2481797 magnetization 

 Free energy of the ion-electron system (eV)
  ---------------------------------------------------
  alpha Z        PSCENC =        13.10177784
  Ewald energy   TEWEN  =      1357.35810779
  -Hartree energ DENC   =     -2507.60523650
  -exchange      EXHF   =        75.24529460
  -V(xc)+E(xc)   XCENC  =      -142.18727295
  PAW double counting   =      1702.64705259    -1473.48824253
  entropy T*S    EENTRO =        -0.00000000
  eigenvalues    EBANDS =      -356.36771939
  atomic energy  EATOM  =      1251.19323263
  ---------------------------------------------------
  free energy    TOTEN  =       -80.10300591 eV

  energy without entropy =      -80.10300591  energy(sigma->0) =      -80.10300591
  exchange ACFDT corr.  =        -0.00000000  see jH, gK, PRB 81, 115126


--------------------------------------------------------------------------------------------------------




--------------------------------------- Iteration      1(  18)  ---------------------------------------


    POTLOK:  cpu time    8.2950: real time    8.3099
    SETDIJ:  cpu time    0.9574: real time    0.9594
    TRIAL :  cpu time  629.9666: real time  633.3609
    CORREC:  cpu time    0.0003: real time    0.0003
    CHARGE:  cpu time    1.5500: real time    1.5605
    --------------------------------------------
      LOOP:  cpu time  640.7697: real time  644.1922

 eigenvalue-minimisations  :     0
 total energy-change (2. order) :-0.1125343E-01  (-0.6895114E-02)
 number of electron      48.0000002 magnetization 
 augmentation part       -1.2497215 magnetization 

 Free energy of the ion-electron system (eV)
  ---------------------------------------------------
  alpha Z        PSCENC =        13.10177784
  Ewald energy   TEWEN  =      1357.35810779
  -Hartree energ DENC   =     -2506.97486601
  -exchange      EXHF   =        75.22367050
  -V(xc)+E(xc)   XCENC  =      -142.20645696
  PAW double counting   =      1701.65708235    -1472.49717882
  entropy T*S    EENTRO =        -0.00000000
  eigenvalues    EBANDS =      -356.96962865
  atomic energy  EATOM  =      1251.19323263
  ---------------------------------------------------
  free energy    TOTEN  =       -80.11425934 eV

  energy without entropy =      -80.11425934  energy(sigma->0) =      -80.11425934
  exchange ACFDT corr.  =        -0.00000000  see jH, gK, PRB 81, 115126


--------------------------------------------------------------------------------------------------------




--------------------------------------- Iteration      1(  19)  ---------------------------------------


    POTLOK:  cpu time    8.3324: real time    8.3643
    SETDIJ:  cpu time    0.9496: real time    0.9534
    TRIAL :  cpu time  633.5662: real time  637.4893
    CORREC:  cpu time    0.0003: real time    0.0003
    CHARGE:  cpu time    1.5466: real time    1.5609
    --------------------------------------------
      LOOP:  cpu time  644.3956: real time  648.3694

 eigenvalue-minimisations  :     0
 total energy-change (2. order) :-0.5301875E-02  (-0.3001222E-02)
 number of electron      48.0000002 magnetization 
 augmentation part       -1.2505142 magnetization 

 Free energy of the ion-electron system (eV)
  ---------------------------------------------------
  alpha Z        PSCENC =        13.10177784
  Ewald energy   TEWEN  =      1357.35810779
  -Hartree energ DENC   =     -2506.21863582
  -exchange      EXHF   =        75.19927441
  -V(xc)+E(xc)   XCENC  =      -142.23181944
  PAW double counting   =      1700.32919326    -1471.16718198
  entropy T*S    EENTRO =        -0.00000000
  eigenvalues    EBANDS =      -357.68350989
  atomic energy  EATOM  =      1251.19323263
  ---------------------------------------------------
  free energy    TOTEN  =       -80.11956121 eV

  energy without entropy =      -80.11956121  energy(sigma->0) =      -80.11956121
  exchange ACFDT corr.  =        -0.00000000  see jH, gK, PRB 81, 115126


--------------------------------------------------------------------------------------------------------




--------------------------------------- Iteration      1(  20)  ---------------------------------------


    POTLOK:  cpu time    8.2782: real time    8.3116
    SETDIJ:  cpu time    0.9629: real time    0.9665
    TRIAL :  cpu time  636.3739: real time  640.2328
    CORREC:  cpu time    0.0003: real time    0.0003
    CHARGE:  cpu time    1.5533: real time    1.5645
    --------------------------------------------
      LOOP:  cpu time  647.1690: real time  651.0782

 eigenvalue-minimisations  :     0
 total energy-change (2. order) :-0.2436495E-02  (-0.1480579E-02)
 number of electron      48.0000002 magnetization 
 augmentation part       -1.2504946 magnetization 

 Free energy of the ion-electron system (eV)
  ---------------------------------------------------
  alpha Z        PSCENC =        13.10177784
  Ewald energy   TEWEN  =      1357.35810779
  -Hartree energ DENC   =     -2506.10881252
  -exchange      EXHF   =        75.19652864
  -V(xc)+E(xc)   XCENC  =      -142.23635787
  PAW double counting   =      1700.04631360    -1470.88420501
  entropy T*S    EENTRO =        -0.00000000
  eigenvalues    EBANDS =      -357.78858279
  atomic energy  EATOM  =      1251.19323263
  ---------------------------------------------------
  free energy    TOTEN  =       -80.12199771 eV

  energy without entropy =      -80.12199771  energy(sigma->0) =      -80.12199771
  exchange ACFDT corr.  =        -0.00000000  see jH, gK, PRB 81, 115126


--------------------------------------------------------------------------------------------------------




--------------------------------------- Iteration      1(  21)  ---------------------------------------


    POTLOK:  cpu time    8.2752: real time    8.3067
    SETDIJ:  cpu time    0.9454: real time    0.9496
    TRIAL :  cpu time  633.3658: real time  636.2655
    CORREC:  cpu time    0.0004: real time    0.0004
    CHARGE:  cpu time    1.5486: real time    1.5534
    --------------------------------------------
      LOOP:  cpu time  644.1359: real time  647.0768

 eigenvalue-minimisations  :     0
 total energy-change (2. order) :-0.1223236E-02  (-0.7016586E-03)
 number of electron      48.0000002 magnetization 
 augmentation part       -1.2503182 magnetization 

 Free energy of the ion-electron system (eV)
  ---------------------------------------------------
  alpha Z        PSCENC =        13.10177784
  Ewald energy   TEWEN  =      1357.35810779
  -Hartree energ DENC   =     -2506.28340801
  -exchange      EXHF   =        75.20281158
  -V(xc)+E(xc)   XCENC  =      -142.23084472
  PAW double counting   =      1700.30551404    -1471.14404072
  entropy T*S    EENTRO =        -0.00000000
  eigenvalues    EBANDS =      -357.62637136
  atomic energy  EATOM  =      1251.19323263
  ---------------------------------------------------
  free energy    TOTEN  =       -80.12322094 eV

  energy without entropy =      -80.12322094  energy(sigma->0) =      -80.12322094
  exchange ACFDT corr.  =        -0.00000000  see jH, gK, PRB 81, 115126


--------------------------------------------------------------------------------------------------------




--------------------------------------- Iteration      1(  22)  ---------------------------------------


    POTLOK:  cpu time    8.2756: real time    8.3112
    SETDIJ:  cpu time    0.9380: real time    0.9416
    TRIAL :  cpu time  633.6756: real time  637.6576
    CORREC:  cpu time    0.0004: real time    0.0004
    CHARGE:  cpu time    1.5539: real time    1.5634
    --------------------------------------------
      LOOP:  cpu time  644.4439: real time  648.4756

 eigenvalue-minimisations  :     0
 total energy-change (2. order) :-0.5889540E-03  (-0.3492777E-03)
 number of electron      48.0000002 magnetization 
 augmentation part       -1.2502757 magnetization 

 Free energy of the ion-electron system (eV)
  ---------------------------------------------------
  alpha Z        PSCENC =        13.10177784
  Ewald energy   TEWEN  =      1357.35810779
  -Hartree energ DENC   =     -2506.39258414
  -exchange      EXHF   =        75.20666795
  -V(xc)+E(xc)   XCENC  =      -142.22695809
  PAW double counting   =      1700.51261649    -1471.35150477
  entropy T*S    EENTRO =        -0.00000000
  eigenvalues    EBANDS =      -357.52516559
  atomic energy  EATOM  =      1251.19323263
  ---------------------------------------------------
  free energy    TOTEN  =       -80.12380990 eV

  energy without entropy =      -80.12380990  energy(sigma->0) =      -80.12380990
  exchange ACFDT corr.  =        -0.00000000  see jH, gK, PRB 81, 115126


--------------------------------------------------------------------------------------------------------




--------------------------------------- Iteration      1(  23)  ---------------------------------------


    POTLOK:  cpu time    8.2750: real time    8.3095
    SETDIJ:  cpu time    0.9466: real time    0.9510
    TRIAL :  cpu time  636.4149: real time  639.6959
    CORREC:  cpu time    0.0004: real time    0.0004
    CHARGE:  cpu time    1.5551: real time    1.5614
    --------------------------------------------
      LOOP:  cpu time  647.1925: real time  650.5194

 eigenvalue-minimisations  :     0
 total energy-change (2. order) :-0.2993474E-03  (-0.1802324E-03)
 number of electron      48.0000002 magnetization 
 augmentation part       -1.2503433 magnetization 

 Free energy of the ion-electron system (eV)
  ---------------------------------------------------
  alpha Z        PSCENC =        13.10177784
  Ewald energy   TEWEN  =      1357.35810779
  -Hartree energ DENC   =     -2506.38058648
  -exchange      EXHF   =        75.20643125
  -V(xc)+E(xc)   XCENC  =      -142.22700512
  PAW double counting   =      1700.52750830    -1471.36651409
  entropy T*S    EENTRO =        -0.00000000
  eigenvalues    EBANDS =      -357.53706136
  atomic energy  EATOM  =      1251.19323263
  ---------------------------------------------------
  free energy    TOTEN  =       -80.12410924 eV

  energy without entropy =      -80.12410924  energy(sigma->0) =      -80.12410924
  exchange ACFDT corr.  =        -0.00000000  see jH, gK, PRB 81, 115126


--------------------------------------------------------------------------------------------------------




--------------------------------------- Iteration      1(  24)  ---------------------------------------


    POTLOK:  cpu time    8.2992: real time    8.3172
    SETDIJ:  cpu time    0.9569: real time    0.9590
    TRIAL :  cpu time  636.3035: real time  638.7569
    CORREC:  cpu time    0.0003: real time    0.0003
    CHARGE:  cpu time    1.5377: real time    1.5410
    --------------------------------------------
      LOOP:  cpu time  647.0982: real time  649.5758

 eigenvalue-minimisations  :     0
 total energy-change (2. order) :-0.1553722E-03  (-0.9099187E-04)
 number of electron      48.0000002 magnetization 
 augmentation part       -1.2504042 magnetization 

 Free energy of the ion-electron system (eV)
  ---------------------------------------------------
  alpha Z        PSCENC =        13.10177784
  Ewald energy   TEWEN  =      1357.35810779
  -Hartree energ DENC   =     -2506.32552032
  -exchange      EXHF   =        75.20468701
  -V(xc)+E(xc)   XCENC  =      -142.22861894
  PAW double counting   =      1700.45242699    -1471.29145644
  entropy T*S    EENTRO =        -0.00000000
  eigenvalues    EBANDS =      -357.58890117
  atomic energy  EATOM  =      1251.19323263
  ---------------------------------------------------
  free energy    TOTEN  =       -80.12426462 eV

  energy without entropy =      -80.12426462  energy(sigma->0) =      -80.12426462
  exchange ACFDT corr.  =        -0.00000000  see jH, gK, PRB 81, 115126


--------------------------------------------------------------------------------------------------------




--------------------------------------- Iteration      1(  25)  ---------------------------------------


    POTLOK:  cpu time    8.2759: real time    8.3103
    SETDIJ:  cpu time    0.9300: real time    0.9343
    TRIAL :  cpu time  636.4600: real time  638.8929
    CORREC:  cpu time    0.0005: real time    0.0005
    CHARGE:  cpu time    1.5382: real time    1.5410
    --------------------------------------------
      LOOP:  cpu time  647.2049: real time  649.6803

 eigenvalue-minimisations  :     0
 total energy-change (2. order) :-0.8027285E-04  (-0.4746513E-04)
 number of electron      48.0000002 magnetization 
 augmentation part       -1.2504233 magnetization 

 Free energy of the ion-electron system (eV)
  ---------------------------------------------------
  alpha Z        PSCENC =        13.10177784
  Ewald energy   TEWEN  =      1357.35810779
  -Hartree energ DENC   =     -2506.30119807
  -exchange      EXHF   =        75.20384432
  -V(xc)+E(xc)   XCENC  =      -142.22941719
  PAW double counting   =      1700.40885783    -1471.24794400
  entropy T*S    EENTRO =        -0.00000000
  eigenvalues    EBANDS =      -357.61160603
  atomic energy  EATOM  =      1251.19323263
  ---------------------------------------------------
  free energy    TOTEN  =       -80.12434489 eV

  energy without entropy =      -80.12434489  energy(sigma->0) =      -80.12434489
  exchange ACFDT corr.  =        -0.00000000  see jH, gK, PRB 81, 115126


--------------------------------------------------------------------------------------------------------




--------------------------------------- Iteration      1(  26)  ---------------------------------------


    POTLOK:  cpu time    8.2991: real time    8.3080
    SETDIJ:  cpu time    0.9462: real time    0.9474
    TRIAL :  cpu time  629.6206: real time  632.3205
    CORREC:  cpu time    0.0004: real time    0.0004
    CHARGE:  cpu time    1.5502: real time    1.5594
    --------------------------------------------
      LOOP:  cpu time  640.4169: real time  643.1369

 eigenvalue-minimisations  :     0
 total energy-change (2. order) :-0.4297463E-04  (-0.2572463E-04)
 number of electron      48.0000002 magnetization 
 augmentation part       -1.2504262 magnetization 

 Free energy of the ion-electron system (eV)
  ---------------------------------------------------
  alpha Z        PSCENC =        13.10177784
  Ewald energy   TEWEN  =      1357.35810779
  -Hartree energ DENC   =     -2506.30765811
  -exchange      EXHF   =        75.20396943
  -V(xc)+E(xc)   XCENC  =      -142.22930388
  PAW double counting   =      1700.41129443    -1471.25046397
  entropy T*S    EENTRO =        -0.00000000
  eigenvalues    EBANDS =      -357.60534403
  atomic energy  EATOM  =      1251.19323263
  ---------------------------------------------------
  free energy    TOTEN  =       -80.12438786 eV

  energy without entropy =      -80.12438786  energy(sigma->0) =      -80.12438786
  exchange ACFDT corr.  =        -0.00000000  see jH, gK, PRB 81, 115126


--------------------------------------------------------------------------------------------------------




--------------------------------------- Iteration      1(  27)  ---------------------------------------


    POTLOK:  cpu time    8.3228: real time    8.3498
    SETDIJ:  cpu time    0.9609: real time    0.9649
    TRIAL :  cpu time  630.5239: real time  633.7531
    CORREC:  cpu time    0.0005: real time    0.0005
    CHARGE:  cpu time    1.5359: real time    1.5435
    --------------------------------------------
      LOOP:  cpu time  641.3445: real time  644.6132

 eigenvalue-minimisations  :     0
 total energy-change (2. order) :-0.2378927E-04  (-0.1468557E-04)
 number of electron      48.0000002 magnetization 
 augmentation part       -1.2504305 magnetization 

 Free energy of the ion-electron system (eV)
  ---------------------------------------------------
  alpha Z        PSCENC =        13.10177784
  Ewald energy   TEWEN  =      1357.35810779
  -Hartree energ DENC   =     -2506.31880581
  -exchange      EXHF   =        75.20428148
  -V(xc)+E(xc)   XCENC  =      -142.22902553
  PAW double counting   =      1700.42523947    -1471.26447392
  entropy T*S    EENTRO =        -0.00000000
  eigenvalues    EBANDS =      -357.59474559
  atomic energy  EATOM  =      1251.19323263
  ---------------------------------------------------
  free energy    TOTEN  =       -80.12441165 eV

  energy without entropy =      -80.12441165  energy(sigma->0) =      -80.12441165
  exchange ACFDT corr.  =        -0.00000000  see jH, gK, PRB 81, 115126


--------------------------------------------------------------------------------------------------------




--------------------------------------- Iteration      1(  28)  ---------------------------------------


    POTLOK:  cpu time    8.2835: real time    8.3048
    SETDIJ:  cpu time    0.9457: real time    0.9483
    TRIAL :  cpu time  635.7358: real time  638.2393
    CORREC:  cpu time    0.0004: real time    0.0004
    CHARGE:  cpu time    1.5457: real time    1.5555
    --------------------------------------------
      LOOP:  cpu time  646.5125: real time  649.0506

 eigenvalue-minimisations  :     0
 total energy-change (2. order) :-0.1386227E-04  (-0.8956929E-05)
 number of electron      48.0000002 magnetization 
 augmentation part       -1.2504378 magnetization 

 Free energy of the ion-electron system (eV)
  ---------------------------------------------------
  alpha Z        PSCENC =        13.10177784
  Ewald energy   TEWEN  =      1357.35810779
  -Hartree energ DENC   =     -2506.32297309
  -exchange      EXHF   =        75.20441266
  -V(xc)+E(xc)   XCENC  =      -142.22892334
  PAW double counting   =      1700.43206083    -1471.27132234
  entropy T*S    EENTRO =        -0.00000000
  eigenvalues    EBANDS =      -357.59079849
  atomic energy  EATOM  =      1251.19323263
  ---------------------------------------------------
  free energy    TOTEN  =       -80.12442551 eV

  energy without entropy =      -80.12442551  energy(sigma->0) =      -80.12442551
  exchange ACFDT corr.  =        -0.00000000  see jH, gK, PRB 81, 115126


--------------------------------------------------------------------------------------------------------




--------------------------------------- Iteration      1(  29)  ---------------------------------------


    POTLOK:  cpu time    8.2864: real time    8.3130
    SETDIJ:  cpu time    0.9530: real time    0.9567
    TRIAL :  cpu time  640.3019: real time  642.6658
    CORREC:  cpu time    0.0004: real time    0.0004
    EDDIAG:  cpu time  630.6404: real time  632.2364
    CHARGE:  cpu time    1.5591: real time    1.5670
    --------------------------------------------
      LOOP:  cpu time 1281.7415: real time 1285.7404

 eigenvalue-minimisations  :     0
 total energy-change (2. order) :-0.8595722E-05  (-0.5804181E-05)
 number of electron      48.0000002 magnetization 
 augmentation part       -1.2504444 magnetization 

 Free energy of the ion-electron system (eV)
  ---------------------------------------------------
  alpha Z        PSCENC =        13.10177784
  Ewald energy   TEWEN  =      1357.35810779
  -Hartree energ DENC   =     -2506.32156012
  -exchange      EXHF   =        75.20433500
  -V(xc)+E(xc)   XCENC  =      -142.22897146
  PAW double counting   =      1700.43080821    -1471.27007412
  entropy T*S    EENTRO =        -0.00000000
  eigenvalues    EBANDS =      -357.59213761
  atomic energy  EATOM  =      1251.19323263
  ---------------------------------------------------
  free energy    TOTEN  =       -80.12443411 eV

  energy without entropy =      -80.12443411  energy(sigma->0) =      -80.12443411
  exchange ACFDT corr.  =        -0.00000000  see jH, gK, PRB 81, 115126


--------------------------------------------------------------------------------------------------------


  average scaling for gradient   0.7493


 average (electrostatic) potential at core
  the test charge radii are     1.0406  0.6991  1.1897  0.5883
  (the norm of the test charge is              1.0000)
       1 -54.8810       2 -54.8667       3 -54.8801       4 -54.8990       5 -54.9196
       6 -54.9656       7 -54.8120       8 -54.8954       9 -51.0145      10 -51.0132
      11 -51.0849      12 -51.1476      13 -93.2544      14 -34.2147      15 -33.6698



 E-fermi :  -2.0660     XC(G=0):  -2.9244     alpha+bet : -2.8557


 k-point     1 :       0.0000    0.0000    0.0000
  band No.  band energies     occupation 
      1     -15.8136      2.00000
      2     -15.1722      2.00000
      3     -15.0114      2.00000
      4     -12.9089      2.00000
      5     -12.8098      2.00000
      6      -9.5697      2.00000
      7      -9.3433      2.00000
      8      -9.2656      2.00000
      9      -8.3143      2.00000
     10      -7.4541      2.00000
     11      -6.9752      2.00000
     12      -6.4835      2.00000
     13      -5.9784      2.00000
     14      -5.5406      2.00000
     15      -5.1581      2.00000
     16      -4.9035      2.00000
     17      -4.4779      2.00000
     18      -4.3984      2.00000
     19      -3.4671      2.00000
     20      -3.1214      2.00000
     21      -3.0880      2.00000
     22      -2.6233      2.00000
     23      -2.3574      2.00000
     24      -2.2835      2.00000
     25      -0.8070      0.00000
     26      -0.2973      0.00000
     27       0.2366      0.00000
     28       0.6014      0.00000
     29       0.7278      0.00000
     30       0.9216      0.00000
     31       1.0886      0.00000
     32       1.3944      0.00000

 k-point     2 :       0.2000    0.0000    0.0000
  band No.  band energies     occupation 
      1     -15.7893      2.00000
      2     -15.0465      2.00000
      3     -14.8882      2.00000
      4     -13.3186      2.00000
      5     -13.1981      2.00000
      6      -9.1814      2.00000
      7      -8.9240      2.00000
      8      -8.6426      2.00000
      9      -8.3322      2.00000
     10      -7.4638      2.00000
     11      -6.8520      2.00000
     12      -6.8050      2.00000
     13      -6.3518      2.00000
     14      -5.4231      2.00000
     15      -5.2171      2.00000
     16      -4.7969      2.00000
     17      -4.4520      2.00000
     18      -3.9683      2.00000
     19      -3.8467      2.00000
     20      -3.8292      2.00000
     21      -3.7476      2.00000
     22      -3.0113      2.00000
     23      -2.7505      2.00000
     24      -2.3193      2.00000
     25      -0.8160      0.00000
     26       0.3993      0.00000
     27       0.7276      0.00000
     28       0.7472      0.00000
     29       1.0293      0.00000
     30       1.0345      0.00000
     31       1.1471      0.00000
     32       1.8175      0.00000

 k-point     3 :       0.4000    0.0000    0.0000
  band No.  band energies     occupation 
      1     -15.7543      2.00000
      2     -14.6662      2.00000
      3     -14.5108      2.00000
      4     -14.0482      2.00000
      5     -13.9037      2.00000
      6      -8.7151      2.00000
      7      -8.3640      2.00000
      8      -7.9376      2.00000
      9      -7.6732      2.00000
     10      -7.3257      2.00000
     11      -7.0899      2.00000
     12      -6.4846      2.00000
     13      -6.1839      2.00000
     14      -5.9472      2.00000
     15      -5.4669      2.00000
     16      -5.2072      2.00000
     17      -5.0702      2.00000
     18      -4.7915      2.00000
     19      -4.4509      2.00000
     20      -4.1919      2.00000
     21      -3.7259      2.00000
     22      -3.4178      2.00000
     23      -2.8439      2.00000
     24      -2.4056      2.00000
     25      -0.4906      0.00000
     26       0.2054      0.00000
     27       0.8548      0.00000
     28       1.3615      0.00000
     29       1.3671      0.00000
     30       1.6322      0.00000
     31       2.0940      0.00000
     32       2.5925      0.00000

 k-point     4 :       0.0000    0.3333    0.0000
  band No.  band energies     occupation 
      1     -15.8122      2.00000
      2     -15.1401      2.00000
      3     -15.0499      2.00000
      4     -12.8975      2.00000
      5     -12.8222      2.00000
      6      -9.5155      2.00000
      7      -9.3381      2.00000
      8      -9.0262      2.00000
      9      -8.3457      2.00000
     10      -8.0685      2.00000
     11      -7.4256      2.00000
     12      -5.8066      2.00000
     13      -5.4606      2.00000
     14      -5.3722      2.00000
     15      -5.1000      2.00000
     16      -5.0507      2.00000
     17      -4.4099      2.00000
     18      -4.2123      2.00000
     19      -3.7403      2.00000
     20      -3.3029      2.00000
     21      -3.1163      2.00000
     22      -3.0913      2.00000
     23      -2.6088      2.00000
     24      -2.2978      2.00000
     25      -0.5957      0.00000
     26       0.0729      0.00000
     27       0.2773      0.00000
     28       0.4332      0.00000
     29       0.6787      0.00000
     30       0.8424      0.00000
     31       1.1150      0.00000
     32       1.4230      0.00000

 k-point     5 :       0.2000    0.3333    0.0000
  band No.  band energies     occupation 
      1     -15.7885      2.00000
      2     -15.0111      2.00000
      3     -14.9292      2.00000
      4     -13.2994      2.00000
      5     -13.2190      2.00000
      6      -8.9081      2.00000
      7      -8.8497      2.00000
      8      -8.7036      2.00000
      9      -8.3374      2.00000
     10      -7.9508      2.00000
     11      -7.4211      2.00000
     12      -6.5552      2.00000
     13      -5.9036      2.00000
     14      -5.2098      2.00000
     15      -4.9785      2.00000
     16      -4.8796      2.00000
     17      -4.3832      2.00000
     18      -3.8879      2.00000
     19      -3.8333      2.00000
     20      -3.7338      2.00000
     21      -3.6840      2.00000
     22      -3.2293      2.00000
     23      -2.9338      2.00000
     24      -2.7784      2.00000
     25      -0.4739      0.00000
     26       0.1767      0.00000
     27       0.6380      0.00000
     28       0.7639      0.00000
     29       0.8305      0.00000
     30       1.0842      0.00000
     31       1.2792      0.00000
     32       1.6241      0.00000

 k-point     6 :       0.4000    0.3333    0.0000
  band No.  band energies     occupation 
      1     -15.7541      2.00000
      2     -14.6304      2.00000
      3     -14.5508      2.00000
      4     -14.0188      2.00000
      5     -13.9362      2.00000
      6      -8.4968      2.00000
      7      -8.2789      2.00000
      8      -7.8684      2.00000
      9      -7.5743      2.00000
     10      -7.4864      2.00000
     11      -7.3000      2.00000
     12      -7.0669      2.00000
     13      -6.6464      2.00000
     14      -5.6078      2.00000
     15      -5.4968      2.00000
     16      -4.9771      2.00000
     17      -4.5057      2.00000
     18      -4.4642      2.00000
     19      -4.2572      2.00000
     20      -4.0196      2.00000
     21      -3.7324      2.00000
     22      -3.4423      2.00000
     23      -3.1343      2.00000
     24      -3.0332      2.00000
     25      -0.1450      0.00000
     26       0.3114      0.00000
     27       0.7176      0.00000
     28       1.0545      0.00000
     29       1.1435      0.00000
     30       1.6839      0.00000
     31       1.7558      0.00000
     32       2.3713      0.00000

 k-point     7 :      -0.4000    0.3333    0.0000
  band No.  band energies     occupation 
      1     -15.7541      2.00000
      2     -14.6303      2.00000
      3     -14.5509      2.00000
      4     -14.0188      2.00000
      5     -13.9362      2.00000
      6      -8.4946      2.00000
      7      -8.2951      2.00000
      8      -7.8288      2.00000
      9      -7.5854      2.00000
     10      -7.4993      2.00000
     11      -7.3015      2.00000
     12      -7.0678      2.00000
     13      -6.6453      2.00000
     14      -5.6232      2.00000
     15      -5.4922      2.00000
     16      -4.9621      2.00000
     17      -4.5245      2.00000
     18      -4.4602      2.00000
     19      -4.2435      2.00000
     20      -4.0131      2.00000
     21      -3.7180      2.00000
     22      -3.4786      2.00000
     23      -3.1251      2.00000
     24      -3.0287      2.00000
     25      -0.1783      0.00000
     26       0.4365      0.00000
     27       0.6901      0.00000
     28       0.8723      0.00000
     29       1.2733      0.00000
     30       1.6398      0.00000
     31       1.8339      0.00000
     32       1.8640      0.00000

 k-point     8 :      -0.2000    0.3333    0.0000
  band No.  band energies     occupation 
      1     -15.7885      2.00000
      2     -15.0110      2.00000
      3     -14.9293      2.00000
      4     -13.2993      2.00000
      5     -13.2191      2.00000
      6      -8.9124      2.00000
      7      -8.8477      2.00000
      8      -8.7016      2.00000
      9      -8.3430      2.00000
     10      -7.9373      2.00000
     11      -7.4268      2.00000
     12      -6.5515      2.00000
     13      -5.9205      2.00000
     14      -5.2030      2.00000
     15      -4.9897      2.00000
     16      -4.8831      2.00000
     17      -4.3518      2.00000
     18      -3.8819      2.00000
     19      -3.8358      2.00000
     20      -3.7528      2.00000
     21      -3.6662      2.00000
     22      -3.2555      2.00000
     23      -2.9041      2.00000
     24      -2.7916      2.00000
     25      -0.5055      0.00000
     26       0.2549      0.00000
     27       0.5282      0.00000
     28       0.7559      0.00000
     29       0.9236      0.00000
     30       1.1792      0.00000
     31       1.3187      0.00000
     32       1.5862      0.00000


--------------------------------------------------------------------------------------------------------


 soft charge-density along one line, spin component           1
         0         1         2         3         4         5         6         7         8         9
 total charge-density along one line

 pseudopotential strength for first ion, spin component:           1
  7.181 -16.882  -0.005  -0.002   0.000   0.028   0.010  -0.000
-16.882  49.269   0.012   0.004  -0.000  -0.059  -0.020   0.000
 -0.005   0.012   1.704  -0.000   0.000  -6.724   0.001  -0.000
 -0.002   0.004  -0.000   1.709  -0.000   0.001  -6.746   0.000
  0.000  -0.000   0.000  -0.000   1.704  -0.000   0.000  -6.726
  0.028  -0.059  -6.724   0.001  -0.000  28.447  -0.006   0.000
  0.010  -0.020   0.001  -6.746   0.000  -0.006  28.537  -0.001
 -0.000   0.000  -0.000   0.000  -6.726   0.000  -0.001  28.454
  0.000  -0.000   0.000  -0.000  -0.005  -0.000   0.000   0.012
 -0.001   0.001  -0.001  -0.004  -0.000   0.003   0.011   0.000
  0.011  -0.012   0.002  -0.002  -0.000  -0.005   0.004   0.000
 -0.000   0.000  -0.000   0.000  -0.001   0.000  -0.000   0.004
  0.001  -0.001   0.003  -0.000   0.000  -0.007   0.000  -0.000
 -0.000   0.000  -0.000   0.000   0.018   0.000  -0.000  -0.061
  0.005  -0.008   0.005   0.017   0.000  -0.017  -0.057  -0.000
 -0.041   0.072  -0.008   0.007   0.000   0.027  -0.024  -0.000
  0.001  -0.001   0.000  -0.000   0.006  -0.000   0.000  -0.019
 -0.003   0.005  -0.012   0.000  -0.000   0.043  -0.001   0.000
 total augmentation occupancy for first ion, spin component:           1
  1.390   0.032  -0.005   0.013   0.000   0.005   0.001  -0.000  -0.000   0.016  -0.103   0.001  -0.024  -0.000   0.001  -0.005
  0.032   0.001   0.008   0.002  -0.000   0.000   0.000  -0.000  -0.000   0.001  -0.003   0.000  -0.000  -0.000   0.000  -0.000
 -0.005   0.008   1.331   0.070  -0.001   0.026   0.002  -0.000   0.000   0.023  -0.072   0.002   0.069   0.000   0.001  -0.003
  0.013   0.002   0.070   0.405   0.006   0.002   0.007   0.000   0.002   0.061   0.008   0.000   0.006   0.000   0.002   0.000
  0.000  -0.000  -0.001   0.006   1.187  -0.000   0.000   0.025   0.244   0.002   0.000   0.036  -0.001   0.008   0.000   0.000
  0.005   0.000   0.026   0.002  -0.000   0.001   0.000  -0.000   0.000   0.001  -0.002   0.000   0.001  -0.000   0.000  -0.000
  0.001   0.000   0.002   0.007   0.000   0.000   0.000   0.000   0.000   0.001   0.000   0.000   0.000   0.000   0.000  -0.000
 -0.000  -0.000  -0.000   0.000   0.025  -0.000   0.000   0.001   0.005   0.000   0.000   0.001  -0.000   0.000   0.000   0.000
 -0.000  -0.000   0.000   0.002   0.244   0.000   0.000   0.005   0.069   0.000   0.000   0.008  -0.000   0.002   0.000   0.000
  0.016   0.001   0.023   0.061   0.002   0.001   0.001   0.000   0.000   0.011  -0.000   0.000  -0.002   0.000   0.000  -0.000
 -0.103  -0.003  -0.072   0.008   0.000  -0.002   0.000   0.000   0.000  -0.000   0.013   0.000  -0.004   0.000  -0.000   0.001
  0.001   0.000   0.002   0.000   0.036   0.000   0.000   0.001   0.008   0.000   0.000   0.022   0.000   0.000   0.000  -0.000
 -0.024  -0.000   0.069   0.006  -0.001   0.001   0.000  -0.000  -0.000  -0.002  -0.004   0.000   0.045  -0.000  -0.000  -0.000
 -0.000  -0.000   0.000   0.000   0.008  -0.000   0.000   0.000   0.002   0.000   0.000   0.000  -0.000   0.000   0.000   0.000
  0.001   0.000   0.001   0.002   0.000   0.000   0.000   0.000   0.000   0.000  -0.000   0.000  -0.000   0.000   0.000  -0.000
 -0.005  -0.000  -0.003   0.000   0.000  -0.000  -0.000   0.000   0.000  -0.000   0.001  -0.000  -0.000   0.000  -0.000   0.000
  0.000   0.000   0.000   0.000   0.001   0.000   0.000   0.000   0.000   0.000  -0.000   0.001   0.000   0.000   0.000  -0.000
 -0.001  -0.000   0.001   0.000  -0.000   0.000   0.000  -0.000  -0.000  -0.000  -0.000   0.000   0.001  -0.000  -0.000  -0.000


------------------------ aborting loop because EDIFF is reached ----------------------------------------


    FORLOC:  cpu time    0.2198: real time    0.2201
    FORHF :  cpu time 1060.6919: real time 1063.1743
    FORNL :  cpu time    6.3838: real time    6.3998
    STRESS:  cpu time   19.3959: real time   19.4499
    FORCOR:  cpu time    8.2372: real time    8.2463
    OFIELD:  cpu time    0.0093: real time    0.0093

  FORCE on cell =-STRESS in cart. coord.  units (eV):
  Direction    XX          YY          ZZ          XY          YZ          ZX
  --------------------------------------------------------------------------------------
  Alpha Z    13.10178    13.10178    13.10178
  Ewald    2348.96967  1931.52645 -2923.13950    -7.49129   -42.45270    -6.62616
  Hartree  2374.96402  2082.22104 -1950.86528    -0.14030   -21.00543    -2.58878
  E(xc)    -119.85940  -120.51797  -118.07049     0.03073    -0.05119    -0.08710
  Local   -5216.27502 -4515.50237  4396.49542     4.80321    58.60845     5.48295
  n-local   223.54382   236.08231   190.70329    -0.41239     0.83635     1.88413
  augment   -29.45918   -31.22878   -27.58640    -0.37825    -0.92993    -0.81242
  Kinetic   435.08975   428.85720   449.11678     3.77954     5.05945     2.64596
  Fock      -31.64159   -31.23666   -30.91366     0.07079     0.18037     0.15791
  -------------------------------------------------------------------------------------
  Total      -1.56615    -6.69699    -1.15807     0.26206     0.24538     0.05650
  in kB      -2.74080   -11.71986    -2.02664     0.45860     0.42942     0.09888
  external pressure =       -5.50 kB  Pullay stress =        0.00 kB


 VOLUME and BASIS-vectors are now :
 -----------------------------------------------------------------------------
  energy-cutoff  :      450.00
  volume of cell :      915.52
      direct lattice vectors                 reciprocal lattice vectors
     6.019200000  0.000000000  0.000000000     0.166135035  0.000000000  0.000000000
     0.000000000 10.140000000  0.000000000     0.000000000  0.098619329  0.000000000
     0.000000000  0.000000000 15.000000000     0.000000000  0.000000000  0.066666667

  length of vectors
     6.019200000 10.140000000 15.000000000     0.166135035  0.098619329  0.066666667


 FORCES acting on ions:
    Electron-Ion                     Ewald-Force                    Non-Local-Force
 -----------------------------------------------------------------------------------------------
   0.185E+00 0.480E+02 0.375E+02   -.189E+00 -.451E+02 -.365E+02   0.153E-02 -.286E+01 -.984E+00
   -.389E+00 0.475E+02 -.789E+01   0.401E+00 -.446E+02 0.715E+01   -.103E-01 -.282E+01 0.758E+00
   0.949E+00 -.565E+02 0.513E+02   -.106E+01 0.538E+02 -.500E+02   0.122E+00 0.265E+01 -.139E+01
   -.245E+01 -.591E+02 -.353E+01   0.245E+01 0.564E+02 0.266E+01   -.727E-02 0.266E+01 0.887E+00
   0.521E+01 0.530E+02 0.126E+01   -.531E+01 -.509E+02 -.310E+01   0.104E+00 -.205E+01 0.193E+01
   -.153E+01 0.513E+02 0.492E+02   0.176E+01 -.487E+02 -.482E+02   -.247E+00 -.265E+01 -.107E+01
   0.979E+00 -.401E+02 -.311E+01   -.991E+00 0.377E+02 0.248E+01   0.128E-01 0.238E+01 0.651E+00
   -.605E+00 -.439E+02 0.384E+02   0.598E+00 0.410E+02 -.375E+02   0.975E-02 0.296E+01 -.913E+00
   0.119E+00 0.398E+01 0.225E+02   -.460E-01 -.395E+01 -.227E+02   -.791E-01 -.232E-01 0.195E+00
   -.968E-01 0.434E+01 0.192E+02   0.210E-01 -.430E+01 -.193E+02   0.790E-01 -.393E-01 0.199E-01
   0.262E+01 -.549E+01 0.335E+02   -.252E+01 0.556E+01 -.338E+02   -.977E-01 -.573E-01 0.274E+00
   -.350E+01 -.793E+01 0.336E+02   0.336E+01 0.805E+01 -.336E+02   0.158E+00 -.974E-01 0.338E-01
   0.143E+02 -.195E+02 -.194E+03   -.186E+02 0.255E+02 0.190E+03   0.460E+01 -.648E+01 0.381E+01
   -.242E+02 0.138E+02 -.319E+02   0.264E+02 -.148E+02 0.318E+02   -.243E+01 0.115E+01 0.730E-01
   0.586E+01 0.145E+02 -.487E+02   -.627E+01 -.157E+02 0.505E+02   0.439E+00 0.127E+01 -.206E+01
 -----------------------------------------------------------------------------------------------
   -.266E+01 0.403E+01 -.223E+01   0.533E-14 0.320E-13 0.284E-13   0.265E+01 -.399E+01 0.221E+01


 POSITION                                       TOTAL-FORCE (eV/Angst)
 -----------------------------------------------------------------------------------
      2.60281      8.88929      3.53307        -0.003176      0.265186      0.051390
      5.61065      8.89443      3.93495         0.002405      0.263233     -0.042943
      2.60511      6.26079      3.57821         0.000072     -0.275883      0.078879
      5.61993      6.28485      4.05070        -0.007708     -0.279397     -0.052215
      2.59116      3.80787      4.16520         0.000557      0.271664     -0.065138
      5.61381      3.82763      3.62981        -0.002243      0.278667      0.043718
      2.59757      1.20512      3.94393         0.000164     -0.262357     -0.034337
      5.60885      1.20493      3.55837         0.001762     -0.268345      0.042707
      1.09616     10.11547      3.71600        -0.008644     -0.000135      0.011893
      4.10442     10.11749      3.74158         0.004880     -0.002531     -0.006734
      1.09948      5.04997      3.83894        -0.001690      0.009028      0.012145
      4.10774      5.05527      3.91452         0.014722      0.012338     -0.025526
      3.35882      4.44920      6.98272         0.227831     -0.319413      0.266133
      4.87319      3.72794      6.93633        -0.260924      0.136042     -0.016176
      3.04890      3.56715      8.41668         0.031995      0.171904     -0.263796
 -----------------------------------------------------------------------------------
    total drift:                                0.005688      0.004358      0.000215


--------------------------------------------------------------------------------------------------------



  FREE ENERGIE OF THE ION-ELECTRON SYSTEM (eV)
  ---------------------------------------------------
  free  energy   TOTEN  =       -80.12443411 eV

  energy  without entropy=      -80.12443411  energy(sigma->0) =      -80.12443411



--------------------------------------------------------------------------------------------------------


    POTLOK:  cpu time    9.2288: real time    9.2403


--------------------------------------------------------------------------------------------------------


 stress matrix after NEB project (eV)
     -1.56615      0.26206      0.05650
      0.26206     -6.69699      0.24538
      0.05650      0.24538     -1.15807
  FORCES: max atom, RMS     0.474087    0.261033
  FORCE total and by dimension    1.010978    0.319413
  Stress total and by dimension    6.993415    6.696995


--------------------------------------------------------------------------------------------------------


    WAVPRE:  cpu time    0.5515: real time    0.8086
    FEWALD:  cpu time    0.0025: real time    0.0025
    ORTHCH:  cpu time    2.6271: real time    2.6354
    CHARGE:  cpu time    1.5544: real time    1.5630
     LOOP+:  cpu time16075.3764: real time16146.7227


--------------------------------------- Iteration      2(   1)  ---------------------------------------


    POTLOK:  cpu time    8.2752: real time    8.3011
    SETDIJ:  cpu time    0.9498: real time    0.9535
    TRIAL :  cpu time  639.0062: real time  641.6656
    CORREC:  cpu time    0.0005: real time    0.0005
    CHARGE:  cpu time    1.5480: real time    1.5514
    --------------------------------------------
      LOOP:  cpu time  649.8438: real time  652.5363

 eigenvalue-minimisations  :     0
 total energy-change (2. order) : 0.4926135E-01  (-0.9613355E-01)
 number of electron      48.0000002 magnetization 
 augmentation part       -1.2487320 magnetization 

 Free energy of the ion-electron system (eV)
  ---------------------------------------------------
  alpha Z        PSCENC =        13.10177784
  Ewald energy   TEWEN  =      1360.76246225
  -Hartree energ DENC   =     -2506.41480134
  -exchange      EXHF   =        75.21100887
  -V(xc)+E(xc)   XCENC  =      -142.22405879
  PAW double counting   =      1708.03207999    -1478.88492693
  entropy T*S    EENTRO =        -0.00000000
  eigenvalues    EBANDS =      -360.85193868
  atomic energy  EATOM  =      1251.19323263
  ---------------------------------------------------
  free energy    TOTEN  =       -80.07516416 eV

  energy without entropy =      -80.07516416  energy(sigma->0) =      -80.07516416
  exchange ACFDT corr.  =        -0.00000000  see jH, gK, PRB 81, 115126


--------------------------------------------------------------------------------------------------------




--------------------------------------- Iteration      2(   2)  ---------------------------------------


    POTLOK:  cpu time    8.2994: real time    8.3055
    SETDIJ:  cpu time    0.9608: real time    0.9619
    TRIAL :  cpu time  643.1841: real time  644.4427
    CORREC:  cpu time    0.0005: real time    0.0005
    CHARGE:  cpu time    1.5448: real time    1.5495
    --------------------------------------------
      LOOP:  cpu time  653.9901: real time  655.2611

 eigenvalue-minimisations  :     0
 total energy-change (2. order) :-0.4819809E-01  (-0.2091202E-01)
 number of electron      48.0000002 magnetization 
 augmentation part       -1.2496217 magnetization 

 Free energy of the ion-electron system (eV)
  ---------------------------------------------------
  alpha Z        PSCENC =        13.10177784
  Ewald energy   TEWEN  =      1360.76246225
  -Hartree energ DENC   =     -2508.73302900
  -exchange      EXHF   =        75.35447793
  -V(xc)+E(xc)   XCENC  =      -142.11277168
  PAW double counting   =      1712.34570264    -1483.21895147
  entropy T*S    EENTRO =        -0.00000000
  eigenvalues    EBANDS =      -358.81626340
  atomic energy  EATOM  =      1251.19323263
  ---------------------------------------------------
  free energy    TOTEN  =       -80.12336225 eV

  energy without entropy =      -80.12336225  energy(sigma->0) =      -80.12336225
  exchange ACFDT corr.  =        -0.00000000  see jH, gK, PRB 81, 115126


--------------------------------------------------------------------------------------------------------




--------------------------------------- Iteration      2(   3)  ---------------------------------------


    POTLOK:  cpu time    8.2931: real time    8.3039
    SETDIJ:  cpu time    0.9270: real time    0.9297
    TRIAL :  cpu time  638.8816: real time  641.4860
    CORREC:  cpu time    0.0004: real time    0.0004
    CHARGE:  cpu time    1.5477: real time    1.5575
    --------------------------------------------
      LOOP:  cpu time  649.6504: real time  652.2789

 eigenvalue-minimisations  :     0
 total energy-change (2. order) :-0.1076485E-01  (-0.8866558E-02)
 number of electron      48.0000002 magnetization 
 augmentation part       -1.2502807 magnetization 

 Free energy of the ion-electron system (eV)
  ---------------------------------------------------
  alpha Z        PSCENC =        13.10177784
  Ewald energy   TEWEN  =      1360.76246225
  -Hartree energ DENC   =     -2509.58537850
  -exchange      EXHF   =        75.40263249
  -V(xc)+E(xc)   XCENC  =      -142.07194040
  PAW double counting   =      1713.77064033    -1484.64481689
  entropy T*S    EENTRO =        -0.00000000
  eigenvalues    EBANDS =      -358.06273686
  atomic energy  EATOM  =      1251.19323263
  ---------------------------------------------------
  free energy    TOTEN  =       -80.13412711 eV

  energy without entropy =      -80.13412711  energy(sigma->0) =      -80.13412711
  exchange ACFDT corr.  =        -0.00000000  see jH, gK, PRB 81, 115126


--------------------------------------------------------------------------------------------------------




--------------------------------------- Iteration      2(   4)  ---------------------------------------


    POTLOK:  cpu time    8.2689: real time    8.3048
    SETDIJ:  cpu time    0.9300: real time    0.9363
    TRIAL :  cpu time  640.7602: real time  643.0021
    CORREC:  cpu time    0.0004: real time    0.0004
    CHARGE:  cpu time    1.5603: real time    1.5631
    --------------------------------------------
      LOOP:  cpu time  651.5202: real time  653.8077

 eigenvalue-minimisations  :     0
 total energy-change (2. order) :-0.3500829E-02  (-0.3357982E-02)
 number of electron      48.0000002 magnetization 
 augmentation part       -1.2497530 magnetization 

 Free energy of the ion-electron system (eV)
  ---------------------------------------------------
  alpha Z        PSCENC =        13.10177784
  Ewald energy   TEWEN  =      1360.76246225
  -Hartree energ DENC   =     -2509.08692532
  -exchange      EXHF   =        75.36980005
  -V(xc)+E(xc)   XCENC  =      -142.10079015
  PAW double counting   =      1712.43697629    -1483.30423216
  entropy T*S    EENTRO =        -0.00000000
  eigenvalues    EBANDS =      -358.50992936
  atomic energy  EATOM  =      1251.19323263
  ---------------------------------------------------
  free energy    TOTEN  =       -80.13762793 eV

  energy without entropy =      -80.13762793  energy(sigma->0) =      -80.13762793
  exchange ACFDT corr.  =        -0.00000000  see jH, gK, PRB 81, 115126


--------------------------------------------------------------------------------------------------------




--------------------------------------- Iteration      2(   5)  ---------------------------------------


    POTLOK:  cpu time    8.3024: real time    8.3094
    SETDIJ:  cpu time    0.9423: real time    0.9444
    TRIAL :  cpu time  645.2035: real time  646.2154
    CORREC:  cpu time    0.0004: real time    0.0004
    CHARGE:  cpu time    1.5689: real time    1.5716
    --------------------------------------------
      LOOP:  cpu time  656.0179: real time  657.0424

 eigenvalue-minimisations  :     0
 total energy-change (2. order) :-0.1555618E-02  (-0.8066720E-03)
 number of electron      48.0000002 magnetization 
 augmentation part       -1.2489628 magnetization 

 Free energy of the ion-electron system (eV)
  ---------------------------------------------------
  alpha Z        PSCENC =        13.10177784
  Ewald energy   TEWEN  =      1360.76246225
  -Hartree energ DENC   =     -2508.84509213
  -exchange      EXHF   =        75.35012093
  -V(xc)+E(xc)   XCENC  =      -142.12045168
  PAW double counting   =      1711.66407411    -1482.53048091
  entropy T*S    EENTRO =        -0.00000000
  eigenvalues    EBANDS =      -358.71482660
  atomic energy  EATOM  =      1251.19323263
  ---------------------------------------------------
  free energy    TOTEN  =       -80.13918355 eV

  energy without entropy =      -80.13918355  energy(sigma->0) =      -80.13918355
  exchange ACFDT corr.  =        -0.00000000  see jH, gK, PRB 81, 115126


--------------------------------------------------------------------------------------------------------




--------------------------------------- Iteration      2(   6)  ---------------------------------------


    POTLOK:  cpu time    8.2974: real time    8.3033
    SETDIJ:  cpu time    0.9546: real time    0.9556
    TRIAL :  cpu time  638.7967: real time  641.1431
    CORREC:  cpu time    0.0003: real time    0.0003
    CHARGE:  cpu time    1.5499: real time    1.5567
    --------------------------------------------
      LOOP:  cpu time  649.5995: real time  651.9605

 eigenvalue-minimisations  :     0
 total energy-change (2. order) :-0.2830444E-03  (-0.5051718E-03)
 number of electron      48.0000002 magnetization 
 augmentation part       -1.2488310 magnetization 

 Free energy of the ion-electron system (eV)
  ---------------------------------------------------
  alpha Z        PSCENC =        13.10177784
  Ewald energy   TEWEN  =      1360.76246225
  -Hartree energ DENC   =     -2509.03722042
  -exchange      EXHF   =        75.35671417
  -V(xc)+E(xc)   XCENC  =      -142.11497577
  PAW double counting   =      1711.94834363    -1482.81605089
  entropy T*S    EENTRO =        -0.00000000
  eigenvalues    EBANDS =      -358.53375004
  atomic energy  EATOM  =      1251.19323263
  ---------------------------------------------------
  free energy    TOTEN  =       -80.13946660 eV

  energy without entropy =      -80.13946660  energy(sigma->0) =      -80.13946660
  exchange ACFDT corr.  =        -0.00000000  see jH, gK, PRB 81, 115126


--------------------------------------------------------------------------------------------------------




--------------------------------------- Iteration      2(   7)  ---------------------------------------


    POTLOK:  cpu time    8.2669: real time    8.2977
    SETDIJ:  cpu time    0.9482: real time    0.9524
    TRIAL :  cpu time  641.2530: real time  643.6477
    CORREC:  cpu time    0.0003: real time    0.0003
    CHARGE:  cpu time    1.5520: real time    1.5571
    --------------------------------------------
      LOOP:  cpu time  652.0209: real time  654.4565

 eigenvalue-minimisations  :     0
 total energy-change (2. order) :-0.2982224E-03  (-0.2016902E-03)
 number of electron      48.0000002 magnetization 
 augmentation part       -1.2492263 magnetization 

 Free energy of the ion-electron system (eV)
  ---------------------------------------------------
  alpha Z        PSCENC =        13.10177784
  Ewald energy   TEWEN  =      1360.76246225
  -Hartree energ DENC   =     -2509.18548580
  -exchange      EXHF   =        75.36532069
  -V(xc)+E(xc)   XCENC  =      -142.10694245
  PAW double counting   =      1712.25889355    -1483.12688664
  entropy T*S    EENTRO =        -0.00000000
  eigenvalues    EBANDS =      -358.40213691
  atomic energy  EATOM  =      1251.19323263
  ---------------------------------------------------
  free energy    TOTEN  =       -80.13976482 eV

  energy without entropy =      -80.13976482  energy(sigma->0) =      -80.13976482
  exchange ACFDT corr.  =        -0.00000000  see jH, gK, PRB 81, 115126


--------------------------------------------------------------------------------------------------------




--------------------------------------- Iteration      2(   8)  ---------------------------------------


    POTLOK:  cpu time    8.2721: real time    8.3047
    SETDIJ:  cpu time    0.9471: real time    0.9509
    TRIAL :  cpu time  638.4602: real time  640.9551
    CORREC:  cpu time    0.0004: real time    0.0003
    CHARGE:  cpu time    1.5418: real time    1.5447
    --------------------------------------------
      LOOP:  cpu time  649.2221: real time  651.7572

 eigenvalue-minimisations  :     0
 total energy-change (2. order) :-0.9757721E-04  (-0.8400411E-04)
 number of electron      48.0000002 magnetization 
 augmentation part       -1.2495670 magnetization 

 Free energy of the ion-electron system (eV)
  ---------------------------------------------------
  alpha Z        PSCENC =        13.10177784
  Ewald energy   TEWEN  =      1360.76246225
  -Hartree energ DENC   =     -2509.16628421
  -exchange      EXHF   =        75.36726984
  -V(xc)+E(xc)   XCENC  =      -142.10573348
  PAW double counting   =      1712.25368300    -1483.12135606
  entropy T*S    EENTRO =        -0.00000000
  eigenvalues    EBANDS =      -358.42491422
  atomic energy  EATOM  =      1251.19323263
  ---------------------------------------------------
  free energy    TOTEN  =       -80.13986240 eV

  energy without entropy =      -80.13986240  energy(sigma->0) =      -80.13986240
  exchange ACFDT corr.  =        -0.00000000  see jH, gK, PRB 81, 115126


--------------------------------------------------------------------------------------------------------




--------------------------------------- Iteration      2(   9)  ---------------------------------------


    POTLOK:  cpu time    8.2927: real time    8.2997
    SETDIJ:  cpu time    0.9349: real time    0.9358
    TRIAL :  cpu time  638.8923: real time  641.3651
    CORREC:  cpu time    0.0004: real time    0.0004
    CHARGE:  cpu time    1.5510: real time    1.5566
    --------------------------------------------
      LOOP:  cpu time  649.6719: real time  652.1589

 eigenvalue-minimisations  :     0
 total energy-change (2. order) :-0.4947944E-04  (-0.3237118E-04)
 number of electron      48.0000002 magnetization 
 augmentation part       -1.2496007 magnetization 

 Free energy of the ion-electron system (eV)
  ---------------------------------------------------
  alpha Z        PSCENC =        13.10177784
  Ewald energy   TEWEN  =      1360.76246225
  -Hartree energ DENC   =     -2509.10916091
  -exchange      EXHF   =        75.36619689
  -V(xc)+E(xc)   XCENC  =      -142.10751162
  PAW double counting   =      1712.16328191    -1483.03071619
  entropy T*S    EENTRO =        -0.00000000
  eigenvalues    EBANDS =      -358.47947468
  atomic energy  EATOM  =      1251.19323263
  ---------------------------------------------------
  free energy    TOTEN  =       -80.13991188 eV

  energy without entropy =      -80.13991188  energy(sigma->0) =      -80.13991188
  exchange ACFDT corr.  =        -0.00000000  see jH, gK, PRB 81, 115126


--------------------------------------------------------------------------------------------------------




--------------------------------------- Iteration      2(  10)  ---------------------------------------


    POTLOK:  cpu time    8.2842: real time    8.3183
    SETDIJ:  cpu time    0.9433: real time    0.9500
    TRIAL :  cpu time  628.6292: real time  632.4962
    CORREC:  cpu time    0.0004: real time    0.0004
    CHARGE:  cpu time    1.5528: real time    1.5614
    --------------------------------------------
      LOOP:  cpu time  639.4103: real time  643.3277

 eigenvalue-minimisations  :     0
 total energy-change (2. order) :-0.1640193E-04  (-0.1066595E-04)
 number of electron      48.0000002 magnetization 
 augmentation part       -1.2495166 magnetization 

 Free energy of the ion-electron system (eV)
  ---------------------------------------------------
  alpha Z        PSCENC =        13.10177784
  Ewald energy   TEWEN  =      1360.76246225
  -Hartree energ DENC   =     -2509.11161683
  -exchange      EXHF   =        75.36609872
  -V(xc)+E(xc)   XCENC  =      -142.10779793
  PAW double counting   =      1712.17480456    -1483.04228811
  entropy T*S    EENTRO =        -0.00000000
  eigenvalues    EBANDS =      -358.47660141
  atomic energy  EATOM  =      1251.19323263
  ---------------------------------------------------
  free energy    TOTEN  =       -80.13992828 eV

  energy without entropy =      -80.13992828  energy(sigma->0) =      -80.13992828
  exchange ACFDT corr.  =        -0.00000000  see jH, gK, PRB 81, 115126


--------------------------------------------------------------------------------------------------------




--------------------------------------- Iteration      2(  11)  ---------------------------------------


    POTLOK:  cpu time    8.2897: real time    8.3023
    SETDIJ:  cpu time    0.9550: real time    0.9584
    TRIAL :  cpu time  637.5602: real time  640.9559
    CORREC:  cpu time    0.0004: real time    0.0004
    EDDIAG:  cpu time  629.1743: real time  632.7006
    CHARGE:  cpu time    1.5791: real time    1.5895
    --------------------------------------------
      LOOP:  cpu time 1277.5593: real time 1284.5083

 eigenvalue-minimisations  :     0
 total energy-change (2. order) :-0.5920427E-05  (-0.4729487E-05)
 number of electron      48.0000002 magnetization 
 augmentation part       -1.2494717 magnetization 

 Free energy of the ion-electron system (eV)
  ---------------------------------------------------
  alpha Z        PSCENC =        13.10177784
  Ewald energy   TEWEN  =      1360.76246225
  -Hartree energ DENC   =     -2509.13624460
  -exchange      EXHF   =        75.36656111
  -V(xc)+E(xc)   XCENC  =      -142.10731397
  PAW double counting   =      1712.21690071    -1483.08452474
  entropy T*S    EENTRO =        -0.00000000
  eigenvalues    EBANDS =      -358.45271338
  atomic energy  EATOM  =      1251.19323263
  ---------------------------------------------------
  free energy    TOTEN  =       -80.13993420 eV

  energy without entropy =      -80.13993420  energy(sigma->0) =      -80.13993420
  exchange ACFDT corr.  =        -0.00000000  see jH, gK, PRB 81, 115126


--------------------------------------------------------------------------------------------------------


  average scaling for gradient   0.9320


 average (electrostatic) potential at core
  the test charge radii are     1.0406  0.6991  1.1897  0.5883
  (the norm of the test charge is              1.0000)
       1 -54.8659       2 -54.8504       3 -54.8616       4 -54.8784       5 -54.9059
       6 -54.9442       7 -54.7978       8 -54.8795       9 -51.0078      10 -51.0067
      11 -51.0718      12 -51.1304      13 -93.2322      14 -34.3272      15 -33.7986



 E-fermi :  -2.0416     XC(G=0):  -2.9209     alpha+bet : -2.8557


 k-point     1 :       0.0000    0.0000    0.0000
  band No.  band energies     occupation 
      1     -15.8832      2.00000
      2     -15.2184      2.00000
      3     -15.0621      2.00000
      4     -12.9463      2.00000
      5     -12.8522      2.00000
      6      -9.6181      2.00000
      7      -9.3399      2.00000
      8      -9.2891      2.00000
      9      -8.4357      2.00000
     10      -7.4685      2.00000
     11      -6.9761      2.00000
     12      -6.4088      2.00000
     13      -5.9677      2.00000
     14      -5.5244      2.00000
     15      -5.1674      2.00000
     16      -4.9251      2.00000
     17      -4.4776      2.00000
     18      -4.3619      2.00000
     19      -3.4041      2.00000
     20      -3.1897      2.00000
     21      -3.1621      2.00000
     22      -2.6401      2.00000
     23      -2.3209      2.00000
     24      -2.3108      2.00000
     25      -0.7641      0.00000
     26      -0.2266      0.00000
     27       0.2573      0.00000
     28       0.6120      0.00000
     29       0.7567      0.00000
     30       0.9239      0.00000
     31       1.1022      0.00000
     32       1.3733      0.00000

 k-point     2 :       0.2000    0.0000    0.0000
  band No.  band energies     occupation 
      1     -15.8617      2.00000
      2     -15.0915      2.00000
      3     -14.9372      2.00000
      4     -13.3572      2.00000
      5     -13.2418      2.00000
      6      -9.1414      2.00000
      7      -8.9693      2.00000
      8      -8.7038      2.00000
      9      -8.4513      2.00000
     10      -7.4769      2.00000
     11      -6.8516      2.00000
     12      -6.7747      2.00000
     13      -6.2778      2.00000
     14      -5.4288      2.00000
     15      -5.2239      2.00000
     16      -4.8148      2.00000
     17      -4.4618      2.00000
     18      -3.9605      2.00000
     19      -3.9144      2.00000
     20      -3.8481      2.00000
     21      -3.7050      2.00000
     22      -3.0291      2.00000
     23      -2.7792      2.00000
     24      -2.2828      2.00000
     25      -0.7698      0.00000
     26       0.4515      0.00000
     27       0.7680      0.00000
     28       0.7936      0.00000
     29       1.0292      0.00000
     30       1.0640      0.00000
     31       1.1746      0.00000
     32       1.7414      0.00000

 k-point     3 :       0.4000    0.0000    0.0000
  band No.  band energies     occupation 
      1     -15.8307      2.00000
      2     -14.7084      2.00000
      3     -14.5574      2.00000
      4     -14.0885      2.00000
      5     -13.9490      2.00000
      6      -8.6979      2.00000
      7      -8.4552      2.00000
      8      -7.9188      2.00000
      9      -7.6773      2.00000
     10      -7.3696      2.00000
     11      -7.1394      2.00000
     12      -6.4866      2.00000
     13      -6.1503      2.00000
     14      -5.9510      2.00000
     15      -5.5307      2.00000
     16      -5.2311      2.00000
     17      -5.0407      2.00000
     18      -4.7692      2.00000
     19      -4.4643      2.00000
     20      -4.2211      2.00000
     21      -3.7508      2.00000
     22      -3.4453      2.00000
     23      -2.8034      2.00000
     24      -2.3676      2.00000
     25      -0.4424      0.00000
     26       0.2529      0.00000
     27       0.9144      0.00000
     28       1.3316      0.00000
     29       1.4096      0.00000
     30       1.6298      0.00000
     31       1.8806      0.00000
     32       2.3952      0.00000

 k-point     4 :       0.0000    0.3333    0.0000
  band No.  band energies     occupation 
      1     -15.8821      2.00000
      2     -15.1858      2.00000
      3     -15.1005      2.00000
      4     -12.9348      2.00000
      5     -12.8645      2.00000
      6      -9.5658      2.00000
      7      -9.3978      2.00000
      8      -8.9897      2.00000
      9      -8.4463      2.00000
     10      -8.0535      2.00000
     11      -7.4376      2.00000
     12      -5.7993      2.00000
     13      -5.4532      2.00000
     14      -5.3719      2.00000
     15      -5.0898      2.00000
     16      -5.0412      2.00000
     17      -4.4158      2.00000
     18      -4.1617      2.00000
     19      -3.6803      2.00000
     20      -3.2694      2.00000
     21      -3.1819      2.00000
     22      -3.1656      2.00000
     23      -2.6257      2.00000
     24      -2.3283      2.00000
     25      -0.5560      0.00000
     26       0.1037      0.00000
     27       0.3314      0.00000
     28       0.4535      0.00000
     29       0.7008      0.00000
     30       0.8703      0.00000
     31       1.1323      0.00000
     32       1.3997      0.00000

 k-point     5 :       0.2000    0.3333    0.0000
  band No.  band energies     occupation 
      1     -15.8611      2.00000
      2     -15.0563      2.00000
      3     -14.9774      2.00000
      4     -13.3382      2.00000
      5     -13.2624      2.00000
      6      -8.9402      2.00000
      7      -8.8364      2.00000
      8      -8.7591      2.00000
      9      -8.4433      2.00000
     10      -7.9258      2.00000
     11      -7.4319      2.00000
     12      -6.5282      2.00000
     13      -5.8908      2.00000
     14      -5.2085      2.00000
     15      -4.9553      2.00000
     16      -4.8983      2.00000
     17      -4.3936      2.00000
     18      -3.9459      2.00000
     19      -3.8979      2.00000
     20      -3.6900      2.00000
     21      -3.6407      2.00000
     22      -3.2018      2.00000
     23      -2.9501      2.00000
     24      -2.8063      2.00000
     25      -0.4343      0.00000
     26       0.2206      0.00000
     27       0.6632      0.00000
     28       0.7907      0.00000
     29       0.8787      0.00000
     30       1.1077      0.00000
     31       1.2960      0.00000
     32       1.5847      0.00000

 k-point     6 :       0.4000    0.3333    0.0000
  band No.  band energies     occupation 
      1     -15.8305      2.00000
      2     -14.6736      2.00000
      3     -14.5961      2.00000
      4     -14.0598      2.00000
      5     -13.9806      2.00000
      6      -8.5672      2.00000
      7      -8.2880      2.00000
      8      -7.8684      2.00000
      9      -7.5583      2.00000
     10      -7.4777      2.00000
     11      -7.3190      2.00000
     12      -7.1078      2.00000
     13      -6.6392      2.00000
     14      -5.6569      2.00000
     15      -5.5591      2.00000
     16      -4.9791      2.00000
     17      -4.5113      2.00000
     18      -4.4624      2.00000
     19      -4.2667      2.00000
     20      -3.9938      2.00000
     21      -3.7549      2.00000
     22      -3.4611      2.00000
     23      -3.0971      2.00000
     24      -3.0016      2.00000
     25      -0.1020      0.00000
     26       0.3602      0.00000
     27       0.7590      0.00000
     28       1.0799      0.00000
     29       1.1968      0.00000
     30       1.6759      0.00000
     31       1.7851      0.00000
     32       2.1471      0.00000

 k-point     7 :      -0.4000    0.3333    0.0000
  band No.  band energies     occupation 
      1     -15.8305      2.00000
      2     -14.6734      2.00000
      3     -14.5963      2.00000
      4     -14.0597      2.00000
      5     -13.9806      2.00000
      6      -8.5649      2.00000
      7      -8.3039      2.00000
      8      -7.8329      2.00000
      9      -7.5738      2.00000
     10      -7.4761      2.00000
     11      -7.3281      2.00000
     12      -7.1067      2.00000
     13      -6.6393      2.00000
     14      -5.6696      2.00000
     15      -5.5553      2.00000
     16      -4.9657      2.00000
     17      -4.5317      2.00000
     18      -4.4619      2.00000
     19      -4.2465      2.00000
     20      -3.9877      2.00000
     21      -3.7409      2.00000
     22      -3.4961      2.00000
     23      -3.0899      2.00000
     24      -2.9969      2.00000
     25      -0.1324      0.00000
     26       0.4759      0.00000
     27       0.7273      0.00000
     28       0.9172      0.00000
     29       1.3030      0.00000
     30       1.6280      0.00000
     31       1.8338      0.00000
     32       1.8974      0.00000

 k-point     8 :      -0.2000    0.3333    0.0000
  band No.  band energies     occupation 
      1     -15.8611      2.00000
      2     -15.0562      2.00000
      3     -14.9775      2.00000
      4     -13.3381      2.00000
      5     -13.2625      2.00000
      6      -8.9433      2.00000
      7      -8.8341      2.00000
      8      -8.7583      2.00000
      9      -8.4484      2.00000
     10      -7.9128      2.00000
     11      -7.4380      2.00000
     12      -6.5242      2.00000
     13      -5.9073      2.00000
     14      -5.1997      2.00000
     15      -4.9714      2.00000
     16      -4.9003      2.00000
     17      -4.3634      2.00000
     18      -3.9397      2.00000
     19      -3.8992      2.00000
     20      -3.7054      2.00000
     21      -3.6269      2.00000
     22      -3.2297      2.00000
     23      -2.9171      2.00000
     24      -2.8200      2.00000
     25      -0.4634      0.00000
     26       0.2927      0.00000
     27       0.5638      0.00000
     28       0.7943      0.00000
     29       0.9385      0.00000
     30       1.2000      0.00000
     31       1.3284      0.00000
     32       1.6126      0.00000


--------------------------------------------------------------------------------------------------------


 soft charge-density along one line, spin component           1
         0         1         2         3         4         5         6         7         8         9
 total charge-density along one line

 pseudopotential strength for first ion, spin component:           1
  7.181 -16.881  -0.005  -0.002   0.000   0.027   0.009  -0.000
-16.881  49.268   0.012   0.004  -0.000  -0.057  -0.020   0.000
 -0.005   0.012   1.704  -0.000   0.000  -6.724   0.001  -0.000
 -0.002   0.004  -0.000   1.709  -0.000   0.001  -6.747   0.000
  0.000  -0.000   0.000  -0.000   1.704  -0.000   0.000  -6.726
  0.027  -0.057  -6.724   0.001  -0.000  28.448  -0.006   0.000
  0.009  -0.020   0.001  -6.747   0.000  -0.006  28.537  -0.001
 -0.000   0.000  -0.000   0.000  -6.726   0.000  -0.001  28.454
  0.000  -0.000  -0.000  -0.000  -0.005   0.000   0.000   0.012
 -0.001   0.001  -0.001  -0.004  -0.000   0.003   0.010   0.000
  0.011  -0.012   0.002  -0.002  -0.000  -0.005   0.004   0.000
 -0.000   0.000  -0.000   0.000  -0.001   0.000  -0.000   0.003
  0.001  -0.001   0.003  -0.000   0.000  -0.007   0.000  -0.000
 -0.000   0.000   0.000   0.000   0.017  -0.000  -0.000  -0.059
  0.005  -0.008   0.005   0.016   0.000  -0.016  -0.055  -0.000
 -0.041   0.072  -0.007   0.007   0.000   0.025  -0.024  -0.000
  0.001  -0.001   0.000  -0.000   0.006  -0.000   0.000  -0.019
 -0.002   0.004  -0.012   0.000  -0.000   0.041  -0.001   0.000
 total augmentation occupancy for first ion, spin component:           1
  1.390   0.033   0.006   0.014   0.000   0.005   0.001  -0.000  -0.000   0.016  -0.103   0.001  -0.022  -0.000   0.001  -0.005
  0.033   0.001   0.008   0.002  -0.000   0.000   0.000  -0.000  -0.000   0.001  -0.003   0.000  -0.000  -0.000   0.000  -0.000
  0.006   0.008   1.331   0.071  -0.001   0.027   0.002  -0.000   0.000   0.023  -0.074   0.002   0.067   0.000   0.001  -0.003
  0.014   0.002   0.071   0.407   0.006   0.002   0.007   0.000   0.002   0.062   0.008   0.000   0.006   0.000   0.002   0.000
  0.000  -0.000  -0.001   0.006   1.199  -0.000   0.000   0.026   0.247   0.002   0.000   0.036  -0.001   0.008   0.000   0.000
  0.005   0.000   0.027   0.002  -0.000   0.001   0.000  -0.000   0.000   0.001  -0.002   0.000   0.001  -0.000   0.000  -0.000
  0.001   0.000   0.002   0.007   0.000   0.000   0.000   0.000   0.000   0.001   0.000   0.000   0.000   0.000   0.000  -0.000
 -0.000  -0.000  -0.000   0.000   0.026  -0.000   0.000   0.001   0.005   0.000   0.000   0.001  -0.000   0.000   0.000   0.000
 -0.000  -0.000   0.000   0.002   0.247   0.000   0.000   0.005   0.070   0.000   0.000   0.008  -0.000   0.002   0.000   0.000
  0.016   0.001   0.023   0.062   0.002   0.001   0.001   0.000   0.000   0.011  -0.000   0.000  -0.002   0.000   0.000  -0.000
 -0.103  -0.003  -0.074   0.008   0.000  -0.002   0.000   0.000   0.000  -0.000   0.014   0.000  -0.004   0.000  -0.000   0.001
  0.001   0.000   0.002   0.000   0.036   0.000   0.000   0.001   0.008   0.000   0.000   0.022   0.000   0.000   0.000  -0.000
 -0.022  -0.000   0.067   0.006  -0.001   0.001   0.000  -0.000  -0.000  -0.002  -0.004   0.000   0.045  -0.000  -0.000  -0.000
 -0.000  -0.000   0.000   0.000   0.008  -0.000   0.000   0.000   0.002   0.000   0.000   0.000  -0.000   0.000   0.000   0.000
  0.001   0.000   0.001   0.002   0.000   0.000   0.000   0.000   0.000   0.000  -0.000   0.000  -0.000   0.000   0.000  -0.000
 -0.005  -0.000  -0.003   0.000   0.000  -0.000  -0.000   0.000   0.000  -0.000   0.001  -0.000  -0.000   0.000  -0.000   0.000
  0.000   0.000   0.000   0.000   0.001   0.000   0.000   0.000   0.000   0.000  -0.000   0.001   0.000   0.000   0.000  -0.000
 -0.001  -0.000   0.001   0.000  -0.000   0.000   0.000  -0.000  -0.000  -0.000  -0.000   0.000   0.001  -0.000  -0.000  -0.000


------------------------ aborting loop because EDIFF is reached ----------------------------------------


    FORLOC:  cpu time    0.2213: real time    0.2216
    FORHF :  cpu time 1067.9251: real time 1073.0045
    FORNL :  cpu time    6.4115: real time    6.4372
    STRESS:  cpu time   19.3311: real time   19.4065
    FORCOR:  cpu time    8.2480: real time    8.2629
    OFIELD:  cpu time    0.0092: real time    0.0094

  FORCE on cell =-STRESS in cart. coord.  units (eV):
  Direction    XX          YY          ZZ          XY          YZ          ZX
  --------------------------------------------------------------------------------------
  Alpha Z    13.10178    13.10178    13.10178
  Ewald    2356.23784  1926.16983 -2921.64671    -7.58518   -43.10524    -7.24522
  Hartree  2377.14252  2080.79085 -1948.78828    -0.08693   -21.04474    -2.66773
  E(xc)    -120.10007  -120.68851  -118.25281     0.04047    -0.03556    -0.07772
  Local   -5225.67037 -4508.90002  4392.16837     4.86128    59.24144     6.08773
  n-local   224.62600   235.96941   190.90105    -0.57071     0.58922     1.74118
  augment   -29.51251   -31.20496   -27.60356    -0.34925    -0.89324    -0.80158
  Kinetic   435.19540   430.91351   450.41489     3.72083     5.08155     2.78397
  Fock      -31.69263   -31.29095   -30.97314     0.05961     0.16632     0.15476
  -------------------------------------------------------------------------------------
  Total      -0.67206    -5.13905    -0.67839     0.09013    -0.00026    -0.02462
  in kB      -1.17612    -8.99343    -1.18720     0.15772    -0.00046    -0.04309
  external pressure =       -3.79 kB  Pullay stress =        0.00 kB


 VOLUME and BASIS-vectors are now :
 -----------------------------------------------------------------------------
  energy-cutoff  :      450.00
  volume of cell :      915.52
      direct lattice vectors                 reciprocal lattice vectors
     6.019200000  0.000000000  0.000000000     0.166135035  0.000000000  0.000000000
     0.000000000 10.140000000  0.000000000     0.000000000  0.098619329  0.000000000
     0.000000000  0.000000000 15.000000000     0.000000000  0.000000000  0.066666667

  length of vectors
     6.019200000 10.140000000 15.000000000     0.166135035  0.098619329  0.066666667


 FORCES acting on ions:
    Electron-Ion                     Ewald-Force                    Non-Local-Force
 -----------------------------------------------------------------------------------------------
   0.188E+00 0.488E+02 0.374E+02   -.191E+00 -.460E+02 -.364E+02   0.618E-03 -.315E+01 -.101E+01
   -.377E+00 0.484E+02 -.790E+01   0.391E+00 -.456E+02 0.716E+01   -.130E-01 -.313E+01 0.797E+00
   0.960E+00 -.573E+02 0.512E+02   -.107E+01 0.547E+02 -.499E+02   0.125E+00 0.296E+01 -.144E+01
   -.248E+01 -.600E+02 -.345E+01   0.247E+01 0.573E+02 0.258E+01   0.483E-02 0.299E+01 0.908E+00
   0.518E+01 0.536E+02 0.121E+01   -.528E+01 -.515E+02 -.307E+01   0.117E+00 -.234E+01 0.196E+01
   -.157E+01 0.521E+02 0.493E+02   0.179E+01 -.495E+02 -.482E+02   -.240E+00 -.296E+01 -.111E+01
   0.976E+00 -.409E+02 -.318E+01   -.988E+00 0.386E+02 0.255E+01   0.131E-01 0.268E+01 0.696E+00
   -.602E+00 -.448E+02 0.384E+02   0.595E+00 0.419E+02 -.375E+02   0.705E-02 0.328E+01 -.942E+00
   0.694E-01 0.400E+01 0.225E+02   0.579E-02 -.398E+01 -.227E+02   -.707E-01 -.191E-01 0.194E+00
   -.596E-01 0.437E+01 0.193E+02   -.170E-01 -.433E+01 -.193E+02   0.724E-01 -.362E-01 0.230E-01
   0.253E+01 -.551E+01 0.333E+02   -.242E+01 0.558E+01 -.336E+02   -.892E-01 -.725E-01 0.274E+00
   -.334E+01 -.796E+01 0.335E+02   0.318E+01 0.807E+01 -.336E+02   0.152E+00 -.119E+00 0.510E-02
   0.148E+02 -.198E+02 -.193E+03   -.191E+02 0.259E+02 0.189E+03   0.433E+01 -.622E+01 0.366E+01
   -.246E+02 0.138E+02 -.317E+02   0.272E+02 -.150E+02 0.315E+02   -.253E+01 0.119E+01 0.986E-01
   0.613E+01 0.147E+02 -.491E+02   -.661E+01 -.160E+02 0.513E+02   0.479E+00 0.132E+01 -.215E+01
 -----------------------------------------------------------------------------------------------
   -.234E+01 0.368E+01 -.197E+01   0.000E+00 -.888E-14 0.568E-13   0.235E+01 -.365E+01 0.197E+01


 POSITION                                       TOTAL-FORCE (eV/Angst)
 -----------------------------------------------------------------------------------
      2.60270      8.89825      3.53480        -0.002107     -0.057310      0.021431
      5.61073      8.90332      3.93350         0.000883     -0.073099     -0.008051
      2.60512      6.25147      3.58087         0.004228      0.039859      0.032428
      5.61967      6.27541      4.04893        -0.004215      0.057542     -0.026797
      2.59118      3.81705      4.16300         0.007922     -0.024736     -0.044745
      5.61373      3.83704      3.63129        -0.007587     -0.045389      0.002436
      2.59758      1.19626      3.94277         0.000141      0.059670      0.001477
      5.60891      1.19587      3.55981         0.000053      0.065298      0.017310
      1.09587     10.11547      3.71640         0.002604      0.002405      0.009769
      4.10458     10.11740      3.74135        -0.002660     -0.000874     -0.005540
      1.09942      5.05028      3.83935         0.010465     -0.007090      0.018288
      4.10824      5.05568      3.91366         0.001128     -0.015092     -0.024018
      3.36651      4.43841      6.99171        -0.053390      0.020989      0.036651
      4.86438      3.73254      6.93579         0.042005     -0.025457     -0.012292
      3.04998      3.57295      8.40777         0.000530      0.003283     -0.018349
 -----------------------------------------------------------------------------------
    total drift:                                0.002692      0.009027     -0.005147


--------------------------------------------------------------------------------------------------------



  FREE ENERGIE OF THE ION-ELECTRON SYSTEM (eV)
  ---------------------------------------------------
  free  energy   TOTEN  =       -80.13993420 eV

  energy  without entropy=      -80.13993420  energy(sigma->0) =      -80.13993420

 d Force = 0.1519614E-01[-0.412E-02, 0.345E-01]  d Energy = 0.1550009E-01-0.304E-03
 d Force =-0.3404409E+01[-0.345E+01,-0.336E+01]  d Ewald  =-0.3404354E+01-0.546E-04


--------------------------------------------------------------------------------------------------------


    POTLOK:  cpu time    9.2194: real time    9.2362


--------------------------------------------------------------------------------------------------------


 stress matrix after NEB project (eV)
     -0.67206      0.09013     -0.02462
      0.09013     -5.13905     -0.00026
     -0.02462     -0.00026     -0.67839
  FORCES: max atom, RMS     0.073546    0.050187
  FORCE total and by dimension    0.194374    0.073099
  Stress total and by dimension    5.228684    5.139046
 Steepest descent step on ions:
 trial-energy change:   -0.015500  1 .order   -0.015196   -0.034515    0.004123
  (g-gl).g = 0.345E-01      g.g   = 0.345E-01  gl.gl    = 0.000E+00
 g(Force)  = 0.345E-01   g(Stress)= 0.000E+00 ortho     = 0.000E+00
 gamma     =   0.00000
 trial     =   1.00000
 opt step  =   0.89763  (harmonic =   0.89329) maximal distance =0.00844715
 next E    =   -80.140145   (d E  =  -0.01571)


--------------------------------------------------------------------------------------------------------


    WAVPRE:  cpu time    0.5143: real time    1.2884
    FEWALD:  cpu time    0.0024: real time    0.0024
    ORTHCH:  cpu time    2.5384: real time    2.5556
    CHARGE:  cpu time    1.5709: real time    1.5800
     LOOP+:  cpu time 8922.5255: real time 8959.7680


--------------------------------------- Iteration      3(   1)  ---------------------------------------


    POTLOK:  cpu time    8.2631: real time    8.3008
    SETDIJ:  cpu time    0.9147: real time    0.9192
    TRIAL :  cpu time  639.4817: real time  641.9385
    CORREC:  cpu time    0.0004: real time    0.0004
    CHARGE:  cpu time    1.5741: real time    1.5781
    --------------------------------------------
      LOOP:  cpu time  650.2978: real time  652.8013

 eigenvalue-minimisations  :     0
 total energy-change (2. order) : 0.4585192E-03  (-0.1140573E-02)
 number of electron      48.0000002 magnetization 
 augmentation part       -1.2496853 magnetization 

 Free energy of the ion-electron system (eV)
  ---------------------------------------------------
  alpha Z        PSCENC =        13.10177784
  Ewald energy   TEWEN  =      1360.40957539
  -Hartree energ DENC   =     -2509.13602761
  -exchange      EXHF   =        75.36589820
  -V(xc)+E(xc)   XCENC  =      -142.10761809
  PAW double counting   =      1711.41056527    -1482.27675344
  entropy T*S    EENTRO =        -0.00000000
  eigenvalues    EBANDS =      -358.10011995
  atomic energy  EATOM  =      1251.19323263
  ---------------------------------------------------
  free energy    TOTEN  =       -80.13946976 eV

  energy without entropy =      -80.13946976  energy(sigma->0) =      -80.13946976
  exchange ACFDT corr.  =        -0.00000000  see jH, gK, PRB 81, 115126


--------------------------------------------------------------------------------------------------------




--------------------------------------- Iteration      3(   2)  ---------------------------------------


    POTLOK:  cpu time    8.2925: real time    8.3197
    SETDIJ:  cpu time    0.9434: real time    0.9449
    TRIAL :  cpu time  630.9378: real time  634.4341
    CORREC:  cpu time    0.0005: real time    0.0005
    CHARGE:  cpu time    1.5562: real time    1.5715
    --------------------------------------------
      LOOP:  cpu time  641.7309: real time  645.2720

 eigenvalue-minimisations  :     0
 total energy-change (2. order) :-0.4753171E-03  (-0.2888636E-03)
 number of electron      48.0000002 magnetization 
 augmentation part       -1.2495754 magnetization 

 Free energy of the ion-electron system (eV)
  ---------------------------------------------------
  alpha Z        PSCENC =        13.10177784
  Ewald energy   TEWEN  =      1360.40957539
  -Hartree energ DENC   =     -2508.84381058
  -exchange      EXHF   =        75.34812691
  -V(xc)+E(xc)   XCENC  =      -142.12147873
  PAW double counting   =      1710.86382084    -1481.72753409
  entropy T*S    EENTRO =        -0.00000000
  eigenvalues    EBANDS =      -358.36365529
  atomic energy  EATOM  =      1251.19323263
  ---------------------------------------------------
  free energy    TOTEN  =       -80.13994508 eV

  energy without entropy =      -80.13994508  energy(sigma->0) =      -80.13994508
  exchange ACFDT corr.  =        -0.00000000  see jH, gK, PRB 81, 115126


--------------------------------------------------------------------------------------------------------




--------------------------------------- Iteration      3(   3)  ---------------------------------------


    POTLOK:  cpu time    8.2918: real time    8.3178
    SETDIJ:  cpu time    0.9339: real time    0.9373
    TRIAL :  cpu time  638.4199: real time  641.9012
    CORREC:  cpu time    0.0005: real time    0.0005
    CHARGE:  cpu time    1.5781: real time    1.5875
    --------------------------------------------
      LOOP:  cpu time  649.2247: real time  652.7456

 eigenvalue-minimisations  :     0
 total energy-change (2. order) :-0.1274944E-03  (-0.6932746E-04)
 number of electron      48.0000002 magnetization 
 augmentation part       -1.2495032 magnetization 

 Free energy of the ion-electron system (eV)
  ---------------------------------------------------
  alpha Z        PSCENC =        13.10177784
  Ewald energy   TEWEN  =      1360.40957539
  -Hartree energ DENC   =     -2508.78430926
  -exchange      EXHF   =        75.34501949
  -V(xc)+E(xc)   XCENC  =      -142.12450369
  PAW double counting   =      1710.78163474    -1481.64574069
  entropy T*S    EENTRO =        -0.00000000
  eigenvalues    EBANDS =      -358.41675902
  atomic energy  EATOM  =      1251.19323263
  ---------------------------------------------------
  free energy    TOTEN  =       -80.14007257 eV

  energy without entropy =      -80.14007257  energy(sigma->0) =      -80.14007257
  exchange ACFDT corr.  =        -0.00000000  see jH, gK, PRB 81, 115126


--------------------------------------------------------------------------------------------------------




--------------------------------------- Iteration      3(   4)  ---------------------------------------


    POTLOK:  cpu time    8.2902: real time    8.3155
    SETDIJ:  cpu time    0.9372: real time    0.9404
    TRIAL :  cpu time  638.8281: real time  642.5818
    CORREC:  cpu time    0.0004: real time    0.0004
    CHARGE:  cpu time    1.5561: real time    1.5685
    --------------------------------------------
      LOOP:  cpu time  649.6125: real time  653.4079

 eigenvalue-minimisations  :     0
 total energy-change (2. order) :-0.3028382E-04  (-0.4713621E-04)
 number of electron      48.0000002 magnetization 
 augmentation part       -1.2495601 magnetization 

 Free energy of the ion-electron system (eV)
  ---------------------------------------------------
  alpha Z        PSCENC =        13.10177784
  Ewald energy   TEWEN  =      1360.40957539
  -Hartree energ DENC   =     -2508.84932219
  -exchange      EXHF   =        75.34926035
  -V(xc)+E(xc)   XCENC  =      -142.12065851
  PAW double counting   =      1710.96548516    -1481.83018013
  entropy T*S    EENTRO =        -0.00000000
  eigenvalues    EBANDS =      -358.35927339
  atomic energy  EATOM  =      1251.19323263
  ---------------------------------------------------
  free energy    TOTEN  =       -80.14010285 eV

  energy without entropy =      -80.14010285  energy(sigma->0) =      -80.14010285
  exchange ACFDT corr.  =        -0.00000000  see jH, gK, PRB 81, 115126


--------------------------------------------------------------------------------------------------------




--------------------------------------- Iteration      3(   5)  ---------------------------------------


    POTLOK:  cpu time    8.2697: real time    8.3127
    SETDIJ:  cpu time    0.9387: real time    0.9434
    TRIAL :  cpu time  637.2649: real time  640.5836
    CORREC:  cpu time    0.0005: real time    0.0005
    CHARGE:  cpu time    1.5890: real time    1.5976
    --------------------------------------------
      LOOP:  cpu time  648.0632: real time  651.4391

 eigenvalue-minimisations  :     0
 total energy-change (2. order) :-0.1910708E-04  (-0.8920428E-05)
 number of electron      48.0000002 magnetization 
 augmentation part       -1.2496506 magnetization 

 Free energy of the ion-electron system (eV)
  ---------------------------------------------------
  alpha Z        PSCENC =        13.10177784
  Ewald energy   TEWEN  =      1360.40957539
  -Hartree energ DENC   =     -2508.87962860
  -exchange      EXHF   =        75.35147996
  -V(xc)+E(xc)   XCENC  =      -142.11838383
  PAW double counting   =      1711.05326033    -1481.91796945
  entropy T*S    EENTRO =        -0.00000000
  eigenvalues    EBANDS =      -358.33346623
  atomic energy  EATOM  =      1251.19323263
  ---------------------------------------------------
  free energy    TOTEN  =       -80.14012196 eV

  energy without entropy =      -80.14012196  energy(sigma->0) =      -80.14012196
  exchange ACFDT corr.  =        -0.00000000  see jH, gK, PRB 81, 115126


--------------------------------------------------------------------------------------------------------




--------------------------------------- Iteration      3(   6)  ---------------------------------------


    POTLOK:  cpu time    8.2899: real time    8.3151
    SETDIJ:  cpu time    0.9388: real time    0.9445
    TRIAL :  cpu time  635.9325: real time  638.9535
    CORREC:  cpu time    0.0005: real time    0.0005
    EDDIAG:  cpu time  630.8013: real time  632.7612
    CHARGE:  cpu time    1.5735: real time    1.5777
    --------------------------------------------
      LOOP:  cpu time 1277.5370: real time 1282.5542

 eigenvalue-minimisations  :     0
 total energy-change (2. order) :-0.4472467E-05  (-0.7537258E-05)
 number of electron      48.0000002 magnetization 
 augmentation part       -1.2496644 magnetization 

 Free energy of the ion-electron system (eV)
  ---------------------------------------------------
  alpha Z        PSCENC =        13.10177784
  Ewald energy   TEWEN  =      1360.40957539
  -Hartree energ DENC   =     -2508.86188542
  -exchange      EXHF   =        75.35002472
  -V(xc)+E(xc)   XCENC  =      -142.11903730
  PAW double counting   =      1711.00913402    -1481.87378772
  entropy T*S    EENTRO =        -0.00000000
  eigenvalues    EBANDS =      -358.35003572
  atomic energy  EATOM  =      1251.19323263
  ---------------------------------------------------
  free energy    TOTEN  =       -80.14012643 eV

  energy without entropy =      -80.14012643  energy(sigma->0) =      -80.14012643
  exchange ACFDT corr.  =        -0.00000000  see jH, gK, PRB 81, 115126


--------------------------------------------------------------------------------------------------------


  average scaling for gradient   0.9438


 average (electrostatic) potential at core
  the test charge radii are     1.0406  0.6991  1.1897  0.5883
  (the norm of the test charge is              1.0000)
       1 -54.8672       2 -54.8516       3 -54.8637       4 -54.8801       5 -54.9078
       6 -54.9461       7 -54.7992       8 -54.8810       9 -51.0077      10 -51.0066
      11 -51.0719      12 -51.1305      13 -93.2345      14 -34.3143      15 -33.7839



 E-fermi :  -2.0434     XC(G=0):  -2.9212     alpha+bet : -2.8557


 k-point     1 :       0.0000    0.0000    0.0000
  band No.  band energies     occupation 
      1     -15.8756      2.00000
      2     -15.2132      2.00000
      3     -15.0565      2.00000
      4     -12.9419      2.00000
      5     -12.8473      2.00000
      6      -9.6128      2.00000
      7      -9.3349      2.00000
      8      -9.2914      2.00000
      9      -8.4228      2.00000
     10      -7.4671      2.00000
     11      -6.9758      2.00000
     12      -6.4164      2.00000
     13      -5.9685      2.00000
     14      -5.5257      2.00000
     15      -5.1660      2.00000
     16      -4.9226      2.00000
     17      -4.4769      2.00000
     18      -4.3663      2.00000
     19      -3.4105      2.00000
     20      -3.1821      2.00000
     21      -3.1539      2.00000
     22      -2.6380      2.00000
     23      -2.3230      2.00000
     24      -2.3089      2.00000
     25      -0.7685      0.00000
     26      -0.2340      0.00000
     27       0.2549      0.00000
     28       0.6078      0.00000
     29       0.7538      0.00000
     30       0.9232      0.00000
     31       1.0930      0.00000
     32       1.3670      0.00000

 k-point     2 :       0.2000    0.0000    0.0000
  band No.  band energies     occupation 
      1     -15.8539      2.00000
      2     -15.0864      2.00000
      3     -14.9317      2.00000
      4     -13.3527      2.00000
      5     -13.2368      2.00000
      6      -9.1452      2.00000
      7      -8.9644      2.00000
      8      -8.6971      2.00000
      9      -8.4387      2.00000
     10      -7.4755      2.00000
     11      -6.8512      2.00000
     12      -6.7777      2.00000
     13      -6.2853      2.00000
     14      -5.4278      2.00000
     15      -5.2229      2.00000
     16      -4.8126      2.00000
     17      -4.4605      2.00000
     18      -3.9583      2.00000
     19      -3.9068      2.00000
     20      -3.8486      2.00000
     21      -3.7096      2.00000
     22      -3.0269      2.00000
     23      -2.7758      2.00000
     24      -2.2863      2.00000
     25      -0.7746      0.00000
     26       0.4455      0.00000
     27       0.7616      0.00000
     28       0.7904      0.00000
     29       1.0279      0.00000
     30       1.0619      0.00000
     31       1.1682      0.00000
     32       1.7077      0.00000

 k-point     3 :       0.4000    0.0000    0.0000
  band No.  band energies     occupation 
      1     -15.8225      2.00000
      2     -14.7035      2.00000
      3     -14.5521      2.00000
      4     -14.0838      2.00000
      5     -13.9438      2.00000
      6      -8.6981      2.00000
      7      -8.4466      2.00000
      8      -7.9204      2.00000
      9      -7.6769      2.00000
     10      -7.3646      2.00000
     11      -7.1341      2.00000
     12      -6.4860      2.00000
     13      -6.1532      2.00000
     14      -5.9503      2.00000
     15      -5.5236      2.00000
     16      -5.2287      2.00000
     17      -5.0434      2.00000
     18      -4.7716      2.00000
     19      -4.4628      2.00000
     20      -4.2178      2.00000
     21      -3.7479      2.00000
     22      -3.4422      2.00000
     23      -2.8074      2.00000
     24      -2.3712      2.00000
     25      -0.4474      0.00000
     26       0.2479      0.00000
     27       0.9076      0.00000
     28       1.3225      0.00000
     29       1.4056      0.00000
     30       1.6216      0.00000
     31       1.8221      0.00000
     32       2.3096      0.00000

 k-point     4 :       0.0000    0.3333    0.0000
  band No.  band energies     occupation 
      1     -15.8745      2.00000
      2     -15.1806      2.00000
      3     -15.0948      2.00000
      4     -12.9304      2.00000
      5     -12.8596      2.00000
      6      -9.5603      2.00000
      7      -9.3913      2.00000
      8      -8.9931      2.00000
      9      -8.4351      2.00000
     10      -8.0554      2.00000
     11      -7.4364      2.00000
     12      -5.7997      2.00000
     13      -5.4537      2.00000
     14      -5.3716      2.00000
     15      -5.0894      2.00000
     16      -5.0430      2.00000
     17      -4.4150      2.00000
     18      -4.1670      2.00000
     19      -3.6866      2.00000
     20      -3.2722      2.00000
     21      -3.1749      2.00000
     22      -3.1574      2.00000
     23      -2.6236      2.00000
     24      -2.3247      2.00000
     25      -0.5601      0.00000
     26       0.0996      0.00000
     27       0.3250      0.00000
     28       0.4518      0.00000
     29       0.6962      0.00000
     30       0.8673      0.00000
     31       1.1254      0.00000
     32       1.3929      0.00000

 k-point     5 :       0.2000    0.3333    0.0000
  band No.  band energies     occupation 
      1     -15.8532      2.00000
      2     -15.0512      2.00000
      3     -14.9720      2.00000
      4     -13.3337      2.00000
      5     -13.2574      2.00000
      6      -8.9356      2.00000
      7      -8.8379      2.00000
      8      -8.7532      2.00000
      9      -8.4322      2.00000
     10      -7.9283      2.00000
     11      -7.4308      2.00000
     12      -6.5308      2.00000
     13      -5.8918      2.00000
     14      -5.2083      2.00000
     15      -4.9574      2.00000
     16      -4.8961      2.00000
     17      -4.3923      2.00000
     18      -3.9391      2.00000
     19      -3.8907      2.00000
     20      -3.6946      2.00000
     21      -3.6453      2.00000
     22      -3.2044      2.00000
     23      -2.9482      2.00000
     24      -2.8030      2.00000
     25      -0.4385      0.00000
     26       0.2161      0.00000
     27       0.6559      0.00000
     28       0.7849      0.00000
     29       0.8746      0.00000
     30       1.1039      0.00000
     31       1.2899      0.00000
     32       1.5622      0.00000

 k-point     6 :       0.4000    0.3333    0.0000
  band No.  band energies     occupation 
      1     -15.8222      2.00000
      2     -14.6687      2.00000
      3     -14.5910      2.00000
      4     -14.0550      2.00000
      5     -13.9755      2.00000
      6      -8.5577      2.00000
      7      -8.2886      2.00000
      8      -7.8681      2.00000
      9      -7.5592      2.00000
     10      -7.4783      2.00000
     11      -7.3170      2.00000
     12      -7.1035      2.00000
     13      -6.6398      2.00000
     14      -5.6513      2.00000
     15      -5.5522      2.00000
     16      -4.9788      2.00000
     17      -4.5098      2.00000
     18      -4.4628      2.00000
     19      -4.2656      2.00000
     20      -3.9964      2.00000
     21      -3.7522      2.00000
     22      -3.4590      2.00000
     23      -3.1007      2.00000
     24      -3.0047      2.00000
     25      -0.1064      0.00000
     26       0.3548      0.00000
     27       0.7549      0.00000
     28       1.0753      0.00000
     29       1.1913      0.00000
     30       1.6621      0.00000
     31       1.7803      0.00000
     32       2.0401      0.00000

 k-point     7 :      -0.4000    0.3333    0.0000
  band No.  band energies     occupation 
      1     -15.8222      2.00000
      2     -14.6685      2.00000
      3     -14.5911      2.00000
      4     -14.0550      2.00000
      5     -13.9756      2.00000
      6      -8.5553      2.00000
      7      -8.3047      2.00000
      8      -7.8322      2.00000
      9      -7.5745      2.00000
     10      -7.4781      2.00000
     11      -7.3252      2.00000
     12      -7.1027      2.00000
     13      -6.6398      2.00000
     14      -5.6643      2.00000
     15      -5.5483      2.00000
     16      -4.9652      2.00000
     17      -4.5302      2.00000
     18      -4.4618      2.00000
     19      -4.2460      2.00000
     20      -3.9903      2.00000
     21      -3.7381      2.00000
     22      -3.4941      2.00000
     23      -3.0933      2.00000
     24      -3.0000      2.00000
     25      -0.1371      0.00000
     26       0.4714      0.00000
     27       0.7233      0.00000
     28       0.9102      0.00000
     29       1.2967      0.00000
     30       1.6144      0.00000
     31       1.8247      0.00000
     32       1.8928      0.00000

 k-point     8 :      -0.2000    0.3333    0.0000
  band No.  band energies     occupation 
      1     -15.8532      2.00000
      2     -15.0511      2.00000
      3     -14.9721      2.00000
      4     -13.3336      2.00000
      5     -13.2575      2.00000
      6      -8.9388      2.00000
      7      -8.8357      2.00000
      8      -8.7522      2.00000
      9      -8.4374      2.00000
     10      -7.9153      2.00000
     11      -7.4369      2.00000
     12      -6.5267      2.00000
     13      -5.9084      2.00000
     14      -5.1997      2.00000
     15      -4.9729      2.00000
     16      -4.8984      2.00000
     17      -4.3620      2.00000
     18      -3.9329      2.00000
     19      -3.8921      2.00000
     20      -3.7103      2.00000
     21      -3.6311      2.00000
     22      -3.2320      2.00000
     23      -2.9155      2.00000
     24      -2.8167      2.00000
     25      -0.4677      0.00000
     26       0.2887      0.00000
     27       0.5570      0.00000
     28       0.7904      0.00000
     29       0.9277      0.00000
     30       1.1956      0.00000
     31       1.3141      0.00000
     32       1.6064      0.00000


--------------------------------------------------------------------------------------------------------


 soft charge-density along one line, spin component           1
         0         1         2         3         4         5         6         7         8         9
 total charge-density along one line

 pseudopotential strength for first ion, spin component:           1
  7.181 -16.881  -0.005  -0.002   0.000   0.027   0.009  -0.000
-16.881  49.268   0.012   0.004  -0.000  -0.057  -0.020   0.000
 -0.005   0.012   1.704  -0.000   0.000  -6.724   0.001  -0.000
 -0.002   0.004  -0.000   1.709  -0.000   0.001  -6.747   0.000
  0.000  -0.000   0.000  -0.000   1.704  -0.000   0.000  -6.726
  0.027  -0.057  -6.724   0.001  -0.000  28.448  -0.006   0.000
  0.009  -0.020   0.001  -6.747   0.000  -0.006  28.537  -0.001
 -0.000   0.000  -0.000   0.000  -6.726   0.000  -0.001  28.454
  0.000  -0.000  -0.000  -0.000  -0.005   0.000   0.000   0.012
 -0.001   0.001  -0.001  -0.004  -0.000   0.003   0.010   0.000
  0.011  -0.012   0.002  -0.002  -0.000  -0.005   0.004   0.000
 -0.000   0.000  -0.000   0.000  -0.001   0.000  -0.000   0.004
  0.001  -0.001   0.003  -0.000   0.000  -0.007   0.000  -0.000
 -0.000   0.000   0.000   0.000   0.018  -0.000  -0.000  -0.059
  0.005  -0.008   0.005   0.016   0.000  -0.016  -0.056  -0.000
 -0.041   0.072  -0.007   0.007   0.000   0.026  -0.024  -0.000
  0.001  -0.001   0.000  -0.000   0.006  -0.000   0.000  -0.019
 -0.002   0.004  -0.012   0.000  -0.000   0.041  -0.001   0.000
 total augmentation occupancy for first ion, spin component:           1
  1.390   0.033   0.005   0.014   0.000   0.005   0.001  -0.000  -0.000   0.016  -0.103   0.001  -0.023  -0.000   0.001  -0.005
  0.033   0.001   0.008   0.002  -0.000   0.000   0.000  -0.000  -0.000   0.001  -0.003   0.000  -0.000  -0.000   0.000  -0.000
  0.005   0.008   1.331   0.071  -0.001   0.027   0.002  -0.000   0.000   0.023  -0.074   0.002   0.067   0.000   0.001  -0.003
  0.014   0.002   0.071   0.407   0.006   0.002   0.007   0.000   0.002   0.062   0.008   0.000   0.006   0.000   0.002   0.000
  0.000  -0.000  -0.001   0.006   1.198  -0.000   0.000   0.025   0.247   0.002   0.000   0.036  -0.001   0.008   0.000   0.000
  0.005   0.000   0.027   0.002  -0.000   0.001   0.000  -0.000   0.000   0.001  -0.002   0.000   0.001  -0.000   0.000  -0.000
  0.001   0.000   0.002   0.007   0.000   0.000   0.000   0.000   0.000   0.001   0.000   0.000   0.000   0.000   0.000  -0.000
 -0.000  -0.000  -0.000   0.000   0.025  -0.000   0.000   0.001   0.005   0.000   0.000   0.001  -0.000   0.000   0.000   0.000
 -0.000  -0.000   0.000   0.002   0.247   0.000   0.000   0.005   0.070   0.000   0.000   0.008  -0.000   0.002   0.000   0.000
  0.016   0.001   0.023   0.062   0.002   0.001   0.001   0.000   0.000   0.011  -0.000   0.000  -0.002   0.000   0.000  -0.000
 -0.103  -0.003  -0.074   0.008   0.000  -0.002   0.000   0.000   0.000  -0.000   0.014   0.000  -0.004   0.000  -0.000   0.001
  0.001   0.000   0.002   0.000   0.036   0.000   0.000   0.001   0.008   0.000   0.000   0.022   0.000   0.000   0.000  -0.000
 -0.023  -0.000   0.067   0.006  -0.001   0.001   0.000  -0.000  -0.000  -0.002  -0.004   0.000   0.045  -0.000  -0.000  -0.000
 -0.000  -0.000   0.000   0.000   0.008  -0.000   0.000   0.000   0.002   0.000   0.000   0.000  -0.000   0.000   0.000   0.000
  0.001   0.000   0.001   0.002   0.000   0.000   0.000   0.000   0.000   0.000  -0.000   0.000  -0.000   0.000   0.000  -0.000
 -0.005  -0.000  -0.003   0.000   0.000  -0.000  -0.000   0.000   0.000  -0.000   0.001  -0.000  -0.000   0.000  -0.000   0.000
  0.000   0.000   0.000   0.000   0.001   0.000   0.000   0.000   0.000   0.000  -0.000   0.001   0.000   0.000   0.000  -0.000
 -0.001  -0.000   0.001   0.000  -0.000   0.000   0.000  -0.000  -0.000  -0.000  -0.000   0.000   0.001  -0.000  -0.000  -0.000


------------------------ aborting loop because EDIFF is reached ----------------------------------------


    FORLOC:  cpu time    0.2207: real time    0.2209
    FORHF :  cpu time 1074.6026: real time 1076.5077
    FORNL :  cpu time    6.2582: real time    6.2756
    STRESS:  cpu time   19.0547: real time   19.0997
    FORCOR:  cpu time    8.2335: real time    8.2426
    OFIELD:  cpu time    0.0094: real time    0.0095

  FORCE on cell =-STRESS in cart. coord.  units (eV):
  Direction    XX          YY          ZZ          XY          YZ          ZX
  --------------------------------------------------------------------------------------
  Alpha Z    13.10178    13.10178    13.10178
  Ewald    2355.48867  1926.71903 -2921.79962    -7.57610   -43.03910    -7.18014
  Hartree  2376.91122  2080.92596 -1948.99005    -0.09231   -21.04102    -2.65965
  E(xc)    -120.07619  -120.67179  -118.23502     0.03949    -0.03716    -0.07876
  Local   -5224.69617 -4509.56726  4392.59229     4.85586    59.17694     6.02293
  n-local   224.51663   235.98430   190.88190    -0.55510     0.61440     1.75748
  augment   -29.50739   -31.20870   -27.60261    -0.35206    -0.89716    -0.80349
  Kinetic   435.18329   430.69864   450.28113     3.72717     5.08131     2.77072
  Fock      -31.68704   -31.28481   -30.96696     0.06082     0.16786     0.15521
  -------------------------------------------------------------------------------------
  Total      -0.76518    -5.30286    -0.73718     0.10776     0.02607    -0.01569
  in kB      -1.33908    -9.28010    -1.29007     0.18858     0.04562    -0.02746
  external pressure =       -3.97 kB  Pullay stress =        0.00 kB


 VOLUME and BASIS-vectors are now :
 -----------------------------------------------------------------------------
  energy-cutoff  :      450.00
  volume of cell :      915.52
      direct lattice vectors                 reciprocal lattice vectors
     6.019200000  0.000000000  0.000000000     0.166135035  0.000000000  0.000000000
     0.000000000 10.140000000  0.000000000     0.000000000  0.098619329  0.000000000
     0.000000000  0.000000000 15.000000000     0.000000000  0.000000000  0.066666667

  length of vectors
     6.019200000 10.140000000 15.000000000     0.166135035  0.098619329  0.066666667


 FORCES acting on ions:
    Electron-Ion                     Ewald-Force                    Non-Local-Force
 -----------------------------------------------------------------------------------------------
   0.188E+00 0.488E+02 0.374E+02   -.191E+00 -.460E+02 -.364E+02   0.669E-03 -.312E+01 -.101E+01
   -.379E+00 0.483E+02 -.790E+01   0.392E+00 -.455E+02 0.716E+01   -.127E-01 -.310E+01 0.793E+00
   0.959E+00 -.572E+02 0.512E+02   -.107E+01 0.546E+02 -.499E+02   0.125E+00 0.292E+01 -.143E+01
   -.247E+01 -.599E+02 -.345E+01   0.247E+01 0.572E+02 0.259E+01   0.366E-02 0.296E+01 0.905E+00
   0.518E+01 0.536E+02 0.121E+01   -.529E+01 -.515E+02 -.307E+01   0.116E+00 -.231E+01 0.196E+01
   -.157E+01 0.520E+02 0.493E+02   0.178E+01 -.494E+02 -.482E+02   -.241E+00 -.293E+01 -.111E+01
   0.976E+00 -.408E+02 -.318E+01   -.988E+00 0.385E+02 0.254E+01   0.131E-01 0.265E+01 0.691E+00
   -.602E+00 -.447E+02 0.384E+02   0.596E+00 0.418E+02 -.375E+02   0.721E-02 0.324E+01 -.939E+00
   0.746E-01 0.400E+01 0.225E+02   0.446E-03 -.397E+01 -.227E+02   -.711E-01 -.194E-01 0.194E+00
   -.635E-01 0.437E+01 0.193E+02   -.131E-01 -.433E+01 -.193E+02   0.731E-01 -.366E-01 0.223E-01
   0.253E+01 -.551E+01 0.334E+02   -.243E+01 0.558E+01 -.336E+02   -.899E-01 -.711E-01 0.274E+00
   -.335E+01 -.796E+01 0.335E+02   0.320E+01 0.807E+01 -.336E+02   0.152E+00 -.117E+00 0.673E-02
   0.147E+02 -.198E+02 -.193E+03   -.190E+02 0.258E+02 0.189E+03   0.436E+01 -.626E+01 0.368E+01
   -.245E+02 0.138E+02 -.317E+02   0.271E+02 -.150E+02 0.316E+02   -.252E+01 0.118E+01 0.959E-01
   0.610E+01 0.146E+02 -.490E+02   -.658E+01 -.160E+02 0.512E+02   0.475E+00 0.131E+01 -.214E+01
 -----------------------------------------------------------------------------------------------
   -.237E+01 0.371E+01 -.198E+01   -.444E-14 -.355E-13 0.639E-13   0.239E+01 -.369E+01 0.199E+01


 POSITION                                       TOTAL-FORCE (eV/Angst)
 -----------------------------------------------------------------------------------
      2.60271      8.89733      3.53462        -0.002674     -0.023757      0.023714
      5.61072      8.90241      3.93365         0.000566     -0.037905     -0.012098
      2.60511      6.25242      3.58060         0.003490      0.007825      0.036506
      5.61970      6.27638      4.04911        -0.005083      0.023215     -0.029795
      2.59118      3.81611      4.16322         0.006673      0.006728     -0.047801
      5.61374      3.83608      3.63114        -0.007838     -0.010739      0.006175
      2.59758      1.19716      3.94289        -0.000326      0.027272     -0.002509
      5.60891      1.19679      3.55966        -0.000392      0.031389      0.019141
      1.09590     10.11547      3.71636         0.001429      0.002211      0.008752
      4.10457     10.11741      3.74137        -0.002503     -0.001087     -0.006740
      1.09943      5.05025      3.83930         0.008873     -0.004452      0.017539
      4.10819      5.05564      3.91375         0.002051     -0.011522     -0.024074
      3.36572      4.43952      6.99079        -0.018726     -0.021552      0.068173
      4.86528      3.73206      6.93584         0.010449     -0.008654     -0.012471
      3.04987      3.57236      8.40868         0.004012      0.021027     -0.044512
 -----------------------------------------------------------------------------------
    total drift:                                0.010180     -0.000521      0.008473


--------------------------------------------------------------------------------------------------------



  FREE ENERGIE OF THE ION-ELECTRON SYSTEM (eV)
  ---------------------------------------------------
  free  energy   TOTEN  =       -80.14012643 eV

  energy  without entropy=      -80.14012643  energy(sigma->0) =      -80.14012643

 d Force = 0.2072521E-03[-0.759E-05, 0.422E-03]  d Energy = 0.1922353E-03 0.150E-04
 d Force = 0.3528869E+00[ 0.352E+00, 0.353E+00]  d Ewald  = 0.3528869E+00 0.596E-07


--------------------------------------------------------------------------------------------------------


    POTLOK:  cpu time    9.2026: real time    9.2136


--------------------------------------------------------------------------------------------------------


 stress matrix after NEB project (eV)
     -0.76518      0.10776     -0.01569
      0.10776     -5.30286      0.02607
     -0.01569      0.02607     -0.73718
  FORCES: max atom, RMS     0.073910    0.036303
  FORCE total and by dimension    0.140600    0.068173
  Stress total and by dimension    5.410577    5.302861


--------------------------------------------------------------------------------------------------------


    WAVPRE:  cpu time    0.5149: real time    1.2283
    FEWALD:  cpu time    0.0024: real time    0.0024
    ORTHCH:  cpu time    2.6296: real time    2.6396
    CHARGE:  cpu time    1.5522: real time    1.5578
     LOOP+:  cpu time 5666.7665: real time 5691.8853


--------------------------------------- Iteration      4(   1)  ---------------------------------------


    POTLOK:  cpu time    8.2689: real time    8.2934
    SETDIJ:  cpu time    0.9306: real time    0.9352
    TRIAL :  cpu time  638.9091: real time  641.2709
    CORREC:  cpu time    0.0003: real time    0.0003
    CHARGE:  cpu time    1.5478: real time    1.5525
    --------------------------------------------
      LOOP:  cpu time  649.7206: real time  652.1165

 eigenvalue-minimisations  :     0
 total energy-change (2. order) : 0.1225196E-02  (-0.2436652E-02)
 number of electron      48.0000002 magnetization 
 augmentation part       -1.2497376 magnetization 

 Free energy of the ion-electron system (eV)
  ---------------------------------------------------
  alpha Z        PSCENC =        13.10177784
  Ewald energy   TEWEN  =      1360.02377004
  -Hartree energ DENC   =     -2508.86183966
  -exchange      EXHF   =        75.35047412
  -V(xc)+E(xc)   XCENC  =      -142.11933781
  PAW double counting   =      1710.95563133    -1481.81960726
  entropy T*S    EENTRO =        -0.00000000
  eigenvalues    EBANDS =      -357.96299799
  atomic energy  EATOM  =      1251.19323263
  ---------------------------------------------------
  free energy    TOTEN  =       -80.13889676 eV

  energy without entropy =      -80.13889676  energy(sigma->0) =      -80.13889676
  exchange ACFDT corr.  =        -0.00000000  see jH, gK, PRB 81, 115126


--------------------------------------------------------------------------------------------------------




--------------------------------------- Iteration      4(   2)  ---------------------------------------


    POTLOK:  cpu time    8.2700: real time    8.2991
    SETDIJ:  cpu time    0.9374: real time    0.9411
    TRIAL :  cpu time  629.8991: real time  633.2144
    CORREC:  cpu time    0.0005: real time    0.0005
    CHARGE:  cpu time    1.5542: real time    1.5730
    --------------------------------------------
      LOOP:  cpu time  640.6617: real time  644.0293

 eigenvalue-minimisations  :     0
 total energy-change (2. order) :-0.1231777E-02  (-0.5417862E-03)
 number of electron      48.0000002 magnetization 
 augmentation part       -1.2497363 magnetization 

 Free energy of the ion-electron system (eV)
  ---------------------------------------------------
  alpha Z        PSCENC =        13.10177784
  Ewald energy   TEWEN  =      1360.02377004
  -Hartree energ DENC   =     -2508.40712636
  -exchange      EXHF   =        75.34817149
  -V(xc)+E(xc)   XCENC  =      -142.12272460
  PAW double counting   =      1710.85235511    -1481.71707742
  entropy T*S    EENTRO =        -0.00000000
  eigenvalues    EBANDS =      -358.41250726
  atomic energy  EATOM  =      1251.19323263
  ---------------------------------------------------
  free energy    TOTEN  =       -80.14012854 eV

  energy without entropy =      -80.14012854  energy(sigma->0) =      -80.14012854
  exchange ACFDT corr.  =        -0.00000000  see jH, gK, PRB 81, 115126


--------------------------------------------------------------------------------------------------------




--------------------------------------- Iteration      4(   3)  ---------------------------------------


    POTLOK:  cpu time    8.2689: real time    8.3045
    SETDIJ:  cpu time    0.9370: real time    0.9413
    TRIAL :  cpu time  635.7749: real time  638.3720
    CORREC:  cpu time    0.0004: real time    0.0004
    CHARGE:  cpu time    1.5716: real time    1.5763
    --------------------------------------------
      LOOP:  cpu time  646.5534: real time  649.1958

 eigenvalue-minimisations  :     0
 total energy-change (2. order) :-0.2924637E-03  (-0.2236150E-03)
 number of electron      48.0000002 magnetization 
 augmentation part       -1.2496895 magnetization 

 Free energy of the ion-electron system (eV)
  ---------------------------------------------------
  alpha Z        PSCENC =        13.10177784
  Ewald energy   TEWEN  =      1360.02377004
  -Hartree energ DENC   =     -2508.34845038
  -exchange      EXHF   =        75.34947006
  -V(xc)+E(xc)   XCENC  =      -142.12137719
  PAW double counting   =      1710.94419487    -1481.80916804
  entropy T*S    EENTRO =        -0.00000000
  eigenvalues    EBANDS =      -358.47387085
  atomic energy  EATOM  =      1251.19323263
  ---------------------------------------------------
  free energy    TOTEN  =       -80.14042101 eV

  energy without entropy =      -80.14042101  energy(sigma->0) =      -80.14042101
  exchange ACFDT corr.  =        -0.00000000  see jH, gK, PRB 81, 115126


--------------------------------------------------------------------------------------------------------




--------------------------------------- Iteration      4(   4)  ---------------------------------------


    POTLOK:  cpu time    8.2711: real time    8.2997
    SETDIJ:  cpu time    0.9459: real time    0.9497
    TRIAL :  cpu time  641.5597: real time  644.0326
    CORREC:  cpu time    0.0006: real time    0.0006
    CHARGE:  cpu time    1.5783: real time    1.5850
    --------------------------------------------
      LOOP:  cpu time  652.3560: real time  654.8688

 eigenvalue-minimisations  :     0
 total energy-change (2. order) :-0.9375709E-04  (-0.9655565E-04)
 number of electron      48.0000002 magnetization 
 augmentation part       -1.2496914 magnetization 

 Free energy of the ion-electron system (eV)
  ---------------------------------------------------
  alpha Z        PSCENC =        13.10177784
  Ewald energy   TEWEN  =      1360.02377004
  -Hartree energ DENC   =     -2508.48841931
  -exchange      EXHF   =        75.35155818
  -V(xc)+E(xc)   XCENC  =      -142.11925408
  PAW double counting   =      1711.04022200    -1481.90532075
  entropy T*S    EENTRO =        -0.00000000
  eigenvalues    EBANDS =      -358.33808131
  atomic energy  EATOM  =      1251.19323263
  ---------------------------------------------------
  free energy    TOTEN  =       -80.14051476 eV

  energy without entropy =      -80.14051476  energy(sigma->0) =      -80.14051476
  exchange ACFDT corr.  =        -0.00000000  see jH, gK, PRB 81, 115126


--------------------------------------------------------------------------------------------------------




--------------------------------------- Iteration      4(   5)  ---------------------------------------


    POTLOK:  cpu time    8.2678: real time    8.2974
    SETDIJ:  cpu time    0.9582: real time    0.9602
    TRIAL :  cpu time  643.4636: real time  645.6125
    CORREC:  cpu time    0.0007: real time    0.0006
    CHARGE:  cpu time    1.5522: real time    1.5582
    --------------------------------------------
      LOOP:  cpu time  654.2430: real time  656.4305

 eigenvalue-minimisations  :     0
 total energy-change (2. order) :-0.4524230E-04  (-0.1992457E-04)
 number of electron      48.0000002 magnetization 
 augmentation part       -1.2497125 magnetization 

 Free energy of the ion-electron system (eV)
  ---------------------------------------------------
  alpha Z        PSCENC =        13.10177784
  Ewald energy   TEWEN  =      1360.02377004
  -Hartree energ DENC   =     -2508.54531223
  -exchange      EXHF   =        75.35194923
  -V(xc)+E(xc)   XCENC  =      -142.11914238
  PAW double counting   =      1711.02812651    -1481.89326717
  entropy T*S    EENTRO =        -0.00000000
  eigenvalues    EBANDS =      -358.28169448
  atomic energy  EATOM  =      1251.19323263
  ---------------------------------------------------
  free energy    TOTEN  =       -80.14056000 eV

  energy without entropy =      -80.14056000  energy(sigma->0) =      -80.14056000
  exchange ACFDT corr.  =        -0.00000000  see jH, gK, PRB 81, 115126


--------------------------------------------------------------------------------------------------------




--------------------------------------- Iteration      4(   6)  ---------------------------------------


    POTLOK:  cpu time    8.2791: real time    8.3060
    SETDIJ:  cpu time    0.9380: real time    0.9402
    TRIAL :  cpu time  642.5959: real time  645.0162
    CORREC:  cpu time    0.0012: real time    0.0012
    CHARGE:  cpu time    1.5811: real time    1.5894
    --------------------------------------------
      LOOP:  cpu time  653.3958: real time  655.8542

 eigenvalue-minimisations  :     0
 total energy-change (2. order) :-0.7698149E-05  (-0.1634958E-04)
 number of electron      48.0000002 magnetization 
 augmentation part       -1.2497143 magnetization 

 Free energy of the ion-electron system (eV)
  ---------------------------------------------------
  alpha Z        PSCENC =        13.10177784
  Ewald energy   TEWEN  =      1360.02377004
  -Hartree energ DENC   =     -2508.52008692
  -exchange      EXHF   =        75.35113455
  -V(xc)+E(xc)   XCENC  =      -142.12005750
  PAW double counting   =      1710.97550752    -1481.84053041
  entropy T*S    EENTRO =        -0.00000000
  eigenvalues    EBANDS =      -358.30531545
  atomic energy  EATOM  =      1251.19323263
  ---------------------------------------------------
  free energy    TOTEN  =       -80.14056770 eV

  energy without entropy =      -80.14056770  energy(sigma->0) =      -80.14056770
  exchange ACFDT corr.  =        -0.00000000  see jH, gK, PRB 81, 115126


--------------------------------------------------------------------------------------------------------




--------------------------------------- Iteration      4(   7)  ---------------------------------------


    POTLOK:  cpu time    8.2808: real time    8.3156
    SETDIJ:  cpu time    0.9533: real time    0.9581
    TRIAL :  cpu time  635.5038: real time  638.5961
    CORREC:  cpu time    0.0005: real time    0.0005
    EDDIAG:  cpu time  626.5768: real time  630.5725
    CHARGE:  cpu time    1.5597: real time    1.5668
    --------------------------------------------
      LOOP:  cpu time 1272.8754: real time 1280.0108

 eigenvalue-minimisations  :     0
 total energy-change (2. order) :-0.7961935E-05  (-0.4351130E-05)
 number of electron      48.0000002 magnetization 
 augmentation part       -1.2497067 magnetization 

 Free energy of the ion-electron system (eV)
  ---------------------------------------------------
  alpha Z        PSCENC =        13.10177784
  Ewald energy   TEWEN  =      1360.02377004
  -Hartree energ DENC   =     -2508.49908596
  -exchange      EXHF   =        75.35094356
  -V(xc)+E(xc)   XCENC  =      -142.12036844
  PAW double counting   =      1710.96397572    -1481.82886640
  entropy T*S    EENTRO =        -0.00000000
  eigenvalues    EBANDS =      -358.32571449
  atomic energy  EATOM  =      1251.19323263
  ---------------------------------------------------
  free energy    TOTEN  =       -80.14057566 eV

  energy without entropy =      -80.14057566  energy(sigma->0) =      -80.14057566
  exchange ACFDT corr.  =        -0.00000000  see jH, gK, PRB 81, 115126


--------------------------------------------------------------------------------------------------------


  average scaling for gradient   0.8966


 average (electrostatic) potential at core
  the test charge radii are     1.0406  0.6991  1.1897  0.5883
  (the norm of the test charge is              1.0000)
       1 -54.8658       2 -54.8521       3 -54.8626       4 -54.8818       5 -54.9053
       6 -54.9450       7 -54.7982       8 -54.8799       9 -51.0074      10 -51.0062
      11 -51.0722      12 -51.1304      13 -93.2328      14 -34.3146      15 -33.8107



 E-fermi :  -2.0450     XC(G=0):  -2.9211     alpha+bet : -2.8557


 k-point     1 :       0.0000    0.0000    0.0000
  band No.  band energies     occupation 
      1     -15.8800      2.00000
      2     -15.2111      2.00000
      3     -15.0552      2.00000
      4     -12.9408      2.00000
      5     -12.8430      2.00000
      6      -9.6104      2.00000
      7      -9.3312      2.00000
      8      -9.2917      2.00000
      9      -8.4362      2.00000
     10      -7.4640      2.00000
     11      -6.9753      2.00000
     12      -6.4193      2.00000
     13      -5.9685      2.00000
     14      -5.5245      2.00000
     15      -5.1648      2.00000
     16      -4.9195      2.00000
     17      -4.4771      2.00000
     18      -4.3685      2.00000
     19      -3.4123      2.00000
     20      -3.1809      2.00000
     21      -3.1471      2.00000
     22      -2.6349      2.00000
     23      -2.3235      2.00000
     24      -2.3047      2.00000
     25      -0.7716      0.00000
     26      -0.2371      0.00000
     27       0.2533      0.00000
     28       0.6074      0.00000
     29       0.7586      0.00000
     30       0.9253      0.00000
     31       1.0880      0.00000
     32       1.3664      0.00000

 k-point     2 :       0.2000    0.0000    0.0000
  band No.  band energies     occupation 
      1     -15.8587      2.00000
      2     -15.0844      2.00000
      3     -14.9297      2.00000
      4     -13.3514      2.00000
      5     -13.2327      2.00000
      6      -9.1471      2.00000
      7      -8.9620      2.00000
      8      -8.6917      2.00000
      9      -8.4516      2.00000
     10      -7.4731      2.00000
     11      -6.8509      2.00000
     12      -6.7785      2.00000
     13      -6.2881      2.00000
     14      -5.4266      2.00000
     15      -5.2219      2.00000
     16      -4.8093      2.00000
     17      -4.4595      2.00000
     18      -3.9589      2.00000
     19      -3.8995      2.00000
     20      -3.8498      2.00000
     21      -3.7116      2.00000
     22      -3.0247      2.00000
     23      -2.7718      2.00000
     24      -2.2875      2.00000
     25      -0.7768      0.00000
     26       0.4451      0.00000
     27       0.7584      0.00000
     28       0.7933      0.00000
     29       1.0296      0.00000
     30       1.0643      0.00000
     31       1.1651      0.00000
     32       1.6771      0.00000

 k-point     3 :       0.4000    0.0000    0.0000
  band No.  band energies     occupation 
      1     -15.8279      2.00000
      2     -14.7017      2.00000
      3     -14.5490      2.00000
      4     -14.0823      2.00000
      5     -13.9402      2.00000
      6      -8.7025      2.00000
      7      -8.4560      2.00000
      8      -7.9193      2.00000
      9      -7.6770      2.00000
     10      -7.3594      2.00000
     11      -7.1329      2.00000
     12      -6.4853      2.00000
     13      -6.1537      2.00000
     14      -5.9493      2.00000
     15      -5.5197      2.00000
     16      -5.2271      2.00000
     17      -5.0440      2.00000
     18      -4.7723      2.00000
     19      -4.4600      2.00000
     20      -4.2150      2.00000
     21      -3.7444      2.00000
     22      -3.4414      2.00000
     23      -2.8090      2.00000
     24      -2.3725      2.00000
     25      -0.4489      0.00000
     26       0.2471      0.00000
     27       0.9122      0.00000
     28       1.3220      0.00000
     29       1.4059      0.00000
     30       1.6172      0.00000
     31       1.7514      0.00000
     32       2.2464      0.00000

 k-point     4 :       0.0000    0.3333    0.0000
  band No.  band energies     occupation 
      1     -15.8789      2.00000
      2     -15.1775      2.00000
      3     -15.0945      2.00000
      4     -12.9298      2.00000
      5     -12.8548      2.00000
      6      -9.5585      2.00000
      7      -9.3854      2.00000
      8      -8.9951      2.00000
      9      -8.4473      2.00000
     10      -8.0569      2.00000
     11      -7.4341      2.00000
     12      -5.7996      2.00000
     13      -5.4521      2.00000
     14      -5.3709      2.00000
     15      -5.0872      2.00000
     16      -5.0432      2.00000
     17      -4.4144      2.00000
     18      -4.1702      2.00000
     19      -3.6886      2.00000
     20      -3.2730      2.00000
     21      -3.1746      2.00000
     22      -3.1500      2.00000
     23      -2.6206      2.00000
     24      -2.3199      2.00000
     25      -0.5620      0.00000
     26       0.0985      0.00000
     27       0.3224      0.00000
     28       0.4522      0.00000
     29       0.6947      0.00000
     30       0.8690      0.00000
     31       1.1300      0.00000
     32       1.3887      0.00000

 k-point     5 :       0.2000    0.3333    0.0000
  band No.  band energies     occupation 
      1     -15.8581      2.00000
      2     -15.0488      2.00000
      3     -14.9705      2.00000
      4     -13.3329      2.00000
      5     -13.2528      2.00000
      6      -8.9345      2.00000
      7      -8.8395      2.00000
      8      -8.7477      2.00000
      9      -8.4440      2.00000
     10      -7.9290      2.00000
     11      -7.4294      2.00000
     12      -6.5314      2.00000
     13      -5.8917      2.00000
     14      -5.2073      2.00000
     15      -4.9575      2.00000
     16      -4.8932      2.00000
     17      -4.3912      2.00000
     18      -3.9369      2.00000
     19      -3.8854      2.00000
     20      -3.6971      2.00000
     21      -3.6465      2.00000
     22      -3.2049      2.00000
     23      -2.9467      2.00000
     24      -2.7989      2.00000
     25      -0.4405      0.00000
     26       0.2163      0.00000
     27       0.6537      0.00000
     28       0.7824      0.00000
     29       0.8760      0.00000
     30       1.1053      0.00000
     31       1.2930      0.00000
     32       1.5492      0.00000

 k-point     6 :       0.4000    0.3333    0.0000
  band No.  band energies     occupation 
      1     -15.8277      2.00000
      2     -14.6671      2.00000
      3     -14.5876      2.00000
      4     -14.0541      2.00000
      5     -13.9713      2.00000
      6      -8.5685      2.00000
      7      -8.2913      2.00000
      8      -7.8657      2.00000
      9      -7.5590      2.00000
     10      -7.4786      2.00000
     11      -7.3145      2.00000
     12      -7.1023      2.00000
     13      -6.6397      2.00000
     14      -5.6490      2.00000
     15      -5.5473      2.00000
     16      -4.9780      2.00000
     17      -4.5076      2.00000
     18      -4.4614      2.00000
     19      -4.2640      2.00000
     20      -3.9972      2.00000
     21      -3.7483      2.00000
     22      -3.4588      2.00000
     23      -3.1027      2.00000
     24      -3.0055      2.00000
     25      -0.1077      0.00000
     26       0.3560      0.00000
     27       0.7535      0.00000
     28       1.0756      0.00000
     29       1.1976      0.00000
     30       1.6517      0.00000
     31       1.7772      0.00000
     32       1.9692      0.00000

 k-point     7 :      -0.4000    0.3333    0.0000
  band No.  band energies     occupation 
      1     -15.8277      2.00000
      2     -14.6670      2.00000
      3     -14.5878      2.00000
      4     -14.0540      2.00000
      5     -13.9713      2.00000
      6      -8.5662      2.00000
      7      -8.3070      2.00000
      8      -7.8300      2.00000
      9      -7.5745      2.00000
     10      -7.4791      2.00000
     11      -7.3214      2.00000
     12      -7.1020      2.00000
     13      -6.6396      2.00000
     14      -5.6619      2.00000
     15      -5.5434      2.00000
     16      -4.9645      2.00000
     17      -4.5280      2.00000
     18      -4.4601      2.00000
     19      -4.2453      2.00000
     20      -3.9908      2.00000
     21      -3.7342      2.00000
     22      -3.4938      2.00000
     23      -3.0953      2.00000
     24      -3.0008      2.00000
     25      -0.1379      0.00000
     26       0.4709      0.00000
     27       0.7226      0.00000
     28       0.9133      0.00000
     29       1.2988      0.00000
     30       1.6105      0.00000
     31       1.8196      0.00000
     32       1.8912      0.00000

 k-point     8 :      -0.2000    0.3333    0.0000
  band No.  band energies     occupation 
      1     -15.8581      2.00000
      2     -15.0486      2.00000
      3     -14.9706      2.00000
      4     -13.3329      2.00000
      5     -13.2528      2.00000
      6      -8.9378      2.00000
      7      -8.8371      2.00000
      8      -8.7465      2.00000
      9      -8.4492      2.00000
     10      -7.9162      2.00000
     11      -7.4353      2.00000
     12      -6.5275      2.00000
     13      -5.9080      2.00000
     14      -5.1986      2.00000
     15      -4.9725      2.00000
     16      -4.8959      2.00000
     17      -4.3611      2.00000
     18      -3.9306      2.00000
     19      -3.8872      2.00000
     20      -3.7125      2.00000
     21      -3.6327      2.00000
     22      -3.2320      2.00000
     23      -2.9146      2.00000
     24      -2.8123      2.00000
     25      -0.4692      0.00000
     26       0.2880      0.00000
     27       0.5552      0.00000
     28       0.7899      0.00000
     29       0.9234      0.00000
     30       1.1964      0.00000
     31       1.3016      0.00000
     32       1.6043      0.00000


--------------------------------------------------------------------------------------------------------


 soft charge-density along one line, spin component           1
         0         1         2         3         4         5         6         7         8         9
 total charge-density along one line

 pseudopotential strength for first ion, spin component:           1
  7.181 -16.881  -0.005  -0.002   0.000   0.027   0.009  -0.000
-16.881  49.268   0.012   0.004  -0.000  -0.058  -0.020   0.000
 -0.005   0.012   1.704  -0.000   0.000  -6.724   0.001  -0.000
 -0.002   0.004  -0.000   1.709  -0.000   0.001  -6.747   0.000
  0.000  -0.000   0.000  -0.000   1.704  -0.000   0.000  -6.726
  0.027  -0.058  -6.724   0.001  -0.000  28.448  -0.006   0.000
  0.009  -0.020   0.001  -6.747   0.000  -0.006  28.537  -0.001
 -0.000   0.000  -0.000   0.000  -6.726   0.000  -0.001  28.454
  0.000  -0.000  -0.000  -0.000  -0.005   0.000   0.000   0.012
 -0.001   0.001  -0.001  -0.004  -0.000   0.003   0.010   0.000
  0.011  -0.012   0.002  -0.002  -0.000  -0.005   0.004   0.000
 -0.000   0.000  -0.000   0.000  -0.001   0.000  -0.000   0.003
  0.001  -0.001   0.003  -0.000   0.000  -0.007   0.000  -0.000
 -0.000   0.000   0.000   0.000   0.018  -0.000  -0.000  -0.059
  0.005  -0.008   0.005   0.016   0.000  -0.016  -0.056  -0.000
 -0.041   0.072  -0.007   0.007   0.000   0.026  -0.024  -0.000
  0.001  -0.001   0.000  -0.000   0.006  -0.000   0.000  -0.019
 -0.002   0.004  -0.012   0.000  -0.000   0.041  -0.001   0.000
 total augmentation occupancy for first ion, spin component:           1
  1.390   0.033   0.005   0.014   0.000   0.005   0.001  -0.000  -0.000   0.016  -0.103   0.001  -0.023  -0.000   0.001  -0.005
  0.033   0.001   0.008   0.002  -0.000   0.000   0.000  -0.000  -0.000   0.001  -0.003   0.000  -0.000  -0.000   0.000  -0.000
  0.005   0.008   1.331   0.071  -0.001   0.027   0.002  -0.000   0.000   0.023  -0.074   0.002   0.067   0.000   0.001  -0.003
  0.014   0.002   0.071   0.407   0.006   0.002   0.007   0.000   0.002   0.062   0.008   0.000   0.006   0.000   0.002   0.000
  0.000  -0.000  -0.001   0.006   1.197  -0.000   0.000   0.025   0.247   0.002   0.000   0.036  -0.001   0.008   0.000   0.000
  0.005   0.000   0.027   0.002  -0.000   0.001   0.000  -0.000   0.000   0.001  -0.002   0.000   0.001  -0.000   0.000  -0.000
  0.001   0.000   0.002   0.007   0.000   0.000   0.000   0.000   0.000   0.001   0.000   0.000   0.000   0.000   0.000  -0.000
 -0.000  -0.000  -0.000   0.000   0.025  -0.000   0.000   0.001   0.005   0.000   0.000   0.001  -0.000   0.000   0.000   0.000
 -0.000  -0.000   0.000   0.002   0.247   0.000   0.000   0.005   0.070   0.000   0.000   0.008  -0.000   0.002   0.000   0.000
  0.016   0.001   0.023   0.062   0.002   0.001   0.001   0.000   0.000   0.011  -0.000   0.000  -0.002   0.000   0.000  -0.000
 -0.103  -0.003  -0.074   0.008   0.000  -0.002   0.000   0.000   0.000  -0.000   0.014   0.000  -0.004   0.000  -0.000   0.001
  0.001   0.000   0.002   0.000   0.036   0.000   0.000   0.001   0.008   0.000   0.000   0.022   0.000   0.000   0.000  -0.000
 -0.023  -0.000   0.067   0.006  -0.001   0.001   0.000  -0.000  -0.000  -0.002  -0.004   0.000   0.045  -0.000  -0.000  -0.000
 -0.000  -0.000   0.000   0.000   0.008  -0.000   0.000   0.000   0.002   0.000   0.000   0.000  -0.000   0.000   0.000   0.000
  0.001   0.000   0.001   0.002   0.000   0.000   0.000   0.000   0.000   0.000  -0.000   0.000  -0.000   0.000   0.000  -0.000
 -0.005  -0.000  -0.003   0.000   0.000  -0.000  -0.000   0.000   0.000  -0.000   0.001  -0.000  -0.000   0.000  -0.000   0.000
  0.000   0.000   0.000   0.000   0.001   0.000   0.000   0.000   0.000   0.000  -0.000   0.001   0.000   0.000   0.000  -0.000
 -0.001  -0.000   0.001   0.000  -0.000   0.000   0.000  -0.000  -0.000  -0.000  -0.000   0.000   0.001  -0.000  -0.000  -0.000


------------------------ aborting loop because EDIFF is reached ----------------------------------------


    FORLOC:  cpu time    0.2180: real time    0.2184
    FORHF :  cpu time 1078.3706: real time 1080.9514
    FORNL :  cpu time    6.4072: real time    6.4279
    STRESS:  cpu time   19.3244: real time   19.3778
    FORCOR:  cpu time    8.2317: real time    8.2449
    OFIELD:  cpu time    0.0093: real time    0.0095

  FORCE on cell =-STRESS in cart. coord.  units (eV):
  Direction    XX          YY          ZZ          XY          YZ          ZX
  --------------------------------------------------------------------------------------
  Alpha Z    13.10178    13.10178    13.10178
  Ewald    2354.92907  1926.82306 -2921.72986    -7.61077   -43.02666    -7.28277
  Hartree  2376.56546  2080.75956 -1948.82382    -0.11014   -20.99397    -2.65835
  E(xc)    -120.07234  -120.67278  -118.23825     0.03874    -0.03388    -0.07705
  Local   -5223.80813 -4509.51049  4392.34066     4.90651    59.11440     6.10451
  n-local   224.47577   236.02345   190.94483    -0.54087     0.56642     1.72979
  augment   -29.50021   -31.20860   -27.61227    -0.35482    -0.88942    -0.80103
  Kinetic   435.20936   430.63654   450.31350     3.72432     5.06960     2.80292
  Fock      -31.68751   -31.28400   -30.96098     0.06174     0.16471     0.15465
  -------------------------------------------------------------------------------------
  Total      -0.78674    -5.33147    -0.66442     0.11471    -0.02881    -0.02734
  in kB      -1.37681    -9.33018    -1.16275     0.20075    -0.05042    -0.04785
  external pressure =       -3.96 kB  Pullay stress =        0.00 kB


 VOLUME and BASIS-vectors are now :
 -----------------------------------------------------------------------------
  energy-cutoff  :      450.00
  volume of cell :      915.52
      direct lattice vectors                 reciprocal lattice vectors
     6.019200000  0.000000000  0.000000000     0.166135035  0.000000000  0.000000000
     0.000000000 10.140000000  0.000000000     0.000000000  0.098619329  0.000000000
     0.000000000  0.000000000 15.000000000     0.000000000  0.000000000  0.066666667

  length of vectors
     6.019200000 10.140000000 15.000000000     0.166135035  0.098619329  0.066666667


 FORCES acting on ions:
    Electron-Ion                     Ewald-Force                    Non-Local-Force
 -----------------------------------------------------------------------------------------------
   0.192E+00 0.487E+02 0.373E+02   -.193E+00 -.459E+02 -.364E+02   -.430E-03 -.311E+01 -.101E+01
   -.376E+00 0.482E+02 -.783E+01   0.389E+00 -.454E+02 0.709E+01   -.130E-01 -.307E+01 0.785E+00
   0.965E+00 -.572E+02 0.511E+02   -.108E+01 0.546E+02 -.497E+02   0.125E+00 0.293E+01 -.142E+01
   -.247E+01 -.598E+02 -.336E+01   0.247E+01 0.572E+02 0.250E+01   0.660E-02 0.293E+01 0.898E+00
   0.516E+01 0.536E+02 0.131E+01   -.526E+01 -.515E+02 -.316E+01   0.118E+00 -.232E+01 0.196E+01
   -.162E+01 0.520E+02 0.492E+02   0.183E+01 -.494E+02 -.482E+02   -.225E+00 -.292E+01 -.111E+01
   0.971E+00 -.408E+02 -.315E+01   -.983E+00 0.384E+02 0.251E+01   0.146E-01 0.263E+01 0.689E+00
   -.604E+00 -.446E+02 0.383E+02   0.597E+00 0.417E+02 -.374E+02   0.710E-02 0.322E+01 -.932E+00
   0.100E+00 0.400E+01 0.224E+02   -.279E-01 -.397E+01 -.226E+02   -.734E-01 -.220E-01 0.199E+00
   -.888E-01 0.437E+01 0.193E+02   0.149E-01 -.433E+01 -.194E+02   0.745E-01 -.382E-01 0.281E-01
   0.261E+01 -.552E+01 0.332E+02   -.252E+01 0.559E+01 -.335E+02   -.933E-01 -.643E-01 0.266E+00
   -.338E+01 -.796E+01 0.336E+02   0.323E+01 0.808E+01 -.336E+02   0.152E+00 -.108E+00 -.114E-02
   0.147E+02 -.198E+02 -.193E+03   -.190E+02 0.259E+02 0.189E+03   0.437E+01 -.623E+01 0.364E+01
   -.245E+02 0.138E+02 -.316E+02   0.271E+02 -.150E+02 0.315E+02   -.252E+01 0.118E+01 0.101E+00
   0.612E+01 0.147E+02 -.491E+02   -.661E+01 -.160E+02 0.513E+02   0.480E+00 0.132E+01 -.216E+01
 -----------------------------------------------------------------------------------------------
   -.241E+01 0.369E+01 -.194E+01   -.266E-14 0.213E-13 0.711E-13   0.243E+01 -.367E+01 0.194E+01


 POSITION                                       TOTAL-FORCE (eV/Angst)
 -----------------------------------------------------------------------------------
      2.60262      8.89670      3.53544        -0.002139     -0.004068      0.026506
      5.61074      8.90131      3.93322        -0.000182     -0.003232     -0.014416
      2.60523      6.25253      3.58185         0.003353      0.006352      0.034297
      5.61952      6.27699      4.04810        -0.001815     -0.000234     -0.029706
      2.59140      3.81648      4.16160         0.006642      0.000484     -0.041338
      5.61348      3.83588      3.63137         0.000275     -0.000899      0.008830
      2.59757      1.19792      3.94279         0.000895      0.007062     -0.005041
      5.60890      1.19768      3.56032        -0.000907      0.003616      0.022163
      1.09594     10.11554      3.71666        -0.003878      0.001370      0.016594
      4.10449     10.11738      3.74115         0.001905     -0.002172     -0.004315
      1.09972      5.05011      3.83989        -0.004956      0.000255      0.019154
      4.10826      5.05526      3.91294         0.008020     -0.003698     -0.034014
      3.36523      4.43862      6.99320        -0.003763      0.009781      0.007371
      4.86548      3.73186      6.93542         0.001175     -0.005875     -0.008762
      3.05002      3.57315      8.40706        -0.004625     -0.008741      0.002676
 -----------------------------------------------------------------------------------
    total drift:                                0.008683      0.003937     -0.009292


--------------------------------------------------------------------------------------------------------



  FREE ENERGIE OF THE ION-ELECTRON SYSTEM (eV)
  ---------------------------------------------------
  free  energy   TOTEN  =       -80.14057566 eV

  energy  without entropy=      -80.14057566  energy(sigma->0) =      -80.14057566

 d Force = 0.4534474E-03[ 0.252E-03, 0.655E-03]  d Energy = 0.4492318E-03 0.422E-05
 d Force = 0.3858049E+00[ 0.386E+00, 0.386E+00]  d Ewald  = 0.3858054E+00-0.434E-06


--------------------------------------------------------------------------------------------------------


    POTLOK:  cpu time    9.2346: real time    9.2487


--------------------------------------------------------------------------------------------------------


 stress matrix after NEB project (eV)
     -0.78674      0.11471     -0.02734
      0.11471     -5.33147     -0.02881
     -0.02734     -0.02881     -0.66442
  FORCES: max atom, RMS     0.041870    0.022798
  FORCE total and by dimension    0.088297    0.041338
  Stress total and by dimension    5.432725    5.331473
 Conjugate gradient step on ions:
 trial-energy change:   -0.000449  1 .order   -0.000453   -0.000655   -0.000252
  (g-gl).g = 0.593E-03      g.g   = 0.668E-03  gl.gl    = 0.345E-01
 g(Force)  = 0.668E-03   g(Stress)= 0.000E+00 ortho     = 0.742E-04
 gamma     =   0.01719
 trial     =   0.97953
 opt step  =   1.59075  (harmonic =   1.59075) maximal distance =0.00390799
 next E    =   -80.140658   (d E  =  -0.00053)


--------------------------------------------------------------------------------------------------------


    WAVPRE:  cpu time    0.5272: real time    1.0065
    FEWALD:  cpu time    0.0024: real time    0.0024
    ORTHCH:  cpu time    2.6262: real time    2.6418
    CHARGE:  cpu time    1.5748: real time    1.5831
     LOOP+:  cpu time 6324.3554: real time 6350.7984


--------------------------------------- Iteration      5(   1)  ---------------------------------------


    POTLOK:  cpu time    8.2614: real time    8.2962
    SETDIJ:  cpu time    0.9397: real time    0.9443
    TRIAL :  cpu time  630.4508: real time  634.0433
    CORREC:  cpu time    0.0009: real time    0.0009
    CHARGE:  cpu time    1.5598: real time    1.5647
    --------------------------------------------
      LOOP:  cpu time  641.2759: real time  644.9131

 eigenvalue-minimisations  :     0
 total energy-change (2. order) : 0.5678736E-03  (-0.9722200E-03)
 number of electron      48.0000002 magnetization 
 augmentation part       -1.2497895 magnetization 

 Free energy of the ion-electron system (eV)
  ---------------------------------------------------
  alpha Z        PSCENC =        13.10177784
  Ewald energy   TEWEN  =      1359.78329084
  -Hartree energ DENC   =     -2508.51034492
  -exchange      EXHF   =        75.35122370
  -V(xc)+E(xc)   XCENC  =      -142.11982250
  PAW double counting   =      1710.97245456    -1481.83702504
  entropy T*S    EENTRO =        -0.00000000
  eigenvalues    EBANDS =      -358.07478694
  atomic energy  EATOM  =      1251.19323263
  ---------------------------------------------------
  free energy    TOTEN  =       -80.13999983 eV

  energy without entropy =      -80.13999983  energy(sigma->0) =      -80.13999983
  exchange ACFDT corr.  =        -0.00000000  see jH, gK, PRB 81, 115126


--------------------------------------------------------------------------------------------------------




--------------------------------------- Iteration      5(   2)  ---------------------------------------


    POTLOK:  cpu time    8.2658: real time    8.2861
    SETDIJ:  cpu time    0.9402: real time    0.9422
    TRIAL :  cpu time  632.6284: real time  635.6303
    CORREC:  cpu time    0.0006: real time    0.0006
    CHARGE:  cpu time    1.5587: real time    1.5701
    --------------------------------------------
      LOOP:  cpu time  643.3943: real time  646.4305

 eigenvalue-minimisations  :     0
 total energy-change (2. order) :-0.4765027E-03  (-0.2157872E-03)
 number of electron      48.0000002 magnetization 
 augmentation part       -1.2498022 magnetization 

 Free energy of the ion-electron system (eV)
  ---------------------------------------------------
  alpha Z        PSCENC =        13.10177784
  Ewald energy   TEWEN  =      1359.78329084
  -Hartree energ DENC   =     -2508.22781987
  -exchange      EXHF   =        75.34988449
  -V(xc)+E(xc)   XCENC  =      -142.12197142
  PAW double counting   =      1710.90621727    -1481.77129255
  entropy T*S    EENTRO =        -0.00000000
  eigenvalues    EBANDS =      -358.35379556
  atomic energy  EATOM  =      1251.19323263
  ---------------------------------------------------
  free energy    TOTEN  =       -80.14047633 eV

  energy without entropy =      -80.14047633  energy(sigma->0) =      -80.14047633
  exchange ACFDT corr.  =        -0.00000000  see jH, gK, PRB 81, 115126


--------------------------------------------------------------------------------------------------------




--------------------------------------- Iteration      5(   3)  ---------------------------------------


    POTLOK:  cpu time    8.2651: real time    8.2958
    SETDIJ:  cpu time    0.9486: real time    0.9532
    TRIAL :  cpu time  637.7331: real time  640.7122
    CORREC:  cpu time    0.0006: real time    0.0006
    CHARGE:  cpu time    1.5413: real time    1.5486
    --------------------------------------------
      LOOP:  cpu time  648.4891: real time  651.5116

 eigenvalue-minimisations  :     0
 total energy-change (2. order) :-0.1161136E-03  (-0.8556488E-04)
 number of electron      48.0000002 magnetization 
 augmentation part       -1.2497703 magnetization 

 Free energy of the ion-electron system (eV)
  ---------------------------------------------------
  alpha Z        PSCENC =        13.10177784
  Ewald energy   TEWEN  =      1359.78329084
  -Hartree energ DENC   =     -2508.19385600
  -exchange      EXHF   =        75.35077344
  -V(xc)+E(xc)   XCENC  =      -142.12106931
  PAW double counting   =      1710.96707451    -1481.83230549
  entropy T*S    EENTRO =        -0.00000000
  eigenvalues    EBANDS =      -358.38951091
  atomic energy  EATOM  =      1251.19323263
  ---------------------------------------------------
  free energy    TOTEN  =       -80.14059245 eV

  energy without entropy =      -80.14059245  energy(sigma->0) =      -80.14059245
  exchange ACFDT corr.  =        -0.00000000  see jH, gK, PRB 81, 115126


--------------------------------------------------------------------------------------------------------




--------------------------------------- Iteration      5(   4)  ---------------------------------------


    POTLOK:  cpu time    8.2856: real time    8.3048
    SETDIJ:  cpu time    0.9555: real time    0.9586
    TRIAL :  cpu time  644.4901: real time  646.4546
    CORREC:  cpu time    0.0004: real time    0.0004
    CHARGE:  cpu time    1.5603: real time    1.5672
    --------------------------------------------
      LOOP:  cpu time  655.2924: real time  657.2867

 eigenvalue-minimisations  :     0
 total energy-change (2. order) :-0.3324968E-04  (-0.4161930E-04)
 number of electron      48.0000002 magnetization 
 augmentation part       -1.2497678 magnetization 

 Free energy of the ion-electron system (eV)
  ---------------------------------------------------
  alpha Z        PSCENC =        13.10177784
  Ewald energy   TEWEN  =      1359.78329084
  -Hartree energ DENC   =     -2508.28193294
  -exchange      EXHF   =        75.35213163
  -V(xc)+E(xc)   XCENC  =      -142.11968372
  PAW double counting   =      1711.03123206    -1481.89653676
  entropy T*S    EENTRO =        -0.00000000
  eigenvalues    EBANDS =      -358.30413728
  atomic energy  EATOM  =      1251.19323263
  ---------------------------------------------------
  free energy    TOTEN  =       -80.14062570 eV

  energy without entropy =      -80.14062570  energy(sigma->0) =      -80.14062570
  exchange ACFDT corr.  =        -0.00000000  see jH, gK, PRB 81, 115126


--------------------------------------------------------------------------------------------------------




--------------------------------------- Iteration      5(   5)  ---------------------------------------


    POTLOK:  cpu time    8.3072: real time    8.3351
    SETDIJ:  cpu time    0.9482: real time    0.9530
    TRIAL :  cpu time  643.2318: real time  646.5156
    CORREC:  cpu time    0.0004: real time    0.0004
    CHARGE:  cpu time    1.5751: real time    1.5809
    --------------------------------------------
      LOOP:  cpu time  654.0631: real time  657.3862

 eigenvalue-minimisations  :     0
 total energy-change (2. order) :-0.1989033E-04  (-0.8435438E-05)
 number of electron      48.0000002 magnetization 
 augmentation part       -1.2497809 magnetization 

 Free energy of the ion-electron system (eV)
  ---------------------------------------------------
  alpha Z        PSCENC =        13.10177784
  Ewald energy   TEWEN  =      1359.78329084
  -Hartree energ DENC   =     -2508.31568910
  -exchange      EXHF   =        75.35238355
  -V(xc)+E(xc)   XCENC  =      -142.11963348
  PAW double counting   =      1711.02366088    -1481.88900834
  entropy T*S    EENTRO =        -0.00000000
  eigenvalues    EBANDS =      -358.27066040
  atomic energy  EATOM  =      1251.19323263
  ---------------------------------------------------
  free energy    TOTEN  =       -80.14064559 eV

  energy without entropy =      -80.14064559  energy(sigma->0) =      -80.14064559
  exchange ACFDT corr.  =        -0.00000000  see jH, gK, PRB 81, 115126


--------------------------------------------------------------------------------------------------------




--------------------------------------- Iteration      5(   6)  ---------------------------------------


    POTLOK:  cpu time    8.2693: real time    8.2905
    SETDIJ:  cpu time    0.9493: real time    0.9520
    TRIAL :  cpu time  643.2695: real time  646.5127
    CORREC:  cpu time    0.0003: real time    0.0003
    EDDIAG:  cpu time  635.0636: real time  637.1429
    CHARGE:  cpu time    1.5543: real time    1.5620
    --------------------------------------------
      LOOP:  cpu time 1289.1069: real time 1294.4618

 eigenvalue-minimisations  :     0
 total energy-change (2. order) :-0.3496877E-05  (-0.6938180E-05)
 number of electron      48.0000002 magnetization 
 augmentation part       -1.2497842 magnetization 

 Free energy of the ion-electron system (eV)
  ---------------------------------------------------
  alpha Z        PSCENC =        13.10177784
  Ewald energy   TEWEN  =      1359.78329084
  -Hartree energ DENC   =     -2508.29892428
  -exchange      EXHF   =        75.35157386
  -V(xc)+E(xc)   XCENC  =      -142.12023535
  PAW double counting   =      1710.98954330    -1481.85480609
  entropy T*S    EENTRO =        -0.00000000
  eigenvalues    EBANDS =      -358.28636434
  atomic energy  EATOM  =      1251.19323263
  ---------------------------------------------------
  free energy    TOTEN  =       -80.14064908 eV

  energy without entropy =      -80.14064908  energy(sigma->0) =      -80.14064908
  exchange ACFDT corr.  =        -0.00000000  see jH, gK, PRB 81, 115126


--------------------------------------------------------------------------------------------------------


  average scaling for gradient   0.9801


 average (electrostatic) potential at core
  the test charge radii are     1.0406  0.6991  1.1897  0.5883
  (the norm of the test charge is              1.0000)
       1 -54.8646       2 -54.8521       3 -54.8619       4 -54.8823       5 -54.9036
       6 -54.9444       7 -54.7977       8 -54.8793       9 -51.0056      10 -51.0042
      11 -51.0715      12 -51.1288      13 -93.2299      14 -34.3136      15 -33.8262



 E-fermi :  -2.0198     XC(G=0):  -2.9211     alpha+bet : -2.8557


 k-point     1 :       0.0000    0.0000    0.0000
  band No.  band energies     occupation 
      1     -15.8817      2.00000
      2     -15.2092      2.00000
      3     -15.0537      2.00000
      4     -12.9396      2.00000
      5     -12.8395      2.00000
      6      -9.6085      2.00000
      7      -9.3286      2.00000
      8      -9.2914      2.00000
      9      -8.4435      2.00000
     10      -7.4612      2.00000
     11      -6.9745      2.00000
     12      -6.4210      2.00000
     13      -5.9681      2.00000
     14      -5.5233      2.00000
     15      -5.1635      2.00000
     16      -4.9170      2.00000
     17      -4.4769      2.00000
     18      -4.3694      2.00000
     19      -3.4133      2.00000
     20      -3.1797      2.00000
     21      -3.1420      2.00000
     22      -2.6326      2.00000
     23      -2.3236      2.00000
     24      -2.3014      2.00000
     25      -0.7735      0.00000
     26      -0.2388      0.00000
     27       0.2526      0.00000
     28       0.6076      0.00000
     29       0.7617      0.00000
     30       0.9268      0.00000
     31       1.0862      0.00000
     32       1.3672      0.00000

 k-point     2 :       0.2000    0.0000    0.0000
  band No.  band energies     occupation 
      1     -15.8607      2.00000
      2     -15.0827      2.00000
      3     -14.9278      2.00000
      4     -13.3500      2.00000
      5     -13.2295      2.00000
      6      -9.1480      2.00000
      7      -8.9602      2.00000
      8      -8.6878      2.00000
      9      -8.4586      2.00000
     10      -7.4708      2.00000
     11      -6.8502      2.00000
     12      -6.7786      2.00000
     13      -6.2897      2.00000
     14      -5.4253      2.00000
     15      -5.2208      2.00000
     16      -4.8067      2.00000
     17      -4.4585      2.00000
     18      -3.9588      2.00000
     19      -3.8944      2.00000
     20      -3.8500      2.00000
     21      -3.7126      2.00000
     22      -3.0229      2.00000
     23      -2.7688      2.00000
     24      -2.2877      2.00000
     25      -0.7782      0.00000
     26       0.4453      0.00000
     27       0.7566      0.00000
     28       0.7953      0.00000
     29       1.0308      0.00000
     30       1.0661      0.00000
     31       1.1640      0.00000
     32       1.6535      0.00000

 k-point     3 :       0.4000    0.0000    0.0000
  band No.  band energies     occupation 
      1     -15.8303      2.00000
      2     -14.7001      2.00000
      3     -14.5465      2.00000
      4     -14.0808      2.00000
      5     -13.9373      2.00000
      6      -8.7048      2.00000
      7      -8.4609      2.00000
      8      -7.9182      2.00000
      9      -7.6765      2.00000
     10      -7.3557      2.00000
     11      -7.1315      2.00000
     12      -6.4843      2.00000
     13      -6.1538      2.00000
     14      -5.9482      2.00000
     15      -5.5167      2.00000
     16      -5.2256      2.00000
     17      -5.0439      2.00000
     18      -4.7724      2.00000
     19      -4.4578      2.00000
     20      -4.2129      2.00000
     21      -3.7418      2.00000
     22      -3.4405      2.00000
     23      -2.8096      2.00000
     24      -2.3729      2.00000
     25      -0.4497      0.00000
     26       0.2466      0.00000
     27       0.9155      0.00000
     28       1.3228      0.00000
     29       1.4066      0.00000
     30       1.6143      0.00000
     31       1.7320      0.00000
     32       2.2102      0.00000

 k-point     4 :       0.0000    0.3333    0.0000
  band No.  band energies     occupation 
      1     -15.8807      2.00000
      2     -15.1751      2.00000
      3     -15.0935      2.00000
      4     -12.9289      2.00000
      5     -12.8511      2.00000
      6      -9.5571      2.00000
      7      -9.3814      2.00000
      8      -8.9961      2.00000
      9      -8.4539      2.00000
     10      -8.0575      2.00000
     11      -7.4318      2.00000
     12      -5.7991      2.00000
     13      -5.4506      2.00000
     14      -5.3700      2.00000
     15      -5.0855      2.00000
     16      -5.0429      2.00000
     17      -4.4136      2.00000
     18      -4.1719      2.00000
     19      -3.6896      2.00000
     20      -3.2731      2.00000
     21      -3.1739      2.00000
     22      -3.1446      2.00000
     23      -2.6183      2.00000
     24      -2.3164      2.00000
     25      -0.5631      0.00000
     26       0.0981      0.00000
     27       0.3211      0.00000
     28       0.4526      0.00000
     29       0.6942      0.00000
     30       0.8703      0.00000
     31       1.1335      0.00000
     32       1.3858      0.00000

 k-point     5 :       0.2000    0.3333    0.0000
  band No.  band energies     occupation 
      1     -15.8601      2.00000
      2     -15.0468      2.00000
      3     -14.9688      2.00000
      4     -13.3319      2.00000
      5     -13.2492      2.00000
      6      -8.9335      2.00000
      7      -8.8401      2.00000
      8      -8.7437      2.00000
      9      -8.4504      2.00000
     10      -7.9290      2.00000
     11      -7.4275      2.00000
     12      -6.5314      2.00000
     13      -5.8912      2.00000
     14      -5.2061      2.00000
     15      -4.9573      2.00000
     16      -4.8909      2.00000
     17      -4.3901      2.00000
     18      -3.9351      2.00000
     19      -3.8813      2.00000
     20      -3.6982      2.00000
     21      -3.6471      2.00000
     22      -3.2048      2.00000
     23      -2.9453      2.00000
     24      -2.7959      2.00000
     25      -0.4416      0.00000
     26       0.2165      0.00000
     27       0.6528      0.00000
     28       0.7814      0.00000
     29       0.8772      0.00000
     30       1.1067      0.00000
     31       1.2954      0.00000
     32       1.5425      0.00000

 k-point     6 :       0.4000    0.3333    0.0000
  band No.  band energies     occupation 
      1     -15.8301      2.00000
      2     -14.6657      2.00000
      3     -14.5848      2.00000
      4     -14.0530      2.00000
      5     -13.9680      2.00000
      6      -8.5744      2.00000
      7      -8.2925      2.00000
      8      -7.8636      2.00000
      9      -7.5585      2.00000
     10      -7.4784      2.00000
     11      -7.3123      2.00000
     12      -7.1009      2.00000
     13      -6.6392      2.00000
     14      -5.6471      2.00000
     15      -5.5436      2.00000
     16      -4.9768      2.00000
     17      -4.5060      2.00000
     18      -4.4601      2.00000
     19      -4.2626      2.00000
     20      -3.9973      2.00000
     21      -3.7455      2.00000
     22      -3.4583      2.00000
     23      -3.1036      2.00000
     24      -3.0057      2.00000
     25      -0.1084      0.00000
     26       0.3570      0.00000
     27       0.7529      0.00000
     28       1.0761      0.00000
     29       1.2021      0.00000
     30       1.6467      0.00000
     31       1.7755      0.00000
     32       1.9347      0.00000

 k-point     7 :      -0.4000    0.3333    0.0000
  band No.  band energies     occupation 
      1     -15.8301      2.00000
      2     -14.6656      2.00000
      3     -14.5850      2.00000
      4     -14.0529      2.00000
      5     -13.9680      2.00000
      6      -8.5721      2.00000
      7      -8.3079      2.00000
      8      -7.8280      2.00000
      9      -7.5741      2.00000
     10      -7.4793      2.00000
     11      -7.3185      2.00000
     12      -7.1009      2.00000
     13      -6.6391      2.00000
     14      -5.6600      2.00000
     15      -5.5397      2.00000
     16      -4.9633      2.00000
     17      -4.5264      2.00000
     18      -4.4586      2.00000
     19      -4.2444      2.00000
     20      -3.9908      2.00000
     21      -3.7313      2.00000
     22      -3.4932      2.00000
     23      -3.0962      2.00000
     24      -3.0010      2.00000
     25      -0.1383      0.00000
     26       0.4708      0.00000
     27       0.7222      0.00000
     28       0.9157      0.00000
     29       1.3007      0.00000
     30       1.6093      0.00000
     31       1.8162      0.00000
     32       1.8903      0.00000

 k-point     8 :      -0.2000    0.3333    0.0000
  band No.  band energies     occupation 
      1     -15.8601      2.00000
      2     -15.0466      2.00000
      3     -14.9689      2.00000
      4     -13.3318      2.00000
      5     -13.2492      2.00000
      6      -8.9367      2.00000
      7      -8.8377      2.00000
      8      -8.7425      2.00000
      9      -8.4556      2.00000
     10      -7.9165      2.00000
     11      -7.4334      2.00000
     12      -6.5275      2.00000
     13      -5.9074      2.00000
     14      -5.1974      2.00000
     15      -4.9720      2.00000
     16      -4.8939      2.00000
     17      -4.3601      2.00000
     18      -3.9289      2.00000
     19      -3.8832      2.00000
     20      -3.7136      2.00000
     21      -3.6334      2.00000
     22      -3.2315      2.00000
     23      -2.9136      2.00000
     24      -2.8090      2.00000
     25      -0.4700      0.00000
     26       0.2878      0.00000
     27       0.5545      0.00000
     28       0.7898      0.00000
     29       0.9209      0.00000
     30       1.1965      0.00000
     31       1.2946      0.00000
     32       1.6029      0.00000


--------------------------------------------------------------------------------------------------------


 soft charge-density along one line, spin component           1
         0         1         2         3         4         5         6         7         8         9
 total charge-density along one line

 pseudopotential strength for first ion, spin component:           1
  7.181 -16.881  -0.005  -0.002   0.000   0.027   0.009   0.000
-16.881  49.267   0.012   0.004  -0.000  -0.058  -0.020   0.000
 -0.005   0.012   1.704  -0.000   0.000  -6.724   0.001  -0.000
 -0.002   0.004  -0.000   1.709  -0.000   0.001  -6.747   0.000
  0.000  -0.000   0.000  -0.000   1.704  -0.000   0.000  -6.726
  0.027  -0.058  -6.724   0.001  -0.000  28.447  -0.006   0.000
  0.009  -0.020   0.001  -6.747   0.000  -0.006  28.536  -0.001
  0.000   0.000  -0.000   0.000  -6.726   0.000  -0.001  28.453
  0.000  -0.000  -0.000  -0.000  -0.005   0.000   0.000   0.012
 -0.001   0.001  -0.001  -0.004  -0.000   0.003   0.010   0.000
  0.011  -0.012   0.002  -0.002   0.000  -0.005   0.004   0.000
 -0.000   0.000  -0.000  -0.000  -0.001   0.000   0.000   0.003
  0.001  -0.001   0.003  -0.000   0.000  -0.007   0.000  -0.000
 -0.000   0.000   0.000   0.000   0.018  -0.000  -0.000  -0.059
  0.005  -0.008   0.005   0.017   0.000  -0.016  -0.056  -0.000
 -0.041   0.072  -0.007   0.007  -0.000   0.026  -0.024   0.000
  0.001  -0.001   0.000   0.000   0.006  -0.000  -0.000  -0.019
 -0.002   0.004  -0.012   0.000  -0.000   0.041  -0.001   0.000
 total augmentation occupancy for first ion, spin component:           1
  1.390   0.033   0.004   0.014   0.000   0.005   0.001  -0.000  -0.000   0.016  -0.103   0.001  -0.023  -0.000   0.001  -0.005
  0.033   0.001   0.008   0.002  -0.000   0.000   0.000  -0.000  -0.000   0.001  -0.003   0.000  -0.000  -0.000   0.000  -0.000
  0.004   0.008   1.331   0.070  -0.001   0.027   0.002  -0.000   0.000   0.023  -0.074   0.002   0.067   0.000   0.001  -0.003
  0.014   0.002   0.070   0.407   0.006   0.002   0.007   0.000   0.002   0.062   0.008   0.000   0.006   0.000   0.002   0.000
  0.000  -0.000  -0.001   0.006   1.197  -0.000   0.000   0.025   0.247   0.002   0.000   0.036  -0.001   0.008   0.000   0.000
  0.005   0.000   0.027   0.002  -0.000   0.001   0.000  -0.000   0.000   0.001  -0.002   0.000   0.001  -0.000   0.000  -0.000
  0.001   0.000   0.002   0.007   0.000   0.000   0.000   0.000   0.000   0.001   0.000   0.000   0.000   0.000   0.000  -0.000
 -0.000  -0.000  -0.000   0.000   0.025  -0.000   0.000   0.001   0.005   0.000   0.000   0.001  -0.000   0.000   0.000   0.000
 -0.000  -0.000   0.000   0.002   0.247   0.000   0.000   0.005   0.070   0.000   0.000   0.008  -0.000   0.002   0.000   0.000
  0.016   0.001   0.023   0.062   0.002   0.001   0.001   0.000   0.000   0.011  -0.000   0.000  -0.002   0.000   0.000  -0.000
 -0.103  -0.003  -0.074   0.008   0.000  -0.002   0.000   0.000   0.000  -0.000   0.014   0.000  -0.004   0.000  -0.000   0.001
  0.001   0.000   0.002   0.000   0.036   0.000   0.000   0.001   0.008   0.000   0.000   0.022   0.000   0.000   0.000  -0.000
 -0.023  -0.000   0.067   0.006  -0.001   0.001   0.000  -0.000  -0.000  -0.002  -0.004   0.000   0.045  -0.000  -0.000  -0.000
 -0.000  -0.000   0.000   0.000   0.008  -0.000   0.000   0.000   0.002   0.000   0.000   0.000  -0.000   0.000   0.000   0.000
  0.001   0.000   0.001   0.002   0.000   0.000   0.000   0.000   0.000   0.000  -0.000   0.000  -0.000   0.000   0.000  -0.000
 -0.005  -0.000  -0.003   0.000   0.000  -0.000  -0.000   0.000   0.000  -0.000   0.001  -0.000  -0.000   0.000  -0.000   0.000
  0.000   0.000   0.000   0.000   0.001   0.000   0.000   0.000   0.000   0.000  -0.000   0.001   0.000   0.000   0.000  -0.000
 -0.001  -0.000   0.001   0.000  -0.000   0.000   0.000  -0.000  -0.000  -0.000  -0.000   0.000   0.001  -0.000  -0.000  -0.000


------------------------ aborting loop because EDIFF is reached ----------------------------------------


    FORLOC:  cpu time    0.2186: real time    0.2190
    FORHF :  cpu time 1082.6746: real time 1084.9520
    FORNL :  cpu time    6.3719: real time    6.4125
    STRESS:  cpu time   19.2622: real time   19.3923
    FORCOR:  cpu time    8.2079: real time    8.2383
    OFIELD:  cpu time    0.0085: real time    0.0086

  FORCE on cell =-STRESS in cart. coord.  units (eV):
  Direction    XX          YY          ZZ          XY          YZ          ZX
  --------------------------------------------------------------------------------------
  Alpha Z    13.10178    13.10178    13.10178
  Ewald    2354.57943  1926.88759 -2921.68522    -7.63206   -43.01896    -7.34697
  Hartree  2376.35143  2080.65530 -1948.71989    -0.12131   -20.96477    -2.65773
  E(xc)    -120.07127  -120.67475  -118.24180     0.03825    -0.03180    -0.07598
  Local   -5223.25628 -4509.47691  4392.17884     4.93728    59.07502     6.15546
  n-local   224.45150   236.05032   190.98772    -0.53133     0.53580     1.71272
  augment   -29.49574   -31.20884   -27.61855    -0.35665    -0.88457    -0.79967
  Kinetic   435.22641   430.59817   450.33362     3.72265     5.06245     2.82374
  Fock      -31.68760   -31.28322   -30.95708     0.06235     0.16277     0.15432
  -------------------------------------------------------------------------------------
  Total      -0.80035    -5.35057    -0.62060     0.11917    -0.06406    -0.03411
  in kB      -1.40063    -9.36359    -1.08605     0.20855    -0.11210    -0.05969
  external pressure =       -3.95 kB  Pullay stress =        0.00 kB


 VOLUME and BASIS-vectors are now :
 -----------------------------------------------------------------------------
  energy-cutoff  :      450.00
  volume of cell :      915.52
      direct lattice vectors                 reciprocal lattice vectors
     6.019200000  0.000000000  0.000000000     0.166135035  0.000000000  0.000000000
     0.000000000 10.140000000  0.000000000     0.000000000  0.098619329  0.000000000
     0.000000000  0.000000000 15.000000000     0.000000000  0.000000000  0.066666667

  length of vectors
     6.019200000 10.140000000 15.000000000     0.166135035  0.098619329  0.066666667


 FORCES acting on ions:
    Electron-Ion                     Ewald-Force                    Non-Local-Force
 -----------------------------------------------------------------------------------------------
   0.195E+00 0.487E+02 0.373E+02   -.195E+00 -.459E+02 -.363E+02   -.110E-02 -.310E+01 -.100E+01
   -.375E+00 0.481E+02 -.778E+01   0.387E+00 -.454E+02 0.705E+01   -.133E-01 -.305E+01 0.781E+00
   0.969E+00 -.573E+02 0.510E+02   -.108E+01 0.546E+02 -.497E+02   0.125E+00 0.293E+01 -.142E+01
   -.247E+01 -.598E+02 -.330E+01   0.246E+01 0.571E+02 0.244E+01   0.868E-02 0.292E+01 0.894E+00
   0.514E+01 0.536E+02 0.137E+01   -.525E+01 -.515E+02 -.321E+01   0.120E+00 -.233E+01 0.196E+01
   -.165E+01 0.520E+02 0.492E+02   0.185E+01 -.493E+02 -.482E+02   -.215E+00 -.292E+01 -.111E+01
   0.967E+00 -.408E+02 -.313E+01   -.980E+00 0.384E+02 0.250E+01   0.155E-01 0.262E+01 0.688E+00
   -.604E+00 -.446E+02 0.382E+02   0.597E+00 0.417E+02 -.374E+02   0.705E-02 0.320E+01 -.927E+00
   0.116E+00 0.399E+01 0.224E+02   -.456E-01 -.397E+01 -.226E+02   -.747E-01 -.240E-01 0.200E+00
   -.104E+00 0.437E+01 0.194E+02   0.323E-01 -.433E+01 -.194E+02   0.759E-01 -.389E-01 0.323E-01
   0.265E+01 -.553E+01 0.332E+02   -.257E+01 0.560E+01 -.334E+02   -.972E-01 -.595E-01 0.259E+00
   -.340E+01 -.797E+01 0.336E+02   0.325E+01 0.808E+01 -.336E+02   0.152E+00 -.101E+00 -.367E-02
   0.147E+02 -.198E+02 -.192E+03   -.189E+02 0.259E+02 0.189E+03   0.438E+01 -.621E+01 0.361E+01
   -.245E+02 0.138E+02 -.316E+02   0.271E+02 -.150E+02 0.315E+02   -.252E+01 0.118E+01 0.105E+00
   0.613E+01 0.147E+02 -.492E+02   -.663E+01 -.161E+02 0.514E+02   0.483E+00 0.133E+01 -.217E+01
 -----------------------------------------------------------------------------------------------
   -.244E+01 0.368E+01 -.192E+01   -.355E-14 0.355E-14 0.426E-13   0.245E+01 -.366E+01 0.191E+01


 POSITION                                       TOTAL-FORCE (eV/Angst)
 -----------------------------------------------------------------------------------
      2.60256      8.89630      3.53595        -0.001716      0.008031      0.027352
      5.61075      8.90062      3.93296        -0.000798      0.017947     -0.016918
      2.60530      6.25259      3.58263         0.003057      0.005869      0.032961
      5.61942      6.27737      4.04746         0.000087     -0.014466     -0.029584
      2.59153      3.81672      4.16059         0.006676     -0.003535     -0.037397
      5.61331      3.83576      3.63151         0.005174      0.005045      0.010683
      2.59756      1.19839      3.94272         0.001756     -0.005206     -0.007429
      5.60889      1.19823      3.56073        -0.001099     -0.013528      0.023122
      1.09596     10.11558      3.71684        -0.007121      0.000484      0.016497
      4.10444     10.11735      3.74100         0.005352     -0.002491     -0.004138
      1.09990      5.05002      3.84026        -0.014757      0.004268      0.017113
      4.10831      5.05503      3.91243         0.011084      0.002780     -0.034139
      3.36493      4.43806      6.99470         0.005664      0.028957     -0.027919
      4.86560      3.73173      6.93516        -0.003082     -0.004425     -0.006281
      3.05012      3.57365      8.40604        -0.010278     -0.029729      0.036074
 -----------------------------------------------------------------------------------
    total drift:                                0.007434      0.005104     -0.020543


--------------------------------------------------------------------------------------------------------



  FREE ENERGIE OF THE ION-ELECTRON SYSTEM (eV)
  ---------------------------------------------------
  free  energy   TOTEN  =       -80.14064908 eV

  energy  without entropy=      -80.14064908  energy(sigma->0) =      -80.14064908

 d Force = 0.7548426E-04[-0.611E-05, 0.157E-03]  d Energy = 0.7341762E-04 0.207E-05
 d Force = 0.2404792E+00[ 0.240E+00, 0.241E+00]  d Ewald  = 0.2404792E+00 0.246E-07


--------------------------------------------------------------------------------------------------------


    POTLOK:  cpu time    9.1738: real time    9.2147


--------------------------------------------------------------------------------------------------------


 stress matrix after NEB project (eV)
     -0.80035      0.11917     -0.03411
      0.11917     -5.35057     -0.06406
     -0.03411     -0.06406     -0.62060
  FORCES: max atom, RMS     0.047863    0.028606
  FORCE total and by dimension    0.110792    0.037397
  Stress total and by dimension    5.449147    5.350567


--------------------------------------------------------------------------------------------------------


    WAVPRE:  cpu time    0.5261: real time    1.0423
    FEWALD:  cpu time    0.0024: real time    0.0024
    ORTHCH:  cpu time    2.5719: real time    2.5871
    CHARGE:  cpu time    1.5765: real time    1.5934
     LOOP+:  cpu time 5690.2577: real time 5714.2595


--------------------------------------- Iteration      6(   1)  ---------------------------------------


    POTLOK:  cpu time    8.2546: real time    8.2989
    SETDIJ:  cpu time    0.9396: real time    0.9475
    TRIAL :  cpu time  640.5304: real time  644.9835
    CORREC:  cpu time    0.0004: real time    0.0004
    CHARGE:  cpu time    1.5797: real time    1.5965
    --------------------------------------------
      LOOP:  cpu time  651.3681: real time  655.8905

 eigenvalue-minimisations  :     0
 total energy-change (2. order) : 0.1820898E-02  (-0.2239424E-02)
 number of electron      48.0000002 magnetization 
 augmentation part       -1.2496213 magnetization 

 Free energy of the ion-electron system (eV)
  ---------------------------------------------------
  alpha Z        PSCENC =        13.10177784
  Ewald energy   TEWEN  =      1359.83070197
  -Hartree energ DENC   =     -2508.28965065
  -exchange      EXHF   =        75.35146495
  -V(xc)+E(xc)   XCENC  =      -142.12069013
  PAW double counting   =      1711.12043511    -1481.98611102
  entropy T*S    EENTRO =        -0.00000000
  eigenvalues    EBANDS =      -358.33998539
  atomic energy  EATOM  =      1251.19323263
  ---------------------------------------------------
  free energy    TOTEN  =       -80.13882469 eV

  energy without entropy =      -80.13882469  energy(sigma->0) =      -80.13882469
  exchange ACFDT corr.  =        -0.00000000  see jH, gK, PRB 81, 115126


--------------------------------------------------------------------------------------------------------




--------------------------------------- Iteration      6(   2)  ---------------------------------------


    POTLOK:  cpu time    8.2759: real time    8.2904
    SETDIJ:  cpu time    0.9452: real time    0.9487
    TRIAL :  cpu time  641.2156: real time  643.6822
    CORREC:  cpu time    0.0003: real time    0.0003
    CHARGE:  cpu time    1.5841: real time    1.5907
    --------------------------------------------
      LOOP:  cpu time  652.0227: real time  654.5146

 eigenvalue-minimisations  :     0
 total energy-change (2. order) :-0.1481042E-02  (-0.8484440E-03)
 number of electron      48.0000002 magnetization 
 augmentation part       -1.2496284 magnetization 

 Free energy of the ion-electron system (eV)
  ---------------------------------------------------
  alpha Z        PSCENC =        13.10177784
  Ewald energy   TEWEN  =      1359.83070197
  -Hartree energ DENC   =     -2508.22402372
  -exchange      EXHF   =        75.35274578
  -V(xc)+E(xc)   XCENC  =      -142.11945424
  PAW double counting   =      1711.16021087    -1482.02573020
  entropy T*S    EENTRO =        -0.00000000
  eigenvalues    EBANDS =      -358.40976666
  atomic energy  EATOM  =      1251.19323263
  ---------------------------------------------------
  free energy    TOTEN  =       -80.14030573 eV

  energy without entropy =      -80.14030573  energy(sigma->0) =      -80.14030573
  exchange ACFDT corr.  =        -0.00000000  see jH, gK, PRB 81, 115126


--------------------------------------------------------------------------------------------------------




--------------------------------------- Iteration      6(   3)  ---------------------------------------


    POTLOK:  cpu time    8.3070: real time    8.3356
    SETDIJ:  cpu time    0.9516: real time    0.9549
    TRIAL :  cpu time  640.2493: real time  643.8042
    CORREC:  cpu time    0.0008: real time    0.0008
    CHARGE:  cpu time    1.5651: real time    1.5700
    --------------------------------------------
      LOOP:  cpu time  651.0759: real time  654.6685

 eigenvalue-minimisations  :     0
 total energy-change (2. order) :-0.5254449E-03  (-0.2749462E-03)
 number of electron      48.0000002 magnetization 
 augmentation part       -1.2497289 magnetization 

 Free energy of the ion-electron system (eV)
  ---------------------------------------------------
  alpha Z        PSCENC =        13.10177784
  Ewald energy   TEWEN  =      1359.83070197
  -Hartree energ DENC   =     -2508.26250300
  -exchange      EXHF   =        75.35371196
  -V(xc)+E(xc)   XCENC  =      -142.11870822
  PAW double counting   =      1711.19165997    -1482.05719048
  entropy T*S    EENTRO =        -0.00000000
  eigenvalues    EBANDS =      -358.37351385
  atomic energy  EATOM  =      1251.19323263
  ---------------------------------------------------
  free energy    TOTEN  =       -80.14083117 eV

  energy without entropy =      -80.14083117  energy(sigma->0) =      -80.14083117
  exchange ACFDT corr.  =        -0.00000000  see jH, gK, PRB 81, 115126


--------------------------------------------------------------------------------------------------------




--------------------------------------- Iteration      6(   4)  ---------------------------------------


    POTLOK:  cpu time    8.2602: real time    8.2912
    SETDIJ:  cpu time    0.9512: real time    0.9552
    TRIAL :  cpu time  641.3839: real time  643.7462
    CORREC:  cpu time    0.0004: real time    0.0004
    CHARGE:  cpu time    1.5759: real time    1.5821
    --------------------------------------------
      LOOP:  cpu time  652.1737: real time  654.5782

 eigenvalue-minimisations  :     0
 total energy-change (2. order) :-0.1623723E-03  (-0.8552955E-04)
 number of electron      48.0000002 magnetization 
 augmentation part       -1.2497582 magnetization 

 Free energy of the ion-electron system (eV)
  ---------------------------------------------------
  alpha Z        PSCENC =        13.10177784
  Ewald energy   TEWEN  =      1359.83070197
  -Hartree energ DENC   =     -2508.30369326
  -exchange      EXHF   =        75.35366560
  -V(xc)+E(xc)   XCENC  =      -142.11875444
  PAW double counting   =      1711.18828432    -1482.05372702
  entropy T*S    EENTRO =        -0.00000000
  eigenvalues    EBANDS =      -358.33248119
  atomic energy  EATOM  =      1251.19323263
  ---------------------------------------------------
  free energy    TOTEN  =       -80.14099355 eV

  energy without entropy =      -80.14099355  energy(sigma->0) =      -80.14099355
  exchange ACFDT corr.  =        -0.00000000  see jH, gK, PRB 81, 115126


--------------------------------------------------------------------------------------------------------




--------------------------------------- Iteration      6(   5)  ---------------------------------------


    POTLOK:  cpu time    8.2817: real time    8.3114
    SETDIJ:  cpu time    0.9312: real time    0.9356
    TRIAL :  cpu time  643.9383: real time  646.1681
    CORREC:  cpu time    0.0004: real time    0.0004
    CHARGE:  cpu time    1.5749: real time    1.5815
    --------------------------------------------
      LOOP:  cpu time  654.7270: real time  656.9981

 eigenvalue-minimisations  :     0
 total energy-change (2. order) :-0.4071480E-04  (-0.1928774E-04)
 number of electron      48.0000002 magnetization 
 augmentation part       -1.2497233 magnetization 

 Free energy of the ion-electron system (eV)
  ---------------------------------------------------
  alpha Z        PSCENC =        13.10177784
  Ewald energy   TEWEN  =      1359.83070197
  -Hartree energ DENC   =     -2508.30722655
  -exchange      EXHF   =        75.35347132
  -V(xc)+E(xc)   XCENC  =      -142.11889339
  PAW double counting   =      1711.17993861    -1482.04532294
  entropy T*S    EENTRO =        -0.00000000
  eigenvalues    EBANDS =      -358.32871374
  atomic energy  EATOM  =      1251.19323263
  ---------------------------------------------------
  free energy    TOTEN  =       -80.14103426 eV

  energy without entropy =      -80.14103426  energy(sigma->0) =      -80.14103426
  exchange ACFDT corr.  =        -0.00000000  see jH, gK, PRB 81, 115126


--------------------------------------------------------------------------------------------------------




--------------------------------------- Iteration      6(   6)  ---------------------------------------


    POTLOK:  cpu time    8.2594: real time    8.2904
    SETDIJ:  cpu time    0.9516: real time    0.9556
    TRIAL :  cpu time  635.9015: real time  640.2286
    CORREC:  cpu time    0.0008: real time    0.0008
    CHARGE:  cpu time    1.5819: real time    1.5926
    --------------------------------------------
      LOOP:  cpu time  646.6960: real time  651.0695

 eigenvalue-minimisations  :     0
 total energy-change (2. order) :-0.8845191E-05  (-0.1170099E-04)
 number of electron      48.0000002 magnetization 
 augmentation part       -1.2497021 magnetization 

 Free energy of the ion-electron system (eV)
  ---------------------------------------------------
  alpha Z        PSCENC =        13.10177784
  Ewald energy   TEWEN  =      1359.83070197
  -Hartree energ DENC   =     -2508.29938818
  -exchange      EXHF   =        75.35348553
  -V(xc)+E(xc)   XCENC  =      -142.11893339
  PAW double counting   =      1711.17751290    -1482.04294826
  entropy T*S    EENTRO =        -0.00000000
  eigenvalues    EBANDS =      -358.33648413
  atomic energy  EATOM  =      1251.19323263
  ---------------------------------------------------
  free energy    TOTEN  =       -80.14104311 eV

  energy without entropy =      -80.14104311  energy(sigma->0) =      -80.14104311
  exchange ACFDT corr.  =        -0.00000000  see jH, gK, PRB 81, 115126


--------------------------------------------------------------------------------------------------------




--------------------------------------- Iteration      6(   7)  ---------------------------------------


    POTLOK:  cpu time    8.2645: real time    8.3083
    SETDIJ:  cpu time    0.9479: real time    0.9506
    TRIAL :  cpu time  642.3197: real time  644.6212
    CORREC:  cpu time    0.0005: real time    0.0005
    EDDIAG:  cpu time  633.6567: real time  635.6236
    CHARGE:  cpu time    1.5798: real time    1.5845
    --------------------------------------------
      LOOP:  cpu time 1286.7696: real time 1291.0900

 eigenvalue-minimisations  :     0
 total energy-change (2. order) :-0.6927567E-05  (-0.6050482E-05)
 number of electron      48.0000002 magnetization 
 augmentation part       -1.2497121 magnetization 

 Free energy of the ion-electron system (eV)
  ---------------------------------------------------
  alpha Z        PSCENC =        13.10177784
  Ewald energy   TEWEN  =      1359.83070197
  -Hartree energ DENC   =     -2508.29714322
  -exchange      EXHF   =        75.35361985
  -V(xc)+E(xc)   XCENC  =      -142.11888891
  PAW double counting   =      1711.18278064    -1482.04822878
  entropy T*S    EENTRO =        -0.00000000
  eigenvalues    EBANDS =      -358.33884928
  atomic energy  EATOM  =      1251.19323263
  ---------------------------------------------------
  free energy    TOTEN  =       -80.14105003 eV

  energy without entropy =      -80.14105003  energy(sigma->0) =      -80.14105003
  exchange ACFDT corr.  =        -0.00000000  see jH, gK, PRB 81, 115126


--------------------------------------------------------------------------------------------------------


  average scaling for gradient   0.9325


 average (electrostatic) potential at core
  the test charge radii are     1.0406  0.6991  1.1897  0.5883
  (the norm of the test charge is              1.0000)
       1 -54.8656       2 -54.8521       3 -54.8636       4 -54.8823       5 -54.9053
       6 -54.9444       7 -54.8001       8 -54.8798       9 -51.0070      10 -51.0055
      11 -51.0723      12 -51.1292      13 -93.2297      14 -34.3107      15 -33.8258



 E-fermi :  -2.0529     XC(G=0):  -2.9210     alpha+bet : -2.8557


 k-point     1 :       0.0000    0.0000    0.0000
  band No.  band energies     occupation 
      1     -15.8795      2.00000
      2     -15.2109      2.00000
      3     -15.0557      2.00000
      4     -12.9421      2.00000
      5     -12.8408      2.00000
      6      -9.6110      2.00000
      7      -9.3301      2.00000
      8      -9.2936      2.00000
      9      -8.4424      2.00000
     10      -7.4579      2.00000
     11      -6.9769      2.00000
     12      -6.4231      2.00000
     13      -5.9707      2.00000
     14      -5.5225      2.00000
     15      -5.1657      2.00000
     16      -4.9171      2.00000
     17      -4.4783      2.00000
     18      -4.3706      2.00000
     19      -3.4141      2.00000
     20      -3.1832      2.00000
     21      -3.1429      2.00000
     22      -2.6319      2.00000
     23      -2.3254      2.00000
     24      -2.3013      2.00000
     25      -0.7772      0.00000
     26      -0.2413      0.00000
     27       0.2522      0.00000
     28       0.6063      0.00000
     29       0.7629      0.00000
     30       0.9274      0.00000
     31       1.0835      0.00000
     32       1.3657      0.00000

 k-point     2 :       0.2000    0.0000    0.0000
  band No.  band energies     occupation 
      1     -15.8584      2.00000
      2     -15.0845      2.00000
      3     -14.9298      2.00000
      4     -13.3524      2.00000
      5     -13.2309      2.00000
      6      -9.1500      2.00000
      7      -8.9625      2.00000
      8      -8.6891      2.00000
      9      -8.4576      2.00000
     10      -7.4677      2.00000
     11      -6.8528      2.00000
     12      -6.7806      2.00000
     13      -6.2917      2.00000
     14      -5.4271      2.00000
     15      -5.2215      2.00000
     16      -4.8064      2.00000
     17      -4.4578      2.00000
     18      -3.9610      2.00000
     19      -3.8954      2.00000
     20      -3.8527      2.00000
     21      -3.7156      2.00000
     22      -3.0230      2.00000
     23      -2.7687      2.00000
     24      -2.2900      2.00000
     25      -0.7801      0.00000
     26       0.4447      0.00000
     27       0.7540      0.00000
     28       0.7971      0.00000
     29       1.0306      0.00000
     30       1.0653      0.00000
     31       1.1625      0.00000
     32       1.6278      0.00000

 k-point     3 :       0.4000    0.0000    0.0000
  band No.  band energies     occupation 
      1     -15.8277      2.00000
      2     -14.7023      2.00000
      3     -14.5483      2.00000
      4     -14.0831      2.00000
      5     -13.9388      2.00000
      6      -8.7060      2.00000
      7      -8.4604      2.00000
      8      -7.9179      2.00000
      9      -7.6778      2.00000
     10      -7.3560      2.00000
     11      -7.1333      2.00000
     12      -6.4865      2.00000
     13      -6.1554      2.00000
     14      -5.9504      2.00000
     15      -5.5188      2.00000
     16      -5.2275      2.00000
     17      -5.0447      2.00000
     18      -4.7739      2.00000
     19      -4.4580      2.00000
     20      -4.2135      2.00000
     21      -3.7417      2.00000
     22      -3.4408      2.00000
     23      -2.8122      2.00000
     24      -2.3753      2.00000
     25      -0.4505      0.00000
     26       0.2458      0.00000
     27       0.9153      0.00000
     28       1.3219      0.00000
     29       1.4062      0.00000
     30       1.6113      0.00000
     31       1.7244      0.00000
     32       2.1819      0.00000

 k-point     4 :       0.0000    0.3333    0.0000
  band No.  band energies     occupation 
      1     -15.8785      2.00000
      2     -15.1767      2.00000
      3     -15.0957      2.00000
      4     -12.9316      2.00000
      5     -12.8522      2.00000
      6      -9.5598      2.00000
      7      -9.3825      2.00000
      8      -8.9982      2.00000
      9      -8.4531      2.00000
     10      -8.0593      2.00000
     11      -7.4291      2.00000
     12      -5.8016      2.00000
     13      -5.4506      2.00000
     14      -5.3716      2.00000
     15      -5.0854      2.00000
     16      -5.0442      2.00000
     17      -4.4136      2.00000
     18      -4.1745      2.00000
     19      -3.6915      2.00000
     20      -3.2752      2.00000
     21      -3.1777      2.00000
     22      -3.1454      2.00000
     23      -2.6177      2.00000
     24      -2.3161      2.00000
     25      -0.5652      0.00000
     26       0.0979      0.00000
     27       0.3184      0.00000
     28       0.4523      0.00000
     29       0.6937      0.00000
     30       0.8703      0.00000
     31       1.1322      0.00000
     32       1.3828      0.00000

 k-point     5 :       0.2000    0.3333    0.0000
  band No.  band energies     occupation 
      1     -15.8577      2.00000
      2     -15.0486      2.00000
      3     -14.9708      2.00000
      4     -13.3346      2.00000
      5     -13.2503      2.00000
      6      -8.9358      2.00000
      7      -8.8421      2.00000
      8      -8.7448      2.00000
      9      -8.4497      2.00000
     10      -7.9306      2.00000
     11      -7.4254      2.00000
     12      -6.5336      2.00000
     13      -5.8933      2.00000
     14      -5.2063      2.00000
     15      -4.9590      2.00000
     16      -4.8907      2.00000
     17      -4.3893      2.00000
     18      -3.9377      2.00000
     19      -3.8828      2.00000
     20      -3.7007      2.00000
     21      -3.6494      2.00000
     22      -3.2068      2.00000
     23      -2.9460      2.00000
     24      -2.7961      2.00000
     25      -0.4434      0.00000
     26       0.2162      0.00000
     27       0.6507      0.00000
     28       0.7803      0.00000
     29       0.8781      0.00000
     30       1.1067      0.00000
     31       1.2936      0.00000
     32       1.5358      0.00000

 k-point     6 :       0.4000    0.3333    0.0000
  band No.  band energies     occupation 
      1     -15.8275      2.00000
      2     -14.6682      2.00000
      3     -14.5865      2.00000
      4     -14.0556      2.00000
      5     -13.9693      2.00000
      6      -8.5736      2.00000
      7      -8.2938      2.00000
      8      -7.8620      2.00000
      9      -7.5604      2.00000
     10      -7.4809      2.00000
     11      -7.3132      2.00000
     12      -7.1028      2.00000
     13      -6.6415      2.00000
     14      -5.6497      2.00000
     15      -5.5451      2.00000
     16      -4.9765      2.00000
     17      -4.5064      2.00000
     18      -4.4611      2.00000
     19      -4.2631      2.00000
     20      -3.9996      2.00000
     21      -3.7454      2.00000
     22      -3.4589      2.00000
     23      -3.1059      2.00000
     24      -3.0084      2.00000
     25      -0.1093      0.00000
     26       0.3569      0.00000
     27       0.7524      0.00000
     28       1.0750      0.00000
     29       1.2015      0.00000
     30       1.6397      0.00000
     31       1.7734      0.00000
     32       1.9099      0.00000

 k-point     7 :      -0.4000    0.3333    0.0000
  band No.  band energies     occupation 
      1     -15.8275      2.00000
      2     -14.6680      2.00000
      3     -14.5866      2.00000
      4     -14.0555      2.00000
      5     -13.9693      2.00000
      6      -8.5713      2.00000
      7      -8.3090      2.00000
      8      -7.8269      2.00000
      9      -7.5761      2.00000
     10      -7.4812      2.00000
     11      -7.3194      2.00000
     12      -7.1030      2.00000
     13      -6.6414      2.00000
     14      -5.6621      2.00000
     15      -5.5414      2.00000
     16      -4.9632      2.00000
     17      -4.5268      2.00000
     18      -4.4595      2.00000
     19      -4.2454      2.00000
     20      -3.9929      2.00000
     21      -3.7313      2.00000
     22      -3.4936      2.00000
     23      -3.0984      2.00000
     24      -3.0039      2.00000
     25      -0.1388      0.00000
     26       0.4704      0.00000
     27       0.7217      0.00000
     28       0.9150      0.00000
     29       1.2989      0.00000
     30       1.6075      0.00000
     31       1.8122      0.00000
     32       1.8889      0.00000

 k-point     8 :      -0.2000    0.3333    0.0000
  band No.  band energies     occupation 
      1     -15.8577      2.00000
      2     -15.0485      2.00000
      3     -14.9709      2.00000
      4     -13.3345      2.00000
      5     -13.2504      2.00000
      6      -8.9389      2.00000
      7      -8.8397      2.00000
      8      -8.7437      2.00000
      9      -8.4548      2.00000
     10      -7.9183      2.00000
     11      -7.4310      2.00000
     12      -6.5298      2.00000
     13      -5.9092      2.00000
     14      -5.1974      2.00000
     15      -4.9733      2.00000
     16      -4.8943      2.00000
     17      -4.3597      2.00000
     18      -3.9315      2.00000
     19      -3.8847      2.00000
     20      -3.7158      2.00000
     21      -3.6360      2.00000
     22      -3.2330      2.00000
     23      -2.9148      2.00000
     24      -2.8090      2.00000
     25      -0.4714      0.00000
     26       0.2874      0.00000
     27       0.5524      0.00000
     28       0.7899      0.00000
     29       0.9180      0.00000
     30       1.1950      0.00000
     31       1.2825      0.00000
     32       1.6002      0.00000


--------------------------------------------------------------------------------------------------------


 soft charge-density along one line, spin component           1
         0         1         2         3         4         5         6         7         8         9
 total charge-density along one line

 pseudopotential strength for first ion, spin component:           1
  7.181 -16.881  -0.005  -0.002  -0.000   0.027   0.009   0.000
-16.881  49.268   0.012   0.004   0.000  -0.058  -0.020  -0.000
 -0.005   0.012   1.704  -0.000   0.000  -6.724   0.001  -0.000
 -0.002   0.004  -0.000   1.709  -0.000   0.001  -6.747   0.000
 -0.000   0.000   0.000  -0.000   1.704  -0.000   0.000  -6.726
  0.027  -0.058  -6.724   0.001  -0.000  28.447  -0.005   0.000
  0.009  -0.020   0.001  -6.747   0.000  -0.005  28.537  -0.001
  0.000  -0.000  -0.000   0.000  -6.726   0.000  -0.001  28.453
  0.000  -0.000  -0.000  -0.000  -0.005   0.000   0.000   0.012
 -0.001   0.001  -0.001  -0.004  -0.000   0.003   0.010   0.000
  0.011  -0.012   0.002  -0.002   0.000  -0.005   0.004  -0.000
 -0.000   0.000  -0.000  -0.000  -0.001   0.000   0.000   0.003
  0.001  -0.001   0.003  -0.000   0.000  -0.007   0.000  -0.000
 -0.000   0.000   0.000   0.000   0.018  -0.000  -0.000  -0.059
  0.005  -0.008   0.005   0.017   0.000  -0.016  -0.056  -0.000
 -0.041   0.072  -0.007   0.007  -0.000   0.026  -0.024   0.000
  0.001  -0.001   0.000   0.000   0.006  -0.000  -0.000  -0.019
 -0.002   0.004  -0.012   0.000   0.000   0.041  -0.001  -0.000
 total augmentation occupancy for first ion, spin component:           1
  1.390   0.033   0.004   0.014   0.000   0.005   0.001  -0.000  -0.000   0.016  -0.103   0.001  -0.023  -0.000   0.001  -0.005
  0.033   0.001   0.008   0.002  -0.000   0.000   0.000  -0.000  -0.000   0.001  -0.003   0.000  -0.000  -0.000   0.000  -0.000
  0.004   0.008   1.331   0.070  -0.000   0.027   0.002  -0.000   0.000   0.023  -0.074   0.002   0.068   0.000   0.001  -0.003
  0.014   0.002   0.070   0.407   0.006   0.002   0.007   0.000   0.002   0.062   0.008   0.000   0.006   0.000   0.002   0.000
  0.000  -0.000  -0.000   0.006   1.196  -0.000   0.000   0.025   0.247   0.002   0.000   0.036  -0.001   0.008   0.000   0.000
  0.005   0.000   0.027   0.002  -0.000   0.001   0.000  -0.000   0.000   0.001  -0.002   0.000   0.001  -0.000   0.000  -0.000
  0.001   0.000   0.002   0.007   0.000   0.000   0.000   0.000   0.000   0.001   0.000   0.000   0.000   0.000   0.000  -0.000
 -0.000  -0.000  -0.000   0.000   0.025  -0.000   0.000   0.001   0.005   0.000   0.000   0.001  -0.000   0.000   0.000   0.000
 -0.000  -0.000   0.000   0.002   0.247   0.000   0.000   0.005   0.070   0.000   0.000   0.008  -0.000   0.002   0.000   0.000
  0.016   0.001   0.023   0.062   0.002   0.001   0.001   0.000   0.000   0.011  -0.000   0.000  -0.002   0.000   0.000  -0.000
 -0.103  -0.003  -0.074   0.008   0.000  -0.002   0.000   0.000   0.000  -0.000   0.014   0.000  -0.004   0.000  -0.000   0.001
  0.001   0.000   0.002   0.000   0.036   0.000   0.000   0.001   0.008   0.000   0.000   0.022   0.000   0.000   0.000  -0.000
 -0.023  -0.000   0.068   0.006  -0.001   0.001   0.000  -0.000  -0.000  -0.002  -0.004   0.000   0.045  -0.000  -0.000  -0.000
 -0.000  -0.000   0.000   0.000   0.008  -0.000   0.000   0.000   0.002   0.000   0.000   0.000  -0.000   0.000   0.000   0.000
  0.001   0.000   0.001   0.002   0.000   0.000   0.000   0.000   0.000   0.000  -0.000   0.000  -0.000   0.000   0.000  -0.000
 -0.005  -0.000  -0.003   0.000   0.000  -0.000  -0.000   0.000   0.000  -0.000   0.001  -0.000  -0.000   0.000  -0.000   0.000
  0.000   0.000   0.000   0.000   0.001   0.000   0.000   0.000   0.000   0.000  -0.000   0.001   0.000   0.000   0.000  -0.000
 -0.001  -0.000   0.001   0.000  -0.000   0.000   0.000  -0.000  -0.000  -0.000  -0.000   0.000   0.001  -0.000  -0.000  -0.000


------------------------ aborting loop because EDIFF is reached ----------------------------------------


    FORLOC:  cpu time    0.2199: real time    0.2203
    FORHF :  cpu time 1080.4673: real time 1083.2063
    FORNL :  cpu time    6.3670: real time    6.3874
    STRESS:  cpu time   19.1638: real time   19.2458
    FORCOR:  cpu time    8.2171: real time    8.2389
    OFIELD:  cpu time    0.0088: real time    0.0089

  FORCE on cell =-STRESS in cart. coord.  units (eV):
  Direction    XX          YY          ZZ          XY          YZ          ZX
  --------------------------------------------------------------------------------------
  Alpha Z    13.10178    13.10178    13.10178
  Ewald    2354.84879  1927.35286 -2922.37244    -7.73356   -42.89578    -7.39515
  Hartree  2376.44170  2080.79512 -1948.93781    -0.14836   -20.92650    -2.66305
  E(xc)    -120.07322  -120.67826  -118.24315     0.03829    -0.03182    -0.07579
  Local   -5223.60510 -4510.04995  4393.04008     5.05660    58.91745     6.19390
  n-local   224.45063   236.07396   190.97112    -0.53056     0.53897     1.70937
  augment   -29.49494   -31.20857   -27.61965    -0.35819    -0.88507    -0.80071
  Kinetic   435.22944   430.57706   450.40188     3.72816     5.05107     2.84454
  Fock      -31.68983   -31.28549   -30.95743     0.06289     0.16269     0.15475
  -------------------------------------------------------------------------------------
  Total      -0.79074    -5.32150    -0.61562     0.11528    -0.06899    -0.03215
  in kB      -1.38381    -9.31272    -1.07735     0.20174    -0.12074    -0.05626
  external pressure =       -3.92 kB  Pullay stress =        0.00 kB


 VOLUME and BASIS-vectors are now :
 -----------------------------------------------------------------------------
  energy-cutoff  :      450.00
  volume of cell :      915.52
      direct lattice vectors                 reciprocal lattice vectors
     6.019200000  0.000000000  0.000000000     0.166135035  0.000000000  0.000000000
     0.000000000 10.140000000  0.000000000     0.000000000  0.098619329  0.000000000
     0.000000000  0.000000000 15.000000000     0.000000000  0.000000000  0.066666667

  length of vectors
     6.019200000 10.140000000 15.000000000     0.166135035  0.098619329  0.066666667


 FORCES acting on ions:
    Electron-Ion                     Ewald-Force                    Non-Local-Force
 -----------------------------------------------------------------------------------------------
   0.208E+00 0.487E+02 0.371E+02   -.205E+00 -.459E+02 -.362E+02   -.399E-02 -.309E+01 -.996E+00
   -.372E+00 0.482E+02 -.766E+01   0.384E+00 -.454E+02 0.694E+01   -.140E-01 -.305E+01 0.776E+00
   0.101E+01 -.573E+02 0.507E+02   -.112E+01 0.546E+02 -.494E+02   0.116E+00 0.293E+01 -.140E+01
   -.245E+01 -.598E+02 -.313E+01   0.245E+01 0.572E+02 0.228E+01   0.529E-02 0.293E+01 0.888E+00
   0.512E+01 0.536E+02 0.156E+01   -.523E+01 -.515E+02 -.339E+01   0.120E+00 -.234E+01 0.195E+01
   -.169E+01 0.520E+02 0.491E+02   0.189E+01 -.494E+02 -.481E+02   -.205E+00 -.293E+01 -.111E+01
   0.961E+00 -.408E+02 -.308E+01   -.974E+00 0.384E+02 0.244E+01   0.168E-01 0.261E+01 0.687E+00
   -.608E+00 -.446E+02 0.381E+02   0.601E+00 0.417E+02 -.372E+02   0.689E-02 0.320E+01 -.921E+00
   0.739E-01 0.398E+01 0.223E+02   -.387E-02 -.396E+01 -.225E+02   -.701E-01 -.239E-01 0.203E+00
   -.659E-01 0.436E+01 0.195E+02   -.603E-02 -.432E+01 -.195E+02   0.711E-01 -.360E-01 0.410E-01
   0.259E+01 -.554E+01 0.330E+02   -.251E+01 0.561E+01 -.332E+02   -.868E-01 -.580E-01 0.245E+00
   -.333E+01 -.794E+01 0.338E+02   0.319E+01 0.806E+01 -.338E+02   0.141E+00 -.963E-01 -.122E-02
   0.147E+02 -.199E+02 -.192E+03   -.189E+02 0.260E+02 0.189E+03   0.439E+01 -.622E+01 0.362E+01
   -.245E+02 0.138E+02 -.316E+02   0.271E+02 -.150E+02 0.315E+02   -.252E+01 0.118E+01 0.107E+00
   0.613E+01 0.147E+02 -.491E+02   -.663E+01 -.161E+02 0.514E+02   0.482E+00 0.133E+01 -.217E+01
 -----------------------------------------------------------------------------------------------
   -.245E+01 0.368E+01 -.192E+01   -.533E-14 0.355E-14 0.639E-13   0.245E+01 -.367E+01 0.193E+01


 POSITION                                       TOTAL-FORCE (eV/Angst)
 -----------------------------------------------------------------------------------
      2.60244      8.89615      3.53754        -0.001561      0.012991      0.027320
      5.61074      8.90050      3.93203        -0.001394      0.016232     -0.016512
      2.60550      6.25288      3.58475        -0.001793      0.006960      0.027849
      5.61930      6.27726      4.04564         0.001604     -0.006708     -0.027835
      2.59194      3.81686      4.15805         0.004711     -0.005483     -0.032513
      5.61332      3.83581      3.63207         0.010098     -0.002707      0.009928
      2.59762      1.19873      3.94238         0.002706     -0.013315     -0.011428
      5.60884      1.19836      3.56206        -0.001047     -0.012644      0.021155
      1.09573     10.11565      3.71767        -0.002188      0.001774      0.023455
      4.10458     10.11723      3.74069         0.000821     -0.000884     -0.002391
      1.09956      5.05007      3.84131        -0.007534      0.007649      0.018816
      4.10878      5.05487      3.91059         0.003878      0.007438     -0.043808
      3.36479      4.43850      6.99537         0.011577      0.017243     -0.024122
      4.86563      3.73141      6.93463        -0.010711     -0.000172     -0.005072
      3.04984      3.57311      8.40623        -0.009167     -0.028373      0.035159
 -----------------------------------------------------------------------------------
    total drift:                                0.003117      0.002939     -0.000858


--------------------------------------------------------------------------------------------------------



  FREE ENERGIE OF THE ION-ELECTRON SYSTEM (eV)
  ---------------------------------------------------
  free  energy   TOTEN  =       -80.14105003 eV

  energy  without entropy=      -80.14105003  energy(sigma->0) =      -80.14105003

 d Force = 0.4372481E-03[ 0.425E-03, 0.450E-03]  d Energy = 0.4009516E-03 0.363E-04
 d Force =-0.4741086E-01[-0.462E-01,-0.486E-01]  d Ewald  =-0.4741113E-01 0.271E-06


--------------------------------------------------------------------------------------------------------


    POTLOK:  cpu time    9.2333: real time    9.2509


--------------------------------------------------------------------------------------------------------


 stress matrix after NEB project (eV)
     -0.79074      0.11528     -0.03215
      0.11528     -5.32150     -0.06899
     -0.03215     -0.06899     -0.61562
  FORCES: max atom, RMS     0.046101    0.027868
  FORCE total and by dimension    0.107932    0.043808
  Stress total and by dimension    5.418559    5.321500
 Conjugate gradient step on ions:
 trial-energy change:   -0.000401  1 .order   -0.000437   -0.000450   -0.000425
  (g-gl).g = 0.423E-03      g.g   = 0.415E-03  gl.gl    = 0.668E-03
 g(Force)  = 0.415E-03   g(Stress)= 0.000E+00 ortho     =-0.100E-04
 gamma     =   0.63309
 trial     =   1.10177
 opt step  =   4.40708  (harmonic =  19.85559) maximal distance =0.00847286
 next E    =   -80.144701   (d E  =  -0.00405)


--------------------------------------------------------------------------------------------------------


    WAVPRE:  cpu time    0.5284: real time    1.0154
    FEWALD:  cpu time    0.0024: real time    0.0024
    ORTHCH:  cpu time    2.6612: real time    2.6685
    CHARGE:  cpu time    1.5481: real time    1.5536
     LOOP+:  cpu time 6351.2880: real time 6379.0412


--------------------------------------- Iteration      7(   1)  ---------------------------------------


    POTLOK:  cpu time    8.2770: real time    8.2956
    SETDIJ:  cpu time    0.9530: real time    0.9561
    TRIAL :  cpu time  645.4840: real time  647.8024
    CORREC:  cpu time    0.0003: real time    0.0003
    CHARGE:  cpu time    1.5681: real time    1.5781
    --------------------------------------------
      LOOP:  cpu time  656.3442: real time  658.6954

 eigenvalue-minimisations  :     0
 total energy-change (2. order) : 0.1920119E-01  (-0.2039096E-01)
 number of electron      48.0000002 magnetization 
 augmentation part       -1.2493077 magnetization 

 Free energy of the ion-electron system (eV)
  ---------------------------------------------------
  alpha Z        PSCENC =        13.10177784
  Ewald energy   TEWEN  =      1359.95844793
  -Hartree energ DENC   =     -2508.30268713
  -exchange      EXHF   =        75.35322245
  -V(xc)+E(xc)   XCENC  =      -142.11984512
  PAW double counting   =      1711.54303320    -1482.40971204
  entropy T*S    EENTRO =        -0.00000000
  eigenvalues    EBANDS =      -358.43931167
  atomic energy  EATOM  =      1251.19323263
  ---------------------------------------------------
  free energy    TOTEN  =       -80.12184192 eV

  energy without entropy =      -80.12184192  energy(sigma->0) =      -80.12184192
  exchange ACFDT corr.  =        -0.00000000  see jH, gK, PRB 81, 115126


--------------------------------------------------------------------------------------------------------




--------------------------------------- Iteration      7(   2)  ---------------------------------------


    POTLOK:  cpu time    8.2581: real time    8.2876
    SETDIJ:  cpu time    0.9287: real time    0.9324
    TRIAL :  cpu time  644.5180: real time  647.3814
    CORREC:  cpu time    0.0004: real time    0.0004
    CHARGE:  cpu time    1.5764: real time    1.5810
    --------------------------------------------
      LOOP:  cpu time  655.2820: real time  658.1841

 eigenvalue-minimisations  :     0
 total energy-change (2. order) :-0.1352250E-01  (-0.7582817E-02)
 number of electron      48.0000002 magnetization 
 augmentation part       -1.2492765 magnetization 

 Free energy of the ion-electron system (eV)
  ---------------------------------------------------
  alpha Z        PSCENC =        13.10177784
  Ewald energy   TEWEN  =      1359.95844793
  -Hartree energ DENC   =     -2508.08532730
  -exchange      EXHF   =        75.35589282
  -V(xc)+E(xc)   XCENC  =      -142.11697945
  PAW double counting   =      1711.63980513    -1482.50592444
  entropy T*S    EENTRO =        -0.00000000
  eigenvalues    EBANDS =      -358.67628959
  atomic energy  EATOM  =      1251.19323263
  ---------------------------------------------------
  free energy    TOTEN  =       -80.13536442 eV

  energy without entropy =      -80.13536442  energy(sigma->0) =      -80.13536442
  exchange ACFDT corr.  =        -0.00000000  see jH, gK, PRB 81, 115126


--------------------------------------------------------------------------------------------------------




--------------------------------------- Iteration      7(   3)  ---------------------------------------


    POTLOK:  cpu time    8.3011: real time    8.3385
    SETDIJ:  cpu time    0.9486: real time    0.9507
    TRIAL :  cpu time  631.8468: real time  635.6273
    CORREC:  cpu time    0.0004: real time    0.0004
    CHARGE:  cpu time    1.5786: real time    1.5855
    --------------------------------------------
      LOOP:  cpu time  642.6762: real time  646.5038

 eigenvalue-minimisations  :     0
 total energy-change (2. order) :-0.4637517E-02  (-0.2376532E-02)
 number of electron      48.0000002 magnetization 
 augmentation part       -1.2495534 magnetization 

 Free energy of the ion-electron system (eV)
  ---------------------------------------------------
  alpha Z        PSCENC =        13.10177784
  Ewald energy   TEWEN  =      1359.95844793
  -Hartree energ DENC   =     -2508.18609373
  -exchange      EXHF   =        75.35844566
  -V(xc)+E(xc)   XCENC  =      -142.11497904
  PAW double counting   =      1711.72521577    -1482.59138610
  entropy T*S    EENTRO =        -0.00000000
  eigenvalues    EBANDS =      -358.58466290
  atomic energy  EATOM  =      1251.19323263
  ---------------------------------------------------
  free energy    TOTEN  =       -80.14000194 eV

  energy without entropy =      -80.14000194  energy(sigma->0) =      -80.14000194
  exchange ACFDT corr.  =        -0.00000000  see jH, gK, PRB 81, 115126


--------------------------------------------------------------------------------------------------------




--------------------------------------- Iteration      7(   4)  ---------------------------------------


    POTLOK:  cpu time    8.2720: real time    8.3055
    SETDIJ:  cpu time    0.9370: real time    0.9422
    TRIAL :  cpu time  637.1187: real time  640.6190
    CORREC:  cpu time    0.0004: real time    0.0004
    CHARGE:  cpu time    1.5702: real time    1.5789
    --------------------------------------------
      LOOP:  cpu time  647.8990: real time  651.4474

 eigenvalue-minimisations  :     0
 total energy-change (2. order) :-0.1346190E-02  (-0.6672284E-03)
 number of electron      48.0000002 magnetization 
 augmentation part       -1.2496466 magnetization 

 Free energy of the ion-electron system (eV)
  ---------------------------------------------------
  alpha Z        PSCENC =        13.10177784
  Ewald energy   TEWEN  =      1359.95844793
  -Hartree energ DENC   =     -2508.31647526
  -exchange      EXHF   =        75.35858481
  -V(xc)+E(xc)   XCENC  =      -142.11493290
  PAW double counting   =      1711.72588547    -1482.59192414
  entropy T*S    EENTRO =        -0.00000000
  eigenvalues    EBANDS =      -358.45594451
  atomic energy  EATOM  =      1251.19323263
  ---------------------------------------------------
  free energy    TOTEN  =       -80.14134813 eV

  energy without entropy =      -80.14134813  energy(sigma->0) =      -80.14134813
  exchange ACFDT corr.  =        -0.00000000  see jH, gK, PRB 81, 115126


--------------------------------------------------------------------------------------------------------




--------------------------------------- Iteration      7(   5)  ---------------------------------------


    POTLOK:  cpu time    8.2778: real time    8.3085
    SETDIJ:  cpu time    0.9404: real time    0.9443
    TRIAL :  cpu time  633.5799: real time  637.4780
    CORREC:  cpu time    0.0004: real time    0.0004
    CHARGE:  cpu time    1.5689: real time    1.5798
    --------------------------------------------
      LOOP:  cpu time  644.3680: real time  648.3126

 eigenvalue-minimisations  :     0
 total energy-change (2. order) :-0.2990202E-03  (-0.1650786E-03)
 number of electron      48.0000002 magnetization 
 augmentation part       -1.2495543 magnetization 

 Free energy of the ion-electron system (eV)
  ---------------------------------------------------
  alpha Z        PSCENC =        13.10177784
  Ewald energy   TEWEN  =      1359.95844793
  -Hartree energ DENC   =     -2508.33151377
  -exchange      EXHF   =        75.35820242
  -V(xc)+E(xc)   XCENC  =      -142.11514783
  PAW double counting   =      1711.71462122    -1482.58050098
  entropy T*S    EENTRO =        -0.00000000
  eigenvalues    EBANDS =      -358.44076662
  atomic energy  EATOM  =      1251.19323263
  ---------------------------------------------------
  free energy    TOTEN  =       -80.14164715 eV

  energy without entropy =      -80.14164715  energy(sigma->0) =      -80.14164715
  exchange ACFDT corr.  =        -0.00000000  see jH, gK, PRB 81, 115126


--------------------------------------------------------------------------------------------------------




--------------------------------------- Iteration      7(   6)  ---------------------------------------


    POTLOK:  cpu time    8.2717: real time    8.3042
    SETDIJ:  cpu time    0.9385: real time    0.9419
    TRIAL :  cpu time  638.2599: real time  641.7194
    CORREC:  cpu time    0.0004: real time    0.0004
    CHARGE:  cpu time    1.5687: real time    1.5752
    --------------------------------------------
      LOOP:  cpu time  649.0402: real time  652.5430

 eigenvalue-minimisations  :     0
 total energy-change (2. order) :-0.7602288E-04  (-0.1116559E-03)
 number of electron      48.0000002 magnetization 
 augmentation part       -1.2494919 magnetization 

 Free energy of the ion-electron system (eV)
  ---------------------------------------------------
  alpha Z        PSCENC =        13.10177784
  Ewald energy   TEWEN  =      1359.95844793
  -Hartree energ DENC   =     -2508.30535736
  -exchange      EXHF   =        75.35826057
  -V(xc)+E(xc)   XCENC  =      -142.11517753
  PAW double counting   =      1711.71572440    -1482.58170435
  entropy T*S    EENTRO =        -0.00000000
  eigenvalues    EBANDS =      -358.46692731
  atomic energy  EATOM  =      1251.19323263
  ---------------------------------------------------
  free energy    TOTEN  =       -80.14172317 eV

  energy without entropy =      -80.14172317  energy(sigma->0) =      -80.14172317
  exchange ACFDT corr.  =        -0.00000000  see jH, gK, PRB 81, 115126


--------------------------------------------------------------------------------------------------------




--------------------------------------- Iteration      7(   7)  ---------------------------------------


    POTLOK:  cpu time    8.2536: real time    8.2892
    SETDIJ:  cpu time    0.9344: real time    0.9385
    TRIAL :  cpu time  635.6636: real time  639.3740
    CORREC:  cpu time    0.0011: real time    0.0011
    CHARGE:  cpu time    1.5890: real time    1.5969
    --------------------------------------------
      LOOP:  cpu time  646.4421: real time  650.2011

 eigenvalue-minimisations  :     0
 total energy-change (2. order) :-0.6884706E-04  (-0.5498782E-04)
 number of electron      48.0000002 magnetization 
 augmentation part       -1.2495137 magnetization 

 Free energy of the ion-electron system (eV)
  ---------------------------------------------------
  alpha Z        PSCENC =        13.10177784
  Ewald energy   TEWEN  =      1359.95844793
  -Hartree energ DENC   =     -2508.29906174
  -exchange      EXHF   =        75.35847040
  -V(xc)+E(xc)   XCENC  =      -142.11511998
  PAW double counting   =      1711.72746878    -1482.59351471
  entropy T*S    EENTRO =        -0.00000000
  eigenvalues    EBANDS =      -358.47349318
  atomic energy  EATOM  =      1251.19323263
  ---------------------------------------------------
  free energy    TOTEN  =       -80.14179202 eV

  energy without entropy =      -80.14179202  energy(sigma->0) =      -80.14179202
  exchange ACFDT corr.  =        -0.00000000  see jH, gK, PRB 81, 115126


--------------------------------------------------------------------------------------------------------




--------------------------------------- Iteration      7(   8)  ---------------------------------------


    POTLOK:  cpu time    8.2694: real time    8.2868
    SETDIJ:  cpu time    0.9479: real time    0.9499
    TRIAL :  cpu time  642.7465: real time  646.3771
    CORREC:  cpu time    0.0003: real time    0.0003
    CHARGE:  cpu time    1.5706: real time    1.5830
    --------------------------------------------
      LOOP:  cpu time  653.5352: real time  657.1984

 eigenvalue-minimisations  :     0
 total energy-change (2. order) :-0.3541103E-04  (-0.2296980E-04)
 number of electron      48.0000002 magnetization 
 augmentation part       -1.2495539 magnetization 

 Free energy of the ion-electron system (eV)
  ---------------------------------------------------
  alpha Z        PSCENC =        13.10177784
  Ewald energy   TEWEN  =      1359.95844793
  -Hartree energ DENC   =     -2508.30587922
  -exchange      EXHF   =        75.35860391
  -V(xc)+E(xc)   XCENC  =      -142.11507557
  PAW double counting   =      1711.74446467    -1482.61051202
  entropy T*S    EENTRO =        -0.00000000
  eigenvalues    EBANDS =      -358.46688761
  atomic energy  EATOM  =      1251.19323263
  ---------------------------------------------------
  free energy    TOTEN  =       -80.14182743 eV

  energy without entropy =      -80.14182743  energy(sigma->0) =      -80.14182743
  exchange ACFDT corr.  =        -0.00000000  see jH, gK, PRB 81, 115126


--------------------------------------------------------------------------------------------------------




--------------------------------------- Iteration      7(   9)  ---------------------------------------


    POTLOK:  cpu time    8.2644: real time    8.3001
    SETDIJ:  cpu time    0.9402: real time    0.9444
    TRIAL :  cpu time  644.6080: real time  648.2557
    CORREC:  cpu time    0.0004: real time    0.0004
    CHARGE:  cpu time    1.5698: real time    1.5745
    --------------------------------------------
      LOOP:  cpu time  655.3832: real time  659.0765

 eigenvalue-minimisations  :     0
 total energy-change (2. order) :-0.1405495E-04  (-0.7709680E-05)
 number of electron      48.0000002 magnetization 
 augmentation part       -1.2495678 magnetization 

 Free energy of the ion-electron system (eV)
  ---------------------------------------------------
  alpha Z        PSCENC =        13.10177784
  Ewald energy   TEWEN  =      1359.95844793
  -Hartree energ DENC   =     -2508.31201685
  -exchange      EXHF   =        75.35864304
  -V(xc)+E(xc)   XCENC  =      -142.11507774
  PAW double counting   =      1711.75369787    -1482.61974811
  entropy T*S    EENTRO =        -0.00000000
  eigenvalues    EBANDS =      -358.46079810
  atomic energy  EATOM  =      1251.19323263
  ---------------------------------------------------
  free energy    TOTEN  =       -80.14184148 eV

  energy without entropy =      -80.14184148  energy(sigma->0) =      -80.14184148
  exchange ACFDT corr.  =        -0.00000000  see jH, gK, PRB 81, 115126


--------------------------------------------------------------------------------------------------------




--------------------------------------- Iteration      7(  10)  ---------------------------------------


    POTLOK:  cpu time    8.2631: real time    8.2931
    SETDIJ:  cpu time    0.9441: real time    0.9486
    TRIAL :  cpu time  644.4499: real time  648.0620
    CORREC:  cpu time    0.0006: real time    0.0006
    EDDIAG:  cpu time  636.1569: real time  637.8241
    CHARGE:  cpu time    1.5438: real time    1.5492
    --------------------------------------------
      LOOP:  cpu time 1291.3592: real time 1296.6790

 eigenvalue-minimisations  :     0
 total energy-change (2. order) :-0.4608191E-05  (-0.2959983E-05)
 number of electron      48.0000002 magnetization 
 augmentation part       -1.2495634 magnetization 

 Free energy of the ion-electron system (eV)
  ---------------------------------------------------
  alpha Z        PSCENC =        13.10177784
  Ewald energy   TEWEN  =      1359.95844793
  -Hartree energ DENC   =     -2508.31510967
  -exchange      EXHF   =        75.35871199
  -V(xc)+E(xc)   XCENC  =      -142.11507396
  PAW double counting   =      1711.75425571    -1482.62033604
  entropy T*S    EENTRO =        -0.00000000
  eigenvalues    EBANDS =      -358.45772479
  atomic energy  EATOM  =      1251.19323263
  ---------------------------------------------------
  free energy    TOTEN  =       -80.14184609 eV

  energy without entropy =      -80.14184609  energy(sigma->0) =      -80.14184609
  exchange ACFDT corr.  =        -0.00000000  see jH, gK, PRB 81, 115126


--------------------------------------------------------------------------------------------------------


  average scaling for gradient   0.9445


 average (electrostatic) potential at core
  the test charge radii are     1.0406  0.6991  1.1897  0.5883
  (the norm of the test charge is              1.0000)
       1 -54.8681       2 -54.8514       3 -54.8689       4 -54.8809       5 -54.9092
       6 -54.9431       7 -54.8069       8 -54.8799       9 -51.0093      10 -51.0074
      11 -51.0746      12 -51.1312      13 -93.2266      14 -34.3014      15 -33.8283



 E-fermi :  -2.0167     XC(G=0):  -2.9209     alpha+bet : -2.8557


 k-point     1 :       0.0000    0.0000    0.0000
  band No.  band energies     occupation 
      1     -15.8719      2.00000
      2     -15.2150      2.00000
      3     -15.0609      2.00000
      4     -12.9490      2.00000
      5     -12.8435      2.00000
      6      -9.6175      2.00000
      7      -9.3338      2.00000
      8      -9.2994      2.00000
      9      -8.4387      2.00000
     10      -7.4471      2.00000
     11      -6.9832      2.00000
     12      -6.4285      2.00000
     13      -5.9775      2.00000
     14      -5.5194      2.00000
     15      -5.1713      2.00000
     16      -4.9166      2.00000
     17      -4.4825      2.00000
     18      -4.3723      2.00000
     19      -3.4159      2.00000
     20      -3.1933      2.00000
     21      -3.1447      2.00000
     22      -2.6294      2.00000
     23      -2.3300      2.00000
     24      -2.2998      2.00000
     25      -0.7876      0.00000
     26      -0.2482      0.00000
     27       0.2517      0.00000
     28       0.6032      0.00000
     29       0.7665      0.00000
     30       0.9300      0.00000
     31       1.0806      0.00000
     32       1.3659      0.00000

 k-point     2 :       0.2000    0.0000    0.0000
  band No.  band energies     occupation 
      1     -15.8502      2.00000
      2     -15.0894      2.00000
      3     -14.9348      2.00000
      4     -13.3591      2.00000
      5     -13.2340      2.00000
      6      -9.1553      2.00000
      7      -8.9687      2.00000
      8      -8.6921      2.00000
      9      -8.4541      2.00000
     10      -7.4578      2.00000
     11      -6.8596      2.00000
     12      -6.7858      2.00000
     13      -6.2969      2.00000
     14      -5.4319      2.00000
     15      -5.2226      2.00000
     16      -4.8047      2.00000
     17      -4.4548      2.00000
     18      -3.9669      2.00000
     19      -3.8975      2.00000
     20      -3.8600      2.00000
     21      -3.7235      2.00000
     22      -3.0225      2.00000
     23      -2.7677      2.00000
     24      -2.2959      2.00000
     25      -0.7851      0.00000
     26       0.4438      0.00000
     27       0.7465      0.00000
     28       0.8031      0.00000
     29       1.0302      0.00000
     30       1.0636      0.00000
     31       1.1605      0.00000
     32       1.5885      0.00000

 k-point     3 :       0.4000    0.0000    0.0000
  band No.  band energies     occupation 
      1     -15.8190      2.00000
      2     -14.7084      2.00000
      3     -14.5527      2.00000
      4     -14.0894      2.00000
      5     -13.9424      2.00000
      6      -8.7087      2.00000
      7      -8.4585      2.00000
      8      -7.9163      2.00000
      9      -7.6809      2.00000
     10      -7.3562      2.00000
     11      -7.1376      2.00000
     12      -6.4923      2.00000
     13      -6.1597      2.00000
     14      -5.9561      2.00000
     15      -5.5242      2.00000
     16      -5.2323      2.00000
     17      -5.0460      2.00000
     18      -4.7776      2.00000
     19      -4.4577      2.00000
     20      -4.2143      2.00000
     21      -3.7406      2.00000
     22      -3.4410      2.00000
     23      -2.8191      2.00000
     24      -2.3817      2.00000
     25      -0.4521      0.00000
     26       0.2439      0.00000
     27       0.9152      0.00000
     28       1.3215      0.00000
     29       1.4060      0.00000
     30       1.6096      0.00000
     31       1.7214      0.00000
     32       2.1575      0.00000

 k-point     4 :       0.0000    0.3333    0.0000
  band No.  band energies     occupation 
      1     -15.8708      2.00000
      2     -15.1805      2.00000
      3     -15.1012      2.00000
      4     -12.9390      2.00000
      5     -12.8544      2.00000
      6      -9.5673      2.00000
      7      -9.3851      2.00000
      8      -9.0035      2.00000
      9      -8.4502      2.00000
     10      -8.0639      2.00000
     11      -7.4202      2.00000
     12      -5.8083      2.00000
     13      -5.4500      2.00000
     14      -5.3752      2.00000
     15      -5.0848      2.00000
     16      -5.0471      2.00000
     17      -4.4129      2.00000
     18      -4.1811      2.00000
     19      -3.6963      2.00000
     20      -3.2804      2.00000
     21      -3.1886      2.00000
     22      -3.1467      2.00000
     23      -2.6153      2.00000
     24      -2.3145      2.00000
     25      -0.5709      0.00000
     26       0.0977      0.00000
     27       0.3112      0.00000
     28       0.4517      0.00000
     29       0.6929      0.00000
     30       0.8706      0.00000
     31       1.1307      0.00000
     32       1.3801      0.00000

 k-point     5 :       0.2000    0.3333    0.0000
  band No.  band energies     occupation 
      1     -15.8496      2.00000
      2     -15.0534      2.00000
      3     -14.9758      2.00000
      4     -13.3420      2.00000
      5     -13.2527      2.00000
      6      -8.9419      2.00000
      7      -8.8472      2.00000
      8      -8.7470      2.00000
      9      -8.4472      2.00000
     10      -7.9347      2.00000
     11      -7.4180      2.00000
     12      -6.5392      2.00000
     13      -5.8988      2.00000
     14      -5.2062      2.00000
     15      -4.9632      2.00000
     16      -4.8897      2.00000
     17      -4.3860      2.00000
     18      -3.9447      2.00000
     19      -3.8860      2.00000
     20      -3.7073      2.00000
     21      -3.6554      2.00000
     22      -3.2119      2.00000
     23      -2.9471      2.00000
     24      -2.7958      2.00000
     25      -0.4485      0.00000
     26       0.2156      0.00000
     27       0.6454      0.00000
     28       0.7780      0.00000
     29       0.8817      0.00000
     30       1.1072      0.00000
     31       1.2904      0.00000
     32       1.5277      0.00000

 k-point     6 :       0.4000    0.3333    0.0000
  band No.  band energies     occupation 
      1     -15.8188      2.00000
      2     -14.6748      2.00000
      3     -14.5903      2.00000
      4     -14.0626      2.00000
      5     -13.9722      2.00000
      6      -8.5710      2.00000
      7      -8.2969      2.00000
      8      -7.8564      2.00000
      9      -7.5654      2.00000
     10      -7.4874      2.00000
     11      -7.3148      2.00000
     12      -7.1075      2.00000
     13      -6.6475      2.00000
     14      -5.6567      2.00000
     15      -5.5486      2.00000
     16      -4.9747      2.00000
     17      -4.5070      2.00000
     18      -4.4631      2.00000
     19      -4.2636      2.00000
     20      -4.0056      2.00000
     21      -3.7446      2.00000
     22      -3.4601      2.00000
     23      -3.1119      2.00000
     24      -3.0160      2.00000
     25      -0.1113      0.00000
     26       0.3574      0.00000
     27       0.7515      0.00000
     28       1.0720      0.00000
     29       1.2002      0.00000
     30       1.6279      0.00000
     31       1.7706      0.00000
     32       1.8805      0.00000

 k-point     7 :      -0.4000    0.3333    0.0000
  band No.  band energies     occupation 
      1     -15.8188      2.00000
      2     -14.6747      2.00000
      3     -14.5904      2.00000
      4     -14.0626      2.00000
      5     -13.9722      2.00000
      6      -8.5686      2.00000
      7      -8.3114      2.00000
      8      -7.8232      2.00000
      9      -7.5811      2.00000
     10      -7.4860      2.00000
     11      -7.3210      2.00000
     12      -7.1082      2.00000
     13      -6.6477      2.00000
     14      -5.6679      2.00000
     15      -5.5452      2.00000
     16      -4.9617      2.00000
     17      -4.5274      2.00000
     18      -4.4615      2.00000
     19      -4.2474      2.00000
     20      -3.9985      2.00000
     21      -3.7304      2.00000
     22      -3.4943      2.00000
     23      -3.1039      2.00000
     24      -3.0119      2.00000
     25      -0.1396      0.00000
     26       0.4697      0.00000
     27       0.7207      0.00000
     28       0.9138      0.00000
     29       1.2947      0.00000
     30       1.6054      0.00000
     31       1.8060      0.00000
     32       1.8880      0.00000

 k-point     8 :      -0.2000    0.3333    0.0000
  band No.  band energies     occupation 
      1     -15.8496      2.00000
      2     -15.0533      2.00000
      3     -14.9760      2.00000
      4     -13.3420      2.00000
      5     -13.2528      2.00000
      6      -8.9446      2.00000
      7      -8.8451      2.00000
      8      -8.7463      2.00000
      9      -8.4521      2.00000
     10      -7.9229      2.00000
     11      -7.4231      2.00000
     12      -6.5357      2.00000
     13      -5.9140      2.00000
     14      -5.1963      2.00000
     15      -4.9766      2.00000
     16      -4.8946      2.00000
     17      -4.3577      2.00000
     18      -3.9391      2.00000
     19      -3.8879      2.00000
     20      -3.7216      2.00000
     21      -3.6430      2.00000
     22      -3.2365      2.00000
     23      -2.9175      2.00000
     24      -2.8081      2.00000
     25      -0.4751      0.00000
     26       0.2871      0.00000
     27       0.5474      0.00000
     28       0.7907      0.00000
     29       0.9159      0.00000
     30       1.1936      0.00000
     31       1.2654      0.00000
     32       1.5950      0.00000


--------------------------------------------------------------------------------------------------------


 soft charge-density along one line, spin component           1
         0         1         2         3         4         5         6         7         8         9
 total charge-density along one line

 pseudopotential strength for first ion, spin component:           1
  7.181 -16.881  -0.005  -0.002  -0.000   0.027   0.009   0.000
-16.881  49.268   0.012   0.004   0.000  -0.058  -0.019  -0.000
 -0.005   0.012   1.704  -0.000   0.000  -6.724   0.001  -0.000
 -0.002   0.004  -0.000   1.709  -0.000   0.001  -6.747   0.000
 -0.000   0.000   0.000  -0.000   1.704  -0.000   0.000  -6.726
  0.027  -0.058  -6.724   0.001  -0.000  28.448  -0.005   0.000
  0.009  -0.019   0.001  -6.747   0.000  -0.005  28.537  -0.001
  0.000  -0.000  -0.000   0.000  -6.726   0.000  -0.001  28.454
  0.000  -0.000  -0.000  -0.000  -0.005   0.000   0.000   0.012
 -0.001   0.001  -0.001  -0.004  -0.000   0.003   0.010   0.000
  0.011  -0.012   0.002  -0.002   0.000  -0.005   0.004  -0.000
 -0.000   0.000  -0.000  -0.000  -0.001   0.000   0.000   0.003
  0.001  -0.001   0.003  -0.000  -0.000  -0.007   0.000   0.000
 -0.000   0.000   0.000   0.000   0.018  -0.000  -0.000  -0.059
  0.004  -0.008   0.005   0.017   0.000  -0.016  -0.056  -0.000
 -0.041   0.072  -0.007   0.007  -0.000   0.026  -0.024   0.000
  0.000  -0.001   0.000   0.000   0.006  -0.000  -0.000  -0.019
 -0.002   0.004  -0.012   0.000   0.000   0.041  -0.001  -0.000
 total augmentation occupancy for first ion, spin component:           1
  1.390   0.033   0.003   0.013   0.001   0.005   0.001   0.000  -0.000   0.015  -0.103   0.001  -0.023  -0.000   0.001  -0.005
  0.033   0.001   0.008   0.002   0.000   0.000   0.000   0.000  -0.000   0.001  -0.003   0.000  -0.000  -0.000   0.000  -0.000
  0.003   0.008   1.332   0.068  -0.000   0.027   0.002  -0.000   0.000   0.023  -0.074   0.001   0.068   0.000   0.001  -0.003
  0.013   0.002   0.068   0.407   0.005   0.002   0.007   0.000   0.001   0.062   0.008   0.000   0.006   0.000   0.002   0.000
  0.001   0.000  -0.000   0.005   1.196  -0.000   0.000   0.025   0.247   0.001   0.000   0.035  -0.000   0.008   0.000   0.000
  0.005   0.000   0.027   0.002  -0.000   0.001   0.000  -0.000   0.000   0.001  -0.002   0.000   0.001   0.000   0.000  -0.000
  0.001   0.000   0.002   0.007   0.000   0.000   0.000   0.000   0.000   0.001   0.000   0.000   0.000   0.000   0.000  -0.000
  0.000   0.000  -0.000   0.000   0.025  -0.000   0.000   0.001   0.005   0.000   0.000   0.001  -0.000   0.000   0.000   0.000
 -0.000  -0.000   0.000   0.001   0.247   0.000   0.000   0.005   0.070   0.000   0.000   0.007  -0.000   0.002   0.000   0.000
  0.015   0.001   0.023   0.062   0.001   0.001   0.001   0.000   0.000   0.011  -0.000   0.000  -0.002   0.000   0.000  -0.000
 -0.103  -0.003  -0.074   0.008   0.000  -0.002   0.000   0.000   0.000  -0.000   0.014   0.000  -0.004   0.000  -0.000   0.001
  0.001   0.000   0.001   0.000   0.035   0.000   0.000   0.001   0.007   0.000   0.000   0.022   0.000   0.000   0.000  -0.000
 -0.023  -0.000   0.068   0.006  -0.000   0.001   0.000  -0.000  -0.000  -0.002  -0.004   0.000   0.045  -0.000  -0.000  -0.000
 -0.000  -0.000   0.000   0.000   0.008   0.000   0.000   0.000   0.002   0.000   0.000   0.000  -0.000   0.000   0.000   0.000
  0.001   0.000   0.001   0.002   0.000   0.000   0.000   0.000   0.000   0.000  -0.000   0.000  -0.000   0.000   0.000  -0.000
 -0.005  -0.000  -0.003   0.000   0.000  -0.000  -0.000   0.000   0.000  -0.000   0.001  -0.000  -0.000   0.000  -0.000   0.000
  0.000   0.000   0.000   0.000   0.001   0.000   0.000   0.000   0.000   0.000  -0.000   0.001   0.000   0.000   0.000  -0.000
 -0.001  -0.000   0.001   0.000  -0.000   0.000   0.000  -0.000  -0.000  -0.000  -0.000   0.000   0.001  -0.000  -0.000  -0.000


------------------------ aborting loop because EDIFF is reached ----------------------------------------


    FORLOC:  cpu time    0.2197: real time    0.2201
    FORHF :  cpu time 1074.9494: real time 1077.0626
    FORNL :  cpu time    6.3549: real time    6.3807
    STRESS:  cpu time   19.2293: real time   19.3379
    FORCOR:  cpu time    8.2154: real time    8.2418
    OFIELD:  cpu time    0.0092: real time    0.0092

  FORCE on cell =-STRESS in cart. coord.  units (eV):
  Direction    XX          YY          ZZ          XY          YZ          ZX
  --------------------------------------------------------------------------------------
  Alpha Z    13.10178    13.10178    13.10178
  Ewald    2355.62934  1928.72690 -2924.39929    -8.03174   -42.52436    -7.53759
  Hartree  2376.69340  2081.19729 -1949.57480    -0.22855   -20.81228    -2.67767
  E(xc)    -120.07918  -120.68885  -118.24752     0.03837    -0.03189    -0.07520
  Local   -5224.60175 -4511.73006  4395.56295     5.40575    58.44586     6.30772
  n-local   224.44467   236.13851   190.91771    -0.52694     0.54976     1.69920
  augment   -29.49224   -31.20734   -27.62323    -0.36327    -0.88625    -0.80325
  Kinetic   435.23611   430.51169   450.58525     3.74462     5.01628     2.90633
  Fock      -31.69553   -31.29123   -30.95773     0.06455     0.16234     0.15591
  -------------------------------------------------------------------------------------
  Total      -0.76338    -5.24131    -0.63488     0.10280    -0.08052    -0.02453
  in kB      -1.33593    -9.17239    -1.11104     0.17990    -0.14091    -0.04293
  external pressure =       -3.87 kB  Pullay stress =        0.00 kB


 VOLUME and BASIS-vectors are now :
 -----------------------------------------------------------------------------
  energy-cutoff  :      450.00
  volume of cell :      915.52
      direct lattice vectors                 reciprocal lattice vectors
     6.019200000  0.000000000  0.000000000     0.166135035  0.000000000  0.000000000
     0.000000000 10.140000000  0.000000000     0.000000000  0.098619329  0.000000000
     0.000000000  0.000000000 15.000000000     0.000000000  0.000000000  0.066666667

  length of vectors
     6.019200000 10.140000000 15.000000000     0.166135035  0.098619329  0.066666667


 FORCES acting on ions:
    Electron-Ion                     Ewald-Force                    Non-Local-Force
 -----------------------------------------------------------------------------------------------
   0.246E+00 0.486E+02 0.367E+02   -.236E+00 -.458E+02 -.357E+02   -.124E-01 -.308E+01 -.981E+00
   -.365E+00 0.482E+02 -.731E+01   0.376E+00 -.454E+02 0.659E+01   -.155E-01 -.307E+01 0.764E+00
   0.113E+01 -.574E+02 0.500E+02   -.123E+01 0.547E+02 -.487E+02   0.884E-01 0.292E+01 -.136E+01
   -.240E+01 -.599E+02 -.263E+01   0.242E+01 0.573E+02 0.180E+01   -.473E-02 0.296E+01 0.872E+00
   0.506E+01 0.536E+02 0.216E+01   -.517E+01 -.515E+02 -.394E+01   0.119E+00 -.235E+01 0.192E+01
   -.182E+01 0.522E+02 0.489E+02   0.201E+01 -.496E+02 -.479E+02   -.176E+00 -.296E+01 -.111E+01
   0.944E+00 -.407E+02 -.293E+01   -.958E+00 0.383E+02 0.228E+01   0.204E-01 0.258E+01 0.686E+00
   -.619E+00 -.446E+02 0.377E+02   0.612E+00 0.417E+02 -.369E+02   0.633E-02 0.321E+01 -.904E+00
   -.450E-01 0.395E+01 0.221E+02   0.121E+00 -.392E+01 -.223E+02   -.464E-01 -.228E-01 0.197E+00
   0.446E-01 0.434E+01 0.197E+02   -.121E+00 -.430E+01 -.198E+02   0.495E-01 -.239E-01 0.682E-01
   0.242E+01 -.555E+01 0.324E+02   -.234E+01 0.562E+01 -.326E+02   -.369E-01 -.571E-01 0.190E+00
   -.315E+01 -.788E+01 0.343E+02   0.302E+01 0.799E+01 -.344E+02   0.885E-01 -.829E-01 0.354E-01
   0.146E+02 -.199E+02 -.192E+03   -.189E+02 0.260E+02 0.189E+03   0.442E+01 -.623E+01 0.365E+01
   -.245E+02 0.138E+02 -.315E+02   0.270E+02 -.150E+02 0.314E+02   -.251E+01 0.118E+01 0.114E+00
   0.614E+01 0.148E+02 -.491E+02   -.663E+01 -.162E+02 0.513E+02   0.483E+00 0.134E+01 -.216E+01
 -----------------------------------------------------------------------------------------------
   -.247E+01 0.371E+01 -.198E+01   -.799E-14 0.355E-13 0.213E-13   0.247E+01 -.368E+01 0.198E+01


 POSITION                                       TOTAL-FORCE (eV/Angst)
 -----------------------------------------------------------------------------------
      2.60205      8.89569      3.54233        -0.001865      0.027072      0.027819
      5.61069      8.90015      3.92923        -0.003930      0.009619     -0.014579
      2.60609      6.25375      3.59110        -0.017877      0.009392      0.015136
      5.61894      6.27695      4.04017         0.005429      0.017014     -0.019897
      2.59316      3.81727      4.15042        -0.002588     -0.012165     -0.013015
      5.61334      3.83595      3.63375         0.024725     -0.027670      0.010663
      2.59779      1.19976      3.94133         0.004592     -0.037530     -0.022325
      5.60869      1.19874      3.56605        -0.001226     -0.010890      0.016319
      1.09502     10.11587      3.72014         0.028919      0.005289      0.013210
      4.10500     10.11688      3.73974        -0.026657      0.008806      0.005470
      1.09854      5.05025      3.84448         0.045011      0.009486     -0.002929
      4.11018      5.05438      3.90504        -0.049112      0.018627     -0.014369
      3.36437      4.43983      6.99740         0.032684     -0.010463     -0.027939
      4.86570      3.73047      6.93302        -0.033829      0.012510     -0.000106
      3.04902      3.57148      8.40679        -0.004277     -0.019097      0.026541
 -----------------------------------------------------------------------------------
    total drift:                                0.003471      0.009350     -0.003653


--------------------------------------------------------------------------------------------------------



  FREE ENERGIE OF THE ION-ELECTRON SYSTEM (eV)
  ---------------------------------------------------
  free  energy   TOTEN  =       -80.14184609 eV

  energy  without entropy=      -80.14184609  energy(sigma->0) =      -80.14184609

 d Force = 0.8371718E-03[ 0.400E-03, 0.127E-02]  d Energy = 0.7960579E-03 0.411E-04
 d Force =-0.1277390E+00[-0.117E+00,-0.139E+00]  d Ewald  =-0.1277460E+00 0.700E-05


--------------------------------------------------------------------------------------------------------


    POTLOK:  cpu time    9.1856: real time    9.2193


--------------------------------------------------------------------------------------------------------


 stress matrix after NEB project (eV)
     -0.76338      0.10280     -0.02453
      0.10280     -5.24131     -0.08052
     -0.02453     -0.08052     -0.63488
  FORCES: max atom, RMS     0.054456    0.035218
  FORCE total and by dimension    0.136400    0.049112
  Stress total and by dimension    5.337831    5.241309


--------------------------------------------------------------------------------------------------------


    WAVPRE:  cpu time    0.5298: real time    0.9705
    FEWALD:  cpu time    0.0024: real time    0.0024
    ORTHCH:  cpu time    2.5790: real time    2.6048
    CHARGE:  cpu time    1.5832: real time    1.5961
     LOOP+:  cpu time 8293.2324: real time 8332.9930


--------------------------------------- Iteration      8(   1)  ---------------------------------------


    POTLOK:  cpu time    8.2704: real time    8.3069
    SETDIJ:  cpu time    0.9469: real time    0.9517
    TRIAL :  cpu time  643.4351: real time  647.1924
    CORREC:  cpu time    0.0006: real time    0.0006
    CHARGE:  cpu time    1.5412: real time    1.5498
    --------------------------------------------
      LOOP:  cpu time  654.2577: real time  658.0651

 eigenvalue-minimisations  :     0
 total energy-change (2. order) : 0.4097843E-02  (-0.4295126E-02)
 number of electron      48.0000002 magnetization 
 augmentation part       -1.2493549 magnetization 

 Free energy of the ion-electron system (eV)
  ---------------------------------------------------
  alpha Z        PSCENC =        13.10177784
  Ewald energy   TEWEN  =      1360.00963536
  -Hartree energ DENC   =     -2508.31907087
  -exchange      EXHF   =        75.35855290
  -V(xc)+E(xc)   XCENC  =      -142.11543806
  PAW double counting   =      1711.92675980    -1482.79346832
  entropy T*S    EENTRO =        -0.00000000
  eigenvalues    EBANDS =      -358.49972492
  atomic energy  EATOM  =      1251.19323263
  ---------------------------------------------------
  free energy    TOTEN  =       -80.13774364 eV

  energy without entropy =      -80.13774364  energy(sigma->0) =      -80.13774364
  exchange ACFDT corr.  =        -0.00000000  see jH, gK, PRB 81, 115126


--------------------------------------------------------------------------------------------------------




--------------------------------------- Iteration      8(   2)  ---------------------------------------


    POTLOK:  cpu time    8.2928: real time    8.3057
    SETDIJ:  cpu time    0.9453: real time    0.9474
    TRIAL :  cpu time  642.7666: real time  644.8184
    CORREC:  cpu time    0.0005: real time    0.0005
    CHARGE:  cpu time    1.5534: real time    1.5581
    --------------------------------------------
      LOOP:  cpu time  653.5591: real time  655.6315

 eigenvalue-minimisations  :     0
 total energy-change (2. order) :-0.2846639E-02  (-0.1621808E-02)
 number of electron      48.0000002 magnetization 
 augmentation part       -1.2493606 magnetization 

 Free energy of the ion-electron system (eV)
  ---------------------------------------------------
  alpha Z        PSCENC =        13.10177784
  Ewald energy   TEWEN  =      1360.00963536
  -Hartree energ DENC   =     -2508.20803240
  -exchange      EXHF   =        75.35966503
  -V(xc)+E(xc)   XCENC  =      -142.11424127
  PAW double counting   =      1711.95731958    -1482.82373054
  entropy T*S    EENTRO =        -0.00000000
  eigenvalues    EBANDS =      -358.61621652
  atomic energy  EATOM  =      1251.19323263
  ---------------------------------------------------
  free energy    TOTEN  =       -80.14059028 eV

  energy without entropy =      -80.14059028  energy(sigma->0) =      -80.14059028
  exchange ACFDT corr.  =        -0.00000000  see jH, gK, PRB 81, 115126


--------------------------------------------------------------------------------------------------------




--------------------------------------- Iteration      8(   3)  ---------------------------------------


    POTLOK:  cpu time    8.2765: real time    8.3067
    SETDIJ:  cpu time    0.9438: real time    0.9480
    TRIAL :  cpu time  640.4449: real time  643.7090
    CORREC:  cpu time    0.0005: real time    0.0005
    CHARGE:  cpu time    1.5082: real time    1.5246
    --------------------------------------------
      LOOP:  cpu time  651.1742: real time  654.4899

 eigenvalue-minimisations  :     0
 total energy-change (2. order) :-0.1003134E-02  (-0.5193193E-03)
 number of electron      48.0000002 magnetization 
 augmentation part       -1.2494917 magnetization 

 Free energy of the ion-electron system (eV)
  ---------------------------------------------------
  alpha Z        PSCENC =        13.10177784
  Ewald energy   TEWEN  =      1360.00963536
  -Hartree energ DENC   =     -2508.25442491
  -exchange      EXHF   =        75.36081354
  -V(xc)+E(xc)   XCENC  =      -142.11338975
  PAW double counting   =      1711.99067642    -1482.85712839
  entropy T*S    EENTRO =        -0.00000000
  eigenvalues    EBANDS =      -358.57278615
  atomic energy  EATOM  =      1251.19323263
  ---------------------------------------------------
  free energy    TOTEN  =       -80.14159341 eV

  energy without entropy =      -80.14159341  energy(sigma->0) =      -80.14159341
  exchange ACFDT corr.  =        -0.00000000  see jH, gK, PRB 81, 115126


--------------------------------------------------------------------------------------------------------




--------------------------------------- Iteration      8(   4)  ---------------------------------------


    POTLOK:  cpu time    8.2853: real time    8.3030
    SETDIJ:  cpu time    0.9365: real time    0.9387
    TRIAL :  cpu time  635.2289: real time  637.2710
    CORREC:  cpu time    0.0004: real time    0.0003
    CHARGE:  cpu time    1.5336: real time    1.5465
    --------------------------------------------
      LOOP:  cpu time  645.9850: real time  648.0606

 eigenvalue-minimisations  :     0
 total energy-change (2. order) :-0.3019011E-03  (-0.1515512E-03)
 number of electron      48.0000002 magnetization 
 augmentation part       -1.2495300 magnetization 

 Free energy of the ion-electron system (eV)
  ---------------------------------------------------
  alpha Z        PSCENC =        13.10177784
  Ewald energy   TEWEN  =      1360.00963536
  -Hartree energ DENC   =     -2508.31592627
  -exchange      EXHF   =        75.36089413
  -V(xc)+E(xc)   XCENC  =      -142.11333514
  PAW double counting   =      1711.99114824    -1482.85752703
  entropy T*S    EENTRO =        -0.00000000
  eigenvalues    EBANDS =      -358.51179508
  atomic energy  EATOM  =      1251.19323263
  ---------------------------------------------------
  free energy    TOTEN  =       -80.14189531 eV

  energy without entropy =      -80.14189531  energy(sigma->0) =      -80.14189531
  exchange ACFDT corr.  =        -0.00000000  see jH, gK, PRB 81, 115126


--------------------------------------------------------------------------------------------------------




--------------------------------------- Iteration      8(   5)  ---------------------------------------


    POTLOK:  cpu time    8.2893: real time    8.2985
    SETDIJ:  cpu time    0.9399: real time    0.9423
    TRIAL :  cpu time  637.9425: real time  640.2548
    CORREC:  cpu time    0.0010: real time    0.0010
    CHARGE:  cpu time    1.5244: real time    1.5300
    --------------------------------------------
      LOOP:  cpu time  648.6975: real time  651.0278

 eigenvalue-minimisations  :     0
 total energy-change (2. order) :-0.6953010E-04  (-0.3465107E-04)
 number of electron      48.0000002 magnetization 
 augmentation part       -1.2494843 magnetization 

 Free energy of the ion-electron system (eV)
  ---------------------------------------------------
  alpha Z        PSCENC =        13.10177784
  Ewald energy   TEWEN  =      1360.00963536
  -Hartree energ DENC   =     -2508.32333136
  -exchange      EXHF   =        75.36071019
  -V(xc)+E(xc)   XCENC  =      -142.11343100
  PAW double counting   =      1711.98447438    -1482.85078030
  entropy T*S    EENTRO =        -0.00000000
  eigenvalues    EBANDS =      -358.50425259
  atomic energy  EATOM  =      1251.19323263
  ---------------------------------------------------
  free energy    TOTEN  =       -80.14196484 eV

  energy without entropy =      -80.14196484  energy(sigma->0) =      -80.14196484
  exchange ACFDT corr.  =        -0.00000000  see jH, gK, PRB 81, 115126


--------------------------------------------------------------------------------------------------------




--------------------------------------- Iteration      8(   6)  ---------------------------------------


    POTLOK:  cpu time    8.2782: real time    8.2930
    SETDIJ:  cpu time    0.9340: real time    0.9368
    TRIAL :  cpu time  639.2401: real time  642.5464
    CORREC:  cpu time    0.0010: real time    0.0010
    CHARGE:  cpu time    1.5486: real time    1.5656
    --------------------------------------------
      LOOP:  cpu time  650.0024: real time  653.3441

 eigenvalue-minimisations  :     0
 total energy-change (2. order) :-0.1591831E-04  (-0.2320279E-04)
 number of electron      48.0000002 magnetization 
 augmentation part       -1.2494560 magnetization 

 Free energy of the ion-electron system (eV)
  ---------------------------------------------------
  alpha Z        PSCENC =        13.10177784
  Ewald energy   TEWEN  =      1360.00963536
  -Hartree energ DENC   =     -2508.31030665
  -exchange      EXHF   =        75.36070199
  -V(xc)+E(xc)   XCENC  =      -142.11349227
  PAW double counting   =      1711.98078952    -1482.84714356
  entropy T*S    EENTRO =        -0.00000000
  eigenvalues    EBANDS =      -358.51717562
  atomic energy  EATOM  =      1251.19323263
  ---------------------------------------------------
  free energy    TOTEN  =       -80.14198076 eV

  energy without entropy =      -80.14198076  energy(sigma->0) =      -80.14198076
  exchange ACFDT corr.  =        -0.00000000  see jH, gK, PRB 81, 115126


--------------------------------------------------------------------------------------------------------




--------------------------------------- Iteration      8(   7)  ---------------------------------------


    POTLOK:  cpu time    8.2571: real time    8.2913
    SETDIJ:  cpu time    0.9398: real time    0.9437
    TRIAL :  cpu time  644.9503: real time  648.7495
    CORREC:  cpu time    0.0003: real time    0.0003
    CHARGE:  cpu time    1.5696: real time    1.5778
    --------------------------------------------
      LOOP:  cpu time  655.7176: real time  659.5641

 eigenvalue-minimisations  :     0
 total energy-change (2. order) :-0.1390560E-04  (-0.1160166E-04)
 number of electron      48.0000002 magnetization 
 augmentation part       -1.2494688 magnetization 

 Free energy of the ion-electron system (eV)
  ---------------------------------------------------
  alpha Z        PSCENC =        13.10177784
  Ewald energy   TEWEN  =      1360.00963536
  -Hartree energ DENC   =     -2508.30631369
  -exchange      EXHF   =        75.36078714
  -V(xc)+E(xc)   XCENC  =      -142.11346847
  PAW double counting   =      1711.98574638    -1482.85212284
  entropy T*S    EENTRO =        -0.00000000
  eigenvalues    EBANDS =      -358.52126901
  atomic energy  EATOM  =      1251.19323263
  ---------------------------------------------------
  free energy    TOTEN  =       -80.14199467 eV

  energy without entropy =      -80.14199467  energy(sigma->0) =      -80.14199467
  exchange ACFDT corr.  =        -0.00000000  see jH, gK, PRB 81, 115126


--------------------------------------------------------------------------------------------------------




--------------------------------------- Iteration      8(   8)  ---------------------------------------


    POTLOK:  cpu time    8.2702: real time    8.2962
    SETDIJ:  cpu time    0.9502: real time    0.9535
    TRIAL :  cpu time  643.1382: real time  645.2512
    CORREC:  cpu time    0.0003: real time    0.0004
    EDDIAG:  cpu time  634.0898: real time  635.8770
    CHARGE:  cpu time    1.5442: real time    1.5484
    --------------------------------------------
      LOOP:  cpu time 1287.9937: real time 1291.9283

 eigenvalue-minimisations  :     0
 total energy-change (2. order) :-0.7557754E-05  (-0.4882152E-05)
 number of electron      48.0000002 magnetization 
 augmentation part       -1.2494881 magnetization 

 Free energy of the ion-electron system (eV)
  ---------------------------------------------------
  alpha Z        PSCENC =        13.10177784
  Ewald energy   TEWEN  =      1360.00963536
  -Hartree energ DENC   =     -2508.30946227
  -exchange      EXHF   =        75.36089171
  -V(xc)+E(xc)   XCENC  =      -142.11343214
  PAW double counting   =      1711.99465468    -1482.86103701
  entropy T*S    EENTRO =        -0.00000000
  eigenvalues    EBANDS =      -358.51823312
  atomic energy  EATOM  =      1251.19323263
  ---------------------------------------------------
  free energy    TOTEN  =       -80.14200223 eV

  energy without entropy =      -80.14200223  energy(sigma->0) =      -80.14200223
  exchange ACFDT corr.  =        -0.00000000  see jH, gK, PRB 81, 115126


--------------------------------------------------------------------------------------------------------


  average scaling for gradient   0.9126


 average (electrostatic) potential at core
  the test charge radii are     1.0406  0.6991  1.1897  0.5883
  (the norm of the test charge is              1.0000)
       1 -54.8697       2 -54.8510       3 -54.8717       4 -54.8804       5 -54.9116
       6 -54.9425       7 -54.8101       8 -54.8800       9 -51.0105      10 -51.0083
      11 -51.0755      12 -51.1317      13 -93.2261      14 -34.2975      15 -33.8290



 E-fermi :  -2.0264     XC(G=0):  -2.9208     alpha+bet : -2.8557


 k-point     1 :       0.0000    0.0000    0.0000
  band No.  band energies     occupation 
      1     -15.8689      2.00000
      2     -15.2170      2.00000
      3     -15.0633      2.00000
      4     -12.9522      2.00000
      5     -12.8447      2.00000
      6      -9.6205      2.00000
      7      -9.3355      2.00000
      8      -9.3021      2.00000
      9      -8.4372      2.00000
     10      -7.4426      2.00000
     11      -6.9861      2.00000
     12      -6.4312      2.00000
     13      -5.9807      2.00000
     14      -5.5181      2.00000
     15      -5.1740      2.00000
     16      -4.9165      2.00000
     17      -4.4849      2.00000
     18      -4.3728      2.00000
     19      -3.4169      2.00000
     20      -3.1979      2.00000
     21      -3.1454      2.00000
     22      -2.6284      2.00000
     23      -2.3323      2.00000
     24      -2.2992      2.00000
     25      -0.7925      0.00000
     26      -0.2515      0.00000
     27       0.2513      0.00000
     28       0.6016      0.00000
     29       0.7681      0.00000
     30       0.9311      0.00000
     31       1.0792      0.00000
     32       1.3658      0.00000

 k-point     2 :       0.2000    0.0000    0.0000
  band No.  band energies     occupation 
      1     -15.8470      2.00000
      2     -15.0917      2.00000
      3     -14.9370      2.00000
      4     -13.3622      2.00000
      5     -13.2354      2.00000
      6      -9.1579      2.00000
      7      -8.9717      2.00000
      8      -8.6935      2.00000
      9      -8.4526      2.00000
     10      -7.4537      2.00000
     11      -6.8628      2.00000
     12      -6.7883      2.00000
     13      -6.2994      2.00000
     14      -5.4342      2.00000
     15      -5.2233      2.00000
     16      -4.8040      2.00000
     17      -4.4536      2.00000
     18      -3.9698      2.00000
     19      -3.8987      2.00000
     20      -3.8632      2.00000
     21      -3.7272      2.00000
     22      -3.0224      2.00000
     23      -2.7672      2.00000
     24      -2.2987      2.00000
     25      -0.7876      0.00000
     26       0.4431      0.00000
     27       0.7428      0.00000
     28       0.8059      0.00000
     29       1.0298      0.00000
     30       1.0629      0.00000
     31       1.1596      0.00000
     32       1.5673      0.00000

 k-point     3 :       0.4000    0.0000    0.0000
  band No.  band energies     occupation 
      1     -15.8155      2.00000
      2     -14.7112      2.00000
      3     -14.5547      2.00000
      4     -14.0923      2.00000
      5     -13.9441      2.00000
      6      -8.7102      2.00000
      7      -8.4578      2.00000
      8      -7.9159      2.00000
      9      -7.6824      2.00000
     10      -7.3563      2.00000
     11      -7.1397      2.00000
     12      -6.4951      2.00000
     13      -6.1618      2.00000
     14      -5.9588      2.00000
     15      -5.5268      2.00000
     16      -5.2346      2.00000
     17      -5.0467      2.00000
     18      -4.7794      2.00000
     19      -4.4577      2.00000
     20      -4.2147      2.00000
     21      -3.7401      2.00000
     22      -3.4412      2.00000
     23      -2.8223      2.00000
     24      -2.3847      2.00000
     25      -0.4529      0.00000
     26       0.2428      0.00000
     27       0.9150      0.00000
     28       1.3212      0.00000
     29       1.4057      0.00000
     30       1.6090      0.00000
     31       1.7207      0.00000
     32       2.1482      0.00000

 k-point     4 :       0.0000    0.3333    0.0000
  band No.  band energies     occupation 
      1     -15.8678      2.00000
      2     -15.1824      2.00000
      3     -15.1037      2.00000
      4     -12.9424      2.00000
      5     -12.8554      2.00000
      6      -9.5708      2.00000
      7      -9.3863      2.00000
      8      -9.0061      2.00000
      9      -8.4491      2.00000
     10      -8.0661      2.00000
     11      -7.4165      2.00000
     12      -5.8115      2.00000
     13      -5.4501      2.00000
     14      -5.3768      2.00000
     15      -5.0848      2.00000
     16      -5.0485      2.00000
     17      -4.4128      2.00000
     18      -4.1843      2.00000
     19      -3.6987      2.00000
     20      -3.2830      2.00000
     21      -3.1936      2.00000
     22      -3.1473      2.00000
     23      -2.6144      2.00000
     24      -2.3139      2.00000
     25      -0.5737      0.00000
     26       0.0975      0.00000
     27       0.3077      0.00000
     28       0.4512      0.00000
     29       0.6924      0.00000
     30       0.8707      0.00000
     31       1.1299      0.00000
     32       1.3782      0.00000

 k-point     5 :       0.2000    0.3333    0.0000
  band No.  band energies     occupation 
      1     -15.8463      2.00000
      2     -15.0558      2.00000
      3     -14.9781      2.00000
      4     -13.3454      2.00000
      5     -13.2539      2.00000
      6      -8.9448      2.00000
      7      -8.8497      2.00000
      8      -8.7481      2.00000
      9      -8.4461      2.00000
     10      -7.9367      2.00000
     11      -7.4150      2.00000
     12      -6.5419      2.00000
     13      -5.9014      2.00000
     14      -5.2063      2.00000
     15      -4.9652      2.00000
     16      -4.8893      2.00000
     17      -4.3847      2.00000
     18      -3.9481      2.00000
     19      -3.8874      2.00000
     20      -3.7105      2.00000
     21      -3.6583      2.00000
     22      -3.2143      2.00000
     23      -2.9476      2.00000
     24      -2.7957      2.00000
     25      -0.4509      0.00000
     26       0.2152      0.00000
     27       0.6428      0.00000
     28       0.7766      0.00000
     29       0.8833      0.00000
     30       1.1074      0.00000
     31       1.2888      0.00000
     32       1.5245      0.00000

 k-point     6 :       0.4000    0.3333    0.0000
  band No.  band energies     occupation 
      1     -15.8153      2.00000
      2     -14.6780      2.00000
      3     -14.5920      2.00000
      4     -14.0659      2.00000
      5     -13.9735      2.00000
      6      -8.5700      2.00000
      7      -8.2985      2.00000
      8      -7.8542      2.00000
      9      -7.5678      2.00000
     10      -7.4906      2.00000
     11      -7.3157      2.00000
     12      -7.1096      2.00000
     13      -6.6503      2.00000
     14      -5.6601      2.00000
     15      -5.5502      2.00000
     16      -4.9741      2.00000
     17      -4.5075      2.00000
     18      -4.4640      2.00000
     19      -4.2640      2.00000
     20      -4.0084      2.00000
     21      -3.7442      2.00000
     22      -3.4607      2.00000
     23      -3.1148      2.00000
     24      -3.0195      2.00000
     25      -0.1123      0.00000
     26       0.3574      0.00000
     27       0.7509      0.00000
     28       1.0704      0.00000
     29       1.1995      0.00000
     30       1.6194      0.00000
     31       1.7691      0.00000
     32       1.8720      0.00000

 k-point     7 :      -0.4000    0.3333    0.0000
  band No.  band energies     occupation 
      1     -15.8153      2.00000
      2     -14.6778      2.00000
      3     -14.5922      2.00000
      4     -14.0658      2.00000
      5     -13.9735      2.00000
      6      -8.5676      2.00000
      7      -8.3126      2.00000
      8      -7.8219      2.00000
      9      -7.5836      2.00000
     10      -7.4883      2.00000
     11      -7.3219      2.00000
     12      -7.1107      2.00000
     13      -6.6506      2.00000
     14      -5.6706      2.00000
     15      -5.5470      2.00000
     16      -4.9613      2.00000
     17      -4.5278      2.00000
     18      -4.4624      2.00000
     19      -4.2484      2.00000
     20      -4.0011      2.00000
     21      -3.7301      2.00000
     22      -3.4947      2.00000
     23      -3.1065      2.00000
     24      -3.0157      2.00000
     25      -0.1402      0.00000
     26       0.4692      0.00000
     27       0.7201      0.00000
     28       0.9130      0.00000
     29       1.2925      0.00000
     30       1.6045      0.00000
     31       1.8028      0.00000
     32       1.8869      0.00000

 k-point     8 :      -0.2000    0.3333    0.0000
  band No.  band energies     occupation 
      1     -15.8463      2.00000
      2     -15.0556      2.00000
      3     -14.9782      2.00000
      4     -13.3454      2.00000
      5     -13.2539      2.00000
      6      -8.9473      2.00000
      7      -8.8477      2.00000
      8      -8.7475      2.00000
      9      -8.4510      2.00000
     10      -7.9252      2.00000
     11      -7.4199      2.00000
     12      -6.5385      2.00000
     13      -5.9163      2.00000
     14      -5.1960      2.00000
     15      -4.9782      2.00000
     16      -4.8948      2.00000
     17      -4.3570      2.00000
     18      -3.9427      2.00000
     19      -3.8893      2.00000
     20      -3.7244      2.00000
     21      -3.6463      2.00000
     22      -3.2383      2.00000
     23      -2.9187      2.00000
     24      -2.8077      2.00000
     25      -0.4770      0.00000
     26       0.2867      0.00000
     27       0.5449      0.00000
     28       0.7907      0.00000
     29       0.9151      0.00000
     30       1.1922      0.00000
     31       1.2567      0.00000
     32       1.5912      0.00000


--------------------------------------------------------------------------------------------------------


 soft charge-density along one line, spin component           1
         0         1         2         3         4         5         6         7         8         9
 total charge-density along one line

 pseudopotential strength for first ion, spin component:           1
  7.181 -16.881  -0.005  -0.002  -0.000   0.027   0.009   0.000
-16.881  49.268   0.012   0.004   0.000  -0.058  -0.019  -0.000
 -0.005   0.012   1.704  -0.000   0.000  -6.724   0.001  -0.000
 -0.002   0.004  -0.000   1.709  -0.000   0.001  -6.747   0.000
 -0.000   0.000   0.000  -0.000   1.704  -0.000   0.000  -6.726
  0.027  -0.058  -6.724   0.001  -0.000  28.448  -0.005   0.000
  0.009  -0.019   0.001  -6.747   0.000  -0.005  28.537  -0.000
  0.000  -0.000  -0.000   0.000  -6.726   0.000  -0.000  28.454
  0.000  -0.000  -0.000  -0.000  -0.005   0.000   0.000   0.012
 -0.001   0.001  -0.001  -0.004  -0.000   0.003   0.010   0.000
  0.011  -0.012   0.002  -0.002   0.000  -0.005   0.004  -0.000
 -0.000   0.000  -0.000  -0.000  -0.001   0.000   0.000   0.003
  0.001  -0.001   0.003  -0.000  -0.000  -0.007   0.000   0.000
 -0.000   0.000   0.000   0.000   0.018  -0.000  -0.000  -0.059
  0.004  -0.008   0.005   0.017   0.000  -0.016  -0.056  -0.000
 -0.041   0.072  -0.007   0.007  -0.000   0.026  -0.023   0.000
  0.000  -0.001   0.000   0.000   0.006  -0.000  -0.000  -0.018
 -0.002   0.004  -0.012   0.000   0.000   0.041  -0.001  -0.000
 total augmentation occupancy for first ion, spin component:           1
  1.390   0.033   0.003   0.013   0.001   0.005   0.001   0.000  -0.000   0.015  -0.103   0.001  -0.023  -0.000   0.001  -0.005
  0.033   0.001   0.008   0.002   0.000   0.000   0.000   0.000  -0.000   0.001  -0.003   0.000  -0.000  -0.000   0.000  -0.000
  0.003   0.008   1.332   0.067  -0.000   0.027   0.002  -0.000   0.001   0.023  -0.074   0.001   0.068   0.000   0.001  -0.003
  0.013   0.002   0.067   0.407   0.005   0.002   0.007   0.000   0.001   0.062   0.008   0.000   0.005   0.000   0.002   0.000
  0.001   0.000  -0.000   0.005   1.196  -0.000   0.000   0.025   0.247   0.001   0.000   0.034  -0.000   0.008   0.000   0.000
  0.005   0.000   0.027   0.002  -0.000   0.001   0.000  -0.000   0.000   0.001  -0.002   0.000   0.001   0.000   0.000  -0.000
  0.001   0.000   0.002   0.007   0.000   0.000   0.000   0.000   0.000   0.001   0.000   0.000   0.000   0.000   0.000  -0.000
  0.000   0.000  -0.000   0.000   0.025  -0.000   0.000   0.001   0.005   0.000   0.000   0.001  -0.000   0.000   0.000   0.000
 -0.000  -0.000   0.001   0.001   0.247   0.000   0.000   0.005   0.070   0.000   0.000   0.007  -0.000   0.002   0.000   0.000
  0.015   0.001   0.023   0.062   0.001   0.001   0.001   0.000   0.000   0.011  -0.000   0.000  -0.002   0.000   0.000  -0.000
 -0.103  -0.003  -0.074   0.008   0.000  -0.002   0.000   0.000   0.000  -0.000   0.014   0.000  -0.004   0.000  -0.000   0.001
  0.001   0.000   0.001   0.000   0.034   0.000   0.000   0.001   0.007   0.000   0.000   0.022   0.000   0.000   0.000  -0.000
 -0.023  -0.000   0.068   0.005  -0.000   0.001   0.000  -0.000  -0.000  -0.002  -0.004   0.000   0.045  -0.000  -0.000  -0.000
 -0.000  -0.000   0.000   0.000   0.008   0.000   0.000   0.000   0.002   0.000   0.000   0.000  -0.000   0.000   0.000   0.000
  0.001   0.000   0.001   0.002   0.000   0.000   0.000   0.000   0.000   0.000  -0.000   0.000  -0.000   0.000   0.000  -0.000
 -0.005  -0.000  -0.003   0.000   0.000  -0.000  -0.000   0.000   0.000  -0.000   0.001  -0.000  -0.000   0.000  -0.000   0.000
  0.000   0.000   0.000   0.000   0.001   0.000   0.000   0.000   0.000   0.000  -0.000   0.001   0.000   0.000   0.000  -0.000
 -0.001  -0.000   0.001   0.000  -0.000   0.000   0.000  -0.000  -0.000  -0.000  -0.000   0.000   0.001  -0.000  -0.000  -0.000


------------------------ aborting loop because EDIFF is reached ----------------------------------------


    FORLOC:  cpu time    0.2195: real time    0.2200
    FORHF :  cpu time 1073.3014: real time 1076.3453
    FORNL :  cpu time    6.2961: real time    6.3338
    STRESS:  cpu time   19.1763: real time   19.2906
    FORCOR:  cpu time    8.2058: real time    8.2377
    OFIELD:  cpu time    0.0092: real time    0.0092

  FORCE on cell =-STRESS in cart. coord.  units (eV):
  Direction    XX          YY          ZZ          XY          YZ          ZX
  --------------------------------------------------------------------------------------
  Alpha Z    13.10178    13.10178    13.10178
  Ewald    2355.97265  1929.34469 -2925.30920    -8.16500   -42.35350    -7.60166
  Hartree  2376.79727  2081.37192 -1949.85620    -0.26452   -20.75939    -2.68404
  E(xc)    -120.08162  -120.69338  -118.24931     0.03839    -0.03193    -0.07496
  Local   -5225.03223 -4512.47761  4396.69035     5.56168    58.22851     6.35836
  n-local   224.44015   236.16685   190.89312    -0.52447     0.55508     1.69533
  augment   -29.49083   -31.20646   -27.62480    -0.36562    -0.88683    -0.80449
  Kinetic   435.23767   430.48019   450.66885     3.75225     5.00022     2.93439
  Fock      -31.69809   -31.29386   -30.95783     0.06531     0.16219     0.15646
  -------------------------------------------------------------------------------------
  Total      -0.75326    -5.20590    -0.64323     0.09802    -0.08565    -0.02061
  in kB      -1.31822    -9.11041    -1.12567     0.17154    -0.14989    -0.03607
  external pressure =       -3.85 kB  Pullay stress =        0.00 kB


 VOLUME and BASIS-vectors are now :
 -----------------------------------------------------------------------------
  energy-cutoff  :      450.00
  volume of cell :      915.52
      direct lattice vectors                 reciprocal lattice vectors
     6.019200000  0.000000000  0.000000000     0.166135035  0.000000000  0.000000000
     0.000000000 10.140000000  0.000000000     0.000000000  0.098619329  0.000000000
     0.000000000  0.000000000 15.000000000     0.000000000  0.000000000  0.066666667

  length of vectors
     6.019200000 10.140000000 15.000000000     0.166135035  0.098619329  0.066666667


 FORCES acting on ions:
    Electron-Ion                     Ewald-Force                    Non-Local-Force
 -----------------------------------------------------------------------------------------------
   0.262E+00 0.486E+02 0.364E+02   -.249E+00 -.458E+02 -.355E+02   -.163E-01 -.307E+01 -.973E+00
   -.362E+00 0.482E+02 -.715E+01   0.372E+00 -.455E+02 0.644E+01   -.163E-01 -.308E+01 0.758E+00
   0.118E+01 -.574E+02 0.496E+02   -.127E+01 0.548E+02 -.484E+02   0.766E-01 0.291E+01 -.134E+01
   -.238E+01 -.600E+02 -.240E+01   0.240E+01 0.573E+02 0.158E+01   -.930E-02 0.298E+01 0.863E+00
   0.503E+01 0.536E+02 0.243E+01   -.515E+01 -.515E+02 -.419E+01   0.119E+00 -.235E+01 0.191E+01
   -.187E+01 0.523E+02 0.488E+02   0.206E+01 -.496E+02 -.478E+02   -.163E+00 -.298E+01 -.111E+01
   0.936E+00 -.407E+02 -.286E+01   -.951E+00 0.383E+02 0.221E+01   0.221E-01 0.257E+01 0.685E+00
   -.624E+00 -.446E+02 0.375E+02   0.617E+00 0.417E+02 -.367E+02   0.613E-02 0.321E+01 -.895E+00
   -.102E+00 0.393E+01 0.219E+02   0.178E+00 -.390E+01 -.221E+02   -.374E-01 -.216E-01 0.200E+00
   0.972E-01 0.433E+01 0.198E+02   -.174E+00 -.429E+01 -.199E+02   0.409E-01 -.196E-01 0.788E-01
   0.234E+01 -.555E+01 0.322E+02   -.226E+01 0.562E+01 -.323E+02   -.181E-01 -.570E-01 0.172E+00
   -.307E+01 -.785E+01 0.346E+02   0.293E+01 0.795E+01 -.346E+02   0.701E-01 -.786E-01 0.390E-01
   0.146E+02 -.200E+02 -.192E+03   -.188E+02 0.260E+02 0.189E+03   0.443E+01 -.623E+01 0.366E+01
   -.245E+02 0.138E+02 -.315E+02   0.270E+02 -.150E+02 0.314E+02   -.251E+01 0.118E+01 0.117E+00
   0.614E+01 0.148E+02 -.491E+02   -.663E+01 -.162E+02 0.513E+02   0.484E+00 0.134E+01 -.216E+01
 -----------------------------------------------------------------------------------------------
   -.248E+01 0.372E+01 -.199E+01   -.444E-14 -.107E-13 0.213E-13   0.248E+01 -.369E+01 0.201E+01


 POSITION                                       TOTAL-FORCE (eV/Angst)
 -----------------------------------------------------------------------------------
      2.60188      8.89548      3.54453        -0.002099      0.033823      0.028505
      5.61067      8.89998      3.92795        -0.005049      0.006952     -0.013372
      2.60636      6.25415      3.59401        -0.024731      0.010618      0.009116
      5.61877      6.27681      4.03767         0.007191      0.027427     -0.017109
      2.59372      3.81746      4.14693        -0.006044     -0.015121     -0.005616
      5.61335      3.83601      3.63452         0.031410     -0.038810      0.010430
      2.59787      1.20023      3.94085         0.005455     -0.048039     -0.027088
      5.60862      1.19892      3.56787        -0.001359     -0.009575      0.014514
      1.09470     10.11596      3.72127         0.038491      0.008595      0.022306
      4.10520     10.11671      3.73931        -0.035730      0.011790      0.006309
      1.09807      5.05033      3.84593         0.060675      0.010288      0.000777
      4.11082      5.05416      3.90251        -0.062338      0.020833     -0.027164
      3.36418      4.44043      6.99832         0.040405     -0.021238     -0.025601
      4.86574      3.73004      6.93229        -0.043700      0.017830      0.001332
      3.04864      3.57074      8.40705        -0.002576     -0.015373      0.022661
 -----------------------------------------------------------------------------------
    total drift:                                0.003235      0.008664      0.004214


--------------------------------------------------------------------------------------------------------



  FREE ENERGIE OF THE ION-ELECTRON SYSTEM (eV)
  ---------------------------------------------------
  free  energy   TOTEN  =       -80.14200223 eV

  energy  without entropy=      -80.14200223  energy(sigma->0) =      -80.14200223

 d Force = 0.1576398E-03[ 0.132E-03, 0.183E-03]  d Energy = 0.1561346E-03 0.151E-05
 d Force =-0.5118692E-01[-0.489E-01,-0.535E-01]  d Ewald  =-0.5118742E-01 0.503E-06


--------------------------------------------------------------------------------------------------------


    POTLOK:  cpu time    9.1737: real time    9.2158


--------------------------------------------------------------------------------------------------------


 stress matrix after NEB project (eV)
     -0.75326      0.09802     -0.02061
      0.09802     -5.20590     -0.08565
     -0.02061     -0.08565     -0.64323
  FORCES: max atom, RMS     0.071119    0.043566
  FORCE total and by dimension    0.168732    0.062338
  Stress total and by dimension    5.302570    5.205896


--------------------------------------------------------------------------------------------------------


    WAVPRE:  cpu time    0.5256: real time    1.1252
    FEWALD:  cpu time    0.0024: real time    0.0024
    ORTHCH:  cpu time    2.5630: real time    2.5783
    CHARGE:  cpu time    1.5715: real time    1.5846
     LOOP+:  cpu time 6996.4660: real time 7025.5119


--------------------------------------- Iteration      9(   1)  ---------------------------------------


    POTLOK:  cpu time    8.2520: real time    8.2940
    SETDIJ:  cpu time    0.9471: real time    0.9512
    TRIAL :  cpu time  639.7415: real time  642.8609
    CORREC:  cpu time    0.0004: real time    0.0004
    CHARGE:  cpu time    1.5776: real time    1.5929
    --------------------------------------------
      LOOP:  cpu time  650.5818: real time  653.7630

 eigenvalue-minimisations  :     0
 total energy-change (2. order) : 0.1168247E-02  (-0.1472520E-02)
 number of electron      48.0000002 magnetization 
 augmentation part       -1.2493820 magnetization 

 Free energy of the ion-electron system (eV)
  ---------------------------------------------------
  alpha Z        PSCENC =        13.10177784
  Ewald energy   TEWEN  =      1360.12278190
  -Hartree energ DENC   =     -2508.31093333
  -exchange      EXHF   =        75.36091452
  -V(xc)+E(xc)   XCENC  =      -142.11347679
  PAW double counting   =      1712.14672879    -1483.01348189
  entropy T*S    EENTRO =        -0.00000000
  eigenvalues    EBANDS =      -358.62837010
  atomic energy  EATOM  =      1251.19323263
  ---------------------------------------------------
  free energy    TOTEN  =       -80.14082642 eV

  energy without entropy =      -80.14082642  energy(sigma->0) =      -80.14082642
  exchange ACFDT corr.  =        -0.00000000  see jH, gK, PRB 81, 115126


--------------------------------------------------------------------------------------------------------




--------------------------------------- Iteration      9(   2)  ---------------------------------------


    POTLOK:  cpu time    8.2746: real time    8.3074
    SETDIJ:  cpu time    0.9389: real time    0.9413
    TRIAL :  cpu time  641.1022: real time  643.6307
    CORREC:  cpu time    0.0004: real time    0.0004
    CHARGE:  cpu time    1.5589: real time    1.5651
    --------------------------------------------
      LOOP:  cpu time  651.8755: real time  654.4463

 eigenvalue-minimisations  :     0
 total energy-change (2. order) :-0.1019838E-02  (-0.5765346E-03)
 number of electron      48.0000002 magnetization 
 augmentation part       -1.2493934 magnetization 

 Free energy of the ion-electron system (eV)
  ---------------------------------------------------
  alpha Z        PSCENC =        13.10177784
  Ewald energy   TEWEN  =      1360.12278190
  -Hartree energ DENC   =     -2508.33264620
  -exchange      EXHF   =        75.36283375
  -V(xc)+E(xc)   XCENC  =      -142.11186295
  PAW double counting   =      1712.19409950    -1483.06097224
  entropy T*S    EENTRO =        -0.00000000
  eigenvalues    EBANDS =      -358.61109050
  atomic energy  EATOM  =      1251.19323263
  ---------------------------------------------------
  free energy    TOTEN  =       -80.14184626 eV

  energy without entropy =      -80.14184626  energy(sigma->0) =      -80.14184626
  exchange ACFDT corr.  =        -0.00000000  see jH, gK, PRB 81, 115126


--------------------------------------------------------------------------------------------------------




--------------------------------------- Iteration      9(   3)  ---------------------------------------


    POTLOK:  cpu time    8.3420: real time    8.3608
    SETDIJ:  cpu time    0.9372: real time    0.9390
    TRIAL :  cpu time  644.3344: real time  646.0420
    CORREC:  cpu time    0.0007: real time    0.0007
    CHARGE:  cpu time    1.5834: real time    1.5889
    --------------------------------------------
      LOOP:  cpu time  655.1982: real time  656.9324

 eigenvalue-minimisations  :     0
 total energy-change (2. order) :-0.3579349E-03  (-0.1866531E-03)
 number of electron      48.0000002 magnetization 
 augmentation part       -1.2494609 magnetization 

 Free energy of the ion-electron system (eV)
  ---------------------------------------------------
  alpha Z        PSCENC =        13.10177784
  Ewald energy   TEWEN  =      1360.12278190
  -Hartree energ DENC   =     -2508.37078022
  -exchange      EXHF   =        75.36366908
  -V(xc)+E(xc)   XCENC  =      -142.11114701
  PAW double counting   =      1712.21342835    -1483.08028814
  entropy T*S    EENTRO =        -0.00000000
  eigenvalues    EBANDS =      -358.57487862
  atomic energy  EATOM  =      1251.19323263
  ---------------------------------------------------
  free energy    TOTEN  =       -80.14220419 eV

  energy without entropy =      -80.14220419  energy(sigma->0) =      -80.14220419
  exchange ACFDT corr.  =        -0.00000000  see jH, gK, PRB 81, 115126


--------------------------------------------------------------------------------------------------------




--------------------------------------- Iteration      9(   4)  ---------------------------------------


    POTLOK:  cpu time    8.2909: real time    8.3016
    SETDIJ:  cpu time    0.9342: real time    0.9356
    TRIAL :  cpu time  644.1225: real time  646.3176
    CORREC:  cpu time    0.0006: real time    0.0006
    CHARGE:  cpu time    1.5685: real time    1.5754
    --------------------------------------------
      LOOP:  cpu time  654.9172: real time  657.1322

 eigenvalue-minimisations  :     0
 total energy-change (2. order) :-0.1094124E-03  (-0.4915171E-04)
 number of electron      48.0000002 magnetization 
 augmentation part       -1.2494783 magnetization 

 Free energy of the ion-electron system (eV)
  ---------------------------------------------------
  alpha Z        PSCENC =        13.10177784
  Ewald energy   TEWEN  =      1360.12278190
  -Hartree energ DENC   =     -2508.38670783
  -exchange      EXHF   =        75.36331853
  -V(xc)+E(xc)   XCENC  =      -142.11143221
  PAW double counting   =      1712.19743948    -1483.06416728
  entropy T*S    EENTRO =        -0.00000000
  eigenvalues    EBANDS =      -358.55855666
  atomic energy  EATOM  =      1251.19323263
  ---------------------------------------------------
  free energy    TOTEN  =       -80.14231361 eV

  energy without entropy =      -80.14231361  energy(sigma->0) =      -80.14231361
  exchange ACFDT corr.  =        -0.00000000  see jH, gK, PRB 81, 115126


--------------------------------------------------------------------------------------------------------




--------------------------------------- Iteration      9(   5)  ---------------------------------------


    POTLOK:  cpu time    8.2986: real time    8.3156
    SETDIJ:  cpu time    0.9400: real time    0.9419
    TRIAL :  cpu time  643.8823: real time  646.1292
    CORREC:  cpu time    0.0008: real time    0.0008
    CHARGE:  cpu time    1.5834: real time    1.5909
    --------------------------------------------
      LOOP:  cpu time  654.7056: real time  656.9798

 eigenvalue-minimisations  :     0
 total energy-change (2. order) :-0.2212483E-04  (-0.1233345E-04)
 number of electron      48.0000002 magnetization 
 augmentation part       -1.2494573 magnetization 

 Free energy of the ion-electron system (eV)
  ---------------------------------------------------
  alpha Z        PSCENC =        13.10177784
  Ewald energy   TEWEN  =      1360.12278190
  -Hartree energ DENC   =     -2508.38416449
  -exchange      EXHF   =        75.36310306
  -V(xc)+E(xc)   XCENC  =      -142.11163557
  PAW double counting   =      1712.18973571    -1483.05644784
  entropy T*S    EENTRO =        -0.00000000
  eigenvalues    EBANDS =      -358.56071898
  atomic energy  EATOM  =      1251.19323263
  ---------------------------------------------------
  free energy    TOTEN  =       -80.14233573 eV

  energy without entropy =      -80.14233573  energy(sigma->0) =      -80.14233573
  exchange ACFDT corr.  =        -0.00000000  see jH, gK, PRB 81, 115126


--------------------------------------------------------------------------------------------------------




--------------------------------------- Iteration      9(   6)  ---------------------------------------


    POTLOK:  cpu time    8.2984: real time    8.3145
    SETDIJ:  cpu time    0.9580: real time    0.9609
    TRIAL :  cpu time  643.8226: real time  646.8233
    CORREC:  cpu time    0.0004: real time    0.0004
    EDDIAG:  cpu time  635.3501: real time  638.3974
    CHARGE:  cpu time    1.5354: real time    1.5402
    --------------------------------------------
      LOOP:  cpu time 1289.9658: real time 1296.0385

 eigenvalue-minimisations  :     0
 total energy-change (2. order) :-0.5920175E-05  (-0.7727388E-05)
 number of electron      48.0000002 magnetization 
 augmentation part       -1.2494462 magnetization 

 Free energy of the ion-electron system (eV)
  ---------------------------------------------------
  alpha Z        PSCENC =        13.10177784
  Ewald energy   TEWEN  =      1360.12278190
  -Hartree energ DENC   =     -2508.37951749
  -exchange      EXHF   =        75.36334425
  -V(xc)+E(xc)   XCENC  =      -142.11158318
  PAW double counting   =      1712.19390675    -1483.06068322
  entropy T*S    EENTRO =        -0.00000000
  eigenvalues    EBANDS =      -358.56547805
  atomic energy  EATOM  =      1251.19323263
  ---------------------------------------------------
  free energy    TOTEN  =       -80.14234165 eV

  energy without entropy =      -80.14234165  energy(sigma->0) =      -80.14234165
  exchange ACFDT corr.  =        -0.00000000  see jH, gK, PRB 81, 115126


--------------------------------------------------------------------------------------------------------


  average scaling for gradient   0.9384


 average (electrostatic) potential at core
  the test charge radii are     1.0406  0.6991  1.1897  0.5883
  (the norm of the test charge is              1.0000)
       1 -54.8697       2 -54.8533       3 -54.8709       4 -54.8816       5 -54.9112
       6 -54.9451       7 -54.8107       8 -54.8822       9 -51.0120      10 -51.0099
      11 -51.0761      12 -51.1327      13 -93.2234      14 -34.2997      15 -33.8260



 E-fermi :  -2.0317     XC(G=0):  -2.9207     alpha+bet : -2.8557


 k-point     1 :       0.0000    0.0000    0.0000
  band No.  band energies     occupation 
      1     -15.8671      2.00000
      2     -15.2189      2.00000
      3     -15.0649      2.00000
      4     -12.9530      2.00000
      5     -12.8476      2.00000
      6      -9.6215      2.00000
      7      -9.3378      2.00000
      8      -9.3043      2.00000
      9      -8.4364      2.00000
     10      -7.4403      2.00000
     11      -6.9879      2.00000
     12      -6.4328      2.00000
     13      -5.9829      2.00000
     14      -5.5171      2.00000
     15      -5.1761      2.00000
     16      -4.9171      2.00000
     17      -4.4855      2.00000
     18      -4.3731      2.00000
     19      -3.4171      2.00000
     20      -3.1983      2.00000
     21      -3.1495      2.00000
     22      -2.6269      2.00000
     23      -2.3338      2.00000
     24      -2.3009      2.00000
     25      -0.7952      0.00000
     26      -0.2534      0.00000
     27       0.2516      0.00000
     28       0.6034      0.00000
     29       0.7686      0.00000
     30       0.9312      0.00000
     31       1.0795      0.00000
     32       1.3650      0.00000

 k-point     2 :       0.2000    0.0000    0.0000
  band No.  band energies     occupation 
      1     -15.8451      2.00000
      2     -15.0934      2.00000
      3     -14.9389      2.00000
      4     -13.3633      2.00000
      5     -13.2382      2.00000
      6      -9.1594      2.00000
      7      -8.9725      2.00000
      8      -8.6963      2.00000
      9      -8.4520      2.00000
     10      -7.4513      2.00000
     11      -6.8644      2.00000
     12      -6.7902      2.00000
     13      -6.3009      2.00000
     14      -5.4360      2.00000
     15      -5.2232      2.00000
     16      -4.8046      2.00000
     17      -4.4521      2.00000
     18      -3.9700      2.00000
     19      -3.9022      2.00000
     20      -3.8645      2.00000
     21      -3.7296      2.00000
     22      -3.0222      2.00000
     23      -2.7683      2.00000
     24      -2.3005      2.00000
     25      -0.7890      0.00000
     26       0.4449      0.00000
     27       0.7405      0.00000
     28       0.8076      0.00000
     29       1.0298      0.00000
     30       1.0627      0.00000
     31       1.1599      0.00000
     32       1.5561      0.00000

 k-point     3 :       0.4000    0.0000    0.0000
  band No.  band energies     occupation 
      1     -15.8136      2.00000
      2     -14.7126      2.00000
      3     -14.5569      2.00000
      4     -14.0937      2.00000
      5     -13.9466      2.00000
      6      -8.7111      2.00000
      7      -8.4578      2.00000
      8      -7.9159      2.00000
      9      -7.6820      2.00000
     10      -7.3588      2.00000
     11      -7.1403      2.00000
     12      -6.4969      2.00000
     13      -6.1631      2.00000
     14      -5.9608      2.00000
     15      -5.5288      2.00000
     16      -5.2366      2.00000
     17      -5.0467      2.00000
     18      -4.7801      2.00000
     19      -4.4583      2.00000
     20      -4.2142      2.00000
     21      -3.7414      2.00000
     22      -3.4415      2.00000
     23      -2.8244      2.00000
     24      -2.3866      2.00000
     25      -0.4537      0.00000
     26       0.2429      0.00000
     27       0.9163      0.00000
     28       1.3202      0.00000
     29       1.4067      0.00000
     30       1.6088      0.00000
     31       1.7214      0.00000
     32       2.1436      0.00000

 k-point     4 :       0.0000    0.3333    0.0000
  band No.  band energies     occupation 
      1     -15.8660      2.00000
      2     -15.1845      2.00000
      3     -15.1052      2.00000
      4     -12.9430      2.00000
      5     -12.8585      2.00000
      6      -9.5712      2.00000
      7      -9.3895      2.00000
      8      -9.0077      2.00000
      9      -8.4485      2.00000
     10      -8.0679      2.00000
     11      -7.4142      2.00000
     12      -5.8135      2.00000
     13      -5.4503      2.00000
     14      -5.3777      2.00000
     15      -5.0855      2.00000
     16      -5.0493      2.00000
     17      -4.4122      2.00000
     18      -4.1861      2.00000
     19      -3.6999      2.00000
     20      -3.2843      2.00000
     21      -3.1940      2.00000
     22      -3.1515      2.00000
     23      -2.6128      2.00000
     24      -2.3157      2.00000
     25      -0.5752      0.00000
     26       0.0976      0.00000
     27       0.3057      0.00000
     28       0.4521      0.00000
     29       0.6939      0.00000
     30       0.8714      0.00000
     31       1.1292      0.00000
     32       1.3771      0.00000

 k-point     5 :       0.2000    0.3333    0.0000
  band No.  band energies     occupation 
      1     -15.8445      2.00000
      2     -15.0575      2.00000
      3     -14.9800      2.00000
      4     -13.3461      2.00000
      5     -13.2569      2.00000
      6      -8.9447      2.00000
      7      -8.8515      2.00000
      8      -8.7514      2.00000
      9      -8.4457      2.00000
     10      -7.9383      2.00000
     11      -7.4127      2.00000
     12      -6.5436      2.00000
     13      -5.9033      2.00000
     14      -5.2057      2.00000
     15      -4.9665      2.00000
     16      -4.8901      2.00000
     17      -4.3834      2.00000
     18      -3.9489      2.00000
     19      -3.8908      2.00000
     20      -3.7117      2.00000
     21      -3.6605      2.00000
     22      -3.2156      2.00000
     23      -2.9474      2.00000
     24      -2.7974      2.00000
     25      -0.4524      0.00000
     26       0.2157      0.00000
     27       0.6418      0.00000
     28       0.7780      0.00000
     29       0.8839      0.00000
     30       1.1079      0.00000
     31       1.2874      0.00000
     32       1.5227      0.00000

 k-point     6 :       0.4000    0.3333    0.0000
  band No.  band energies     occupation 
      1     -15.8134      2.00000
      2     -14.6791      2.00000
      3     -14.5945      2.00000
      4     -14.0669      2.00000
      5     -13.9764      2.00000
      6      -8.5694      2.00000
      7      -8.2998      2.00000
      8      -7.8526      2.00000
      9      -7.5695      2.00000
     10      -7.4923      2.00000
     11      -7.3174      2.00000
     12      -7.1106      2.00000
     13      -6.6522      2.00000
     14      -5.6612      2.00000
     15      -5.5530      2.00000
     16      -4.9730      2.00000
     17      -4.5079      2.00000
     18      -4.4656      2.00000
     19      -4.2637      2.00000
     20      -4.0096      2.00000
     21      -3.7457      2.00000
     22      -3.4611      2.00000
     23      -3.1171      2.00000
     24      -3.0210      2.00000
     25      -0.1132      0.00000
     26       0.3583      0.00000
     27       0.7507      0.00000
     28       1.0709      0.00000
     29       1.1989      0.00000
     30       1.6158      0.00000
     31       1.7683      0.00000
     32       1.8681      0.00000

 k-point     7 :      -0.4000    0.3333    0.0000
  band No.  band energies     occupation 
      1     -15.8134      2.00000
      2     -14.6789      2.00000
      3     -14.5946      2.00000
      4     -14.0668      2.00000
      5     -13.9764      2.00000
      6      -8.5669      2.00000
      7      -8.3139      2.00000
      8      -7.8204      2.00000
      9      -7.5849      2.00000
     10      -7.4906      2.00000
     11      -7.3236      2.00000
     12      -7.1115      2.00000
     13      -6.6525      2.00000
     14      -5.6715      2.00000
     15      -5.5499      2.00000
     16      -4.9602      2.00000
     17      -4.5282      2.00000
     18      -4.4641      2.00000
     19      -4.2482      2.00000
     20      -4.0026      2.00000
     21      -3.7317      2.00000
     22      -3.4948      2.00000
     23      -3.1090      2.00000
     24      -3.0171      2.00000
     25      -0.1406      0.00000
     26       0.4695      0.00000
     27       0.7193      0.00000
     28       0.9142      0.00000
     29       1.2914      0.00000
     30       1.6052      0.00000
     31       1.8011      0.00000
     32       1.8857      0.00000

 k-point     8 :      -0.2000    0.3333    0.0000
  band No.  band energies     occupation 
      1     -15.8445      2.00000
      2     -15.0574      2.00000
      3     -14.9801      2.00000
      4     -13.3461      2.00000
      5     -13.2570      2.00000
      6      -8.9473      2.00000
      7      -8.8493      2.00000
      8      -8.7508      2.00000
      9      -8.4506      2.00000
     10      -7.9270      2.00000
     11      -7.4175      2.00000
     12      -6.5403      2.00000
     13      -5.9180      2.00000
     14      -5.1956      2.00000
     15      -4.9792      2.00000
     16      -4.8957      2.00000
     17      -4.3558      2.00000
     18      -3.9436      2.00000
     19      -3.8927      2.00000
     20      -3.7259      2.00000
     21      -3.6484      2.00000
     22      -3.2393      2.00000
     23      -2.9187      2.00000
     24      -2.8094      2.00000
     25      -0.4780      0.00000
     26       0.2865      0.00000
     27       0.5450      0.00000
     28       0.7915      0.00000
     29       0.9150      0.00000
     30       1.1921      0.00000
     31       1.2515      0.00000
     32       1.5880      0.00000


--------------------------------------------------------------------------------------------------------


 soft charge-density along one line, spin component           1
         0         1         2         3         4         5         6         7         8         9
 total charge-density along one line

 pseudopotential strength for first ion, spin component:           1
  7.181 -16.881  -0.005  -0.002  -0.000   0.027   0.009   0.000
-16.881  49.269   0.012   0.004   0.000  -0.058  -0.019  -0.000
 -0.005   0.012   1.704  -0.000   0.000  -6.724   0.001  -0.000
 -0.002   0.004  -0.000   1.709  -0.000   0.001  -6.747   0.000
 -0.000   0.000   0.000  -0.000   1.704  -0.000   0.000  -6.726
  0.027  -0.058  -6.724   0.001  -0.000  28.448  -0.005   0.000
  0.009  -0.019   0.001  -6.747   0.000  -0.005  28.537  -0.000
  0.000  -0.000  -0.000   0.000  -6.726   0.000  -0.000  28.454
  0.000  -0.000  -0.000  -0.000  -0.005   0.000   0.000   0.012
 -0.001   0.001  -0.001  -0.004  -0.000   0.003   0.010   0.000
  0.011  -0.012   0.002  -0.002   0.000  -0.005   0.004  -0.000
 -0.000   0.000  -0.000  -0.000  -0.001   0.000   0.000   0.003
  0.001  -0.001   0.003  -0.000  -0.000  -0.007   0.000   0.000
 -0.000   0.000   0.000   0.000   0.018  -0.000  -0.000  -0.059
  0.004  -0.007   0.005   0.017   0.000  -0.016  -0.056  -0.000
 -0.041   0.072  -0.007   0.007  -0.000   0.026  -0.023   0.000
  0.000  -0.001   0.000   0.000   0.005  -0.000  -0.000  -0.018
 -0.002   0.004  -0.012   0.000   0.000   0.041  -0.001  -0.000
 total augmentation occupancy for first ion, spin component:           1
  1.390   0.033   0.004   0.013   0.001   0.005   0.001   0.000  -0.000   0.015  -0.103   0.001  -0.023  -0.000   0.001  -0.005
  0.033   0.001   0.008   0.002   0.000   0.000   0.000   0.000  -0.000   0.001  -0.003   0.000  -0.000  -0.000   0.000  -0.000
  0.004   0.008   1.333   0.066   0.000   0.027   0.002  -0.000   0.001   0.023  -0.074   0.001   0.068   0.000   0.001  -0.003
  0.013   0.002   0.066   0.407   0.004   0.002   0.007   0.000   0.001   0.062   0.008   0.000   0.005   0.000   0.002   0.000
  0.001   0.000   0.000   0.004   1.197  -0.000   0.000   0.025   0.247   0.001   0.000   0.034  -0.000   0.008   0.000   0.000
  0.005   0.000   0.027   0.002  -0.000   0.001   0.000  -0.000   0.000   0.001  -0.002   0.000   0.001   0.000   0.000  -0.000
  0.001   0.000   0.002   0.007   0.000   0.000   0.000   0.000   0.000   0.001   0.000   0.000   0.000   0.000   0.000  -0.000
  0.000   0.000  -0.000   0.000   0.025  -0.000   0.000   0.001   0.005   0.000   0.000   0.001  -0.000   0.000   0.000   0.000
 -0.000  -0.000   0.001   0.001   0.247   0.000   0.000   0.005   0.070   0.000   0.000   0.007  -0.000   0.002   0.000   0.000
  0.015   0.001   0.023   0.062   0.001   0.001   0.001   0.000   0.000   0.011  -0.000   0.000  -0.002   0.000   0.000  -0.000
 -0.103  -0.003  -0.074   0.008   0.000  -0.002   0.000   0.000   0.000  -0.000   0.014   0.000  -0.004   0.000  -0.000   0.001
  0.001   0.000   0.001   0.000   0.034   0.000   0.000   0.001   0.007   0.000   0.000   0.022   0.000   0.000   0.000  -0.000
 -0.023  -0.000   0.068   0.005  -0.000   0.001   0.000  -0.000  -0.000  -0.002  -0.004   0.000   0.045  -0.000  -0.000  -0.000
 -0.000  -0.000   0.000   0.000   0.008   0.000   0.000   0.000   0.002   0.000   0.000   0.000  -0.000   0.000   0.000   0.000
  0.001   0.000   0.001   0.002   0.000   0.000   0.000   0.000   0.000   0.000  -0.000   0.000  -0.000   0.000   0.000  -0.000
 -0.005  -0.000  -0.003   0.000   0.000  -0.000  -0.000   0.000   0.000  -0.000   0.001  -0.000  -0.000   0.000  -0.000   0.000
  0.000   0.000   0.000   0.000   0.001   0.000   0.000   0.000   0.000   0.000  -0.000   0.001   0.000   0.000   0.000  -0.000
 -0.001  -0.000   0.001   0.000  -0.000   0.000   0.000  -0.000  -0.000  -0.000  -0.000   0.000   0.001  -0.000  -0.000  -0.000


------------------------ aborting loop because EDIFF is reached ----------------------------------------


    FORLOC:  cpu time    0.2242: real time    0.2244
    FORHF :  cpu time 1072.6948: real time 1074.7090
    FORNL :  cpu time    6.3326: real time    6.3484
    STRESS:  cpu time   19.2590: real time   19.3075
    FORCOR:  cpu time    8.2336: real time    8.2431
    OFIELD:  cpu time    0.0090: real time    0.0090

  FORCE on cell =-STRESS in cart. coord.  units (eV):
  Direction    XX          YY          ZZ          XY          YZ          ZX
  --------------------------------------------------------------------------------------
  Alpha Z    13.10178    13.10178    13.10178
  Ewald    2356.25462  1929.75719 -2925.89053    -8.23101   -42.30780    -7.58461
  Hartree  2376.88819  2081.55028 -1950.05818    -0.28114   -20.74519    -2.66135
  E(xc)    -120.08581  -120.69706  -118.25083     0.03892    -0.03231    -0.07499
  Local   -5225.39462 -4513.04994  4397.43483     5.63759    58.16952     6.31172
  n-local   224.46523   236.18075   190.86935    -0.53343     0.56236     1.69553
  augment   -29.49352   -31.20583   -27.62280    -0.36472    -0.88804    -0.80508
  Kinetic   435.24212   430.47909   450.71918     3.75370     4.99644     2.94747
  Fock      -31.69855   -31.29558   -30.95915     0.06481     0.16257     0.15678
  -------------------------------------------------------------------------------------
  Total      -0.72058    -5.17934    -0.65635     0.08472    -0.08245    -0.01453
  in kB      -1.26102    -9.06393    -1.14863     0.14826    -0.14429    -0.02542
  external pressure =       -3.82 kB  Pullay stress =        0.00 kB


 VOLUME and BASIS-vectors are now :
 -----------------------------------------------------------------------------
  energy-cutoff  :      450.00
  volume of cell :      915.52
      direct lattice vectors                 reciprocal lattice vectors
     6.019200000  0.000000000  0.000000000     0.166135035  0.000000000  0.000000000
     0.000000000 10.140000000  0.000000000     0.000000000  0.098619329  0.000000000
     0.000000000  0.000000000 15.000000000     0.000000000  0.000000000  0.066666667

  length of vectors
     6.019200000 10.140000000 15.000000000     0.166135035  0.098619329  0.066666667


 FORCES acting on ions:
    Electron-Ion                     Ewald-Force                    Non-Local-Force
 -----------------------------------------------------------------------------------------------
   0.266E+00 0.486E+02 0.363E+02   -.253E+00 -.458E+02 -.354E+02   -.160E-01 -.308E+01 -.969E+00
   -.360E+00 0.482E+02 -.704E+01   0.371E+00 -.454E+02 0.634E+01   -.160E-01 -.307E+01 0.752E+00
   0.119E+01 -.575E+02 0.495E+02   -.128E+01 0.548E+02 -.482E+02   0.750E-01 0.293E+01 -.134E+01
   -.236E+01 -.599E+02 -.227E+01   0.238E+01 0.573E+02 0.146E+01   -.115E-01 0.297E+01 0.856E+00
   0.500E+01 0.537E+02 0.255E+01   -.512E+01 -.516E+02 -.431E+01   0.121E+00 -.236E+01 0.190E+01
   -.187E+01 0.522E+02 0.487E+02   0.206E+01 -.496E+02 -.477E+02   -.165E+00 -.296E+01 -.110E+01
   0.933E+00 -.407E+02 -.280E+01   -.949E+00 0.384E+02 0.215E+01   0.220E-01 0.259E+01 0.687E+00
   -.628E+00 -.446E+02 0.374E+02   0.622E+00 0.417E+02 -.366E+02   0.668E-02 0.321E+01 -.890E+00
   -.266E-01 0.393E+01 0.219E+02   0.103E+00 -.390E+01 -.220E+02   -.436E-01 -.227E-01 0.201E+00
   0.243E-01 0.433E+01 0.199E+02   -.102E+00 -.430E+01 -.199E+02   0.473E-01 -.186E-01 0.820E-01
   0.244E+01 -.555E+01 0.320E+02   -.236E+01 0.562E+01 -.322E+02   -.263E-01 -.590E-01 0.166E+00
   -.316E+01 -.782E+01 0.347E+02   0.303E+01 0.793E+01 -.348E+02   0.782E-01 -.789E-01 0.420E-01
   0.146E+02 -.200E+02 -.192E+03   -.188E+02 0.260E+02 0.189E+03   0.442E+01 -.623E+01 0.367E+01
   -.245E+02 0.138E+02 -.315E+02   0.270E+02 -.150E+02 0.314E+02   -.251E+01 0.118E+01 0.117E+00
   0.614E+01 0.148E+02 -.491E+02   -.663E+01 -.162E+02 0.513E+02   0.484E+00 0.134E+01 -.216E+01
 -----------------------------------------------------------------------------------------------
   -.246E+01 0.370E+01 -.202E+01   -.355E-14 0.000E+00 -.284E-13   0.246E+01 -.367E+01 0.202E+01


 POSITION                                       TOTAL-FORCE (eV/Angst)
 -----------------------------------------------------------------------------------
      2.60177      8.89578      3.54587        -0.002092      0.021305      0.026815
      5.61060      8.89999      3.92720        -0.004318      0.007642     -0.013152
      2.60619      6.25446      3.59546        -0.023910      0.016929      0.005437
      5.61878      6.27706      4.03631         0.005667      0.018533     -0.017183
      2.59390      3.81736      4.14525        -0.004349     -0.019165     -0.002285
      5.61373      3.83559      3.63500         0.029183     -0.026124      0.012855
      2.59797      1.19988      3.94031         0.004894     -0.034299     -0.025487
      5.60858      1.19888      3.56888         0.000185     -0.010732      0.014700
      1.09501     10.11611      3.72206         0.032329      0.008426      0.032497
      4.10487     10.11678      3.73918        -0.029738      0.011659      0.007030
      1.09857      5.05048      3.84660         0.055299      0.010020      0.004024
      4.11038      5.05430      3.90102        -0.055427      0.021354     -0.042806
      3.36457      4.44046      6.99845         0.024994     -0.025599     -0.019925
      4.86524      3.73005      6.93197        -0.032850      0.011634      0.001502
      3.04843      3.57022      8.40743         0.000132     -0.011582      0.015979
 -----------------------------------------------------------------------------------
    total drift:                                0.000656      0.014793     -0.002898


--------------------------------------------------------------------------------------------------------



  FREE ENERGIE OF THE ION-ELECTRON SYSTEM (eV)
  ---------------------------------------------------
  free  energy   TOTEN  =       -80.14234165 eV

  energy  without entropy=      -80.14234165  energy(sigma->0) =      -80.14234165

 d Force = 0.3869471E-03[ 0.377E-03, 0.397E-03]  d Energy = 0.3394253E-03 0.475E-04
 d Force =-0.1131466E+00[-0.113E+00,-0.114E+00]  d Ewald  =-0.1131465E+00-0.263E-08


--------------------------------------------------------------------------------------------------------


    POTLOK:  cpu time    9.2205: real time    9.2327


--------------------------------------------------------------------------------------------------------


 stress matrix after NEB project (eV)
     -0.72058      0.08472     -0.01453
      0.08472     -5.17934     -0.08245
     -0.01453     -0.08245     -0.65635
  FORCES: max atom, RMS     0.073215    0.038573
  FORCE total and by dimension    0.149393    0.055427
  Stress total and by dimension    5.272943    5.179337
 Conjugate gradient step on ions:
 trial-energy change:   -0.000339  1 .order   -0.000387   -0.000397   -0.000377
  (g-gl).g = 0.826E-03      g.g   = 0.961E-03  gl.gl    = 0.415E-03
 g(Force)  = 0.961E-03   g(Stress)= 0.000E+00 ortho     = 0.874E-04
 gamma     =   1.99190
 trial     =   0.34949
 opt step  =   1.39797  (harmonic =   6.97528) maximal distance =0.00578392
 next E    =   -80.145963   (d E  =  -0.00396)


--------------------------------------------------------------------------------------------------------


    WAVPRE:  cpu time    0.5287: real time    0.9837
    FEWALD:  cpu time    0.0024: real time    0.0024
    ORTHCH:  cpu time    2.5927: real time    2.6085
    CHARGE:  cpu time    1.5814: real time    1.5915
     LOOP+:  cpu time 5705.9486: real time 5727.7010


--------------------------------------- Iteration     10(   1)  ---------------------------------------


    POTLOK:  cpu time    8.3060: real time    8.3385
    SETDIJ:  cpu time    0.9427: real time    0.9468
    TRIAL :  cpu time  645.9936: real time  649.0154
    CORREC:  cpu time    0.0009: real time    0.0009
    CHARGE:  cpu time    1.5862: real time    1.5931
    --------------------------------------------
      LOOP:  cpu time  656.8926: real time  659.9583

 eigenvalue-minimisations  :     0
 total energy-change (2. order) : 0.1304645E-01  (-0.1339336E-01)
 number of electron      48.0000002 magnetization 
 augmentation part       -1.2491814 magnetization 

 Free energy of the ion-electron system (eV)
  ---------------------------------------------------
  alpha Z        PSCENC =        13.10177784
  Ewald energy   TEWEN  =      1360.45505058
  -Hartree energ DENC   =     -2508.37091752
  -exchange      EXHF   =        75.36336170
  -V(xc)+E(xc)   XCENC  =      -142.11175886
  PAW double counting   =      1712.60653247    -1483.47428140
  entropy T*S    EENTRO =        -0.00000000
  eigenvalues    EBANDS =      -358.89228671
  atomic energy  EATOM  =      1251.19323263
  ---------------------------------------------------
  free energy    TOTEN  =       -80.12928928 eV

  energy without entropy =      -80.12928928  energy(sigma->0) =      -80.12928928
  exchange ACFDT corr.  =        -0.00000000  see jH, gK, PRB 81, 115126


--------------------------------------------------------------------------------------------------------




--------------------------------------- Iteration     10(   2)  ---------------------------------------


    POTLOK:  cpu time    8.2733: real time    8.2977
    SETDIJ:  cpu time    0.9436: real time    0.9473
    TRIAL :  cpu time  645.3405: real time  648.2572
    CORREC:  cpu time    0.0004: real time    0.0004
    CHARGE:  cpu time    1.5714: real time    1.5802
    --------------------------------------------
      LOOP:  cpu time  656.1297: real time  659.0840

 eigenvalue-minimisations  :     0
 total energy-change (2. order) :-0.9206607E-02  (-0.5150288E-02)
 number of electron      48.0000002 magnetization 
 augmentation part       -1.2491849 magnetization 

 Free energy of the ion-electron system (eV)
  ---------------------------------------------------
  alpha Z        PSCENC =        13.10177784
  Ewald energy   TEWEN  =      1360.45505058
  -Hartree energ DENC   =     -2508.43038470
  -exchange      EXHF   =        75.36888594
  -V(xc)+E(xc)   XCENC  =      -142.10708850
  PAW double counting   =      1712.76143238    -1483.62961204
  entropy T*S    EENTRO =        -0.00000000
  eigenvalues    EBANDS =      -358.85179001
  atomic energy  EATOM  =      1251.19323263
  ---------------------------------------------------
  free energy    TOTEN  =       -80.13849589 eV

  energy without entropy =      -80.13849589  energy(sigma->0) =      -80.13849589
  exchange ACFDT corr.  =        -0.00000000  see jH, gK, PRB 81, 115126


--------------------------------------------------------------------------------------------------------




--------------------------------------- Iteration     10(   3)  ---------------------------------------


    POTLOK:  cpu time    8.2849: real time    8.3023
    SETDIJ:  cpu time    0.9263: real time    0.9304
    TRIAL :  cpu time  645.5290: real time  647.9989
    CORREC:  cpu time    0.0003: real time    0.0003
    CHARGE:  cpu time    1.5711: real time    1.5767
    --------------------------------------------
      LOOP:  cpu time  656.3121: real time  658.8100

 eigenvalue-minimisations  :     0
 total energy-change (2. order) :-0.3145823E-02  (-0.1632990E-02)
 number of electron      48.0000002 magnetization 
 augmentation part       -1.2493815 magnetization 

 Free energy of the ion-electron system (eV)
  ---------------------------------------------------
  alpha Z        PSCENC =        13.10177784
  Ewald energy   TEWEN  =      1360.45505058
  -Hartree energ DENC   =     -2508.54761914
  -exchange      EXHF   =        75.37139832
  -V(xc)+E(xc)   XCENC  =      -142.10482719
  PAW double counting   =      1712.83841753    -1483.70656939
  entropy T*S    EENTRO =        -0.00000000
  eigenvalues    EBANDS =      -358.74250290
  atomic energy  EATOM  =      1251.19323263
  ---------------------------------------------------
  free energy    TOTEN  =       -80.14164171 eV

  energy without entropy =      -80.14164171  energy(sigma->0) =      -80.14164171
  exchange ACFDT corr.  =        -0.00000000  see jH, gK, PRB 81, 115126


--------------------------------------------------------------------------------------------------------




--------------------------------------- Iteration     10(   4)  ---------------------------------------


    POTLOK:  cpu time    8.3048: real time    8.3178
    SETDIJ:  cpu time    0.9544: real time    0.9558
    TRIAL :  cpu time  644.7719: real time  646.4544
    CORREC:  cpu time    0.0003: real time    0.0003
    CHARGE:  cpu time    1.5848: real time    1.5879
    --------------------------------------------
      LOOP:  cpu time  655.6166: real time  657.3174

 eigenvalue-minimisations  :     0
 total energy-change (2. order) :-0.9390577E-03  (-0.4214155E-03)
 number of electron      48.0000002 magnetization 
 augmentation part       -1.2494363 magnetization 

 Free energy of the ion-electron system (eV)
  ---------------------------------------------------
  alpha Z        PSCENC =        13.10177784
  Ewald energy   TEWEN  =      1360.45505058
  -Hartree energ DENC   =     -2508.59745101
  -exchange      EXHF   =        75.37043936
  -V(xc)+E(xc)   XCENC  =      -142.10563632
  PAW double counting   =      1712.79917755    -1483.66702486
  entropy T*S    EENTRO =        -0.00000000
  eigenvalues    EBANDS =      -358.69214652
  atomic energy  EATOM  =      1251.19323263
  ---------------------------------------------------
  free energy    TOTEN  =       -80.14258077 eV

  energy without entropy =      -80.14258077  energy(sigma->0) =      -80.14258077
  exchange ACFDT corr.  =        -0.00000000  see jH, gK, PRB 81, 115126


--------------------------------------------------------------------------------------------------------




--------------------------------------- Iteration     10(   5)  ---------------------------------------


    POTLOK:  cpu time    8.2923: real time    8.2999
    SETDIJ:  cpu time    0.9523: real time    0.9542
    TRIAL :  cpu time  642.9481: real time  644.7693
    CORREC:  cpu time    0.0011: real time    0.0011
    CHARGE:  cpu time    1.5694: real time    1.5758
    --------------------------------------------
      LOOP:  cpu time  653.7639: real time  655.6017

 eigenvalue-minimisations  :     0
 total energy-change (2. order) :-0.1780842E-03  (-0.1038992E-03)
 number of electron      48.0000002 magnetization 
 augmentation part       -1.2493709 magnetization 

 Free energy of the ion-electron system (eV)
  ---------------------------------------------------
  alpha Z        PSCENC =        13.10177784
  Ewald energy   TEWEN  =      1360.45505058
  -Hartree energ DENC   =     -2508.58672367
  -exchange      EXHF   =        75.36979563
  -V(xc)+E(xc)   XCENC  =      -142.10625193
  PAW double counting   =      1712.77695551    -1483.64473303
  entropy T*S    EENTRO =        -0.00000000
  eigenvalues    EBANDS =      -358.70186241
  atomic energy  EATOM  =      1251.19323263
  ---------------------------------------------------
  free energy    TOTEN  =       -80.14275885 eV

  energy without entropy =      -80.14275885  energy(sigma->0) =      -80.14275885
  exchange ACFDT corr.  =        -0.00000000  see jH, gK, PRB 81, 115126


--------------------------------------------------------------------------------------------------------




--------------------------------------- Iteration     10(   6)  ---------------------------------------


    POTLOK:  cpu time    8.3414: real time    8.3576
    SETDIJ:  cpu time    0.9537: real time    0.9555
    TRIAL :  cpu time  645.7316: real time  648.0259
    CORREC:  cpu time    0.0009: real time    0.0009
    CHARGE:  cpu time    1.5674: real time    1.5747
    --------------------------------------------
      LOOP:  cpu time  656.5970: real time  658.9176

 eigenvalue-minimisations  :     0
 total energy-change (2. order) :-0.4864738E-04  (-0.7083082E-04)
 number of electron      48.0000002 magnetization 
 augmentation part       -1.2493349 magnetization 

 Free energy of the ion-electron system (eV)
  ---------------------------------------------------
  alpha Z        PSCENC =        13.10177784
  Ewald energy   TEWEN  =      1360.45505058
  -Hartree energ DENC   =     -2508.57142606
  -exchange      EXHF   =        75.37013640
  -V(xc)+E(xc)   XCENC  =      -142.10606762
  PAW double counting   =      1712.78989044    -1483.65778556
  entropy T*S    EENTRO =        -0.00000000
  eigenvalues    EBANDS =      -358.71761616
  atomic energy  EATOM  =      1251.19323263
  ---------------------------------------------------
  free energy    TOTEN  =       -80.14280750 eV

  energy without entropy =      -80.14280750  energy(sigma->0) =      -80.14280750
  exchange ACFDT corr.  =        -0.00000000  see jH, gK, PRB 81, 115126


--------------------------------------------------------------------------------------------------------




--------------------------------------- Iteration     10(   7)  ---------------------------------------


    POTLOK:  cpu time    8.2823: real time    8.2964
    SETDIJ:  cpu time    0.9458: real time    0.9486
    TRIAL :  cpu time  641.2355: real time  643.5097
    CORREC:  cpu time    0.0006: real time    0.0007
    CHARGE:  cpu time    1.5716: real time    1.5775
    --------------------------------------------
      LOOP:  cpu time  652.0363: real time  654.3340

 eigenvalue-minimisations  :     0
 total energy-change (2. order) :-0.4528311E-04  (-0.3919047E-04)
 number of electron      48.0000002 magnetization 
 augmentation part       -1.2493558 magnetization 

 Free energy of the ion-electron system (eV)
  ---------------------------------------------------
  alpha Z        PSCENC =        13.10177784
  Ewald energy   TEWEN  =      1360.45505058
  -Hartree energ DENC   =     -2508.57594051
  -exchange      EXHF   =        75.37051913
  -V(xc)+E(xc)   XCENC  =      -142.10577213
  PAW double counting   =      1712.81046629    -1483.67840667
  entropy T*S    EENTRO =        -0.00000000
  eigenvalues    EBANDS =      -358.71377994
  atomic energy  EATOM  =      1251.19323263
  ---------------------------------------------------
  free energy    TOTEN  =       -80.14285278 eV

  energy without entropy =      -80.14285278  energy(sigma->0) =      -80.14285278
  exchange ACFDT corr.  =        -0.00000000  see jH, gK, PRB 81, 115126


--------------------------------------------------------------------------------------------------------




--------------------------------------- Iteration     10(   8)  ---------------------------------------


    POTLOK:  cpu time    8.2796: real time    8.2951
    SETDIJ:  cpu time    0.9440: real time    0.9467
    TRIAL :  cpu time  644.1762: real time  646.3486
    CORREC:  cpu time    0.0005: real time    0.0005
    CHARGE:  cpu time    1.5829: real time    1.5863
    --------------------------------------------
      LOOP:  cpu time  654.9839: real time  657.1788

 eigenvalue-minimisations  :     0
 total energy-change (2. order) :-0.2554665E-04  (-0.1597006E-04)
 number of electron      48.0000002 magnetization 
 augmentation part       -1.2493857 magnetization 

 Free energy of the ion-electron system (eV)
  ---------------------------------------------------
  alpha Z        PSCENC =        13.10177784
  Ewald energy   TEWEN  =      1360.45505058
  -Hartree energ DENC   =     -2508.58497307
  -exchange      EXHF   =        75.37058618
  -V(xc)+E(xc)   XCENC  =      -142.10574429
  PAW double counting   =      1712.82165982    -1483.68959513
  entropy T*S    EENTRO =        -0.00000000
  eigenvalues    EBANDS =      -358.70487288
  atomic energy  EATOM  =      1251.19323263
  ---------------------------------------------------
  free energy    TOTEN  =       -80.14287833 eV

  energy without entropy =      -80.14287833  energy(sigma->0) =      -80.14287833
  exchange ACFDT corr.  =        -0.00000000  see jH, gK, PRB 81, 115126


--------------------------------------------------------------------------------------------------------




--------------------------------------- Iteration     10(   9)  ---------------------------------------


    POTLOK:  cpu time    8.2837: real time    8.2908
    SETDIJ:  cpu time    0.9409: real time    0.9421
    TRIAL :  cpu time  646.2884: real time  647.5304
    CORREC:  cpu time    0.0004: real time    0.0003
    EDDIAG:  cpu time  635.3404: real time  637.3148
    CHARGE:  cpu time    1.5845: real time    1.5879
    --------------------------------------------
      LOOP:  cpu time 1292.4389: real time 1295.6678

 eigenvalue-minimisations  :     0
 total energy-change (2. order) :-0.9780792E-05  (-0.5066339E-05)
 number of electron      48.0000002 magnetization 
 augmentation part       -1.2493953 magnetization 

 Free energy of the ion-electron system (eV)
  ---------------------------------------------------
  alpha Z        PSCENC =        13.10177784
  Ewald energy   TEWEN  =      1360.45505058
  -Hartree energ DENC   =     -2508.58799414
  -exchange      EXHF   =        75.37050732
  -V(xc)+E(xc)   XCENC  =      -142.10583866
  PAW double counting   =      1712.82294805    -1483.69088563
  entropy T*S    EENTRO =        -0.00000000
  eigenvalues    EBANDS =      -358.70170073
  atomic energy  EATOM  =      1251.19323263
  ---------------------------------------------------
  free energy    TOTEN  =       -80.14288811 eV

  energy without entropy =      -80.14288811  energy(sigma->0) =      -80.14288811
  exchange ACFDT corr.  =        -0.00000000  see jH, gK, PRB 81, 115126


--------------------------------------------------------------------------------------------------------


  average scaling for gradient   1.0278


 average (electrostatic) potential at core
  the test charge radii are     1.0406  0.6991  1.1897  0.5883
  (the norm of the test charge is              1.0000)
       1 -54.8686       2 -54.8616       3 -54.8644       4 -54.8872       5 -54.9080
       6 -54.9539       7 -54.8088       8 -54.8898       9 -51.0165      10 -51.0149
      11 -51.0767      12 -51.1329      13 -93.2191      14 -34.3077      15 -33.8169



 E-fermi :  -2.0351     XC(G=0):  -2.9205     alpha+bet : -2.8557


 k-point     1 :       0.0000    0.0000    0.0000
  band No.  band energies     occupation 
      1     -15.8635      2.00000
      2     -15.2247      2.00000
      3     -15.0693      2.00000
      4     -12.9546      2.00000
      5     -12.8558      2.00000
      6      -9.6240      2.00000
      7      -9.3445      2.00000
      8      -9.3103      2.00000
      9      -8.4355      2.00000
     10      -7.4344      2.00000
     11      -6.9928      2.00000
     12      -6.4371      2.00000
     13      -5.9888      2.00000
     14      -5.5144      2.00000
     15      -5.1819      2.00000
     16      -4.9192      2.00000
     17      -4.4878      2.00000
     18      -4.3735      2.00000
     19      -3.4174      2.00000
     20      -3.1987      2.00000
     21      -3.1612      2.00000
     22      -2.6218      2.00000
     23      -2.3376      2.00000
     24      -2.3057      2.00000
     25      -0.8033      0.00000
     26      -0.2586      0.00000
     27       0.2520      0.00000
     28       0.6089      0.00000
     29       0.7702      0.00000
     30       0.9316      0.00000
     31       1.0810      0.00000
     32       1.3635      0.00000

 k-point     2 :       0.2000    0.0000    0.0000
  band No.  band energies     occupation 
      1     -15.8415      2.00000
      2     -15.0986      2.00000
      3     -14.9439      2.00000
      4     -13.3656      2.00000
      5     -13.2458      2.00000
      6      -9.1635      2.00000
      7      -8.9746      2.00000
      8      -8.7043      2.00000
      9      -8.4514      2.00000
     10      -7.4453      2.00000
     11      -6.8689      2.00000
     12      -6.7955      2.00000
     13      -6.3050      2.00000
     14      -5.4410      2.00000
     15      -5.2231      2.00000
     16      -4.8067      2.00000
     17      -4.4479      2.00000
     18      -3.9700      2.00000
     19      -3.9130      2.00000
     20      -3.8673      2.00000
     21      -3.7360      2.00000
     22      -3.0212      2.00000
     23      -2.7710      2.00000
     24      -2.3054      2.00000
     25      -0.7932      0.00000
     26       0.4495      0.00000
     27       0.7338      0.00000
     28       0.8129      0.00000
     29       1.0299      0.00000
     30       1.0623      0.00000
     31       1.1609      0.00000
     32       1.5381      0.00000

 k-point     3 :       0.4000    0.0000    0.0000
  band No.  band energies     occupation 
      1     -15.8099      2.00000
      2     -14.7165      2.00000
      3     -14.5628      2.00000
      4     -14.0971      2.00000
      5     -13.9537      2.00000
      6      -8.7136      2.00000
      7      -8.4589      2.00000
      8      -7.9160      2.00000
      9      -7.6806      2.00000
     10      -7.3665      2.00000
     11      -7.1418      2.00000
     12      -6.5020      2.00000
     13      -6.1665      2.00000
     14      -5.9661      2.00000
     15      -5.5343      2.00000
     16      -5.2421      2.00000
     17      -5.0472      2.00000
     18      -4.7818      2.00000
     19      -4.4603      2.00000
     20      -4.2126      2.00000
     21      -3.7450      2.00000
     22      -3.4416      2.00000
     23      -2.8300      2.00000
     24      -2.3915      2.00000
     25      -0.4559      0.00000
     26       0.2435      0.00000
     27       0.9196      0.00000
     28       1.3169      0.00000
     29       1.4103      0.00000
     30       1.6088      0.00000
     31       1.7240      0.00000
     32       2.1411      0.00000

 k-point     4 :       0.0000    0.3333    0.0000
  band No.  band energies     occupation 
      1     -15.8624      2.00000
      2     -15.1910      2.00000
      3     -15.1088      2.00000
      4     -12.9436      2.00000
      5     -12.8677      2.00000
      6      -9.5722      2.00000
      7      -9.3988      2.00000
      8      -9.0121      2.00000
      9      -8.4481      2.00000
     10      -8.0727      2.00000
     11      -7.4083      2.00000
     12      -5.8191      2.00000
     13      -5.4517      2.00000
     14      -5.3798      2.00000
     15      -5.0878      2.00000
     16      -5.0512      2.00000
     17      -4.4109      2.00000
     18      -4.1915      2.00000
     19      -3.7028      2.00000
     20      -3.2877      2.00000
     21      -3.1940      2.00000
     22      -3.1638      2.00000
     23      -2.6073      2.00000
     24      -2.3211      2.00000
     25      -0.5798      0.00000
     26       0.0975      0.00000
     27       0.2998      0.00000
     28       0.4547      0.00000
     29       0.6981      0.00000
     30       0.8737      0.00000
     31       1.1273      0.00000
     32       1.3759      0.00000

 k-point     5 :       0.2000    0.3333    0.0000
  band No.  band energies     occupation 
      1     -15.8408      2.00000
      2     -15.0629      2.00000
      3     -14.9848      2.00000
      4     -13.3473      2.00000
      5     -13.2657      2.00000
      6      -8.9439      2.00000
      7      -8.8563      2.00000
      8      -8.7610      2.00000
      9      -8.4457      2.00000
     10      -7.9428      2.00000
     11      -7.4071      2.00000
     12      -6.5483      2.00000
     13      -5.9085      2.00000
     14      -5.2045      2.00000
     15      -4.9700      2.00000
     16      -4.8924      2.00000
     17      -4.3799      2.00000
     18      -3.9507      2.00000
     19      -3.9004      2.00000
     20      -3.7150      2.00000
     21      -3.6664      2.00000
     22      -3.2188      2.00000
     23      -2.9463      2.00000
     24      -2.8023      2.00000
     25      -0.4567      0.00000
     26       0.2168      0.00000
     27       0.6389      0.00000
     28       0.7822      0.00000
     29       0.8860      0.00000
     30       1.1094      0.00000
     31       1.2840      0.00000
     32       1.5188      0.00000

 k-point     6 :       0.4000    0.3333    0.0000
  band No.  band energies     occupation 
      1     -15.8097      2.00000
      2     -14.6820      2.00000
      3     -14.6014      2.00000
      4     -14.0691      2.00000
      5     -13.9846      2.00000
      6      -8.5687      2.00000
      7      -8.3038      2.00000
      8      -7.8484      2.00000
      9      -7.5742      2.00000
     10      -7.4968      2.00000
     11      -7.3227      2.00000
     12      -7.1133      2.00000
     13      -6.6576      2.00000
     14      -5.6641      2.00000
     15      -5.5608      2.00000
     16      -4.9705      2.00000
     17      -4.5089      2.00000
     18      -4.4703      2.00000
     19      -4.2627      2.00000
     20      -4.0127      2.00000
     21      -3.7501      2.00000
     22      -3.4617      2.00000
     23      -3.1240      2.00000
     24      -3.0246      2.00000
     25      -0.1158      0.00000
     26       0.3608      0.00000
     27       0.7499      0.00000
     28       1.0725      0.00000
     29       1.1966      0.00000
     30       1.6134      0.00000
     31       1.7668      0.00000
     32       1.8608      0.00000

 k-point     7 :      -0.4000    0.3333    0.0000
  band No.  band energies     occupation 
      1     -15.8097      2.00000
      2     -14.6819      2.00000
      3     -14.6015      2.00000
      4     -14.0691      2.00000
      5     -13.9847      2.00000
      6      -8.5662      2.00000
      7      -8.3177      2.00000
      8      -7.8161      2.00000
      9      -7.5883      2.00000
     10      -7.4973      2.00000
     11      -7.3291      2.00000
     12      -7.1136      2.00000
     13      -6.6577      2.00000
     14      -5.6739      2.00000
     15      -5.5579      2.00000
     16      -4.9579      2.00000
     17      -4.5290      2.00000
     18      -4.4687      2.00000
     19      -4.2473      2.00000
     20      -4.0064      2.00000
     21      -3.7362      2.00000
     22      -3.4945      2.00000
     23      -3.1165      2.00000
     24      -3.0203      2.00000
     25      -0.1419      0.00000
     26       0.4703      0.00000
     27       0.7170      0.00000
     28       0.9178      0.00000
     29       1.2881      0.00000
     30       1.6079      0.00000
     31       1.7976      0.00000
     32       1.8839      0.00000

 k-point     8 :      -0.2000    0.3333    0.0000
  band No.  band energies     occupation 
      1     -15.8408      2.00000
      2     -15.0627      2.00000
      3     -14.9849      2.00000
      4     -13.3472      2.00000
      5     -13.2658      2.00000
      6      -8.9467      2.00000
      7      -8.8540      2.00000
      8      -8.7601      2.00000
      9      -8.4506      2.00000
     10      -7.9320      2.00000
     11      -7.4116      2.00000
     12      -6.5451      2.00000
     13      -5.9225      2.00000
     14      -5.1946      2.00000
     15      -4.9820      2.00000
     16      -4.8985      2.00000
     17      -4.3525      2.00000
     18      -3.9457      2.00000
     19      -3.9022      2.00000
     20      -3.7298      2.00000
     21      -3.6543      2.00000
     22      -3.2419      2.00000
     23      -2.9180      2.00000
     24      -2.8143      2.00000
     25      -0.4810      0.00000
     26       0.2858      0.00000
     27       0.5451      0.00000
     28       0.7941      0.00000
     29       0.9159      0.00000
     30       1.1940      0.00000
     31       1.2444      0.00000
     32       1.5811      0.00000


--------------------------------------------------------------------------------------------------------


 soft charge-density along one line, spin component           1
         0         1         2         3         4         5         6         7         8         9
 total charge-density along one line

 pseudopotential strength for first ion, spin component:           1
  7.181 -16.882  -0.005  -0.002  -0.000   0.027   0.009   0.000
-16.882  49.269   0.012   0.004   0.000  -0.057  -0.019  -0.000
 -0.005   0.012   1.704  -0.000   0.000  -6.725   0.001  -0.000
 -0.002   0.004  -0.000   1.709  -0.000   0.001  -6.747   0.000
 -0.000   0.000   0.000  -0.000   1.704  -0.000   0.000  -6.726
  0.027  -0.057  -6.725   0.001  -0.000  28.449  -0.005   0.000
  0.009  -0.019   0.001  -6.747   0.000  -0.005  28.538  -0.000
  0.000  -0.000  -0.000   0.000  -6.726   0.000  -0.000  28.455
  0.000  -0.000  -0.000  -0.000  -0.005   0.000   0.000   0.012
 -0.001   0.001  -0.001  -0.004  -0.000   0.003   0.010   0.000
  0.011  -0.012   0.002  -0.002   0.000  -0.005   0.004  -0.000
 -0.000   0.000  -0.000  -0.000  -0.001   0.000   0.000   0.003
  0.001  -0.001   0.003  -0.000  -0.000  -0.007   0.000   0.000
 -0.000   0.000   0.000   0.000   0.018  -0.000  -0.000  -0.059
  0.004  -0.007   0.005   0.016   0.000  -0.016  -0.056  -0.000
 -0.041   0.072  -0.007   0.007  -0.000   0.026  -0.023   0.000
  0.000  -0.001   0.000   0.000   0.005  -0.000  -0.000  -0.018
 -0.002   0.004  -0.012   0.000   0.000   0.041  -0.001  -0.000
 total augmentation occupancy for first ion, spin component:           1
  1.390   0.033   0.005   0.013   0.001   0.005   0.001   0.000  -0.000   0.015  -0.104   0.001  -0.023  -0.000   0.001  -0.005
  0.033   0.001   0.008   0.002   0.000   0.000   0.000   0.000  -0.000   0.001  -0.003   0.000  -0.000  -0.000   0.000  -0.000
  0.005   0.008   1.335   0.065   0.000   0.027   0.002  -0.000   0.001   0.022  -0.074   0.001   0.068   0.000   0.001  -0.003
  0.013   0.002   0.065   0.408   0.004   0.002   0.007   0.000   0.001   0.062   0.008   0.000   0.005   0.000   0.002   0.000
  0.001   0.000   0.000   0.004   1.199  -0.000   0.000   0.026   0.248   0.001   0.000   0.034  -0.000   0.008   0.000   0.000
  0.005   0.000   0.027   0.002  -0.000   0.001   0.000  -0.000   0.000   0.001  -0.002   0.000   0.001   0.000   0.000  -0.000
  0.001   0.000   0.002   0.007   0.000   0.000   0.000   0.000   0.000   0.001   0.000   0.000   0.000   0.000   0.000  -0.000
  0.000   0.000  -0.000   0.000   0.026  -0.000   0.000   0.001   0.005   0.000   0.000   0.001  -0.000   0.000   0.000   0.000
 -0.000  -0.000   0.001   0.001   0.248   0.000   0.000   0.005   0.070   0.000   0.000   0.007   0.000   0.002   0.000   0.000
  0.015   0.001   0.022   0.062   0.001   0.001   0.001   0.000   0.000   0.011  -0.000   0.000  -0.002   0.000   0.000  -0.000
 -0.104  -0.003  -0.074   0.008   0.000  -0.002   0.000   0.000   0.000  -0.000   0.014   0.000  -0.004   0.000  -0.000   0.001
  0.001   0.000   0.001   0.000   0.034   0.000   0.000   0.001   0.007   0.000   0.000   0.022   0.000   0.000   0.000  -0.000
 -0.023  -0.000   0.068   0.005  -0.000   0.001   0.000  -0.000   0.000  -0.002  -0.004   0.000   0.045  -0.000  -0.000  -0.000
 -0.000  -0.000   0.000   0.000   0.008   0.000   0.000   0.000   0.002   0.000   0.000   0.000  -0.000   0.000   0.000   0.000
  0.001   0.000   0.001   0.002   0.000   0.000   0.000   0.000   0.000   0.000  -0.000   0.000  -0.000   0.000   0.000  -0.000
 -0.005  -0.000  -0.003   0.000   0.000  -0.000  -0.000   0.000   0.000  -0.000   0.001  -0.000  -0.000   0.000  -0.000   0.000
  0.000   0.000   0.000   0.000   0.001   0.000   0.000   0.000   0.000   0.000  -0.000   0.001   0.000   0.000   0.000  -0.000
 -0.001  -0.000   0.001   0.000  -0.000   0.000   0.000  -0.000  -0.000  -0.000  -0.000   0.000   0.001  -0.000  -0.000  -0.000


------------------------ aborting loop because EDIFF is reached ----------------------------------------


    FORLOC:  cpu time    0.2200: real time    0.2206
    FORHF :  cpu time 1071.0497: real time 1074.9487
    FORNL :  cpu time    6.3348: real time    6.3581
    STRESS:  cpu time   19.2915: real time   19.3641
    FORCOR:  cpu time    8.2303: real time    8.2499
    OFIELD:  cpu time    0.0091: real time    0.0092

  FORCE on cell =-STRESS in cart. coord.  units (eV):
  Direction    XX          YY          ZZ          XY          YZ          ZX
  --------------------------------------------------------------------------------------
  Alpha Z    13.10178    13.10178    13.10178
  Ewald    2357.08565  1930.98325 -2927.61536    -8.42639   -42.16829    -7.53726
  Hartree  2377.16951  2082.09573 -1950.67739    -0.33199   -20.70173    -2.59387
  E(xc)    -120.09869  -120.70839  -118.25572     0.04053    -0.03341    -0.07492
  Local   -5226.48270 -4514.77109  4399.66648     5.86566    57.98980     6.17518
  n-local   224.54244   236.22643   190.80191    -0.56073     0.58392     1.69310
  augment   -29.50260   -31.20487   -27.61760    -0.36197    -0.89142    -0.80698
  Kinetic   435.25629   430.47902   450.86389     3.75852     4.98419     2.98633
  Fock      -31.69952   -31.30032   -30.96268     0.06332     0.16362     0.15765
  -------------------------------------------------------------------------------------
  Total      -0.62783    -5.09845    -0.69469     0.04694    -0.07332    -0.00077
  in kB      -1.09872    -8.92239    -1.21572     0.08215    -0.12831    -0.00134
  external pressure =       -3.75 kB  Pullay stress =        0.00 kB


 VOLUME and BASIS-vectors are now :
 -----------------------------------------------------------------------------
  energy-cutoff  :      450.00
  volume of cell :      915.52
      direct lattice vectors                 reciprocal lattice vectors
     6.019200000  0.000000000  0.000000000     0.166135035  0.000000000  0.000000000
     0.000000000 10.140000000  0.000000000     0.000000000  0.098619329  0.000000000
     0.000000000  0.000000000 15.000000000     0.000000000  0.000000000  0.066666667

  length of vectors
     6.019200000 10.140000000 15.000000000     0.166135035  0.098619329  0.066666667


 FORCES acting on ions:
    Electron-Ion                     Ewald-Force                    Non-Local-Force
 -----------------------------------------------------------------------------------------------
   0.275E+00 0.488E+02 0.360E+02   -.263E+00 -.460E+02 -.351E+02   -.157E-01 -.312E+01 -.964E+00
   -.356E+00 0.482E+02 -.673E+01   0.368E+00 -.454E+02 0.604E+01   -.149E-01 -.305E+01 0.739E+00
   0.122E+01 -.577E+02 0.490E+02   -.131E+01 0.550E+02 -.478E+02   0.707E-01 0.297E+01 -.132E+01
   -.231E+01 -.598E+02 -.188E+01   0.233E+01 0.571E+02 0.109E+01   -.191E-01 0.293E+01 0.837E+00
   0.493E+01 0.538E+02 0.291E+01   -.504E+01 -.517E+02 -.465E+01   0.129E+00 -.239E+01 0.189E+01
   -.187E+01 0.521E+02 0.484E+02   0.205E+01 -.495E+02 -.474E+02   -.172E+00 -.290E+01 -.108E+01
   0.926E+00 -.409E+02 -.263E+01   -.944E+00 0.386E+02 0.198E+01   0.216E-01 0.265E+01 0.693E+00
   -.643E+00 -.446E+02 0.371E+02   0.639E+00 0.417E+02 -.363E+02   0.869E-02 0.320E+01 -.880E+00
   0.187E+00 0.393E+01 0.216E+02   -.124E+00 -.390E+01 -.218E+02   -.838E-01 -.301E-01 0.182E+00
   -.181E+00 0.434E+01 0.200E+02   0.116E+00 -.432E+01 -.201E+02   0.868E-01 -.200E-01 0.920E-01
   0.272E+01 -.554E+01 0.316E+02   -.265E+01 0.561E+01 -.318E+02   -.835E-01 -.700E-01 0.134E+00
   -.342E+01 -.776E+01 0.352E+02   0.330E+01 0.786E+01 -.353E+02   0.136E+00 -.878E-01 0.864E-01
   0.146E+02 -.200E+02 -.192E+03   -.189E+02 0.261E+02 0.189E+03   0.438E+01 -.622E+01 0.371E+01
   -.245E+02 0.138E+02 -.314E+02   0.270E+02 -.150E+02 0.313E+02   -.252E+01 0.119E+01 0.120E+00
   0.616E+01 0.148E+02 -.490E+02   -.664E+01 -.161E+02 0.512E+02   0.486E+00 0.134E+01 -.215E+01
 -----------------------------------------------------------------------------------------------
   -.241E+01 0.364E+01 -.209E+01   0.444E-14 0.355E-14 -.711E-14   0.241E+01 -.362E+01 0.209E+01


 POSITION                                       TOTAL-FORCE (eV/Angst)
 -----------------------------------------------------------------------------------
      2.60145      8.89669      3.54991        -0.002708     -0.016183      0.020729
      5.61039      8.90001      3.92496        -0.002319      0.009750     -0.012237
      2.60568      6.25539      3.59980        -0.020387      0.036110     -0.006441
      5.61881      6.27784      4.03225         0.000337     -0.007832     -0.016749
      2.59446      3.81709      4.14023         0.000438     -0.027941      0.007750
      5.61485      3.83430      3.63643         0.019686      0.014601      0.019702
      2.59828      1.19882      3.93869         0.002458      0.012849     -0.021148
      5.60843      1.19879      3.57191         0.003752     -0.009168      0.014056
      1.09593     10.11654      3.72441        -0.023496      0.000699      0.012680
      4.10387     10.11697      3.73881         0.023899      0.005919      0.008368
      1.10008      5.05096      3.84863        -0.016134     -0.002206     -0.010503
      4.10906      5.05473      3.89656         0.019057      0.007050     -0.008314
      3.36574      4.44054      6.99882        -0.018855     -0.026572     -0.001207
      4.86374      3.73009      6.93100         0.004576     -0.004191      0.002493
      3.04782      3.56865      8.40859         0.009695      0.007115     -0.009180
 -----------------------------------------------------------------------------------
    total drift:                                0.002096      0.007057     -0.003618


--------------------------------------------------------------------------------------------------------



  FREE ENERGIE OF THE ION-ELECTRON SYSTEM (eV)
  ---------------------------------------------------
  free  energy   TOTEN  =       -80.14288811 eV

  energy  without entropy=      -80.14288811  energy(sigma->0) =      -80.14288811

 d Force = 0.6306337E-03[ 0.130E-03, 0.113E-02]  d Energy = 0.5464577E-03 0.842E-04
 d Force =-0.3322664E+00[-0.327E+00,-0.338E+00]  d Ewald  =-0.3322687E+00 0.223E-05


--------------------------------------------------------------------------------------------------------


    POTLOK:  cpu time    9.1973: real time    9.2189


--------------------------------------------------------------------------------------------------------


 stress matrix after NEB project (eV)
     -0.62783      0.04694     -0.00077
      0.04694     -5.09845     -0.07332
     -0.00077     -0.07332     -0.69469
  FORCES: max atom, RMS     0.041965    0.025006
  FORCE total and by dimension    0.096849    0.036110
  Stress total and by dimension    5.185186    5.098453


--------------------------------------------------------------------------------------------------------


    WAVPRE:  cpu time    0.5275: real time    1.0266
    FEWALD:  cpu time    0.0024: real time    0.0024
    ORTHCH:  cpu time    2.6258: real time    2.6369
    CHARGE:  cpu time    1.5717: real time    1.5799
     LOOP+:  cpu time 7681.8702: real time 7708.9183


--------------------------------------- Iteration     11(   1)  ---------------------------------------


    POTLOK:  cpu time    8.2752: real time    8.2964
    SETDIJ:  cpu time    0.9268: real time    0.9301
    TRIAL :  cpu time  644.8559: real time  647.8590
    CORREC:  cpu time    0.0004: real time    0.0004
    CHARGE:  cpu time    1.5664: real time    1.5727
    --------------------------------------------
      LOOP:  cpu time  655.6883: real time  658.7224

 eigenvalue-minimisations  :     0
 total energy-change (2. order) : 0.2100599E-03  (-0.2299088E-03)
 number of electron      48.0000002 magnetization 
 augmentation part       -1.2493485 magnetization 

 Free energy of the ion-electron system (eV)
  ---------------------------------------------------
  alpha Z        PSCENC =        13.10177784
  Ewald energy   TEWEN  =      1360.49750541
  -Hartree energ DENC   =     -2508.58713461
  -exchange      EXHF   =        75.37051731
  -V(xc)+E(xc)   XCENC  =      -142.10587661
  PAW double counting   =      1712.87966478    -1483.74776281
  entropy T*S    EENTRO =        -0.00000000
  eigenvalues    EBANDS =      -358.74459221
  atomic energy  EATOM  =      1251.19323263
  ---------------------------------------------------
  free energy    TOTEN  =       -80.14266827 eV

  energy without entropy =      -80.14266827  energy(sigma->0) =      -80.14266827
  exchange ACFDT corr.  =        -0.00000000  see jH, gK, PRB 81, 115126


--------------------------------------------------------------------------------------------------------




--------------------------------------- Iteration     11(   2)  ---------------------------------------


    POTLOK:  cpu time    8.2731: real time    8.2914
    SETDIJ:  cpu time    0.9331: real time    0.9357
    TRIAL :  cpu time  643.1182: real time  646.1686
    CORREC:  cpu time    0.0003: real time    0.0003
    CHARGE:  cpu time    1.5665: real time    1.5753
    --------------------------------------------
      LOOP:  cpu time  653.8919: real time  656.9729

 eigenvalue-minimisations  :     0
 total energy-change (2. order) :-0.1594970E-03  (-0.9099774E-04)
 number of electron      48.0000002 magnetization 
 augmentation part       -1.2493538 magnetization 

 Free energy of the ion-electron system (eV)
  ---------------------------------------------------
  alpha Z        PSCENC =        13.10177784
  Ewald energy   TEWEN  =      1360.49750541
  -Hartree energ DENC   =     -2508.59439551
  -exchange      EXHF   =        75.37127630
  -V(xc)+E(xc)   XCENC  =      -142.10523413
  PAW double counting   =      1712.89799299    -1483.76613850
  entropy T*S    EENTRO =        -0.00000000
  eigenvalues    EBANDS =      -358.73884478
  atomic energy  EATOM  =      1251.19323263
  ---------------------------------------------------
  free energy    TOTEN  =       -80.14282777 eV

  energy without entropy =      -80.14282777  energy(sigma->0) =      -80.14282777
  exchange ACFDT corr.  =        -0.00000000  see jH, gK, PRB 81, 115126


--------------------------------------------------------------------------------------------------------




--------------------------------------- Iteration     11(   3)  ---------------------------------------


    POTLOK:  cpu time    8.2648: real time    8.2976
    SETDIJ:  cpu time    0.9276: real time    0.9314
    TRIAL :  cpu time  635.8089: real time  638.3249
    CORREC:  cpu time    0.0007: real time    0.0007
    CHARGE:  cpu time    1.5639: real time    1.5698
    --------------------------------------------
      LOOP:  cpu time  646.5663: real time  649.1258

 eigenvalue-minimisations  :     0
 total energy-change (2. order) :-0.5710186E-04  (-0.3028963E-04)
 number of electron      48.0000002 magnetization 
 augmentation part       -1.2493827 magnetization 

 Free energy of the ion-electron system (eV)
  ---------------------------------------------------
  alpha Z        PSCENC =        13.10177784
  Ewald energy   TEWEN  =      1360.49750541
  -Hartree energ DENC   =     -2508.60863397
  -exchange      EXHF   =        75.37160611
  -V(xc)+E(xc)   XCENC  =      -142.10495573
  PAW double counting   =      1712.90533056    -1483.77347234
  entropy T*S    EENTRO =        -0.00000000
  eigenvalues    EBANDS =      -358.72527538
  atomic energy  EATOM  =      1251.19323263
  ---------------------------------------------------
  free energy    TOTEN  =       -80.14288487 eV

  energy without entropy =      -80.14288487  energy(sigma->0) =      -80.14288487
  exchange ACFDT corr.  =        -0.00000000  see jH, gK, PRB 81, 115126


--------------------------------------------------------------------------------------------------------




--------------------------------------- Iteration     11(   4)  ---------------------------------------


    POTLOK:  cpu time    8.2659: real time    8.2948
    SETDIJ:  cpu time    0.9246: real time    0.9279
    TRIAL :  cpu time  634.4461: real time  638.2603
    CORREC:  cpu time    0.0003: real time    0.0003
    CHARGE:  cpu time    1.5672: real time    1.5779
    --------------------------------------------
      LOOP:  cpu time  645.2046: real time  649.0623

 eigenvalue-minimisations  :     0
 total energy-change (2. order) :-0.1792007E-04  (-0.7732884E-05)
 number of electron      48.0000002 magnetization 
 augmentation part       -1.2493908 magnetization 

 Free energy of the ion-electron system (eV)
  ---------------------------------------------------
  alpha Z        PSCENC =        13.10177784
  Ewald energy   TEWEN  =      1360.49750541
  -Hartree energ DENC   =     -2508.61486045
  -exchange      EXHF   =        75.37146378
  -V(xc)+E(xc)   XCENC  =      -142.10507590
  PAW double counting   =      1712.89877645    -1483.76686965
  entropy T*S    EENTRO =        -0.00000000
  eigenvalues    EBANDS =      -358.71885289
  atomic energy  EATOM  =      1251.19323263
  ---------------------------------------------------
  free energy    TOTEN  =       -80.14290279 eV

  energy without entropy =      -80.14290279  energy(sigma->0) =      -80.14290279
  exchange ACFDT corr.  =        -0.00000000  see jH, gK, PRB 81, 115126


--------------------------------------------------------------------------------------------------------




--------------------------------------- Iteration     11(   5)  ---------------------------------------


    POTLOK:  cpu time    8.2647: real time    8.2979
    SETDIJ:  cpu time    0.9236: real time    0.9275
    TRIAL :  cpu time  646.0426: real time  648.2051
    CORREC:  cpu time    0.0003: real time    0.0003
    EDDIAG:  cpu time  637.7867: real time  639.8495
    CHARGE:  cpu time    1.5903: real time    1.5962
    --------------------------------------------
      LOOP:  cpu time 1294.6087: real time 1298.8779

 eigenvalue-minimisations  :     0
 total energy-change (2. order) :-0.3491405E-05  (-0.2089071E-05)
 number of electron      48.0000002 magnetization 
 augmentation part       -1.2493828 magnetization 

 Free energy of the ion-electron system (eV)
  ---------------------------------------------------
  alpha Z        PSCENC =        13.10177784
  Ewald energy   TEWEN  =      1360.49750541
  -Hartree energ DENC   =     -2508.61401451
  -exchange      EXHF   =        75.37142478
  -V(xc)+E(xc)   XCENC  =      -142.10516010
  PAW double counting   =      1712.89550353    -1483.76358564
  entropy T*S    EENTRO =        -0.00000000
  eigenvalues    EBANDS =      -358.71954174
  atomic energy  EATOM  =      1251.19323263
  ---------------------------------------------------
  free energy    TOTEN  =       -80.14290628 eV

  energy without entropy =      -80.14290628  energy(sigma->0) =      -80.14290628
  exchange ACFDT corr.  =        -0.00000000  see jH, gK, PRB 81, 115126


--------------------------------------------------------------------------------------------------------


  average scaling for gradient   0.9984


 average (electrostatic) potential at core
  the test charge radii are     1.0406  0.6991  1.1897  0.5883
  (the norm of the test charge is              1.0000)
       1 -54.8688       2 -54.8622       3 -54.8645       4 -54.8875       5 -54.9081
       6 -54.9547       7 -54.8092       8 -54.8905       9 -51.0171      10 -51.0155
      11 -51.0769      12 -51.1333      13 -93.2181      14 -34.3085      15 -33.8157



 E-fermi :  -2.0370     XC(G=0):  -2.9205     alpha+bet : -2.8557


 k-point     1 :       0.0000    0.0000    0.0000
  band No.  band energies     occupation 
      1     -15.8629      2.00000
      2     -15.2254      2.00000
      3     -15.0699      2.00000
      4     -12.9549      2.00000
      5     -12.8569      2.00000
      6      -9.6244      2.00000
      7      -9.3453      2.00000
      8      -9.3111      2.00000
      9      -8.4352      2.00000
     10      -7.4335      2.00000
     11      -6.9935      2.00000
     12      -6.4377      2.00000
     13      -5.9896      2.00000
     14      -5.5140      2.00000
     15      -5.1827      2.00000
     16      -4.9194      2.00000
     17      -4.4882      2.00000
     18      -4.3735      2.00000
     19      -3.4175      2.00000
     20      -3.1990      2.00000
     21      -3.1626      2.00000
     22      -2.6213      2.00000
     23      -2.3382      2.00000
     24      -2.3063      2.00000
     25      -0.8043      0.00000
     26      -0.2593      0.00000
     27       0.2521      0.00000
     28       0.6096      0.00000
     29       0.7704      0.00000
     30       0.9317      0.00000
     31       1.0812      0.00000
     32       1.3632      0.00000

 k-point     2 :       0.2000    0.0000    0.0000
  band No.  band energies     occupation 
      1     -15.8408      2.00000
      2     -15.0993      2.00000
      3     -14.9445      2.00000
      4     -13.3660      2.00000
      5     -13.2468      2.00000
      6      -9.1641      2.00000
      7      -8.9750      2.00000
      8      -8.7054      2.00000
      9      -8.4511      2.00000
     10      -7.4444      2.00000
     11      -6.8695      2.00000
     12      -6.7962      2.00000
     13      -6.3056      2.00000
     14      -5.4417      2.00000
     15      -5.2231      2.00000
     16      -4.8069      2.00000
     17      -4.4473      2.00000
     18      -3.9702      2.00000
     19      -3.9145      2.00000
     20      -3.8677      2.00000
     21      -3.7369      2.00000
     22      -3.0212      2.00000
     23      -2.7713      2.00000
     24      -2.3061      2.00000
     25      -0.7937      0.00000
     26       0.4501      0.00000
     27       0.7329      0.00000
     28       0.8135      0.00000
     29       1.0298      0.00000
     30       1.0623      0.00000
     31       1.1611      0.00000
     32       1.5325      0.00000

 k-point     3 :       0.4000    0.0000    0.0000
  band No.  band energies     occupation 
      1     -15.8092      2.00000
      2     -14.7170      2.00000
      3     -14.5636      2.00000
      4     -14.0977      2.00000
      5     -13.9546      2.00000
      6      -8.7139      2.00000
      7      -8.4589      2.00000
      8      -7.9160      2.00000
      9      -7.6805      2.00000
     10      -7.3674      2.00000
     11      -7.1420      2.00000
     12      -6.5027      2.00000
     13      -6.1670      2.00000
     14      -5.9668      2.00000
     15      -5.5351      2.00000
     16      -5.2429      2.00000
     17      -5.0472      2.00000
     18      -4.7821      2.00000
     19      -4.4606      2.00000
     20      -4.2124      2.00000
     21      -3.7455      2.00000
     22      -3.4417      2.00000
     23      -2.8308      2.00000
     24      -2.3922      2.00000
     25      -0.4562      0.00000
     26       0.2435      0.00000
     27       0.9201      0.00000
     28       1.3165      0.00000
     29       1.4106      0.00000
     30       1.6088      0.00000
     31       1.7244      0.00000
     32       2.1386      0.00000

 k-point     4 :       0.0000    0.3333    0.0000
  band No.  band energies     occupation 
      1     -15.8617      2.00000
      2     -15.1919      2.00000
      3     -15.1093      2.00000
      4     -12.9438      2.00000
      5     -12.8688      2.00000
      6      -9.5724      2.00000
      7      -9.3999      2.00000
      8      -9.0127      2.00000
      9      -8.4479      2.00000
     10      -8.0734      2.00000
     11      -7.4074      2.00000
     12      -5.8199      2.00000
     13      -5.4519      2.00000
     14      -5.3801      2.00000
     15      -5.0882      2.00000
     16      -5.0514      2.00000
     17      -4.4107      2.00000
     18      -4.1922      2.00000
     19      -3.7032      2.00000
     20      -3.2883      2.00000
     21      -3.1942      2.00000
     22      -3.1653      2.00000
     23      -2.6067      2.00000
     24      -2.3218      2.00000
     25      -0.5804      0.00000
     26       0.0975      0.00000
     27       0.2990      0.00000
     28       0.4550      0.00000
     29       0.6987      0.00000
     30       0.8740      0.00000
     31       1.1270      0.00000
     32       1.3753      0.00000

 k-point     5 :       0.2000    0.3333    0.0000
  band No.  band energies     occupation 
      1     -15.8401      2.00000
      2     -15.0636      2.00000
      3     -14.9854      2.00000
      4     -13.3475      2.00000
      5     -13.2669      2.00000
      6      -8.9439      2.00000
      7      -8.8569      2.00000
      8      -8.7622      2.00000
      9      -8.4455      2.00000
     10      -7.9434      2.00000
     11      -7.4063      2.00000
     12      -6.5489      2.00000
     13      -5.9092      2.00000
     14      -5.2043      2.00000
     15      -4.9705      2.00000
     16      -4.8927      2.00000
     17      -4.3794      2.00000
     18      -3.9511      2.00000
     19      -3.9016      2.00000
     20      -3.7156      2.00000
     21      -3.6672      2.00000
     22      -3.2193      2.00000
     23      -2.9462      2.00000
     24      -2.8029      2.00000
     25      -0.4573      0.00000
     26       0.2169      0.00000
     27       0.6385      0.00000
     28       0.7827      0.00000
     29       0.8862      0.00000
     30       1.1095      0.00000
     31       1.2835      0.00000
     32       1.5182      0.00000

 k-point     6 :       0.4000    0.3333    0.0000
  band No.  band energies     occupation 
      1     -15.8090      2.00000
      2     -14.6825      2.00000
      3     -14.6022      2.00000
      4     -14.0695      2.00000
      5     -13.9857      2.00000
      6      -8.5684      2.00000
      7      -8.3044      2.00000
      8      -7.8479      2.00000
      9      -7.5748      2.00000
     10      -7.4975      2.00000
     11      -7.3233      2.00000
     12      -7.1136      2.00000
     13      -6.6583      2.00000
     14      -5.6646      2.00000
     15      -5.5618      2.00000
     16      -4.9701      2.00000
     17      -4.5091      2.00000
     18      -4.4709      2.00000
     19      -4.2625      2.00000
     20      -4.0132      2.00000
     21      -3.7506      2.00000
     22      -3.4619      2.00000
     23      -3.1249      2.00000
     24      -3.0253      2.00000
     25      -0.1161      0.00000
     26       0.3610      0.00000
     27       0.7498      0.00000
     28       1.0726      0.00000
     29       1.1964      0.00000
     30       1.6123      0.00000
     31       1.7665      0.00000
     32       1.8585      0.00000

 k-point     7 :      -0.4000    0.3333    0.0000
  band No.  band energies     occupation 
      1     -15.8090      2.00000
      2     -14.6824      2.00000
      3     -14.6024      2.00000
      4     -14.0695      2.00000
      5     -13.9857      2.00000
      6      -8.5659      2.00000
      7      -8.3182      2.00000
      8      -7.8155      2.00000
      9      -7.5888      2.00000
     10      -7.4981      2.00000
     11      -7.3297      2.00000
     12      -7.1139      2.00000
     13      -6.6585      2.00000
     14      -5.6743      2.00000
     15      -5.5590      2.00000
     16      -4.9575      2.00000
     17      -4.5291      2.00000
     18      -4.4693      2.00000
     19      -4.2472      2.00000
     20      -4.0069      2.00000
     21      -3.7368      2.00000
     22      -3.4946      2.00000
     23      -3.1174      2.00000
     24      -3.0209      2.00000
     25      -0.1420      0.00000
     26       0.4704      0.00000
     27       0.7167      0.00000
     28       0.9182      0.00000
     29       1.2876      0.00000
     30       1.6082      0.00000
     31       1.7966      0.00000
     32       1.8829      0.00000

 k-point     8 :      -0.2000    0.3333    0.0000
  band No.  band energies     occupation 
      1     -15.8401      2.00000
      2     -15.0635      2.00000
      3     -14.9855      2.00000
      4     -13.3475      2.00000
      5     -13.2669      2.00000
      6      -8.9467      2.00000
      7      -8.8546      2.00000
      8      -8.7613      2.00000
      9      -8.4504      2.00000
     10      -7.9327      2.00000
     11      -7.4108      2.00000
     12      -6.5458      2.00000
     13      -5.9232      2.00000
     14      -5.1944      2.00000
     15      -4.9824      2.00000
     16      -4.8988      2.00000
     17      -4.3520      2.00000
     18      -3.9462      2.00000
     19      -3.9033      2.00000
     20      -3.7304      2.00000
     21      -3.6550      2.00000
     22      -3.2423      2.00000
     23      -2.9180      2.00000
     24      -2.8149      2.00000
     25      -0.4814      0.00000
     26       0.2858      0.00000
     27       0.5451      0.00000
     28       0.7944      0.00000
     29       0.9159      0.00000
     30       1.1939      0.00000
     31       1.2425      0.00000
     32       1.5787      0.00000


--------------------------------------------------------------------------------------------------------


 soft charge-density along one line, spin component           1
         0         1         2         3         4         5         6         7         8         9
 total charge-density along one line

 pseudopotential strength for first ion, spin component:           1
  7.181 -16.882  -0.005  -0.002  -0.000   0.027   0.009   0.000
-16.882  49.270   0.012   0.004   0.000  -0.057  -0.019  -0.000
 -0.005   0.012   1.704  -0.000   0.000  -6.725   0.001  -0.000
 -0.002   0.004  -0.000   1.709  -0.000   0.001  -6.747   0.000
 -0.000   0.000   0.000  -0.000   1.704  -0.000   0.000  -6.726
  0.027  -0.057  -6.725   0.001  -0.000  28.449  -0.005   0.000
  0.009  -0.019   0.001  -6.747   0.000  -0.005  28.538  -0.000
  0.000  -0.000  -0.000   0.000  -6.726   0.000  -0.000  28.455
  0.000  -0.000  -0.000  -0.000  -0.005   0.000   0.000   0.012
 -0.001   0.001  -0.001  -0.004  -0.000   0.003   0.010   0.000
  0.011  -0.012   0.002  -0.002   0.000  -0.005   0.004  -0.000
 -0.000   0.000  -0.000  -0.000  -0.001   0.000   0.000   0.003
  0.001  -0.001   0.003  -0.000  -0.000  -0.007   0.000   0.000
 -0.000   0.000   0.000   0.000   0.018  -0.000  -0.000  -0.059
  0.004  -0.007   0.005   0.016   0.000  -0.016  -0.056  -0.000
 -0.041   0.072  -0.007   0.007  -0.000   0.026  -0.023   0.000
  0.000  -0.001   0.000   0.000   0.005  -0.000  -0.000  -0.018
 -0.002   0.004  -0.012   0.000   0.000   0.041  -0.001  -0.000
 total augmentation occupancy for first ion, spin component:           1
  1.390   0.033   0.005   0.013   0.001   0.005   0.001   0.000  -0.000   0.015  -0.104   0.001  -0.023  -0.000   0.001  -0.005
  0.033   0.001   0.008   0.002   0.000   0.000   0.000   0.000  -0.000   0.001  -0.003   0.000  -0.000  -0.000   0.000  -0.000
  0.005   0.008   1.335   0.065   0.000   0.027   0.002  -0.000   0.001   0.022  -0.075   0.001   0.068   0.000   0.001  -0.003
  0.013   0.002   0.065   0.408   0.004   0.002   0.007   0.000   0.001   0.062   0.008   0.000   0.005   0.000   0.002   0.000
  0.001   0.000   0.000   0.004   1.199  -0.000   0.000   0.026   0.248   0.001   0.000   0.034  -0.000   0.008   0.000   0.000
  0.005   0.000   0.027   0.002  -0.000   0.001   0.000  -0.000   0.000   0.001  -0.002   0.000   0.001   0.000   0.000  -0.000
  0.001   0.000   0.002   0.007   0.000   0.000   0.000   0.000   0.000   0.001   0.000   0.000   0.000   0.000   0.000  -0.000
  0.000   0.000  -0.000   0.000   0.026  -0.000   0.000   0.001   0.005   0.000   0.000   0.001  -0.000   0.000   0.000   0.000
 -0.000  -0.000   0.001   0.001   0.248   0.000   0.000   0.005   0.070   0.000   0.000   0.007   0.000   0.002   0.000   0.000
  0.015   0.001   0.022   0.062   0.001   0.001   0.001   0.000   0.000   0.011  -0.000   0.000  -0.002   0.000   0.000  -0.000
 -0.104  -0.003  -0.075   0.008   0.000  -0.002   0.000   0.000   0.000  -0.000   0.014   0.000  -0.004   0.000  -0.000   0.001
  0.001   0.000   0.001   0.000   0.034   0.000   0.000   0.001   0.007   0.000   0.000   0.022   0.000   0.000   0.000  -0.000
 -0.023  -0.000   0.068   0.005  -0.000   0.001   0.000  -0.000   0.000  -0.002  -0.004   0.000   0.045  -0.000  -0.000  -0.000
 -0.000  -0.000   0.000   0.000   0.008   0.000   0.000   0.000   0.002   0.000   0.000   0.000  -0.000   0.000   0.000   0.000
  0.001   0.000   0.001   0.002   0.000   0.000   0.000   0.000   0.000   0.000  -0.000   0.000  -0.000   0.000   0.000  -0.000
 -0.005  -0.000  -0.003   0.000   0.000  -0.000  -0.000   0.000   0.000  -0.000   0.001  -0.000  -0.000   0.000  -0.000   0.000
  0.000   0.000   0.000   0.000   0.001   0.000   0.000   0.000   0.000   0.000  -0.000   0.001   0.000   0.000   0.000  -0.000
 -0.001  -0.000   0.001   0.000  -0.000   0.000   0.000  -0.000  -0.000  -0.000  -0.000   0.000   0.001  -0.000  -0.000  -0.000


------------------------ aborting loop because EDIFF is reached ----------------------------------------


    FORLOC:  cpu time    0.2195: real time    0.2217
    FORHF :  cpu time 1073.3121: real time 1076.2376
    FORNL :  cpu time    6.3407: real time    6.3578
    STRESS:  cpu time   19.2350: real time   19.2974
    FORCOR:  cpu time    8.2304: real time    8.2407
    OFIELD:  cpu time    0.0083: real time    0.0083

  FORCE on cell =-STRESS in cart. coord.  units (eV):
  Direction    XX          YY          ZZ          XY          YZ          ZX
  --------------------------------------------------------------------------------------
  Alpha Z    13.10178    13.10178    13.10178
  Ewald    2357.19217  1931.14156 -2927.83774    -8.45152   -42.14986    -7.53152
  Hartree  2377.20292  2082.16273 -1950.75335    -0.33825   -20.69592    -2.58568
  E(xc)    -120.10025  -120.70975  -118.25625     0.04072    -0.03358    -0.07493
  Local   -5226.61859 -4514.98944  4399.94998     5.89418    57.96566     6.15875
  n-local   224.55243   236.23233   190.79275    -0.56408     0.58731     1.69335
  augment   -29.50381   -31.20475   -27.61687    -0.36164    -0.89197    -0.80719
  Kinetic   435.25797   430.47886   450.88262     3.75894     4.98286     2.99186
  Fock      -31.69966   -31.30096   -30.96319     0.06312     0.16379     0.15779
  -------------------------------------------------------------------------------------
  Total      -0.61505    -5.08764    -0.70026     0.04145    -0.07171     0.00243
  in kB      -1.07634    -8.90346    -1.22548     0.07254    -0.12549     0.00426
  external pressure =       -3.74 kB  Pullay stress =        0.00 kB


 VOLUME and BASIS-vectors are now :
 -----------------------------------------------------------------------------
  energy-cutoff  :      450.00
  volume of cell :      915.52
      direct lattice vectors                 reciprocal lattice vectors
     6.019200000  0.000000000  0.000000000     0.166135035  0.000000000  0.000000000
     0.000000000 10.140000000  0.000000000     0.000000000  0.098619329  0.000000000
     0.000000000  0.000000000 15.000000000     0.000000000  0.000000000  0.066666667

  length of vectors
     6.019200000 10.140000000 15.000000000     0.166135035  0.098619329  0.066666667


 FORCES acting on ions:
    Electron-Ion                     Ewald-Force                    Non-Local-Force
 -----------------------------------------------------------------------------------------------
   0.276E+00 0.488E+02 0.359E+02   -.265E+00 -.460E+02 -.350E+02   -.155E-01 -.312E+01 -.962E+00
   -.356E+00 0.482E+02 -.668E+01   0.368E+00 -.454E+02 0.600E+01   -.147E-01 -.305E+01 0.736E+00
   0.122E+01 -.577E+02 0.489E+02   -.131E+01 0.550E+02 -.477E+02   0.703E-01 0.298E+01 -.131E+01
   -.230E+01 -.598E+02 -.183E+01   0.232E+01 0.571E+02 0.104E+01   -.197E-01 0.293E+01 0.834E+00
   0.492E+01 0.538E+02 0.296E+01   -.504E+01 -.517E+02 -.469E+01   0.129E+00 -.240E+01 0.188E+01
   -.187E+01 0.521E+02 0.484E+02   0.205E+01 -.494E+02 -.474E+02   -.173E+00 -.290E+01 -.108E+01
   0.925E+00 -.410E+02 -.261E+01   -.943E+00 0.386E+02 0.195E+01   0.215E-01 0.266E+01 0.693E+00
   -.645E+00 -.446E+02 0.371E+02   0.641E+00 0.417E+02 -.363E+02   0.883E-02 0.320E+01 -.877E+00
   0.217E+00 0.393E+01 0.216E+02   -.153E+00 -.390E+01 -.217E+02   -.870E-01 -.306E-01 0.183E+00
   -.210E+00 0.435E+01 0.200E+02   0.144E+00 -.432E+01 -.201E+02   0.902E-01 -.199E-01 0.927E-01
   0.276E+01 -.554E+01 0.316E+02   -.269E+01 0.561E+01 -.317E+02   -.883E-01 -.707E-01 0.132E+00
   -.345E+01 -.775E+01 0.353E+02   0.333E+01 0.785E+01 -.354E+02   0.141E+00 -.882E-01 0.854E-01
   0.146E+02 -.200E+02 -.192E+03   -.189E+02 0.261E+02 0.189E+03   0.438E+01 -.622E+01 0.372E+01
   -.245E+02 0.138E+02 -.314E+02   0.271E+02 -.150E+02 0.313E+02   -.252E+01 0.119E+01 0.121E+00
   0.616E+01 0.148E+02 -.490E+02   -.664E+01 -.161E+02 0.512E+02   0.486E+00 0.133E+01 -.215E+01
 -----------------------------------------------------------------------------------------------
   -.240E+01 0.364E+01 -.210E+01   0.178E-14 -.355E-14 0.213E-13   0.241E+01 -.361E+01 0.210E+01


 POSITION                                       TOTAL-FORCE (eV/Angst)
 -----------------------------------------------------------------------------------
      2.60141      8.89681      3.55043        -0.002774     -0.020902      0.020343
      5.61037      8.90002      3.92467        -0.002222      0.009804     -0.012642
      2.60562      6.25551      3.60036        -0.020136      0.038198     -0.007193
      5.61882      6.27794      4.03172        -0.000399     -0.011425     -0.017183
      2.59453      3.81705      4.13958         0.000991     -0.029520      0.008561
      5.61500      3.83413      3.63662         0.018774      0.019200      0.020937
      2.59832      1.19869      3.93847         0.002129      0.017988     -0.020841
      5.60841      1.19877      3.57231         0.004222     -0.009557      0.014407
      1.09605     10.11660      3.72472        -0.026294      0.001094      0.021740
      4.10374     10.11699      3.73876         0.026411      0.005581      0.007415
      1.10027      5.05102      3.84889        -0.019239     -0.001949     -0.003936
      4.10888      5.05478      3.89597         0.023341      0.007047     -0.023732
      3.36589      4.44055      6.99887        -0.023734     -0.026929      0.001572
      4.86355      3.73010      6.93088         0.008537     -0.006797      0.002149
      3.04774      3.56844      8.40874         0.010392      0.008165     -0.011595
 -----------------------------------------------------------------------------------
    total drift:                                0.003130      0.011218     -0.003940


--------------------------------------------------------------------------------------------------------



  FREE ENERGIE OF THE ION-ELECTRON SYSTEM (eV)
  ---------------------------------------------------
  free  energy   TOTEN  =       -80.14290628 eV

  energy  without entropy=      -80.14290628  energy(sigma->0) =      -80.14290628

 d Force = 0.2037025E-04[ 0.238E-04, 0.170E-04]  d Energy = 0.1816966E-04 0.220E-05
 d Force =-0.4245478E-01[-0.424E-01,-0.425E-01]  d Ewald  =-0.4245483E-01 0.558E-07


--------------------------------------------------------------------------------------------------------


    POTLOK:  cpu time    9.2141: real time    9.2267


--------------------------------------------------------------------------------------------------------


 stress matrix after NEB project (eV)
     -0.61505      0.04145      0.00243
      0.04145     -5.08764     -0.07171
      0.00243     -0.07171     -0.70026
  FORCES: max atom, RMS     0.043775    0.028125
  FORCE total and by dimension    0.108929    0.038198
  Stress total and by dimension    5.173627    5.087636


--------------------------------------------------------------------------------------------------------


    WAVPRE:  cpu time    0.5325: real time    0.9672
    FEWALD:  cpu time    0.0024: real time    0.0024
    ORTHCH:  cpu time    2.6524: real time    2.6641
    CHARGE:  cpu time    1.5873: real time    1.5914
     LOOP+:  cpu time 5045.3234: real time 5066.0382


--------------------------------------- Iteration     12(   1)  ---------------------------------------


    POTLOK:  cpu time    8.2838: real time    8.3005
    SETDIJ:  cpu time    0.9375: real time    0.9397
    TRIAL :  cpu time  648.9691: real time  650.0526
    CORREC:  cpu time    0.0003: real time    0.0003
    CHARGE:  cpu time    1.5854: real time    1.5884
    --------------------------------------------
      LOOP:  cpu time  659.8398: real time  660.9457

 eigenvalue-minimisations  :     0
 total energy-change (2. order) : 0.9079633E-03  (-0.8885410E-03)
 number of electron      48.0000002 magnetization 
 augmentation part       -1.2493025 magnetization 

 Free energy of the ion-electron system (eV)
  ---------------------------------------------------
  alpha Z        PSCENC =        13.10177784
  Ewald energy   TEWEN  =      1360.58186694
  -Hartree energ DENC   =     -2508.61072570
  -exchange      EXHF   =        75.37144229
  -V(xc)+E(xc)   XCENC  =      -142.10517071
  PAW double counting   =      1713.01091311    -1483.87929880
  entropy T*S    EENTRO =        -0.00000000
  eigenvalues    EBANDS =      -358.80603243
  atomic energy  EATOM  =      1251.19323263
  ---------------------------------------------------
  free energy    TOTEN  =       -80.14199482 eV

  energy without entropy =      -80.14199482  energy(sigma->0) =      -80.14199482
  exchange ACFDT corr.  =        -0.00000000  see jH, gK, PRB 81, 115126


--------------------------------------------------------------------------------------------------------




--------------------------------------- Iteration     12(   2)  ---------------------------------------


    POTLOK:  cpu time    8.2952: real time    8.3024
    SETDIJ:  cpu time    0.9575: real time    0.9587
    TRIAL :  cpu time  646.5188: real time  648.1377
    CORREC:  cpu time    0.0004: real time    0.0004
    CHARGE:  cpu time    1.5733: real time    1.5806
    --------------------------------------------
      LOOP:  cpu time  657.3458: real time  658.9811

 eigenvalue-minimisations  :     0
 total energy-change (2. order) :-0.6106610E-03  (-0.3369016E-03)
 number of electron      48.0000002 magnetization 
 augmentation part       -1.2493125 magnetization 

 Free energy of the ion-electron system (eV)
  ---------------------------------------------------
  alpha Z        PSCENC =        13.10177784
  Ewald energy   TEWEN  =      1360.58186694
  -Hartree energ DENC   =     -2508.62546939
  -exchange      EXHF   =        75.37291614
  -V(xc)+E(xc)   XCENC  =      -142.10393081
  PAW double counting   =      1713.05057250    -1483.91903846
  entropy T*S    EENTRO =        -0.00000000
  eigenvalues    EBANDS =      -358.79453287
  atomic energy  EATOM  =      1251.19323263
  ---------------------------------------------------
  free energy    TOTEN  =       -80.14260549 eV

  energy without entropy =      -80.14260549  energy(sigma->0) =      -80.14260549
  exchange ACFDT corr.  =        -0.00000000  see jH, gK, PRB 81, 115126


--------------------------------------------------------------------------------------------------------




--------------------------------------- Iteration     12(   3)  ---------------------------------------


    POTLOK:  cpu time    8.2834: real time    8.2991
    SETDIJ:  cpu time    0.9256: real time    0.9279
    TRIAL :  cpu time  645.6678: real time  647.9469
    CORREC:  cpu time    0.0004: real time    0.0003
    CHARGE:  cpu time    1.5894: real time    1.5943
    --------------------------------------------
      LOOP:  cpu time  656.4674: real time  658.7702

 eigenvalue-minimisations  :     0
 total energy-change (2. order) :-0.2073559E-03  (-0.1129260E-03)
 number of electron      48.0000002 magnetization 
 augmentation part       -1.2493653 magnetization 

 Free energy of the ion-electron system (eV)
  ---------------------------------------------------
  alpha Z        PSCENC =        13.10177784
  Ewald energy   TEWEN  =      1360.58186694
  -Hartree energ DENC   =     -2508.65429285
  -exchange      EXHF   =        75.37356898
  -V(xc)+E(xc)   XCENC  =      -142.10337595
  PAW double counting   =      1713.06851721    -1483.93698498
  entropy T*S    EENTRO =        -0.00000000
  eigenvalues    EBANDS =      -358.76712267
  atomic energy  EATOM  =      1251.19323263
  ---------------------------------------------------
  free energy    TOTEN  =       -80.14281284 eV

  energy without entropy =      -80.14281284  energy(sigma->0) =      -80.14281284
  exchange ACFDT corr.  =        -0.00000000  see jH, gK, PRB 81, 115126


--------------------------------------------------------------------------------------------------------




--------------------------------------- Iteration     12(   4)  ---------------------------------------


    POTLOK:  cpu time    8.2820: real time    8.2944
    SETDIJ:  cpu time    0.9500: real time    0.9522
    TRIAL :  cpu time  640.2347: real time  642.9635
    CORREC:  cpu time    0.0004: real time    0.0004
    CHARGE:  cpu time    1.5712: real time    1.5763
    --------------------------------------------
      LOOP:  cpu time  651.0391: real time  653.7881

 eigenvalue-minimisations  :     0
 total energy-change (2. order) :-0.6765921E-04  (-0.3204798E-04)
 number of electron      48.0000002 magnetization 
 augmentation part       -1.2493788 magnetization 

 Free energy of the ion-electron system (eV)
  ---------------------------------------------------
  alpha Z        PSCENC =        13.10177784
  Ewald energy   TEWEN  =      1360.58186694
  -Hartree energ DENC   =     -2508.66685646
  -exchange      EXHF   =        75.37330751
  -V(xc)+E(xc)   XCENC  =      -142.10359240
  PAW double counting   =      1713.05725157    -1483.92563367
  entropy T*S    EENTRO =        -0.00000000
  eigenvalues    EBANDS =      -358.75423446
  atomic energy  EATOM  =      1251.19323263
  ---------------------------------------------------
  free energy    TOTEN  =       -80.14288050 eV

  energy without entropy =      -80.14288050  energy(sigma->0) =      -80.14288050
  exchange ACFDT corr.  =        -0.00000000  see jH, gK, PRB 81, 115126


--------------------------------------------------------------------------------------------------------




--------------------------------------- Iteration     12(   5)  ---------------------------------------


    POTLOK:  cpu time    8.2631: real time    8.2960
    SETDIJ:  cpu time    0.9570: real time    0.9588
    TRIAL :  cpu time  639.5756: real time  643.2573
    CORREC:  cpu time    0.0003: real time    0.0003
    CHARGE:  cpu time    1.5898: real time    1.5954
    --------------------------------------------
      LOOP:  cpu time  650.3867: real time  654.1096

 eigenvalue-minimisations  :     0
 total energy-change (2. order) :-0.1486608E-04  (-0.7492741E-05)
 number of electron      48.0000002 magnetization 
 augmentation part       -1.2493625 magnetization 

 Free energy of the ion-electron system (eV)
  ---------------------------------------------------
  alpha Z        PSCENC =        13.10177784
  Ewald energy   TEWEN  =      1360.58186694
  -Hartree energ DENC   =     -2508.66515969
  -exchange      EXHF   =        75.37313140
  -V(xc)+E(xc)   XCENC  =      -142.10375491
  PAW double counting   =      1713.05064920    -1483.91901239
  entropy T*S    EENTRO =        -0.00000000
  eigenvalues    EBANDS =      -358.75562639
  atomic energy  EATOM  =      1251.19323263
  ---------------------------------------------------
  free energy    TOTEN  =       -80.14289537 eV

  energy without entropy =      -80.14289537  energy(sigma->0) =      -80.14289537
  exchange ACFDT corr.  =        -0.00000000  see jH, gK, PRB 81, 115126


--------------------------------------------------------------------------------------------------------




--------------------------------------- Iteration     12(   6)  ---------------------------------------


    POTLOK:  cpu time    8.2654: real time    8.2913
    SETDIJ:  cpu time    0.9307: real time    0.9338
    TRIAL :  cpu time  637.4234: real time  641.1370
    CORREC:  cpu time    0.0003: real time    0.0003
    EDDIAG:  cpu time  630.6792: real time  633.9427
    CHARGE:  cpu time    1.5661: real time    1.5715
    --------------------------------------------
      LOOP:  cpu time 1278.8656: real time 1285.8779

 eigenvalue-minimisations  :     0
 total energy-change (2. order) :-0.3526818E-05  (-0.4634105E-05)
 number of electron      48.0000002 magnetization 
 augmentation part       -1.2493539 magnetization 

 Free energy of the ion-electron system (eV)
  ---------------------------------------------------
  alpha Z        PSCENC =        13.10177784
  Ewald energy   TEWEN  =      1360.58186694
  -Hartree energ DENC   =     -2508.66166635
  -exchange      EXHF   =        75.37330202
  -V(xc)+E(xc)   XCENC  =      -142.10372137
  PAW double counting   =      1713.05322945    -1483.92163144
  entropy T*S    EENTRO =        -0.00000000
  eigenvalues    EBANDS =      -358.75919839
  atomic energy  EATOM  =      1251.19323263
  ---------------------------------------------------
  free energy    TOTEN  =       -80.14289889 eV

  energy without entropy =      -80.14289889  energy(sigma->0) =      -80.14289889
  exchange ACFDT corr.  =        -0.00000000  see jH, gK, PRB 81, 115126


--------------------------------------------------------------------------------------------------------


  average scaling for gradient   0.9689


 average (electrostatic) potential at core
  the test charge radii are     1.0406  0.6991  1.1897  0.5883
  (the norm of the test charge is              1.0000)
       1 -54.8687       2 -54.8639       3 -54.8637       4 -54.8887       5 -54.9081
       6 -54.9568       7 -54.8093       8 -54.8923       9 -51.0179      10 -51.0164
      11 -51.0773      12 -51.1342      13 -93.2166      14 -34.3107      15 -33.8129



 E-fermi :  -2.0384     XC(G=0):  -2.9204     alpha+bet : -2.8557


 k-point     1 :       0.0000    0.0000    0.0000
  band No.  band energies     occupation 
      1     -15.8618      2.00000
      2     -15.2270      2.00000
      3     -15.0711      2.00000
      4     -12.9557      2.00000
      5     -12.8589      2.00000
      6      -9.6253      2.00000
      7      -9.3471      2.00000
      8      -9.3128      2.00000
      9      -8.4348      2.00000
     10      -7.4319      2.00000
     11      -6.9949      2.00000
     12      -6.4390      2.00000
     13      -5.9914      2.00000
     14      -5.5133      2.00000
     15      -5.1844      2.00000
     16      -4.9199      2.00000
     17      -4.4891      2.00000
     18      -4.3735      2.00000
     19      -3.4178      2.00000
     20      -3.1995      2.00000
     21      -3.1655      2.00000
     22      -2.6203      2.00000
     23      -2.3394      2.00000
     24      -2.3075      2.00000
     25      -0.8065      0.00000
     26      -0.2609      0.00000
     27       0.2521      0.00000
     28       0.6109      0.00000
     29       0.7707      0.00000
     30       0.9317      0.00000
     31       1.0815      0.00000
     32       1.3627      0.00000

 k-point     2 :       0.2000    0.0000    0.0000
  band No.  band energies     occupation 
      1     -15.8397      2.00000
      2     -15.1008      2.00000
      3     -14.9459      2.00000
      4     -13.3669      2.00000
      5     -13.2488      2.00000
      6      -9.1654      2.00000
      7      -8.9758      2.00000
      8      -8.7074      2.00000
      9      -8.4508      2.00000
     10      -7.4428      2.00000
     11      -6.8708      2.00000
     12      -6.7977      2.00000
     13      -6.3069      2.00000
     14      -5.4431      2.00000
     15      -5.2231      2.00000
     16      -4.8074      2.00000
     17      -4.4462      2.00000
     18      -3.9705      2.00000
     19      -3.9173      2.00000
     20      -3.8685      2.00000
     21      -3.7388      2.00000
     22      -3.0211      2.00000
     23      -2.7721      2.00000
     24      -2.3075      2.00000
     25      -0.7949      0.00000
     26       0.4512      0.00000
     27       0.7311      0.00000
     28       0.8147      0.00000
     29       1.0297      0.00000
     30       1.0621      0.00000
     31       1.1613      0.00000
     32       1.5256      0.00000

 k-point     3 :       0.4000    0.0000    0.0000
  band No.  band energies     occupation 
      1     -15.8081      2.00000
      2     -14.7183      2.00000
      3     -14.5652      2.00000
      4     -14.0988      2.00000
      5     -13.9564      2.00000
      6      -8.7147      2.00000
      7      -8.4591      2.00000
      8      -7.9162      2.00000
      9      -7.6802      2.00000
     10      -7.3694      2.00000
     11      -7.1425      2.00000
     12      -6.5042      2.00000
     13      -6.1681      2.00000
     14      -5.9684      2.00000
     15      -5.5367      2.00000
     16      -5.2445      2.00000
     17      -5.0473      2.00000
     18      -4.7827      2.00000
     19      -4.4611      2.00000
     20      -4.2121      2.00000
     21      -3.7464      2.00000
     22      -3.4420      2.00000
     23      -2.8324      2.00000
     24      -2.3937      2.00000
     25      -0.4568      0.00000
     26       0.2435      0.00000
     27       0.9210      0.00000
     28       1.3156      0.00000
     29       1.4114      0.00000
     30       1.6088      0.00000
     31       1.7250      0.00000
     32       2.1377      0.00000

 k-point     4 :       0.0000    0.3333    0.0000
  band No.  band energies     occupation 
      1     -15.8607      2.00000
      2     -15.1937      2.00000
      3     -15.1103      2.00000
      4     -12.9444      2.00000
      5     -12.8711      2.00000
      6      -9.5730      2.00000
      7      -9.4023      2.00000
      8      -9.0140      2.00000
      9      -8.4476      2.00000
     10      -8.0748      2.00000
     11      -7.4058      2.00000
     12      -5.8215      2.00000
     13      -5.4524      2.00000
     14      -5.3806      2.00000
     15      -5.0888      2.00000
     16      -5.0520      2.00000
     17      -4.4104      2.00000
     18      -4.1937      2.00000
     19      -3.7042      2.00000
     20      -3.2893      2.00000
     21      -3.1946      2.00000
     22      -3.1684      2.00000
     23      -2.6056      2.00000
     24      -2.3231      2.00000
     25      -0.5817      0.00000
     26       0.0974      0.00000
     27       0.2973      0.00000
     28       0.4555      0.00000
     29       0.6997      0.00000
     30       0.8746      0.00000
     31       1.1265      0.00000
     32       1.3747      0.00000

 k-point     5 :       0.2000    0.3333    0.0000
  band No.  band energies     occupation 
      1     -15.8390      2.00000
      2     -15.0652      2.00000
      3     -14.9867      2.00000
      4     -13.3482      2.00000
      5     -13.2691      2.00000
      6      -8.9440      2.00000
      7      -8.8583      2.00000
      8      -8.7646      2.00000
      9      -8.4454      2.00000
     10      -7.9447      2.00000
     11      -7.4048      2.00000
     12      -6.5503      2.00000
     13      -5.9107      2.00000
     14      -5.2041      2.00000
     15      -4.9716      2.00000
     16      -4.8932      2.00000
     17      -4.3785      2.00000
     18      -3.9520      2.00000
     19      -3.9039      2.00000
     20      -3.7166      2.00000
     21      -3.6689      2.00000
     22      -3.2203      2.00000
     23      -2.9462      2.00000
     24      -2.8041      2.00000
     25      -0.4585      0.00000
     26       0.2171      0.00000
     27       0.6375      0.00000
     28       0.7838      0.00000
     29       0.8867      0.00000
     30       1.1099      0.00000
     31       1.2825      0.00000
     32       1.5170      0.00000

 k-point     6 :       0.4000    0.3333    0.0000
  band No.  band energies     occupation 
      1     -15.8079      2.00000
      2     -14.6836      2.00000
      3     -14.6040      2.00000
      4     -14.0704      2.00000
      5     -13.9877      2.00000
      6      -8.5682      2.00000
      7      -8.3055      2.00000
      8      -7.8469      2.00000
      9      -7.5762      2.00000
     10      -7.4989      2.00000
     11      -7.3246      2.00000
     12      -7.1144      2.00000
     13      -6.6598      2.00000
     14      -5.6657      2.00000
     15      -5.5637      2.00000
     16      -4.9694      2.00000
     17      -4.5095      2.00000
     18      -4.4721      2.00000
     19      -4.2623      2.00000
     20      -4.0141      2.00000
     21      -3.7518      2.00000
     22      -3.4623      2.00000
     23      -3.1268      2.00000
     24      -3.0264      2.00000
     25      -0.1169      0.00000
     26       0.3616      0.00000
     27       0.7496      0.00000
     28       1.0729      0.00000
     29       1.1957      0.00000
     30       1.6115      0.00000
     31       1.7659      0.00000
     32       1.8555      0.00000

 k-point     7 :      -0.4000    0.3333    0.0000
  band No.  band energies     occupation 
      1     -15.8079      2.00000
      2     -14.6834      2.00000
      3     -14.6041      2.00000
      4     -14.0704      2.00000
      5     -13.9878      2.00000
      6      -8.5656      2.00000
      7      -8.3193      2.00000
      8      -7.8146      2.00000
      9      -7.5898      2.00000
     10      -7.5000      2.00000
     11      -7.3311      2.00000
     12      -7.1146      2.00000
     13      -6.6600      2.00000
     14      -5.6753      2.00000
     15      -5.5610      2.00000
     16      -4.9569      2.00000
     17      -4.5295      2.00000
     18      -4.4706      2.00000
     19      -4.2471      2.00000
     20      -4.0081      2.00000
     21      -3.7380      2.00000
     22      -3.4947      2.00000
     23      -3.1194      2.00000
     24      -3.0220      2.00000
     25      -0.1425      0.00000
     26       0.4705      0.00000
     27       0.7160      0.00000
     28       0.9191      0.00000
     29       1.2867      0.00000
     30       1.6089      0.00000
     31       1.7953      0.00000
     32       1.8818      0.00000

 k-point     8 :      -0.2000    0.3333    0.0000
  band No.  band energies     occupation 
      1     -15.8390      2.00000
      2     -15.0651      2.00000
      3     -14.9868      2.00000
      4     -13.3481      2.00000
      5     -13.2691      2.00000
      6      -8.9469      2.00000
      7      -8.8560      2.00000
      8      -8.7637      2.00000
      9      -8.4503      2.00000
     10      -7.9341      2.00000
     11      -7.4092      2.00000
     12      -6.5472      2.00000
     13      -5.9245      2.00000
     14      -5.1942      2.00000
     15      -4.9833      2.00000
     16      -4.8995      2.00000
     17      -4.3511      2.00000
     18      -3.9472      2.00000
     19      -3.9056      2.00000
     20      -3.7316      2.00000
     21      -3.6567      2.00000
     22      -3.2431      2.00000
     23      -2.9181      2.00000
     24      -2.8161      2.00000
     25      -0.4822      0.00000
     26       0.2855      0.00000
     27       0.5450      0.00000
     28       0.7950      0.00000
     29       0.9160      0.00000
     30       1.1943      0.00000
     31       1.2402      0.00000
     32       1.5749      0.00000


--------------------------------------------------------------------------------------------------------


 soft charge-density along one line, spin component           1
         0         1         2         3         4         5         6         7         8         9
 total charge-density along one line

 pseudopotential strength for first ion, spin component:           1
  7.181 -16.882  -0.005  -0.002  -0.000   0.027   0.009   0.000
-16.882  49.270   0.012   0.004   0.000  -0.057  -0.019  -0.000
 -0.005   0.012   1.704  -0.000   0.000  -6.725   0.001  -0.000
 -0.002   0.004  -0.000   1.709  -0.000   0.001  -6.747   0.000
 -0.000   0.000   0.000  -0.000   1.704  -0.000   0.000  -6.726
  0.027  -0.057  -6.725   0.001  -0.000  28.450  -0.005   0.000
  0.009  -0.019   0.001  -6.747   0.000  -0.005  28.539  -0.000
  0.000  -0.000  -0.000   0.000  -6.726   0.000  -0.000  28.456
  0.000  -0.000  -0.000  -0.000  -0.005   0.000   0.000   0.012
 -0.001   0.001  -0.001  -0.004  -0.000   0.003   0.010   0.000
  0.011  -0.012   0.002  -0.002   0.000  -0.005   0.004  -0.000
 -0.000   0.000  -0.000  -0.000  -0.001   0.000   0.000   0.003
  0.001  -0.001   0.003  -0.000  -0.000  -0.007   0.000   0.000
 -0.000   0.000   0.000   0.000   0.018  -0.000  -0.000  -0.059
  0.004  -0.007   0.005   0.016   0.000  -0.016  -0.056  -0.000
 -0.041   0.072  -0.007   0.007  -0.000   0.026  -0.023   0.000
  0.000  -0.001   0.000   0.000   0.005  -0.000  -0.000  -0.018
 -0.002   0.004  -0.012   0.000   0.000   0.041  -0.001  -0.000
 total augmentation occupancy for first ion, spin component:           1
  1.390   0.033   0.005   0.013   0.001   0.005   0.001   0.000  -0.000   0.015  -0.104   0.001  -0.023  -0.000   0.001  -0.005
  0.033   0.001   0.008   0.002   0.000   0.000   0.000   0.000  -0.000   0.001  -0.003   0.000  -0.000  -0.000   0.000  -0.000
  0.005   0.008   1.336   0.065   0.000   0.027   0.002  -0.000   0.001   0.022  -0.075   0.001   0.067   0.000   0.001  -0.003
  0.013   0.002   0.065   0.408   0.003   0.002   0.007   0.000   0.001   0.062   0.008   0.000   0.005   0.000   0.002   0.000
  0.001   0.000   0.000   0.003   1.200  -0.000   0.000   0.026   0.248   0.001   0.000   0.034  -0.000   0.008   0.000   0.000
  0.005   0.000   0.027   0.002  -0.000   0.001   0.000  -0.000   0.000   0.001  -0.002   0.000   0.001   0.000   0.000  -0.000
  0.001   0.000   0.002   0.007   0.000   0.000   0.000   0.000   0.000   0.001   0.000   0.000   0.000   0.000   0.000  -0.000
  0.000   0.000  -0.000   0.000   0.026  -0.000   0.000   0.001   0.005   0.000   0.000   0.001  -0.000   0.000   0.000   0.000
 -0.000  -0.000   0.001   0.001   0.248   0.000   0.000   0.005   0.070   0.000   0.000   0.007   0.000   0.002   0.000   0.000
  0.015   0.001   0.022   0.062   0.001   0.001   0.001   0.000   0.000   0.011  -0.000   0.000  -0.002   0.000   0.000  -0.000
 -0.104  -0.003  -0.075   0.008   0.000  -0.002   0.000   0.000   0.000  -0.000   0.014   0.000  -0.004   0.000  -0.000   0.001
  0.001   0.000   0.001   0.000   0.034   0.000   0.000   0.001   0.007   0.000   0.000   0.022   0.000   0.000   0.000  -0.000
 -0.023  -0.000   0.067   0.005  -0.000   0.001   0.000  -0.000   0.000  -0.002  -0.004   0.000   0.045  -0.000  -0.000  -0.000
 -0.000  -0.000   0.000   0.000   0.008   0.000   0.000   0.000   0.002   0.000   0.000   0.000  -0.000   0.000   0.000   0.000
  0.001   0.000   0.001   0.002   0.000   0.000   0.000   0.000   0.000   0.000  -0.000   0.000  -0.000   0.000   0.000  -0.000
 -0.005  -0.000  -0.003   0.000   0.000  -0.000  -0.000   0.000   0.000  -0.000   0.001  -0.000  -0.000   0.000  -0.000   0.000
  0.000   0.000   0.000   0.000   0.001   0.000   0.000   0.000   0.000   0.000  -0.000   0.001   0.000   0.000   0.000  -0.000
 -0.001  -0.000   0.001   0.000  -0.000   0.000   0.000  -0.000  -0.000  -0.000  -0.000   0.000   0.001  -0.000  -0.000  -0.000


------------------------ aborting loop because EDIFF is reached ----------------------------------------


    FORLOC:  cpu time    0.2207: real time    0.2209
    FORHF :  cpu time 1070.6569: real time 1075.2843
    FORNL :  cpu time    6.3160: real time    6.3491
    STRESS:  cpu time   19.1990: real time   19.3091
    FORCOR:  cpu time    8.2101: real time    8.2388
    OFIELD:  cpu time    0.0095: real time    0.0095

  FORCE on cell =-STRESS in cart. coord.  units (eV):
  Direction    XX          YY          ZZ          XY          YZ          ZX
  --------------------------------------------------------------------------------------
  Alpha Z    13.10178    13.10178    13.10178
  Ewald    2357.40407  1931.45731 -2928.28103    -8.50160   -42.11283    -7.52032
  Hartree  2377.27039  2082.30090 -1950.90922    -0.35113   -20.68439    -2.56837
  E(xc)    -120.10353  -120.71263  -118.25746     0.04114    -0.03388    -0.07493
  Local   -5226.89046 -4515.42953  4400.52024     5.95227    57.91802     6.12419
  n-local   224.57133   236.24214   190.77339    -0.57105     0.59298     1.69287
  augment   -29.50589   -31.20422   -27.61532    -0.36090    -0.89285    -0.80773
  Kinetic   435.26174   430.47837   450.92108     3.76012     4.97963     3.00161
  Fock      -31.69998   -31.30228   -30.96419     0.06272     0.16407     0.15803
  -------------------------------------------------------------------------------------
  Total      -0.59055    -5.06817    -0.71072     0.03157    -0.06924     0.00536
  in kB      -1.03347    -8.86939    -1.24377     0.05525    -0.12118     0.00938
  external pressure =       -3.72 kB  Pullay stress =        0.00 kB


 VOLUME and BASIS-vectors are now :
 -----------------------------------------------------------------------------
  energy-cutoff  :      450.00
  volume of cell :      915.52
      direct lattice vectors                 reciprocal lattice vectors
     6.019200000  0.000000000  0.000000000     0.166135035  0.000000000  0.000000000
     0.000000000 10.140000000  0.000000000     0.000000000  0.098619329  0.000000000
     0.000000000  0.000000000 15.000000000     0.000000000  0.000000000  0.066666667

  length of vectors
     6.019200000 10.140000000 15.000000000     0.166135035  0.098619329  0.066666667


 FORCES acting on ions:
    Electron-Ion                     Ewald-Force                    Non-Local-Force
 -----------------------------------------------------------------------------------------------
   0.279E+00 0.488E+02 0.358E+02   -.267E+00 -.460E+02 -.349E+02   -.153E-01 -.313E+01 -.959E+00
   -.355E+00 0.482E+02 -.660E+01   0.367E+00 -.454E+02 0.592E+01   -.145E-01 -.305E+01 0.732E+00
   0.123E+01 -.577E+02 0.488E+02   -.132E+01 0.551E+02 -.476E+02   0.692E-01 0.299E+01 -.131E+01
   -.229E+01 -.597E+02 -.172E+01   0.231E+01 0.571E+02 0.943E+00   -.216E-01 0.292E+01 0.828E+00
   0.490E+01 0.538E+02 0.306E+01   -.502E+01 -.517E+02 -.478E+01   0.131E+00 -.240E+01 0.188E+01
   -.187E+01 0.520E+02 0.483E+02   0.205E+01 -.494E+02 -.473E+02   -.175E+00 -.288E+01 -.107E+01
   0.924E+00 -.410E+02 -.256E+01   -.942E+00 0.386E+02 0.191E+01   0.215E-01 0.267E+01 0.694E+00
   -.649E+00 -.446E+02 0.370E+02   0.645E+00 0.417E+02 -.362E+02   0.930E-02 0.320E+01 -.874E+00
   0.274E+00 0.393E+01 0.215E+02   -.213E+00 -.390E+01 -.217E+02   -.937E-01 -.317E-01 0.183E+00
   -.266E+00 0.435E+01 0.201E+02   0.200E+00 -.432E+01 -.201E+02   0.977E-01 -.197E-01 0.950E-01
   0.283E+01 -.553E+01 0.315E+02   -.276E+01 0.561E+01 -.316E+02   -.989E-01 -.725E-01 0.128E+00
   -.352E+01 -.773E+01 0.354E+02   0.340E+01 0.783E+01 -.355E+02   0.152E+00 -.896E-01 0.895E-01
   0.146E+02 -.200E+02 -.192E+03   -.189E+02 0.261E+02 0.189E+03   0.437E+01 -.622E+01 0.372E+01
   -.245E+02 0.138E+02 -.314E+02   0.271E+02 -.150E+02 0.313E+02   -.252E+01 0.119E+01 0.121E+00
   0.616E+01 0.148E+02 -.490E+02   -.665E+01 -.161E+02 0.511E+02   0.486E+00 0.133E+01 -.215E+01
 -----------------------------------------------------------------------------------------------
   -.239E+01 0.362E+01 -.212E+01   0.444E-14 -.711E-14 0.355E-13   0.240E+01 -.360E+01 0.212E+01


 POSITION                                       TOTAL-FORCE (eV/Angst)
 -----------------------------------------------------------------------------------
      2.60133      8.89704      3.55149        -0.002820     -0.030562      0.019171
      5.61031      8.90002      3.92409        -0.001657      0.010610     -0.012055
      2.60549      6.25575      3.60149        -0.019426      0.043266     -0.010813
      5.61882      6.27814      4.03066        -0.001624     -0.018279     -0.017632
      2.59467      3.81698      4.13827         0.002278     -0.032445      0.010520
      5.61529      3.83380      3.63699         0.016946      0.029536      0.021961
      2.59839      1.19841      3.93805         0.001677      0.029558     -0.019449
      5.60838      1.19875      3.57310         0.005233     -0.009934      0.014516
      1.09628     10.11671      3.72533        -0.034900      0.000355      0.026586
      4.10348     10.11704      3.73866         0.035526      0.004855      0.009017
      1.10066      5.05114      3.84942        -0.030835     -0.003136     -0.004732
      4.10854      5.05489      3.89481         0.036752      0.005105     -0.028475
      3.36620      4.44057      6.99897        -0.037790     -0.029326      0.006551
      4.86316      3.73011      6.93063         0.018042     -0.011677      0.002476
      3.04758      3.56803      8.40904         0.012599      0.012073     -0.017642
 -----------------------------------------------------------------------------------
    total drift:                                0.001905      0.012413     -0.001878


--------------------------------------------------------------------------------------------------------



  FREE ENERGIE OF THE ION-ELECTRON SYSTEM (eV)
  ---------------------------------------------------
  free  energy   TOTEN  =       -80.14289889 eV

  energy  without entropy=      -80.14289889  energy(sigma->0) =      -80.14289889

 d Force = 0.3014744E-04[ 0.127E-04, 0.476E-04]  d Energy =-0.7385773E-05 0.375E-04
 d Force =-0.8436149E-01[-0.840E-01,-0.847E-01]  d Ewald  =-0.8436153E-01 0.407E-07


--------------------------------------------------------------------------------------------------------


    POTLOK:  cpu time    9.1826: real time    9.2133


--------------------------------------------------------------------------------------------------------


 stress matrix after NEB project (eV)
     -0.59055      0.03157      0.00536
      0.03157     -5.06817     -0.06924
      0.00536     -0.06924     -0.71072
  FORCES: max atom, RMS     0.048644    0.035462
  FORCE total and by dimension    0.137344    0.043266
  Stress total and by dimension    5.152849    5.068170


--------------------------------------------------------------------------------------------------------


    WAVPRE:  cpu time    0.5296: real time    0.9949
    FEWALD:  cpu time    0.0024: real time    0.0024
    ORTHCH:  cpu time    2.5656: real time    2.5728
    CHARGE:  cpu time    1.5769: real time    1.5819
     LOOP+:  cpu time 5700.4249: real time 5724.7147


--------------------------------------- Iteration     13(   1)  ---------------------------------------


    POTLOK:  cpu time    8.2692: real time    8.2900
    SETDIJ:  cpu time    0.9347: real time    0.9376
    TRIAL :  cpu time  635.4585: real time  638.3571
    CORREC:  cpu time    0.0004: real time    0.0004
    CHARGE:  cpu time    1.5665: real time    1.5758
    --------------------------------------------
      LOOP:  cpu time  646.2926: real time  649.2248

 eigenvalue-minimisations  :     0
 total energy-change (2. order) : 0.4500978E-02  (-0.4755997E-02)
 number of electron      48.0000002 magnetization 
 augmentation part       -1.2492203 magnetization 

 Free energy of the ion-electron system (eV)
  ---------------------------------------------------
  alpha Z        PSCENC =        13.10177784
  Ewald energy   TEWEN  =      1360.69784611
  -Hartree energ DENC   =     -2508.65914746
  -exchange      EXHF   =        75.37334258
  -V(xc)+E(xc)   XCENC  =      -142.10368740
  PAW double counting   =      1713.22335185    -1484.09210366
  entropy T*S    EENTRO =        -0.00000000
  eigenvalues    EBANDS =      -358.87300687
  atomic energy  EATOM  =      1251.19323263
  ---------------------------------------------------
  free energy    TOTEN  =       -80.13839439 eV

  energy without entropy =      -80.13839439  energy(sigma->0) =      -80.13839439
  exchange ACFDT corr.  =        -0.00000000  see jH, gK, PRB 81, 115126


--------------------------------------------------------------------------------------------------------




--------------------------------------- Iteration     13(   2)  ---------------------------------------


    POTLOK:  cpu time    8.2632: real time    8.2900
    SETDIJ:  cpu time    0.9323: real time    0.9367
    TRIAL :  cpu time  639.7181: real time  642.4286
    CORREC:  cpu time    0.0004: real time    0.0004
    CHARGE:  cpu time    1.5644: real time    1.5750
    --------------------------------------------
      LOOP:  cpu time  650.4793: real time  653.2325

 eigenvalue-minimisations  :     0
 total energy-change (2. order) :-0.3240176E-02  (-0.1753152E-02)
 number of electron      48.0000002 magnetization 
 augmentation part       -1.2492422 magnetization 

 Free energy of the ion-electron system (eV)
  ---------------------------------------------------
  alpha Z        PSCENC =        13.10177784
  Ewald energy   TEWEN  =      1360.69784611
  -Hartree energ DENC   =     -2508.61520419
  -exchange      EXHF   =        75.37476646
  -V(xc)+E(xc)   XCENC  =      -142.10268094
  PAW double counting   =      1713.24760322    -1484.11651936
  entropy T*S    EENTRO =        -0.00000000
  eigenvalues    EBANDS =      -358.92245634
  atomic energy  EATOM  =      1251.19323263
  ---------------------------------------------------
  free energy    TOTEN  =       -80.14163457 eV

  energy without entropy =      -80.14163457  energy(sigma->0) =      -80.14163457
  exchange ACFDT corr.  =        -0.00000000  see jH, gK, PRB 81, 115126


--------------------------------------------------------------------------------------------------------




--------------------------------------- Iteration     13(   3)  ---------------------------------------


    POTLOK:  cpu time    8.2688: real time    8.3047
    SETDIJ:  cpu time    0.9254: real time    0.9295
    TRIAL :  cpu time  637.8369: real time  640.7011
    CORREC:  cpu time    0.0003: real time    0.0003
    CHARGE:  cpu time    1.5720: real time    1.5761
    --------------------------------------------
      LOOP:  cpu time  648.6039: real time  651.5131

 eigenvalue-minimisations  :     0
 total energy-change (2. order) :-0.1079726E-02  (-0.5839890E-03)
 number of electron      48.0000002 magnetization 
 augmentation part       -1.2493375 magnetization 

 Free energy of the ion-electron system (eV)
  ---------------------------------------------------
  alpha Z        PSCENC =        13.10177784
  Ewald energy   TEWEN  =      1360.69784611
  -Hartree energ DENC   =     -2508.67029916
  -exchange      EXHF   =        75.37593739
  -V(xc)+E(xc)   XCENC  =      -142.10163699
  PAW double counting   =      1713.29403172    -1484.16302240
  entropy T*S    EENTRO =        -0.00000000
  eigenvalues    EBANDS =      -358.87058144
  atomic energy  EATOM  =      1251.19323263
  ---------------------------------------------------
  free energy    TOTEN  =       -80.14271429 eV

  energy without entropy =      -80.14271429  energy(sigma->0) =      -80.14271429
  exchange ACFDT corr.  =        -0.00000000  see jH, gK, PRB 81, 115126


--------------------------------------------------------------------------------------------------------




--------------------------------------- Iteration     13(   4)  ---------------------------------------


    POTLOK:  cpu time    8.2646: real time    8.2993
    SETDIJ:  cpu time    0.9226: real time    0.9292
    TRIAL :  cpu time  639.5541: real time  644.2009
    CORREC:  cpu time    0.0005: real time    0.0005
    CHARGE:  cpu time    1.5743: real time    1.5864
    --------------------------------------------
      LOOP:  cpu time  650.3179: real time  655.0203

 eigenvalue-minimisations  :     0
 total energy-change (2. order) :-0.3425336E-03  (-0.1530095E-03)
 number of electron      48.0000002 magnetization 
 augmentation part       -1.2493636 magnetization 

 Free energy of the ion-electron system (eV)
  ---------------------------------------------------
  alpha Z        PSCENC =        13.10177784
  Ewald energy   TEWEN  =      1360.69784611
  -Hartree energ DENC   =     -2508.73772654
  -exchange      EXHF   =        75.37615061
  -V(xc)+E(xc)   XCENC  =      -142.10130922
  PAW double counting   =      1713.30898666    -1484.17787262
  entropy T*S    EENTRO =        -0.00000000
  eigenvalues    EBANDS =      -358.80414229
  atomic energy  EATOM  =      1251.19323263
  ---------------------------------------------------
  free energy    TOTEN  =       -80.14305682 eV

  energy without entropy =      -80.14305682  energy(sigma->0) =      -80.14305682
  exchange ACFDT corr.  =        -0.00000000  see jH, gK, PRB 81, 115126


--------------------------------------------------------------------------------------------------------




--------------------------------------- Iteration     13(   5)  ---------------------------------------


    POTLOK:  cpu time    8.2608: real time    8.2901
    SETDIJ:  cpu time    0.9255: real time    0.9299
    TRIAL :  cpu time  645.0192: real time  647.5325
    CORREC:  cpu time    0.0004: real time    0.0004
    CHARGE:  cpu time    1.5647: real time    1.5693
    --------------------------------------------
      LOOP:  cpu time  655.7709: real time  658.3235

 eigenvalue-minimisations  :     0
 total energy-change (2. order) :-0.6810085E-04  (-0.3942677E-04)
 number of electron      48.0000002 magnetization 
 augmentation part       -1.2493277 magnetization 

 Free energy of the ion-electron system (eV)
  ---------------------------------------------------
  alpha Z        PSCENC =        13.10177784
  Ewald energy   TEWEN  =      1360.69784611
  -Hartree energ DENC   =     -2508.75205249
  -exchange      EXHF   =        75.37602213
  -V(xc)+E(xc)   XCENC  =      -142.10143819
  PAW double counting   =      1713.29690301    -1484.16575926
  entropy T*S    EENTRO =        -0.00000000
  eigenvalues    EBANDS =      -358.78965671
  atomic energy  EATOM  =      1251.19323263
  ---------------------------------------------------
  free energy    TOTEN  =       -80.14312493 eV

  energy without entropy =      -80.14312493  energy(sigma->0) =      -80.14312493
  exchange ACFDT corr.  =        -0.00000000  see jH, gK, PRB 81, 115126


--------------------------------------------------------------------------------------------------------




--------------------------------------- Iteration     13(   6)  ---------------------------------------


    POTLOK:  cpu time    8.2909: real time    8.3011
    SETDIJ:  cpu time    0.9532: real time    0.9548
    TRIAL :  cpu time  645.8272: real time  647.4228
    CORREC:  cpu time    0.0004: real time    0.0004
    CHARGE:  cpu time    1.5690: real time    1.5715
    --------------------------------------------
      LOOP:  cpu time  656.6412: real time  658.2519

 eigenvalue-minimisations  :     0
 total energy-change (2. order) :-0.1900173E-04  (-0.2456476E-04)
 number of electron      48.0000002 magnetization 
 augmentation part       -1.2493052 magnetization 

 Free energy of the ion-electron system (eV)
  ---------------------------------------------------
  alpha Z        PSCENC =        13.10177784
  Ewald energy   TEWEN  =      1360.69784611
  -Hartree energ DENC   =     -2508.73287374
  -exchange      EXHF   =        75.37588382
  -V(xc)+E(xc)   XCENC  =      -142.10165338
  PAW double counting   =      1713.28428547    -1484.15316836
  entropy T*S    EENTRO =        -0.00000000
  eigenvalues    EBANDS =      -358.80847432
  atomic energy  EATOM  =      1251.19323263
  ---------------------------------------------------
  free energy    TOTEN  =       -80.14314393 eV

  energy without entropy =      -80.14314393  energy(sigma->0) =      -80.14314393
  exchange ACFDT corr.  =        -0.00000000  see jH, gK, PRB 81, 115126


--------------------------------------------------------------------------------------------------------




--------------------------------------- Iteration     13(   7)  ---------------------------------------


    POTLOK:  cpu time    8.2977: real time    8.3040
    SETDIJ:  cpu time    0.9571: real time    0.9581
    TRIAL :  cpu time  644.8655: real time  646.5347
    CORREC:  cpu time    0.0004: real time    0.0004
    CHARGE:  cpu time    1.5671: real time    1.5729
    --------------------------------------------
      LOOP:  cpu time  655.6883: real time  657.3714

 eigenvalue-minimisations  :     0
 total energy-change (2. order) :-0.1530915E-04  (-0.1239809E-04)
 number of electron      48.0000002 magnetization 
 augmentation part       -1.2493148 magnetization 

 Free energy of the ion-electron system (eV)
  ---------------------------------------------------
  alpha Z        PSCENC =        13.10177784
  Ewald energy   TEWEN  =      1360.69784611
  -Hartree energ DENC   =     -2508.72339478
  -exchange      EXHF   =        75.37586199
  -V(xc)+E(xc)   XCENC  =      -142.10166845
  PAW double counting   =      1713.28902968    -1484.15789824
  entropy T*S    EENTRO =        -0.00000000
  eigenvalues    EBANDS =      -358.81794601
  atomic energy  EATOM  =      1251.19323263
  ---------------------------------------------------
  free energy    TOTEN  =       -80.14315924 eV

  energy without entropy =      -80.14315924  energy(sigma->0) =      -80.14315924
  exchange ACFDT corr.  =        -0.00000000  see jH, gK, PRB 81, 115126


--------------------------------------------------------------------------------------------------------




--------------------------------------- Iteration     13(   8)  ---------------------------------------


    POTLOK:  cpu time    8.2968: real time    8.3205
    SETDIJ:  cpu time    0.9467: real time    0.9494
    TRIAL :  cpu time  643.2820: real time  645.6405
    CORREC:  cpu time    0.0006: real time    0.0006
    EDDIAG:  cpu time  637.1970: real time  638.6414
    CHARGE:  cpu time    1.5714: real time    1.5768
    --------------------------------------------
      LOOP:  cpu time 1291.2974: real time 1295.1332

 eigenvalue-minimisations  :     0
 total energy-change (2. order) :-0.8114511E-05  (-0.5259213E-05)
 number of electron      48.0000002 magnetization 
 augmentation part       -1.2493312 magnetization 

 Free energy of the ion-electron system (eV)
  ---------------------------------------------------
  alpha Z        PSCENC =        13.10177784
  Ewald energy   TEWEN  =      1360.69784611
  -Hartree energ DENC   =     -2508.72920140
  -exchange      EXHF   =        75.37599792
  -V(xc)+E(xc)   XCENC  =      -142.10159768
  PAW double counting   =      1713.30052663    -1484.16940309
  entropy T*S    EENTRO =        -0.00000000
  eigenvalues    EBANDS =      -358.81228991
  atomic energy  EATOM  =      1251.19323263
  ---------------------------------------------------
  free energy    TOTEN  =       -80.14316735 eV

  energy without entropy =      -80.14316735  energy(sigma->0) =      -80.14316735
  exchange ACFDT corr.  =        -0.00000000  see jH, gK, PRB 81, 115126


--------------------------------------------------------------------------------------------------------


  average scaling for gradient   0.9229


 average (electrostatic) potential at core
  the test charge radii are     1.0406  0.6991  1.1897  0.5883
  (the norm of the test charge is              1.0000)
       1 -54.8710       2 -54.8647       3 -54.8634       4 -54.8882       5 -54.9094
       6 -54.9573       7 -54.8103       8 -54.8927       9 -51.0194      10 -51.0182
      11 -51.0770      12 -51.1339      13 -93.2163      14 -34.3125      15 -33.8143



 E-fermi :  -2.0384     XC(G=0):  -2.9202     alpha+bet : -2.8557


 k-point     1 :       0.0000    0.0000    0.0000
  band No.  band energies     occupation 
      1     -15.8610      2.00000
      2     -15.2293      2.00000
      3     -15.0723      2.00000
      4     -12.9554      2.00000
      5     -12.8617      2.00000
      6      -9.6254      2.00000
      7      -9.3495      2.00000
      8      -9.3156      2.00000
      9      -8.4363      2.00000
     10      -7.4295      2.00000
     11      -6.9968      2.00000
     12      -6.4420      2.00000
     13      -5.9942      2.00000
     14      -5.5113      2.00000
     15      -5.1868      2.00000
     16      -4.9200      2.00000
     17      -4.4918      2.00000
     18      -4.3742      2.00000
     19      -3.4185      2.00000
     20      -3.1986      2.00000
     21      -3.1692      2.00000
     22      -2.6164      2.00000
     23      -2.3415      2.00000
     24      -2.3084      2.00000
     25      -0.8111      0.00000
     26      -0.2645      0.00000
     27       0.2525      0.00000
     28       0.6108      0.00000
     29       0.7729      0.00000
     30       0.9327      0.00000
     31       1.0817      0.00000
     32       1.3637      0.00000

 k-point     2 :       0.2000    0.0000    0.0000
  band No.  band energies     occupation 
      1     -15.8391      2.00000
      2     -15.1027      2.00000
      3     -14.9473      2.00000
      4     -13.3671      2.00000
      5     -13.2512      2.00000
      6      -9.1680      2.00000
      7      -8.9758      2.00000
      8      -8.7099      2.00000
      9      -8.4523      2.00000
     10      -7.4405      2.00000
     11      -6.8724      2.00000
     12      -6.8006      2.00000
     13      -6.3098      2.00000
     14      -5.4452      2.00000
     15      -5.2224      2.00000
     16      -4.8075      2.00000
     17      -4.4448      2.00000
     18      -3.9689      2.00000
     19      -3.9217      2.00000
     20      -3.8706      2.00000
     21      -3.7421      2.00000
     22      -3.0197      2.00000
     23      -2.7719      2.00000
     24      -2.3102      2.00000
     25      -0.7971      0.00000
     26       0.4519      0.00000
     27       0.7274      0.00000
     28       0.8175      0.00000
     29       1.0300      0.00000
     30       1.0621      0.00000
     31       1.1613      0.00000
     32       1.5164      0.00000

 k-point     3 :       0.4000    0.0000    0.0000
  band No.  band energies     occupation 
      1     -15.8076      2.00000
      2     -14.7195      2.00000
      3     -14.5669      2.00000
      4     -14.0995      2.00000
      5     -13.9585      2.00000
      6      -8.7170      2.00000
      7      -8.4610      2.00000
      8      -7.9167      2.00000
      9      -7.6800      2.00000
     10      -7.3722      2.00000
     11      -7.1421      2.00000
     12      -6.5062      2.00000
     13      -6.1698      2.00000
     14      -5.9706      2.00000
     15      -5.5379      2.00000
     16      -5.2463      2.00000
     17      -5.0477      2.00000
     18      -4.7835      2.00000
     19      -4.4617      2.00000
     20      -4.2112      2.00000
     21      -3.7473      2.00000
     22      -3.4410      2.00000
     23      -2.8354      2.00000
     24      -2.3966      2.00000
     25      -0.4575      0.00000
     26       0.2429      0.00000
     27       0.9227      0.00000
     28       1.3155      0.00000
     29       1.4115      0.00000
     30       1.6097      0.00000
     31       1.7263      0.00000
     32       2.1389      0.00000

 k-point     4 :       0.0000    0.3333    0.0000
  band No.  band energies     occupation 
      1     -15.8599      2.00000
      2     -15.1963      2.00000
      3     -15.1111      2.00000
      4     -12.9437      2.00000
      5     -12.8743      2.00000
      6      -9.5724      2.00000
      7      -9.4053      2.00000
      8      -9.0168      2.00000
      9      -8.4492      2.00000
     10      -8.0774      2.00000
     11      -7.4034      2.00000
     12      -5.8241      2.00000
     13      -5.4529      2.00000
     14      -5.3810      2.00000
     15      -5.0899      2.00000
     16      -5.0521      2.00000
     17      -4.4109      2.00000
     18      -4.1967      2.00000
     19      -3.7065      2.00000
     20      -3.2915      2.00000
     21      -3.1933      2.00000
     22      -3.1726      2.00000
     23      -2.6016      2.00000
     24      -2.3243      2.00000
     25      -0.5842      0.00000
     26       0.0978      0.00000
     27       0.2935      0.00000
     28       0.4555      0.00000
     29       0.7003      0.00000
     30       0.8758      0.00000
     31       1.1269      0.00000
     32       1.3747      0.00000

 k-point     5 :       0.2000    0.3333    0.0000
  band No.  band energies     occupation 
      1     -15.8383      2.00000
      2     -15.0672      2.00000
      3     -14.9879      2.00000
      4     -13.3477      2.00000
      5     -13.2721      2.00000
      6      -8.9430      2.00000
      7      -8.8611      2.00000
      8      -8.7678      2.00000
      9      -8.4471      2.00000
     10      -7.9472      2.00000
     11      -7.4026      2.00000
     12      -6.5526      2.00000
     13      -5.9131      2.00000
     14      -5.2034      2.00000
     15      -4.9733      2.00000
     16      -4.8932      2.00000
     17      -4.3774      2.00000
     18      -3.9519      2.00000
     19      -3.9067      2.00000
     20      -3.7195      2.00000
     21      -3.6715      2.00000
     22      -3.2223      2.00000
     23      -2.9447      2.00000
     24      -2.8051      2.00000
     25      -0.4607      0.00000
     26       0.2177      0.00000
     27       0.6347      0.00000
     28       0.7836      0.00000
     29       0.8882      0.00000
     30       1.1112      0.00000
     31       1.2821      0.00000
     32       1.5150      0.00000

 k-point     6 :       0.4000    0.3333    0.0000
  band No.  band energies     occupation 
      1     -15.8074      2.00000
      2     -14.6845      2.00000
      3     -14.6061      2.00000
      4     -14.0705      2.00000
      5     -13.9904      2.00000
      6      -8.5696      2.00000
      7      -8.3081      2.00000
      8      -7.8451      2.00000
      9      -7.5791      2.00000
     10      -7.5006      2.00000
     11      -7.3267      2.00000
     12      -7.1147      2.00000
     13      -6.6623      2.00000
     14      -5.6661      2.00000
     15      -5.5658      2.00000
     16      -4.9682      2.00000
     17      -4.5101      2.00000
     18      -4.4732      2.00000
     19      -4.2619      2.00000
     20      -4.0156      2.00000
     21      -3.7527      2.00000
     22      -3.4621      2.00000
     23      -3.1288      2.00000
     24      -3.0302      2.00000
     25      -0.1177      0.00000
     26       0.3622      0.00000
     27       0.7499      0.00000
     28       1.0722      0.00000
     29       1.1956      0.00000
     30       1.6110      0.00000
     31       1.7652      0.00000
     32       1.8512      0.00000

 k-point     7 :      -0.4000    0.3333    0.0000
  band No.  band energies     occupation 
      1     -15.8074      2.00000
      2     -14.6844      2.00000
      3     -14.6062      2.00000
      4     -14.0705      2.00000
      5     -13.9904      2.00000
      6      -8.5670      2.00000
      7      -8.3216      2.00000
      8      -7.8134      2.00000
      9      -7.5917      2.00000
     10      -7.5021      2.00000
     11      -7.3338      2.00000
     12      -7.1148      2.00000
     13      -6.6623      2.00000
     14      -5.6754      2.00000
     15      -5.5632      2.00000
     16      -4.9558      2.00000
     17      -4.5297      2.00000
     18      -4.4716      2.00000
     19      -4.2469      2.00000
     20      -4.0104      2.00000
     21      -3.7392      2.00000
     22      -3.4937      2.00000
     23      -3.1215      2.00000
     24      -3.0258      2.00000
     25      -0.1427      0.00000
     26       0.4704      0.00000
     27       0.7159      0.00000
     28       0.9194      0.00000
     29       1.2855      0.00000
     30       1.6098      0.00000
     31       1.7926      0.00000
     32       1.8809      0.00000

 k-point     8 :      -0.2000    0.3333    0.0000
  band No.  band energies     occupation 
      1     -15.8383      2.00000
      2     -15.0671      2.00000
      3     -14.9880      2.00000
      4     -13.3477      2.00000
      5     -13.2722      2.00000
      6      -8.9459      2.00000
      7      -8.8587      2.00000
      8      -8.7669      2.00000
      9      -8.4519      2.00000
     10      -7.9368      2.00000
     11      -7.4068      2.00000
     12      -6.5496      2.00000
     13      -5.9266      2.00000
     14      -5.1938      2.00000
     15      -4.9844      2.00000
     16      -4.8997      2.00000
     17      -4.3503      2.00000
     18      -3.9472      2.00000
     19      -3.9082      2.00000
     20      -3.7344      2.00000
     21      -3.6596      2.00000
     22      -3.2448      2.00000
     23      -2.9171      2.00000
     24      -2.8170      2.00000
     25      -0.4838      0.00000
     26       0.2855      0.00000
     27       0.5430      0.00000
     28       0.7956      0.00000
     29       0.9163      0.00000
     30       1.1953      0.00000
     31       1.2387      0.00000
     32       1.5683      0.00000


--------------------------------------------------------------------------------------------------------


 soft charge-density along one line, spin component           1
         0         1         2         3         4         5         6         7         8         9
 total charge-density along one line

 pseudopotential strength for first ion, spin component:           1
  7.182 -16.882  -0.005  -0.002  -0.000   0.027   0.009   0.000
-16.882  49.270   0.012   0.004   0.000  -0.057  -0.019  -0.000
 -0.005   0.012   1.704  -0.000   0.000  -6.725   0.001  -0.000
 -0.002   0.004  -0.000   1.709  -0.000   0.001  -6.747   0.000
 -0.000   0.000   0.000  -0.000   1.704  -0.000   0.000  -6.726
  0.027  -0.057  -6.725   0.001  -0.000  28.450  -0.005   0.000
  0.009  -0.019   0.001  -6.747   0.000  -0.005  28.539  -0.000
  0.000  -0.000  -0.000   0.000  -6.726   0.000  -0.000  28.456
  0.000  -0.000  -0.000  -0.000  -0.005   0.000   0.000   0.012
 -0.001   0.001  -0.001  -0.004  -0.000   0.003   0.010   0.000
  0.011  -0.012   0.002  -0.002   0.000  -0.005   0.004  -0.000
 -0.000   0.000  -0.000  -0.000  -0.001   0.000   0.000   0.003
  0.001  -0.001   0.003  -0.000  -0.000  -0.007   0.000   0.000
 -0.000   0.000   0.000   0.000   0.017  -0.000  -0.000  -0.059
  0.004  -0.007   0.005   0.016   0.000  -0.015  -0.056  -0.000
 -0.041   0.072  -0.007   0.007  -0.000   0.025  -0.023   0.000
  0.000  -0.000   0.000   0.000   0.005  -0.000  -0.000  -0.018
 -0.002   0.004  -0.012   0.000   0.000   0.041  -0.001  -0.000
 total augmentation occupancy for first ion, spin component:           1
  1.390   0.033   0.004   0.013   0.000   0.005   0.001   0.000  -0.000   0.015  -0.104   0.001  -0.023  -0.000   0.001  -0.005
  0.033   0.001   0.008   0.002   0.000   0.000   0.000   0.000  -0.000   0.001  -0.003   0.000  -0.000  -0.000   0.000  -0.000
  0.004   0.008   1.337   0.064   0.000   0.027   0.002  -0.000   0.000   0.022  -0.075   0.001   0.068   0.000   0.001  -0.003
  0.013   0.002   0.064   0.408   0.003   0.002   0.007   0.000   0.001   0.062   0.008   0.000   0.005   0.000   0.002   0.000
  0.000   0.000   0.000   0.003   1.199  -0.000   0.000   0.026   0.248   0.001   0.000   0.033  -0.000   0.008   0.000   0.000
  0.005   0.000   0.027   0.002  -0.000   0.001   0.000  -0.000   0.000   0.001  -0.002   0.000   0.001   0.000   0.000  -0.000
  0.001   0.000   0.002   0.007   0.000   0.000   0.000   0.000   0.000   0.001   0.000   0.000   0.000   0.000   0.000  -0.000
  0.000   0.000  -0.000   0.000   0.026  -0.000   0.000   0.001   0.005   0.000   0.000   0.001  -0.000   0.000   0.000   0.000
 -0.000  -0.000   0.000   0.001   0.248   0.000   0.000   0.005   0.070   0.000   0.000   0.007   0.000   0.002   0.000   0.000
  0.015   0.001   0.022   0.062   0.001   0.001   0.001   0.000   0.000   0.011  -0.000   0.000  -0.002   0.000   0.000  -0.000
 -0.104  -0.003  -0.075   0.008   0.000  -0.002   0.000   0.000   0.000  -0.000   0.014   0.000  -0.004   0.000  -0.000   0.001
  0.001   0.000   0.001   0.000   0.033   0.000   0.000   0.001   0.007   0.000   0.000   0.022   0.000   0.000   0.000  -0.000
 -0.023  -0.000   0.068   0.005  -0.000   0.001   0.000  -0.000   0.000  -0.002  -0.004   0.000   0.045  -0.000  -0.000  -0.000
 -0.000  -0.000   0.000   0.000   0.008   0.000   0.000   0.000   0.002   0.000   0.000   0.000  -0.000   0.000   0.000   0.000
  0.001   0.000   0.001   0.002   0.000   0.000   0.000   0.000   0.000   0.000  -0.000   0.000  -0.000   0.000   0.000  -0.000
 -0.005  -0.000  -0.003   0.000   0.000  -0.000  -0.000   0.000   0.000  -0.000   0.001  -0.000  -0.000   0.000  -0.000   0.000
  0.000   0.000   0.000   0.000   0.001   0.000   0.000   0.000   0.000   0.000  -0.000   0.001   0.000   0.000   0.000  -0.000
 -0.001  -0.000   0.001   0.000  -0.000   0.000   0.000  -0.000  -0.000  -0.000  -0.000   0.000   0.001  -0.000  -0.000  -0.000


------------------------ aborting loop because EDIFF is reached ----------------------------------------


    FORLOC:  cpu time    0.2212: real time    0.2215
    FORHF :  cpu time 1075.4233: real time 1078.2329
    FORNL :  cpu time    6.3311: real time    6.3660
    STRESS:  cpu time   19.2664: real time   19.3552
    FORCOR:  cpu time    8.2574: real time    8.2702
    OFIELD:  cpu time    0.0092: real time    0.0092

  FORCE on cell =-STRESS in cart. coord.  units (eV):
  Direction    XX          YY          ZZ          XY          YZ          ZX
  --------------------------------------------------------------------------------------
  Alpha Z    13.10178    13.10178    13.10178
  Ewald    2357.76186  1932.22481 -2929.29034    -8.56058   -42.06885    -7.51443
  Hartree  2377.42771  2082.65816 -1951.35018    -0.38037   -20.65775    -2.54820
  E(xc)    -120.10719  -120.71777  -118.26015     0.04081    -0.03387    -0.07462
  Local   -5227.39186 -4516.53420  4401.91720     6.03605    57.84760     6.08876
  n-local   224.58294   236.27520   190.75693    -0.56832     0.59225     1.68818
  augment   -29.50638   -31.20489   -27.61501    -0.36121    -0.89263    -0.80757
  Kinetic   435.27026   430.46162   450.98602     3.76227     4.98246     3.01826
  Fock      -31.70104   -31.30395   -30.96422     0.06260     0.16398     0.15817
  -------------------------------------------------------------------------------------
  Total      -0.56192    -5.03923    -0.71797     0.03125    -0.06681     0.00855
  in kB      -0.98338    -8.81875    -1.25646     0.05470    -0.11692     0.01496
  external pressure =       -3.69 kB  Pullay stress =        0.00 kB


 VOLUME and BASIS-vectors are now :
 -----------------------------------------------------------------------------
  energy-cutoff  :      450.00
  volume of cell :      915.52
      direct lattice vectors                 reciprocal lattice vectors
     6.019200000  0.000000000  0.000000000     0.166135035  0.000000000  0.000000000
     0.000000000 10.140000000  0.000000000     0.000000000  0.098619329  0.000000000
     0.000000000  0.000000000 15.000000000     0.000000000  0.000000000  0.066666667

  length of vectors
     6.019200000 10.140000000 15.000000000     0.166135035  0.098619329  0.066666667


 FORCES acting on ions:
    Electron-Ion                     Ewald-Force                    Non-Local-Force
 -----------------------------------------------------------------------------------------------
   0.276E+00 0.488E+02 0.356E+02   -.266E+00 -.460E+02 -.347E+02   -.125E-01 -.312E+01 -.951E+00
   -.347E+00 0.483E+02 -.640E+01   0.360E+00 -.455E+02 0.573E+01   -.145E-01 -.306E+01 0.725E+00
   0.123E+01 -.577E+02 0.485E+02   -.131E+01 0.551E+02 -.473E+02   0.742E-01 0.297E+01 -.129E+01
   -.226E+01 -.597E+02 -.151E+01   0.227E+01 0.571E+02 0.735E+00   -.213E-01 0.293E+01 0.820E+00
   0.484E+01 0.538E+02 0.324E+01   -.496E+01 -.516E+02 -.496E+01   0.137E+00 -.238E+01 0.187E+01
   -.185E+01 0.521E+02 0.481E+02   0.203E+01 -.494E+02 -.471E+02   -.186E+00 -.288E+01 -.106E+01
   0.919E+00 -.410E+02 -.238E+01   -.938E+00 0.387E+02 0.173E+01   0.204E-01 0.267E+01 0.687E+00
   -.653E+00 -.446E+02 0.369E+02   0.651E+00 0.417E+02 -.361E+02   0.899E-02 0.321E+01 -.870E+00
   0.230E+00 0.393E+01 0.213E+02   -.169E+00 -.390E+01 -.214E+02   -.921E-01 -.363E-01 0.168E+00
   -.218E+00 0.436E+01 0.201E+02   0.153E+00 -.434E+01 -.202E+02   0.948E-01 -.227E-01 0.959E-01
   0.280E+01 -.553E+01 0.313E+02   -.272E+01 0.561E+01 -.314E+02   -.107E+00 -.745E-01 0.116E+00
   -.348E+01 -.769E+01 0.357E+02   0.335E+01 0.779E+01 -.359E+02   0.161E+00 -.927E-01 0.117E+00
   0.146E+02 -.200E+02 -.192E+03   -.189E+02 0.261E+02 0.188E+03   0.436E+01 -.621E+01 0.373E+01
   -.245E+02 0.138E+02 -.314E+02   0.271E+02 -.150E+02 0.313E+02   -.252E+01 0.119E+01 0.123E+00
   0.616E+01 0.148E+02 -.490E+02   -.664E+01 -.161E+02 0.511E+02   0.486E+00 0.133E+01 -.215E+01
 -----------------------------------------------------------------------------------------------
   -.238E+01 0.360E+01 -.213E+01   0.888E-15 0.355E-14 -.426E-13   0.239E+01 -.357E+01 0.213E+01


 POSITION                                       TOTAL-FORCE (eV/Angst)
 -----------------------------------------------------------------------------------
      2.60110      8.89691      3.55404        -0.002359     -0.024508      0.019007
      5.61017      8.90025      3.92264        -0.000516     -0.001305     -0.008793
      2.60482      6.25712      3.60360        -0.011264      0.022822     -0.011885
      5.61880      6.27819      4.02813        -0.004767     -0.015373     -0.016054
      2.59502      3.81618      4.13579         0.007235     -0.011174      0.009030
      5.61624      3.83370      3.63820         0.006332      0.030276      0.020158
      2.59859      1.19844      3.93679         0.000106      0.031863     -0.018052
      5.60841      1.19850      3.57502         0.006445      0.005407      0.014435
      1.09608     10.11696      3.72713        -0.033503     -0.004193      0.019478
      4.10366     10.11724      3.73864         0.032158      0.000389      0.009210
      1.10085      5.05133      3.85041        -0.033732     -0.005919     -0.008593
      4.10857      5.05523      3.89184         0.039554      0.000014     -0.015947
      3.36607      4.44003      6.99930        -0.044714     -0.027190      0.003575
      4.86271      3.72989      6.93016         0.025144     -0.014306      0.003634
      3.04751      3.56743      8.40931         0.013881      0.013196     -0.019203
 -----------------------------------------------------------------------------------
    total drift:                                0.002827      0.011419      0.000068


--------------------------------------------------------------------------------------------------------



  FREE ENERGIE OF THE ION-ELECTRON SYSTEM (eV)
  ---------------------------------------------------
  free  energy   TOTEN  =       -80.14316735 eV

  energy  without entropy=      -80.14316735  energy(sigma->0) =      -80.14316735

 d Force = 0.3340244E-03[ 0.262E-03, 0.406E-03]  d Energy = 0.2684572E-03 0.656E-04
 d Force =-0.1159790E+00[-0.114E+00,-0.118E+00]  d Ewald  =-0.1159792E+00 0.128E-06


--------------------------------------------------------------------------------------------------------


    POTLOK:  cpu time    9.2157: real time    9.2291


--------------------------------------------------------------------------------------------------------


 stress matrix after NEB project (eV)
     -0.56192      0.03125      0.00855
      0.03125     -5.03923     -0.06681
      0.00855     -0.06681     -0.71797
  FORCES: max atom, RMS     0.052455    0.032286
  FORCE total and by dimension    0.125043    0.044714
  Stress total and by dimension    5.122123    5.039234
 Conjugate gradient step on ions:
 trial-energy change:   -0.000268  1 .order   -0.000334   -0.000406   -0.000262
  (g-gl).g = 0.909E-03      g.g   = 0.637E-03  gl.gl    = 0.961E-03
 g(Force)  = 0.637E-03   g(Stress)= 0.000E+00 ortho     = 0.466E-04
 gamma     =   0.94579
 trial     =   0.59554
 opt step  =   1.68709  (harmonic =   1.68709) maximal distance =0.00723547
 next E    =   -80.143473   (d E  =  -0.00057)


--------------------------------------------------------------------------------------------------------


    WAVPRE:  cpu time    0.5263: real time    1.0829
    FEWALD:  cpu time    0.0024: real time    0.0024
    ORTHCH:  cpu time    2.6223: real time    2.6318
    CHARGE:  cpu time    1.5234: real time    1.5759
     LOOP+:  cpu time 7006.5256: real time 7033.5254


--------------------------------------- Iteration     14(   1)  ---------------------------------------


    POTLOK:  cpu time    8.2870: real time    8.3043
    SETDIJ:  cpu time    0.9328: real time    0.9362
    TRIAL :  cpu time  642.8873: real time  645.7713
    CORREC:  cpu time    0.0004: real time    0.0004
    CHARGE:  cpu time    1.5761: real time    1.5806
    --------------------------------------------
      LOOP:  cpu time  653.7471: real time  656.6576

 eigenvalue-minimisations  :     0
 total energy-change (2. order) : 0.1601774E-01  (-0.1624627E-01)
 number of electron      48.0000002 magnetization 
 augmentation part       -1.2491013 magnetization 

 Free energy of the ion-electron system (eV)
  ---------------------------------------------------
  alpha Z        PSCENC =        13.10177784
  Ewald energy   TEWEN  =      1360.89839071
  -Hartree energ DENC   =     -2508.72722873
  -exchange      EXHF   =        75.37602360
  -V(xc)+E(xc)   XCENC  =      -142.10176205
  PAW double counting   =      1713.57147213    -1484.44086806
  entropy T*S    EENTRO =        -0.00000000
  eigenvalues    EBANDS =      -358.99817958
  atomic energy  EATOM  =      1251.19323263
  ---------------------------------------------------
  free energy    TOTEN  =       -80.12714150 eV

  energy without entropy =      -80.12714150  energy(sigma->0) =      -80.12714150
  exchange ACFDT corr.  =        -0.00000000  see jH, gK, PRB 81, 115126


--------------------------------------------------------------------------------------------------------




--------------------------------------- Iteration     14(   2)  ---------------------------------------


    POTLOK:  cpu time    8.2749: real time    8.3147
    SETDIJ:  cpu time    0.9422: real time    0.9463
    TRIAL :  cpu time  644.8224: real time  648.9680
    CORREC:  cpu time    0.0004: real time    0.0004
    CHARGE:  cpu time    1.5824: real time    1.5886
    --------------------------------------------
      LOOP:  cpu time  655.6231: real time  659.8197

 eigenvalue-minimisations  :     0
 total energy-change (2. order) :-0.1104901E-01  (-0.6034773E-02)
 number of electron      48.0000002 magnetization 
 augmentation part       -1.2491052 magnetization 

 Free energy of the ion-electron system (eV)
  ---------------------------------------------------
  alpha Z        PSCENC =        13.10177784
  Ewald energy   TEWEN  =      1360.89839071
  -Hartree energ DENC   =     -2508.63133066
  -exchange      EXHF   =        75.37834077
  -V(xc)+E(xc)   XCENC  =      -142.10013594
  PAW double counting   =      1713.61258427    -1484.48233010
  entropy T*S    EENTRO =        -0.00000000
  eigenvalues    EBANDS =      -359.10872005
  atomic energy  EATOM  =      1251.19323263
  ---------------------------------------------------
  free energy    TOTEN  =       -80.13819051 eV

  energy without entropy =      -80.13819051  energy(sigma->0) =      -80.13819051
  exchange ACFDT corr.  =        -0.00000000  see jH, gK, PRB 81, 115126


--------------------------------------------------------------------------------------------------------




--------------------------------------- Iteration     14(   3)  ---------------------------------------


    POTLOK:  cpu time    8.2866: real time    8.2982
    SETDIJ:  cpu time    0.9380: real time    0.9399
    TRIAL :  cpu time  642.5739: real time  646.6137
    CORREC:  cpu time    0.0005: real time    0.0005
    CHARGE:  cpu time    1.5598: real time    1.5682
    --------------------------------------------
      LOOP:  cpu time  653.3592: real time  657.4218

 eigenvalue-minimisations  :     0
 total energy-change (2. order) :-0.3707609E-02  (-0.1964462E-02)
 number of electron      48.0000002 magnetization 
 augmentation part       -1.2492804 magnetization 

 Free energy of the ion-electron system (eV)
  ---------------------------------------------------
  alpha Z        PSCENC =        13.10177784
  Ewald energy   TEWEN  =      1360.89839071
  -Hartree energ DENC   =     -2508.73088541
  -exchange      EXHF   =        75.38048519
  -V(xc)+E(xc)   XCENC  =      -142.09812617
  PAW double counting   =      1713.70756156    -1484.57747388
  entropy T*S    EENTRO =        -0.00000000
  eigenvalues    EBANDS =      -359.01686060
  atomic energy  EATOM  =      1251.19323263
  ---------------------------------------------------
  free energy    TOTEN  =       -80.14189812 eV

  energy without entropy =      -80.14189812  energy(sigma->0) =      -80.14189812
  exchange ACFDT corr.  =        -0.00000000  see jH, gK, PRB 81, 115126


--------------------------------------------------------------------------------------------------------




--------------------------------------- Iteration     14(   4)  ---------------------------------------


    POTLOK:  cpu time    8.2785: real time    8.2956
    SETDIJ:  cpu time    0.9429: real time    0.9454
    TRIAL :  cpu time  646.7002: real time  649.5650
    CORREC:  cpu time    0.0004: real time    0.0004
    CHARGE:  cpu time    1.5883: real time    1.5958
    --------------------------------------------
      LOOP:  cpu time  657.5109: real time  660.4036

 eigenvalue-minimisations  :     0
 total energy-change (2. order) :-0.1127805E-02  (-0.4825481E-03)
 number of electron      48.0000002 magnetization 
 augmentation part       -1.2493355 magnetization 

 Free energy of the ion-electron system (eV)
  ---------------------------------------------------
  alpha Z        PSCENC =        13.10177784
  Ewald energy   TEWEN  =      1360.89839071
  -Hartree energ DENC   =     -2508.85878107
  -exchange      EXHF   =        75.38097860
  -V(xc)+E(xc)   XCENC  =      -142.09745828
  PAW double counting   =      1713.74266433    -1484.61242500
  entropy T*S    EENTRO =        -0.00000000
  eigenvalues    EBANDS =      -358.89140569
  atomic energy  EATOM  =      1251.19323263
  ---------------------------------------------------
  free energy    TOTEN  =       -80.14302592 eV

  energy without entropy =      -80.14302592  energy(sigma->0) =      -80.14302592
  exchange ACFDT corr.  =        -0.00000000  see jH, gK, PRB 81, 115126


--------------------------------------------------------------------------------------------------------




--------------------------------------- Iteration     14(   5)  ---------------------------------------


    POTLOK:  cpu time    8.2798: real time    8.2966
    SETDIJ:  cpu time    0.9422: real time    0.9457
    TRIAL :  cpu time  647.0891: real time  650.0746
    CORREC:  cpu time    0.0004: real time    0.0004
    CHARGE:  cpu time    1.5836: real time    1.5955
    --------------------------------------------
      LOOP:  cpu time  657.8957: real time  660.9144

 eigenvalue-minimisations  :     0
 total energy-change (2. order) :-0.2015147E-03  (-0.1316959E-03)
 number of electron      48.0000002 magnetization 
 augmentation part       -1.2492678 magnetization 

 Free energy of the ion-electron system (eV)
  ---------------------------------------------------
  alpha Z        PSCENC =        13.10177784
  Ewald energy   TEWEN  =      1360.89839071
  -Hartree energ DENC   =     -2508.88353541
  -exchange      EXHF   =        75.38073020
  -V(xc)+E(xc)   XCENC  =      -142.09771587
  PAW double counting   =      1713.72253940    -1484.59223339
  entropy T*S    EENTRO =        -0.00000000
  eigenvalues    EBANDS =      -358.86641356
  atomic energy  EATOM  =      1251.19323263
  ---------------------------------------------------
  free energy    TOTEN  =       -80.14322744 eV

  energy without entropy =      -80.14322744  energy(sigma->0) =      -80.14322744
  exchange ACFDT corr.  =        -0.00000000  see jH, gK, PRB 81, 115126


--------------------------------------------------------------------------------------------------------




--------------------------------------- Iteration     14(   6)  ---------------------------------------


    POTLOK:  cpu time    8.2732: real time    8.3018
    SETDIJ:  cpu time    0.9468: real time    0.9518
    TRIAL :  cpu time  645.3619: real time  647.4607
    CORREC:  cpu time    0.0004: real time    0.0004
    CHARGE:  cpu time    1.5682: real time    1.5723
    --------------------------------------------
      LOOP:  cpu time  656.1517: real time  658.2890

 eigenvalue-minimisations  :     0
 total energy-change (2. order) :-0.6427696E-04  (-0.8537145E-04)
 number of electron      48.0000002 magnetization 
 augmentation part       -1.2492234 magnetization 

 Free energy of the ion-electron system (eV)
  ---------------------------------------------------
  alpha Z        PSCENC =        13.10177784
  Ewald energy   TEWEN  =      1360.89839071
  -Hartree energ DENC   =     -2508.84550683
  -exchange      EXHF   =        75.38044539
  -V(xc)+E(xc)   XCENC  =      -142.09811639
  PAW double counting   =      1713.69902751    -1484.56874420
  entropy T*S    EENTRO =        -0.00000000
  eigenvalues    EBANDS =      -358.90379837
  atomic energy  EATOM  =      1251.19323263
  ---------------------------------------------------
  free energy    TOTEN  =       -80.14329171 eV

  energy without entropy =      -80.14329171  energy(sigma->0) =      -80.14329171
  exchange ACFDT corr.  =        -0.00000000  see jH, gK, PRB 81, 115126


--------------------------------------------------------------------------------------------------------




--------------------------------------- Iteration     14(   7)  ---------------------------------------


    POTLOK:  cpu time    8.2690: real time    8.3006
    SETDIJ:  cpu time    0.9162: real time    0.9207
    TRIAL :  cpu time  636.5163: real time  640.2427
    CORREC:  cpu time    0.0004: real time    0.0004
    CHARGE:  cpu time    1.5753: real time    1.5835
    --------------------------------------------
      LOOP:  cpu time  647.2786: real time  651.0503

 eigenvalue-minimisations  :     0
 total energy-change (2. order) :-0.5335711E-04  (-0.4284289E-04)
 number of electron      48.0000002 magnetization 
 augmentation part       -1.2492390 magnetization 

 Free energy of the ion-electron system (eV)
  ---------------------------------------------------
  alpha Z        PSCENC =        13.10177784
  Ewald energy   TEWEN  =      1360.89839071
  -Hartree energ DENC   =     -2508.82916075
  -exchange      EXHF   =        75.38042406
  -V(xc)+E(xc)   XCENC  =      -142.09813180
  PAW double counting   =      1713.70711840    -1484.57682761
  entropy T*S    EENTRO =        -0.00000000
  eigenvalues    EBANDS =      -358.92016855
  atomic energy  EATOM  =      1251.19323263
  ---------------------------------------------------
  free energy    TOTEN  =       -80.14334507 eV

  energy without entropy =      -80.14334507  energy(sigma->0) =      -80.14334507
  exchange ACFDT corr.  =        -0.00000000  see jH, gK, PRB 81, 115126


--------------------------------------------------------------------------------------------------------




--------------------------------------- Iteration     14(   8)  ---------------------------------------


    POTLOK:  cpu time    8.2598: real time    8.2934
    SETDIJ:  cpu time    0.9221: real time    0.9257
    TRIAL :  cpu time  641.8108: real time  644.5734
    CORREC:  cpu time    0.0004: real time    0.0004
    CHARGE:  cpu time    1.5641: real time    1.5705
    --------------------------------------------
      LOOP:  cpu time  652.5576: real time  655.3644

 eigenvalue-minimisations  :     0
 total energy-change (2. order) :-0.2794491E-04  (-0.1767524E-04)
 number of electron      48.0000002 magnetization 
 augmentation part       -1.2492689 magnetization 

 Free energy of the ion-electron system (eV)
  ---------------------------------------------------
  alpha Z        PSCENC =        13.10177784
  Ewald energy   TEWEN  =      1360.89839071
  -Hartree energ DENC   =     -2508.84142274
  -exchange      EXHF   =        75.38059327
  -V(xc)+E(xc)   XCENC  =      -142.09798604
  PAW double counting   =      1713.72894269    -1484.59867998
  entropy T*S    EENTRO =        -0.00000000
  eigenvalues    EBANDS =      -358.90822141
  atomic energy  EATOM  =      1251.19323263
  ---------------------------------------------------
  free energy    TOTEN  =       -80.14337302 eV

  energy without entropy =      -80.14337302  energy(sigma->0) =      -80.14337302
  exchange ACFDT corr.  =        -0.00000000  see jH, gK, PRB 81, 115126


--------------------------------------------------------------------------------------------------------




--------------------------------------- Iteration     14(   9)  ---------------------------------------


    POTLOK:  cpu time    8.2887: real time    8.3008
    SETDIJ:  cpu time    0.9547: real time    0.9577
    TRIAL :  cpu time  643.0353: real time  645.1663
    CORREC:  cpu time    0.0005: real time    0.0005
    CHARGE:  cpu time    1.5495: real time    1.5607
    --------------------------------------------
      LOOP:  cpu time  653.8295: real time  655.9876

 eigenvalue-minimisations  :     0
 total energy-change (2. order) :-0.1112661E-04  (-0.6239336E-05)
 number of electron      48.0000002 magnetization 
 augmentation part       -1.2492831 magnetization 

 Free energy of the ion-electron system (eV)
  ---------------------------------------------------
  alpha Z        PSCENC =        13.10177784
  Ewald energy   TEWEN  =      1360.89839071
  -Hartree energ DENC   =     -2508.85360967
  -exchange      EXHF   =        75.38069313
  -V(xc)+E(xc)   XCENC  =      -142.09793249
  PAW double counting   =      1713.73941166    -1484.60919434
  entropy T*S    EENTRO =        -0.00000000
  eigenvalues    EBANDS =      -358.89615363
  atomic energy  EATOM  =      1251.19323263
  ---------------------------------------------------
  free energy    TOTEN  =       -80.14338414 eV

  energy without entropy =      -80.14338414  energy(sigma->0) =      -80.14338414
  exchange ACFDT corr.  =        -0.00000000  see jH, gK, PRB 81, 115126


--------------------------------------------------------------------------------------------------------




--------------------------------------- Iteration     14(  10)  ---------------------------------------


    POTLOK:  cpu time    8.2601: real time    8.2913
    SETDIJ:  cpu time    0.9449: real time    0.9462
    TRIAL :  cpu time  640.5863: real time  643.4820
    CORREC:  cpu time    0.0004: real time    0.0004
    EDDIAG:  cpu time  634.0061: real time  635.8258
    CHARGE:  cpu time    1.5733: real time    1.5773
    --------------------------------------------
      LOOP:  cpu time 1285.3715: real time 1290.1243

 eigenvalue-minimisations  :     0
 total energy-change (2. order) :-0.3809697E-05  (-0.2238549E-05)
 number of electron      48.0000002 magnetization 
 augmentation part       -1.2492818 magnetization 

 Free energy of the ion-electron system (eV)
  ---------------------------------------------------
  alpha Z        PSCENC =        13.10177784
  Ewald energy   TEWEN  =      1360.89839071
  -Hartree energ DENC   =     -2508.85542310
  -exchange      EXHF   =        75.38062703
  -V(xc)+E(xc)   XCENC  =      -142.09796715
  PAW double counting   =      1713.73789622    -1484.60768512
  entropy T*S    EENTRO =        -0.00000000
  eigenvalues    EBANDS =      -358.89428113
  atomic energy  EATOM  =      1251.19323263
  ---------------------------------------------------
  free energy    TOTEN  =       -80.14338795 eV

  energy without entropy =      -80.14338795  energy(sigma->0) =      -80.14338795
  exchange ACFDT corr.  =        -0.00000000  see jH, gK, PRB 81, 115126


--------------------------------------------------------------------------------------------------------


  average scaling for gradient   0.9624


 average (electrostatic) potential at core
  the test charge radii are     1.0406  0.6991  1.1897  0.5883
  (the norm of the test charge is              1.0000)
       1 -54.8752       2 -54.8658       3 -54.8639       4 -54.8862       5 -54.9115
       6 -54.9571       7 -54.8133       8 -54.8930       9 -51.0222      10 -51.0216
      11 -51.0769      12 -51.1330      13 -93.2133      14 -34.3146      15 -33.8177



 E-fermi :  -2.0379     XC(G=0):  -2.9199     alpha+bet : -2.8557


 k-point     1 :       0.0000    0.0000    0.0000
  band No.  band energies     occupation 
      1     -15.8583      2.00000
      2     -15.2333      2.00000
      3     -15.0740      2.00000
      4     -12.9550      2.00000
      5     -12.8665      2.00000
      6      -9.6255      2.00000
      7      -9.3537      2.00000
      8      -9.3205      2.00000
      9      -8.4382      2.00000
     10      -7.4240      2.00000
     11      -7.0002      2.00000
     12      -6.4474      2.00000
     13      -5.9992      2.00000
     14      -5.5073      2.00000
     15      -5.1910      2.00000
     16      -4.9198      2.00000
     17      -4.4967      2.00000
     18      -4.3744      2.00000
     19      -3.4198      2.00000
     20      -3.1979      2.00000
     21      -3.1750      2.00000
     22      -2.6091      2.00000
     23      -2.3453      2.00000
     24      -2.3102      2.00000
     25      -0.8193      0.00000
     26      -0.2711      0.00000
     27       0.2537      0.00000
     28       0.6108      0.00000
     29       0.7767      0.00000
     30       0.9345      0.00000
     31       1.0825      0.00000
     32       1.3659      0.00000

 k-point     2 :       0.2000    0.0000    0.0000
  band No.  band energies     occupation 
      1     -15.8365      2.00000
      2     -15.1062      2.00000
      3     -14.9494      2.00000
      4     -13.3673      2.00000
      5     -13.2554      2.00000
      6      -9.1728      2.00000
      7      -8.9756      2.00000
      8      -8.7141      2.00000
      9      -8.4544      2.00000
     10      -7.4351      2.00000
     11      -6.8752      2.00000
     12      -6.8057      2.00000
     13      -6.3149      2.00000
     14      -5.4488      2.00000
     15      -5.2208      2.00000
     16      -4.8075      2.00000
     17      -4.4416      2.00000
     18      -3.9660      2.00000
     19      -3.9298      2.00000
     20      -3.8740      2.00000
     21      -3.7480      2.00000
     22      -3.0168      2.00000
     23      -2.7716      2.00000
     24      -2.3149      2.00000
     25      -0.8009      0.00000
     26       0.4535      0.00000
     27       0.7208      0.00000
     28       0.8226      0.00000
     29       1.0304      0.00000
     30       1.0621      0.00000
     31       1.1618      0.00000
     32       1.5069      0.00000

 k-point     3 :       0.4000    0.0000    0.0000
  band No.  band energies     occupation 
      1     -15.8053      2.00000
      2     -14.7218      2.00000
      3     -14.5699      2.00000
      4     -14.1006      2.00000
      5     -13.9620      2.00000
      6      -8.7208      2.00000
      7      -8.4637      2.00000
      8      -7.9173      2.00000
      9      -7.6789      2.00000
     10      -7.3772      2.00000
     11      -7.1406      2.00000
     12      -6.5097      2.00000
     13      -6.1730      2.00000
     14      -5.9746      2.00000
     15      -5.5401      2.00000
     16      -5.2494      2.00000
     17      -5.0478      2.00000
     18      -4.7847      2.00000
     19      -4.4627      2.00000
     20      -4.2091      2.00000
     21      -3.7490      2.00000
     22      -3.4388      2.00000
     23      -2.8407      2.00000
     24      -2.4017      2.00000
     25      -0.4585      0.00000
     26       0.2421      0.00000
     27       0.9265      0.00000
     28       1.3156      0.00000
     29       1.4116      0.00000
     30       1.6113      0.00000
     31       1.7289      0.00000
     32       2.1425      0.00000

 k-point     4 :       0.0000    0.3333    0.0000
  band No.  band energies     occupation 
      1     -15.8571      2.00000
      2     -15.2012      2.00000
      3     -15.1121      2.00000
      4     -12.9421      2.00000
      5     -12.8803      2.00000
      6      -9.5710      2.00000
      7      -9.4106      2.00000
      8      -9.0216      2.00000
      9      -8.4516      2.00000
     10      -8.0819      2.00000
     11      -7.3979      2.00000
     12      -5.8286      2.00000
     13      -5.4541      2.00000
     14      -5.3810      2.00000
     15      -5.0920      2.00000
     16      -5.0519      2.00000
     17      -4.4114      2.00000
     18      -4.2018      2.00000
     19      -3.7107      2.00000
     20      -3.2954      2.00000
     21      -3.1916      2.00000
     22      -3.1796      2.00000
     23      -2.5939      2.00000
     24      -2.3266      2.00000
     25      -0.5886      0.00000
     26       0.0987      0.00000
     27       0.2868      0.00000
     28       0.4557      0.00000
     29       0.7018      0.00000
     30       0.8783      0.00000
     31       1.1280      0.00000
     32       1.3754      0.00000

 k-point     5 :       0.2000    0.3333    0.0000
  band No.  band energies     occupation 
      1     -15.8358      2.00000
      2     -15.0711      2.00000
      3     -14.9896      2.00000
      4     -13.3468      2.00000
      5     -13.2776      2.00000
      6      -8.9409      2.00000
      7      -8.8658      2.00000
      8      -8.7733      2.00000
      9      -8.4496      2.00000
     10      -7.9514      2.00000
     11      -7.3975      2.00000
     12      -6.5567      2.00000
     13      -5.9174      2.00000
     14      -5.2017      2.00000
     15      -4.9763      2.00000
     16      -4.8929      2.00000
     17      -4.3747      2.00000
     18      -3.9525      2.00000
     19      -3.9106      2.00000
     20      -3.7246      2.00000
     21      -3.6760      2.00000
     22      -3.2258      2.00000
     23      -2.9417      2.00000
     24      -2.8069      2.00000
     25      -0.4646      0.00000
     26       0.2190      0.00000
     27       0.6298      0.00000
     28       0.7836      0.00000
     29       0.8911      0.00000
     30       1.1136      0.00000
     31       1.2817      0.00000
     32       1.5115      0.00000

 k-point     6 :       0.4000    0.3333    0.0000
  band No.  band energies     occupation 
      1     -15.8051      2.00000
      2     -14.6863      2.00000
      3     -14.6095      2.00000
      4     -14.0706      2.00000
      5     -13.9950      2.00000
      6      -8.5716      2.00000
      7      -8.3124      2.00000
      8      -7.8412      2.00000
      9      -7.5843      2.00000
     10      -7.5037      2.00000
     11      -7.3304      2.00000
     12      -7.1145      2.00000
     13      -6.6665      2.00000
     14      -5.6670      2.00000
     15      -5.5691      2.00000
     16      -4.9652      2.00000
     17      -4.5111      2.00000
     18      -4.4752      2.00000
     19      -4.2609      2.00000
     20      -4.0181      2.00000
     21      -3.7546      2.00000
     22      -3.4614      2.00000
     23      -3.1321      2.00000
     24      -3.0369      2.00000
     25      -0.1190      0.00000
     26       0.3636      0.00000
     27       0.7506      0.00000
     28       1.0710      0.00000
     29       1.1958      0.00000
     30       1.6114      0.00000
     31       1.7640      0.00000
     32       1.8445      0.00000

 k-point     7 :      -0.4000    0.3333    0.0000
  band No.  band energies     occupation 
      1     -15.8051      2.00000
      2     -14.6861      2.00000
      3     -14.6096      2.00000
      4     -14.0706      2.00000
      5     -13.9950      2.00000
      6      -8.5689      2.00000
      7      -8.3256      2.00000
      8      -7.8106      2.00000
      9      -7.5949      2.00000
     10      -7.5056      2.00000
     11      -7.3384      2.00000
     12      -7.1146      2.00000
     13      -6.6663      2.00000
     14      -5.6759      2.00000
     15      -5.5667      2.00000
     16      -4.9530      2.00000
     17      -4.5299      2.00000
     18      -4.4736      2.00000
     19      -4.2460      2.00000
     20      -4.0143      2.00000
     21      -3.7414      2.00000
     22      -3.4914      2.00000
     23      -3.1253      2.00000
     24      -3.0326      2.00000
     25      -0.1429      0.00000
     26       0.4705      0.00000
     27       0.7158      0.00000
     28       0.9204      0.00000
     29       1.2838      0.00000
     30       1.6116      0.00000
     31       1.7892      0.00000
     32       1.8799      0.00000

 k-point     8 :      -0.2000    0.3333    0.0000
  band No.  band energies     occupation 
      1     -15.8358      2.00000
      2     -15.0710      2.00000
      3     -14.9897      2.00000
      4     -13.3467      2.00000
      5     -13.2776      2.00000
      6      -8.9439      2.00000
      7      -8.8633      2.00000
      8      -8.7726      2.00000
      9      -8.4543      2.00000
     10      -7.9414      2.00000
     11      -7.4015      2.00000
     12      -6.5539      2.00000
     13      -5.9302      2.00000
     14      -5.1924      2.00000
     15      -4.9864      2.00000
     16      -4.8998      2.00000
     17      -4.3483      2.00000
     18      -3.9481      2.00000
     19      -3.9115      2.00000
     20      -3.7394      2.00000
     21      -3.6648      2.00000
     22      -3.2478      2.00000
     23      -2.9150      2.00000
     24      -2.8186      2.00000
     25      -0.4864      0.00000
     26       0.2859      0.00000
     27       0.5397      0.00000
     28       0.7969      0.00000
     29       0.9171      0.00000
     30       1.1974      0.00000
     31       1.2372      0.00000
     32       1.5585      0.00000


--------------------------------------------------------------------------------------------------------


 soft charge-density along one line, spin component           1
         0         1         2         3         4         5         6         7         8         9
 total charge-density along one line

 pseudopotential strength for first ion, spin component:           1
  7.182 -16.883  -0.005  -0.002  -0.000   0.027   0.009   0.000
-16.883  49.271   0.012   0.004   0.000  -0.057  -0.018  -0.000
 -0.005   0.012   1.704  -0.000   0.000  -6.725   0.001  -0.000
 -0.002   0.004  -0.000   1.709  -0.000   0.001  -6.747   0.000
 -0.000   0.000   0.000  -0.000   1.704  -0.000   0.000  -6.726
  0.027  -0.057  -6.725   0.001  -0.000  28.451  -0.005   0.000
  0.009  -0.018   0.001  -6.747   0.000  -0.005  28.540  -0.000
  0.000  -0.000  -0.000   0.000  -6.726   0.000  -0.000  28.457
  0.000  -0.000  -0.000  -0.000  -0.005   0.000   0.000   0.012
 -0.001   0.001  -0.001  -0.004  -0.000   0.003   0.010   0.000
  0.011  -0.012   0.002  -0.002   0.000  -0.005   0.004  -0.000
 -0.000   0.000  -0.000  -0.000  -0.001   0.000   0.000   0.003
  0.001  -0.001   0.003  -0.000  -0.000  -0.007   0.000   0.000
 -0.000   0.000   0.000   0.000   0.017  -0.000  -0.000  -0.059
  0.004  -0.007   0.004   0.016   0.000  -0.015  -0.055  -0.000
 -0.041   0.072  -0.007   0.007  -0.000   0.025  -0.022   0.000
  0.000  -0.000   0.000   0.000   0.005  -0.000  -0.000  -0.017
 -0.002   0.004  -0.011   0.000   0.000   0.040  -0.001  -0.000
 total augmentation occupancy for first ion, spin component:           1
  1.391   0.033   0.003   0.013   0.000   0.005   0.001   0.000  -0.000   0.014  -0.104   0.000  -0.023  -0.000   0.001  -0.005
  0.033   0.001   0.008   0.002   0.000   0.000   0.000   0.000  -0.000   0.001  -0.003   0.000  -0.000  -0.000   0.000  -0.000
  0.003   0.008   1.339   0.063  -0.000   0.027   0.002  -0.000   0.000   0.022  -0.075   0.001   0.068   0.000   0.001  -0.003
  0.013   0.002   0.063   0.408   0.002   0.002   0.007   0.000   0.001   0.062   0.008   0.000   0.005   0.000   0.002   0.000
  0.000   0.000  -0.000   0.002   1.199  -0.000   0.000   0.026   0.248   0.001   0.000   0.033  -0.000   0.008   0.000   0.000
  0.005   0.000   0.027   0.002  -0.000   0.001   0.000  -0.000   0.000   0.001  -0.002   0.000   0.001   0.000   0.000  -0.000
  0.001   0.000   0.002   0.007   0.000   0.000   0.000   0.000   0.000   0.001   0.000   0.000   0.000   0.000   0.000  -0.000
  0.000   0.000  -0.000   0.000   0.026  -0.000   0.000   0.001   0.005   0.000   0.000   0.001  -0.000   0.000   0.000   0.000
 -0.000  -0.000   0.000   0.001   0.248   0.000   0.000   0.005   0.070   0.000   0.000   0.007   0.000   0.002   0.000   0.000
  0.014   0.001   0.022   0.062   0.001   0.001   0.001   0.000   0.000   0.011  -0.000   0.000  -0.002   0.000   0.000  -0.000
 -0.104  -0.003  -0.075   0.008   0.000  -0.002   0.000   0.000   0.000  -0.000   0.014   0.000  -0.004   0.000  -0.000   0.001
  0.000   0.000   0.001   0.000   0.033   0.000   0.000   0.001   0.007   0.000   0.000   0.022   0.000   0.000   0.000  -0.000
 -0.023  -0.000   0.068   0.005  -0.000   0.001   0.000  -0.000   0.000  -0.002  -0.004   0.000   0.045  -0.000  -0.000  -0.000
 -0.000  -0.000   0.000   0.000   0.008   0.000   0.000   0.000   0.002   0.000   0.000   0.000  -0.000   0.000   0.000   0.000
  0.001   0.000   0.001   0.002   0.000   0.000   0.000   0.000   0.000   0.000  -0.000   0.000  -0.000   0.000   0.000  -0.000
 -0.005  -0.000  -0.003   0.000   0.000  -0.000  -0.000   0.000   0.000  -0.000   0.001  -0.000  -0.000   0.000  -0.000   0.000
  0.000   0.000   0.000   0.000   0.001   0.000   0.000   0.000   0.000   0.000  -0.000   0.001   0.000   0.000   0.000  -0.000
 -0.001  -0.000   0.001   0.000  -0.000   0.000   0.000  -0.000  -0.000  -0.000  -0.000   0.000   0.001  -0.000  -0.000  -0.000


------------------------ aborting loop because EDIFF is reached ----------------------------------------


    FORLOC:  cpu time    0.2200: real time    0.2202
    FORHF :  cpu time 1073.4967: real time 1074.8861
    FORNL :  cpu time    6.2970: real time    6.3120
    STRESS:  cpu time   19.1391: real time   19.1917
    FORCOR:  cpu time    8.2343: real time    8.2444
    OFIELD:  cpu time    0.0089: real time    0.0091

  FORCE on cell =-STRESS in cart. coord.  units (eV):
  Direction    XX          YY          ZZ          XY          YZ          ZX
  --------------------------------------------------------------------------------------
  Alpha Z    13.10178    13.10178    13.10178
  Ewald    2358.39515  1933.61299 -2931.11126    -8.66510   -41.98703    -7.50306
  Hartree  2377.69504  2083.29322 -1952.13575    -0.43312   -20.60827    -2.51172
  E(xc)    -120.11364  -120.72702  -118.26496     0.04015    -0.03392    -0.07408
  Local   -5228.26529 -4518.51954  4404.42509     6.18495    57.71630     6.02442
  n-local   224.60456   236.33285   190.73020    -0.56283     0.59121     1.67859
  augment   -29.50685   -31.20588   -27.61430    -0.36177    -0.89227    -0.80717
  Kinetic   435.28529   430.43058   451.09958     3.76551     4.98760     3.04899
  Fock      -31.70281   -31.30687   -30.96417     0.06236     0.16385     0.15843
  -------------------------------------------------------------------------------------
  Total      -0.50677    -4.98788    -0.73379     0.03014    -0.06254     0.01440
  in kB      -0.88685    -8.72889    -1.28414     0.05275    -0.10944     0.02520
  external pressure =       -3.63 kB  Pullay stress =        0.00 kB


 VOLUME and BASIS-vectors are now :
 -----------------------------------------------------------------------------
  energy-cutoff  :      450.00
  volume of cell :      915.52
      direct lattice vectors                 reciprocal lattice vectors
     6.019200000  0.000000000  0.000000000     0.166135035  0.000000000  0.000000000
     0.000000000 10.140000000  0.000000000     0.000000000  0.098619329  0.000000000
     0.000000000  0.000000000 15.000000000     0.000000000  0.000000000  0.066666667

  length of vectors
     6.019200000 10.140000000 15.000000000     0.166135035  0.098619329  0.066666667


 FORCES acting on ions:
    Electron-Ion                     Ewald-Force                    Non-Local-Force
 -----------------------------------------------------------------------------------------------
   0.269E+00 0.488E+02 0.352E+02   -.264E+00 -.460E+02 -.343E+02   -.711E-02 -.309E+01 -.933E+00
   -.332E+00 0.484E+02 -.603E+01   0.347E+00 -.456E+02 0.538E+01   -.143E-01 -.308E+01 0.713E+00
   0.121E+01 -.577E+02 0.479E+02   -.129E+01 0.551E+02 -.468E+02   0.843E-01 0.295E+01 -.126E+01
   -.221E+01 -.597E+02 -.111E+01   0.222E+01 0.570E+02 0.353E+00   -.199E-01 0.294E+01 0.804E+00
   0.473E+01 0.537E+02 0.358E+01   -.485E+01 -.516E+02 -.528E+01   0.146E+00 -.234E+01 0.185E+01
   -.180E+01 0.521E+02 0.478E+02   0.198E+01 -.494E+02 -.468E+02   -.208E+00 -.289E+01 -.104E+01
   0.912E+00 -.411E+02 -.204E+01   -.931E+00 0.387E+02 0.141E+01   0.176E-01 0.268E+01 0.676E+00
   -.659E+00 -.447E+02 0.366E+02   0.661E+00 0.418E+02 -.358E+02   0.801E-02 0.324E+01 -.864E+00
   0.154E+00 0.394E+01 0.209E+02   -.877E-01 -.391E+01 -.210E+02   -.784E-01 -.443E-01 0.136E+00
   -.137E+00 0.438E+01 0.202E+02   0.652E-01 -.436E+01 -.203E+02   0.807E-01 -.295E-01 0.954E-01
   0.274E+01 -.553E+01 0.309E+02   -.265E+01 0.561E+01 -.310E+02   -.117E+00 -.766E-01 0.961E-01
   -.339E+01 -.763E+01 0.363E+02   0.325E+01 0.773E+01 -.365E+02   0.167E+00 -.100E+00 0.171E+00
   0.146E+02 -.201E+02 -.192E+03   -.189E+02 0.261E+02 0.188E+03   0.436E+01 -.621E+01 0.374E+01
   -.245E+02 0.138E+02 -.314E+02   0.271E+02 -.150E+02 0.313E+02   -.253E+01 0.119E+01 0.126E+00
   0.616E+01 0.148E+02 -.490E+02   -.664E+01 -.161E+02 0.511E+02   0.487E+00 0.133E+01 -.215E+01
 -----------------------------------------------------------------------------------------------
   -.237E+01 0.354E+01 -.216E+01   0.000E+00 -.178E-13 0.497E-13   0.238E+01 -.353E+01 0.216E+01


 POSITION                                       TOTAL-FORCE (eV/Angst)
 -----------------------------------------------------------------------------------
      2.60069      8.89668      3.55872        -0.001460     -0.011547      0.018429
      5.60990      8.90066      3.92000         0.001560     -0.021580     -0.003896
      2.60361      6.25963      3.60748         0.003219     -0.013657     -0.013233
      5.61877      6.27827      4.02347        -0.009920     -0.009420     -0.012801
      2.59565      3.81471      4.13123         0.015710      0.027156      0.006670
      5.61797      3.83353      3.64042        -0.012173      0.031596      0.017491
      2.59895      1.19850      3.93448        -0.002880      0.034469     -0.016401
      5.60846      1.19803      3.57854         0.009017      0.032125      0.013841
      1.09569     10.11740      3.73043        -0.014100     -0.012435      0.003397
      4.10399     10.11761      3.73861         0.011317     -0.010234      0.006338
      1.10119      5.05168      3.85223        -0.029179     -0.008421     -0.012510
      4.10862      5.05584      3.88640         0.031093     -0.011142      0.010221
      3.36582      4.43903      6.99991        -0.055562     -0.023209     -0.002306
      4.86190      3.72950      6.92930         0.037263     -0.018452      0.005708
      3.04737      3.56633      8.40980         0.016094      0.014753     -0.020947
 -----------------------------------------------------------------------------------
    total drift:                                0.001180      0.005331     -0.000917


--------------------------------------------------------------------------------------------------------



  FREE ENERGIE OF THE ION-ELECTRON SYSTEM (eV)
  ---------------------------------------------------
  free  energy   TOTEN  =       -80.14338795 eV

  energy  without entropy=      -80.14338795  energy(sigma->0) =      -80.14338795

 d Force = 0.2295818E-03[-0.219E-04, 0.481E-03]  d Energy = 0.2206025E-03 0.898E-05
 d Force =-0.2005439E+00[-0.193E+00,-0.208E+00]  d Ewald  =-0.2005446E+00 0.702E-06


--------------------------------------------------------------------------------------------------------


    POTLOK:  cpu time    9.2069: real time    9.2169


--------------------------------------------------------------------------------------------------------


 stress matrix after NEB project (eV)
     -0.50677      0.03014      0.01440
      0.03014     -4.98788     -0.06254
      0.01440     -0.06254     -0.73379
  FORCES: max atom, RMS     0.060259    0.032816
  FORCE total and by dimension    0.127095    0.055562
  Stress total and by dimension    5.067968    4.987884


--------------------------------------------------------------------------------------------------------


    WAVPRE:  cpu time    0.5255: real time   46.9815
    FEWALD:  cpu time    0.0025: real time    0.0025
    ORTHCH:  cpu time    2.5677: real time    2.5777
    CHARGE:  cpu time    1.5726: real time    1.5837
     LOOP+:  cpu time 8322.6229: real time 8403.9459


--------------------------------------- Iteration     15(   1)  ---------------------------------------


    POTLOK:  cpu time    8.2520: real time    8.2930
    SETDIJ:  cpu time    0.9277: real time    0.9325
    TRIAL :  cpu time  639.9423: real time  642.5392
    CORREC:  cpu time    0.0004: real time    0.0004
    CHARGE:  cpu time    1.5319: real time    1.5387
    --------------------------------------------
      LOOP:  cpu time  650.7181: real time  653.3686

 eigenvalue-minimisations  :     0
 total energy-change (2. order) : 0.1899073E-02  (-0.2676995E-02)
 number of electron      48.0000002 magnetization 
 augmentation part       -1.2492122 magnetization 

 Free energy of the ion-electron system (eV)
  ---------------------------------------------------
  alpha Z        PSCENC =        13.10177784
  Ewald energy   TEWEN  =      1360.99410135
  -Hartree energ DENC   =     -2508.85573004
  -exchange      EXHF   =        75.38053361
  -V(xc)+E(xc)   XCENC  =      -142.09811932
  PAW double counting   =      1713.75182156    -1484.62173533
  entropy T*S    EENTRO =        -0.00000000
  eigenvalues    EBANDS =      -358.98736737
  atomic energy  EATOM  =      1251.19323263
  ---------------------------------------------------
  free energy    TOTEN  =       -80.14148507 eV

  energy without entropy =      -80.14148507  energy(sigma->0) =      -80.14148507
  exchange ACFDT corr.  =        -0.00000000  see jH, gK, PRB 81, 115126


--------------------------------------------------------------------------------------------------------




--------------------------------------- Iteration     15(   2)  ---------------------------------------


    POTLOK:  cpu time    8.2783: real time    8.2966
    SETDIJ:  cpu time    0.9458: real time    0.9491
    TRIAL :  cpu time  645.3081: real time  647.7190
    CORREC:  cpu time    0.0005: real time    0.0005
    CHARGE:  cpu time    1.5443: real time    1.5510
    --------------------------------------------
      LOOP:  cpu time  656.0776: real time  658.5176

 eigenvalue-minimisations  :     0
 total energy-change (2. order) :-0.1540330E-02  (-0.7945079E-03)
 number of electron      48.0000002 magnetization 
 augmentation part       -1.2491964 magnetization 

 Free energy of the ion-electron system (eV)
  ---------------------------------------------------
  alpha Z        PSCENC =        13.10177784
  Ewald energy   TEWEN  =      1360.99410135
  -Hartree energ DENC   =     -2508.87843245
  -exchange      EXHF   =        75.37992932
  -V(xc)+E(xc)   XCENC  =      -142.09851287
  PAW double counting   =      1713.72703288    -1484.59670171
  entropy T*S    EENTRO =        -0.00000000
  eigenvalues    EBANDS =      -358.96545239
  atomic energy  EATOM  =      1251.19323263
  ---------------------------------------------------
  free energy    TOTEN  =       -80.14302540 eV

  energy without entropy =      -80.14302540  energy(sigma->0) =      -80.14302540
  exchange ACFDT corr.  =        -0.00000000  see jH, gK, PRB 81, 115126


--------------------------------------------------------------------------------------------------------




--------------------------------------- Iteration     15(   3)  ---------------------------------------


    POTLOK:  cpu time    8.2546: real time    8.2920
    SETDIJ:  cpu time    0.9182: real time    0.9227
    TRIAL :  cpu time  645.0078: real time  648.0399
    CORREC:  cpu time    0.0007: real time    0.0007
    CHARGE:  cpu time    1.5513: real time    1.5582
    --------------------------------------------
      LOOP:  cpu time  655.7331: real time  658.8148

 eigenvalue-minimisations  :     0
 total energy-change (2. order) :-0.4681535E-03  (-0.2841273E-03)
 number of electron      48.0000002 magnetization 
 augmentation part       -1.2492292 magnetization 

 Free energy of the ion-electron system (eV)
  ---------------------------------------------------
  alpha Z        PSCENC =        13.10177784
  Ewald energy   TEWEN  =      1360.99410135
  -Hartree energ DENC   =     -2508.91520185
  -exchange      EXHF   =        75.38020793
  -V(xc)+E(xc)   XCENC  =      -142.09824509
  PAW double counting   =      1713.74162756    -1484.61128688
  entropy T*S    EENTRO =        -0.00000000
  eigenvalues    EBANDS =      -358.92970704
  atomic energy  EATOM  =      1251.19323263
  ---------------------------------------------------
  free energy    TOTEN  =       -80.14349355 eV

  energy without entropy =      -80.14349355  energy(sigma->0) =      -80.14349355
  exchange ACFDT corr.  =        -0.00000000  see jH, gK, PRB 81, 115126


--------------------------------------------------------------------------------------------------------




--------------------------------------- Iteration     15(   4)  ---------------------------------------


    POTLOK:  cpu time    8.3276: real time    8.3474
    SETDIJ:  cpu time    0.9491: real time    0.9548
    TRIAL :  cpu time  643.6460: real time  646.6476
    CORREC:  cpu time    0.0004: real time    0.0004
    CHARGE:  cpu time    1.5597: real time    1.5654
    --------------------------------------------
      LOOP:  cpu time  654.4832: real time  657.5170

 eigenvalue-minimisations  :     0
 total energy-change (2. order) :-0.1520663E-03  (-0.9349001E-04)
 number of electron      48.0000002 magnetization 
 augmentation part       -1.2492403 magnetization 

 Free energy of the ion-electron system (eV)
  ---------------------------------------------------
  alpha Z        PSCENC =        13.10177784
  Ewald energy   TEWEN  =      1360.99410135
  -Hartree energ DENC   =     -2508.94319251
  -exchange      EXHF   =        75.38056446
  -V(xc)+E(xc)   XCENC  =      -142.09787060
  PAW double counting   =      1713.75552545    -1484.62519891
  entropy T*S    EENTRO =        -0.00000000
  eigenvalues    EBANDS =      -358.90258534
  atomic energy  EATOM  =      1251.19323263
  ---------------------------------------------------
  free energy    TOTEN  =       -80.14364562 eV

  energy without entropy =      -80.14364562  energy(sigma->0) =      -80.14364562
  exchange ACFDT corr.  =        -0.00000000  see jH, gK, PRB 81, 115126


--------------------------------------------------------------------------------------------------------




--------------------------------------- Iteration     15(   5)  ---------------------------------------


    POTLOK:  cpu time    8.2916: real time    8.3116
    SETDIJ:  cpu time    0.9524: real time    0.9559
    TRIAL :  cpu time  642.1002: real time  644.3006
    CORREC:  cpu time    0.0005: real time    0.0005
    CHARGE:  cpu time    1.5584: real time    1.5626
    --------------------------------------------
      LOOP:  cpu time  652.9036: real time  655.1327

 eigenvalue-minimisations  :     0
 total energy-change (2. order) :-0.4466561E-04  (-0.2287349E-04)
 number of electron      48.0000002 magnetization 
 augmentation part       -1.2492267 magnetization 

 Free energy of the ion-electron system (eV)
  ---------------------------------------------------
  alpha Z        PSCENC =        13.10177784
  Ewald energy   TEWEN  =      1360.99410135
  -Hartree energ DENC   =     -2508.95360001
  -exchange      EXHF   =        75.38063454
  -V(xc)+E(xc)   XCENC  =      -142.09770771
  PAW double counting   =      1713.75395127    -1484.62357758
  entropy T*S    EENTRO =        -0.00000000
  eigenvalues    EBANDS =      -358.89250263
  atomic energy  EATOM  =      1251.19323263
  ---------------------------------------------------
  free energy    TOTEN  =       -80.14369029 eV

  energy without entropy =      -80.14369029  energy(sigma->0) =      -80.14369029
  exchange ACFDT corr.  =        -0.00000000  see jH, gK, PRB 81, 115126


--------------------------------------------------------------------------------------------------------




--------------------------------------- Iteration     15(   6)  ---------------------------------------


    POTLOK:  cpu time    8.2895: real time    8.2978
    SETDIJ:  cpu time    0.9339: real time    0.9362
    TRIAL :  cpu time  642.0128: real time  643.4239
    CORREC:  cpu time    0.0004: real time    0.0004
    CHARGE:  cpu time    1.5554: real time    1.5579
    --------------------------------------------
      LOOP:  cpu time  652.7959: real time  654.2211

 eigenvalue-minimisations  :     0
 total energy-change (2. order) :-0.8589356E-05  (-0.1426366E-04)
 number of electron      48.0000002 magnetization 
 augmentation part       -1.2492161 magnetization 

 Free energy of the ion-electron system (eV)
  ---------------------------------------------------
  alpha Z        PSCENC =        13.10177784
  Ewald energy   TEWEN  =      1360.99410135
  -Hartree energ DENC   =     -2508.94811130
  -exchange      EXHF   =        75.38053302
  -V(xc)+E(xc)   XCENC  =      -142.09785962
  PAW double counting   =      1713.74156175    -1484.61122755
  entropy T*S    EENTRO =        -0.00000000
  eigenvalues    EBANDS =      -358.89770700
  atomic energy  EATOM  =      1251.19323263
  ---------------------------------------------------
  free energy    TOTEN  =       -80.14369888 eV

  energy without entropy =      -80.14369888  energy(sigma->0) =      -80.14369888
  exchange ACFDT corr.  =        -0.00000000  see jH, gK, PRB 81, 115126


--------------------------------------------------------------------------------------------------------




--------------------------------------- Iteration     15(   7)  ---------------------------------------


    POTLOK:  cpu time    8.2846: real time    8.2914
    SETDIJ:  cpu time    0.9587: real time    0.9598
    TRIAL :  cpu time  641.4582: real time  642.9096
    CORREC:  cpu time    0.0004: real time    0.0004
    EDDIAG:  cpu time  627.8601: real time  631.4704
    CHARGE:  cpu time    1.5534: real time    1.5597
    --------------------------------------------
      LOOP:  cpu time 1280.1163: real time 1285.1929

 eigenvalue-minimisations  :     0
 total energy-change (2. order) :-0.8047522E-05  (-0.5713443E-05)
 number of electron      48.0000002 magnetization 
 augmentation part       -1.2492191 magnetization 

 Free energy of the ion-electron system (eV)
  ---------------------------------------------------
  alpha Z        PSCENC =        13.10177784
  Ewald energy   TEWEN  =      1360.99410135
  -Hartree energ DENC   =     -2508.94130343
  -exchange      EXHF   =        75.38043503
  -V(xc)+E(xc)   XCENC  =      -142.09797385
  PAW double counting   =      1713.73842311    -1484.60810142
  entropy T*S    EENTRO =        -0.00000000
  eigenvalues    EBANDS =      -358.90429631
  atomic energy  EATOM  =      1251.19323263
  ---------------------------------------------------
  free energy    TOTEN  =       -80.14370692 eV

  energy without entropy =      -80.14370692  energy(sigma->0) =      -80.14370692
  exchange ACFDT corr.  =        -0.00000000  see jH, gK, PRB 81, 115126


--------------------------------------------------------------------------------------------------------


  average scaling for gradient   0.8426


 average (electrostatic) potential at core
  the test charge radii are     1.0406  0.6991  1.1897  0.5883
  (the norm of the test charge is              1.0000)
       1 -54.8751       2 -54.8630       3 -54.8675       4 -54.8852       5 -54.9138
       6 -54.9538       7 -54.8148       8 -54.8917       9 -51.0212      10 -51.0207
      11 -51.0773      12 -51.1336      13 -93.2158      14 -34.3061      15 -33.8271



 E-fermi :  -2.0372     XC(G=0):  -2.9198     alpha+bet : -2.8557


 k-point     1 :       0.0000    0.0000    0.0000
  band No.  band energies     occupation 
      1     -15.8585      2.00000
      2     -15.2323      2.00000
      3     -15.0747      2.00000
      4     -12.9568      2.00000
      5     -12.8643      2.00000
      6      -9.6269      2.00000
      7      -9.3528      2.00000
      8      -9.3210      2.00000
      9      -8.4388      2.00000
     10      -7.4248      2.00000
     11      -7.0007      2.00000
     12      -6.4489      2.00000
     13      -6.0002      2.00000
     14      -5.5054      2.00000
     15      -5.1914      2.00000
     16      -4.9174      2.00000
     17      -4.5007      2.00000
     18      -4.3756      2.00000
     19      -3.4200      2.00000
     20      -3.2003      2.00000
     21      -3.1721      2.00000
     22      -2.6099      2.00000
     23      -2.3459      2.00000
     24      -2.3062      2.00000
     25      -0.8217      0.00000
     26      -0.2732      0.00000
     27       0.2516      0.00000
     28       0.6073      0.00000
     29       0.7783      0.00000
     30       0.9367      0.00000
     31       1.0806      0.00000
     32       1.3674      0.00000

 k-point     2 :       0.2000    0.0000    0.0000
  band No.  band energies     occupation 
      1     -15.8366      2.00000
      2     -15.1056      2.00000
      3     -14.9496      2.00000
      4     -13.3687      2.00000
      5     -13.2536      2.00000
      6      -9.1744      2.00000
      7      -8.9771      2.00000
      8      -8.7119      2.00000
      9      -8.4548      2.00000
     10      -7.4364      2.00000
     11      -6.8759      2.00000
     12      -6.8065      2.00000
     13      -6.3164      2.00000
     14      -5.4491      2.00000
     15      -5.2201      2.00000
     16      -4.8049      2.00000
     17      -4.4437      2.00000
     18      -3.9682      2.00000
     19      -3.9252      2.00000
     20      -3.8773      2.00000
     21      -3.7494      2.00000
     22      -3.0164      2.00000
     23      -2.7692      2.00000
     24      -2.3159      2.00000
     25      -0.8016      0.00000
     26       0.4486      0.00000
     27       0.7185      0.00000
     28       0.8245      0.00000
     29       1.0315      0.00000
     30       1.0631      0.00000
     31       1.1600      0.00000
     32       1.5047      0.00000

 k-point     3 :       0.4000    0.0000    0.0000
  band No.  band energies     occupation 
      1     -15.8053      2.00000
      2     -14.7222      2.00000
      3     -14.5694      2.00000
      4     -14.1014      2.00000
      5     -13.9607      2.00000
      6      -8.7225      2.00000
      7      -8.4637      2.00000
      8      -7.9185      2.00000
      9      -7.6819      2.00000
     10      -7.3740      2.00000
     11      -7.1424      2.00000
     12      -6.5102      2.00000
     13      -6.1737      2.00000
     14      -5.9751      2.00000
     15      -5.5395      2.00000
     16      -5.2498      2.00000
     17      -5.0486      2.00000
     18      -4.7849      2.00000
     19      -4.4607      2.00000
     20      -4.2100      2.00000
     21      -3.7461      2.00000
     22      -3.4397      2.00000
     23      -2.8419      2.00000
     24      -2.4029      2.00000
     25      -0.4585      0.00000
     26       0.2417      0.00000
     27       0.9246      0.00000
     28       1.3170      0.00000
     29       1.4107      0.00000
     30       1.6126      0.00000
     31       1.7278      0.00000
     32       2.1434      0.00000

 k-point     4 :       0.0000    0.3333    0.0000
  band No.  band energies     occupation 
      1     -15.8573      2.00000
      2     -15.1993      2.00000
      3     -15.1136      2.00000
      4     -12.9448      2.00000
      5     -12.8773      2.00000
      6      -9.5735      2.00000
      7      -9.4078      2.00000
      8      -9.0232      2.00000
      9      -8.4523      2.00000
     10      -8.0825      2.00000
     11      -7.3990      2.00000
     12      -5.8297      2.00000
     13      -5.4536      2.00000
     14      -5.3807      2.00000
     15      -5.0911      2.00000
     16      -5.0510      2.00000
     17      -4.4142      2.00000
     18      -4.2033      2.00000
     19      -3.7117      2.00000
     20      -3.2964      2.00000
     21      -3.1949      2.00000
     22      -3.1757      2.00000
     23      -2.5949      2.00000
     24      -2.3223      2.00000
     25      -0.5898      0.00000
     26       0.0975      0.00000
     27       0.2850      0.00000
     28       0.4548      0.00000
     29       0.6986      0.00000
     30       0.8778      0.00000
     31       1.1292      0.00000
     32       1.3766      0.00000

 k-point     5 :       0.2000    0.3333    0.0000
  band No.  band energies     occupation 
      1     -15.8359      2.00000
      2     -15.0701      2.00000
      3     -14.9904      2.00000
      4     -13.3491      2.00000
      5     -13.2749      2.00000
      6      -8.9441      2.00000
      7      -8.8668      2.00000
      8      -8.7702      2.00000
      9      -8.4500      2.00000
     10      -7.9521      2.00000
     11      -7.3990      2.00000
     12      -6.5576      2.00000
     13      -5.9181      2.00000
     14      -5.2017      2.00000
     15      -4.9766      2.00000
     16      -4.8904      2.00000
     17      -4.3765      2.00000
     18      -3.9531      2.00000
     19      -3.9094      2.00000
     20      -3.7267      2.00000
     21      -3.6766      2.00000
     22      -3.2265      2.00000
     23      -2.9425      2.00000
     24      -2.8039      2.00000
     25      -0.4653      0.00000
     26       0.2178      0.00000
     27       0.6275      0.00000
     28       0.7788      0.00000
     29       0.8925      0.00000
     30       1.1145      0.00000
     31       1.2833      0.00000
     32       1.5108      0.00000

 k-point     6 :       0.4000    0.3333    0.0000
  band No.  band energies     occupation 
      1     -15.8051      2.00000
      2     -14.6870      2.00000
      3     -14.6087      2.00000
      4     -14.0721      2.00000
      5     -13.9929      2.00000
      6      -8.5728      2.00000
      7      -8.3129      2.00000
      8      -7.8430      2.00000
      9      -7.5851      2.00000
     10      -7.5046      2.00000
     11      -7.3291      2.00000
     12      -7.1157      2.00000
     13      -6.6673      2.00000
     14      -5.6676      2.00000
     15      -5.5677      2.00000
     16      -4.9654      2.00000
     17      -4.5112      2.00000
     18      -4.4730      2.00000
     19      -4.2618      2.00000
     20      -4.0194      2.00000
     21      -3.7511      2.00000
     22      -3.4628      2.00000
     23      -3.1328      2.00000
     24      -3.0387      2.00000
     25      -0.1190      0.00000
     26       0.3629      0.00000
     27       0.7507      0.00000
     28       1.0695      0.00000
     29       1.1967      0.00000
     30       1.6097      0.00000
     31       1.7633      0.00000
     32       1.8417      0.00000

 k-point     7 :      -0.4000    0.3333    0.0000
  band No.  band energies     occupation 
      1     -15.8051      2.00000
      2     -14.6869      2.00000
      3     -14.6088      2.00000
      4     -14.0721      2.00000
      5     -13.9930      2.00000
      6      -8.5701      2.00000
      7      -8.3260      2.00000
      8      -7.8131      2.00000
      9      -7.5959      2.00000
     10      -7.5058      2.00000
     11      -7.3367      2.00000
     12      -7.1164      2.00000
     13      -6.6670      2.00000
     14      -5.6765      2.00000
     15      -5.5652      2.00000
     16      -4.9533      2.00000
     17      -4.5298      2.00000
     18      -4.4715      2.00000
     19      -4.2473      2.00000
     20      -4.0155      2.00000
     21      -3.7379      2.00000
     22      -3.4927      2.00000
     23      -3.1258      2.00000
     24      -3.0347      2.00000
     25      -0.1429      0.00000
     26       0.4703      0.00000
     27       0.7164      0.00000
     28       0.9180      0.00000
     29       1.2844      0.00000
     30       1.6100      0.00000
     31       1.7875      0.00000
     32       1.8801      0.00000

 k-point     8 :      -0.2000    0.3333    0.0000
  band No.  band energies     occupation 
      1     -15.8359      2.00000
      2     -15.0700      2.00000
      3     -14.9905      2.00000
      4     -13.3490      2.00000
      5     -13.2750      2.00000
      6      -8.9468      2.00000
      7      -8.8644      2.00000
      8      -8.7696      2.00000
      9      -8.4547      2.00000
     10      -7.9421      2.00000
     11      -7.4031      2.00000
     12      -6.5549      2.00000
     13      -5.9307      2.00000
     14      -5.1922      2.00000
     15      -4.9866      2.00000
     16      -4.8976      2.00000
     17      -4.3504      2.00000
     18      -3.9483      2.00000
     19      -3.9106      2.00000
     20      -3.7411      2.00000
     21      -3.6658      2.00000
     22      -3.2483      2.00000
     23      -2.9162      2.00000
     24      -2.8152      2.00000
     25      -0.4872      0.00000
     26       0.2852      0.00000
     27       0.5361      0.00000
     28       0.7952      0.00000
     29       0.9176      0.00000
     30       1.1962      0.00000
     31       1.2385      0.00000
     32       1.5535      0.00000


--------------------------------------------------------------------------------------------------------


 soft charge-density along one line, spin component           1
         0         1         2         3         4         5         6         7         8         9
 total charge-density along one line

 pseudopotential strength for first ion, spin component:           1
  7.182 -16.883  -0.005  -0.002  -0.000   0.027   0.009   0.000
-16.883  49.271   0.012   0.004   0.000  -0.057  -0.018  -0.000
 -0.005   0.012   1.704  -0.000   0.000  -6.725   0.001  -0.000
 -0.002   0.004  -0.000   1.709  -0.000   0.001  -6.747   0.000
 -0.000   0.000   0.000  -0.000   1.704  -0.000   0.000  -6.726
  0.027  -0.057  -6.725   0.001  -0.000  28.451  -0.005   0.000
  0.009  -0.018   0.001  -6.747   0.000  -0.005  28.540  -0.000
  0.000  -0.000  -0.000   0.000  -6.726   0.000  -0.000  28.457
  0.000  -0.000  -0.000  -0.000  -0.005   0.000   0.000   0.012
 -0.001   0.001  -0.001  -0.004  -0.000   0.003   0.010   0.000
  0.011  -0.012   0.002  -0.002   0.000  -0.005   0.004  -0.000
 -0.000   0.000  -0.000  -0.000  -0.001   0.000   0.000   0.003
  0.001  -0.001   0.003  -0.000  -0.000  -0.007   0.000   0.000
 -0.000   0.000   0.000   0.000   0.017  -0.000  -0.000  -0.059
  0.004  -0.007   0.004   0.016   0.000  -0.015  -0.055  -0.000
 -0.041   0.072  -0.007   0.007  -0.000   0.025  -0.022   0.000
  0.000  -0.000   0.000   0.000   0.005  -0.000  -0.000  -0.017
 -0.002   0.004  -0.012   0.000   0.000   0.041  -0.001  -0.000
 total augmentation occupancy for first ion, spin component:           1
  1.390   0.033   0.003   0.013   0.000   0.005   0.001   0.000  -0.000   0.014  -0.104   0.000  -0.024  -0.000   0.001  -0.005
  0.033   0.001   0.008   0.002   0.000   0.000   0.000   0.000  -0.000   0.001  -0.003   0.000  -0.000  -0.000   0.000  -0.000
  0.003   0.008   1.339   0.063  -0.000   0.027   0.002  -0.000   0.000   0.022  -0.074   0.001   0.068   0.000   0.001  -0.003
  0.013   0.002   0.063   0.408   0.002   0.002   0.007   0.000   0.001   0.062   0.007   0.000   0.005   0.000   0.002   0.000
  0.000   0.000  -0.000   0.002   1.198  -0.000   0.000   0.026   0.248   0.000   0.000   0.032  -0.000   0.008   0.000   0.000
  0.005   0.000   0.027   0.002  -0.000   0.001   0.000  -0.000   0.000   0.001  -0.002   0.000   0.001   0.000   0.000  -0.000
  0.001   0.000   0.002   0.007   0.000   0.000   0.000   0.000   0.000   0.001   0.000   0.000   0.000   0.000   0.000  -0.000
  0.000   0.000  -0.000   0.000   0.026  -0.000   0.000   0.001   0.005   0.000   0.000   0.001  -0.000   0.000   0.000   0.000
 -0.000  -0.000   0.000   0.001   0.248   0.000   0.000   0.005   0.070   0.000   0.000   0.007   0.000   0.002   0.000   0.000
  0.014   0.001   0.022   0.062   0.000   0.001   0.001   0.000   0.000   0.011  -0.000   0.000  -0.002   0.000   0.000  -0.000
 -0.104  -0.003  -0.074   0.007   0.000  -0.002   0.000   0.000   0.000  -0.000   0.014   0.000  -0.004   0.000  -0.000   0.001
  0.000   0.000   0.001   0.000   0.032   0.000   0.000   0.001   0.007   0.000   0.000   0.022   0.000   0.000   0.000  -0.000
 -0.024  -0.000   0.068   0.005  -0.000   0.001   0.000  -0.000   0.000  -0.002  -0.004   0.000   0.045  -0.000  -0.000  -0.000
 -0.000  -0.000   0.000   0.000   0.008   0.000   0.000   0.000   0.002   0.000   0.000   0.000  -0.000   0.000   0.000   0.000
  0.001   0.000   0.001   0.002   0.000   0.000   0.000   0.000   0.000   0.000  -0.000   0.000  -0.000   0.000   0.000  -0.000
 -0.005  -0.000  -0.003   0.000   0.000  -0.000  -0.000   0.000   0.000  -0.000   0.001  -0.000  -0.000   0.000  -0.000   0.000
  0.000   0.000   0.000   0.000   0.001   0.000   0.000   0.000   0.000   0.000  -0.000   0.001   0.000   0.000   0.000  -0.000
 -0.001  -0.000   0.001   0.000  -0.000   0.000   0.000  -0.000  -0.000  -0.000  -0.000   0.000   0.001  -0.000  -0.000  -0.000


------------------------ aborting loop because EDIFF is reached ----------------------------------------


    FORLOC:  cpu time    0.2198: real time    0.2203
    FORHF :  cpu time 1083.3418: real time 1086.6116
    FORNL :  cpu time    6.3457: real time    6.3742
    STRESS:  cpu time   19.1737: real time   19.2468
    FORCOR:  cpu time    8.2311: real time    8.2457
    OFIELD:  cpu time    0.0088: real time    0.0088

  FORCE on cell =-STRESS in cart. coord.  units (eV):
  Direction    XX          YY          ZZ          XY          YZ          ZX
  --------------------------------------------------------------------------------------
  Alpha Z    13.10178    13.10178    13.10178
  Ewald    2358.58439  1933.99847 -2931.59027    -8.63989   -42.06442    -7.51896
  Hartree  2377.86814  2083.51023 -1952.43632    -0.45133   -20.61817    -2.52353
  E(xc)    -120.11056  -120.72817  -118.26664     0.03803    -0.03302    -0.07385
  Local   -5228.61175 -4519.12082  4405.19145     6.18024    57.79656     6.05339
  n-local   224.55303   236.34912   190.75212    -0.53130     0.57357     1.67479
  augment   -29.49788   -31.20788   -27.61843    -0.36629    -0.88968    -0.80586
  Kinetic   435.27607   430.41930   451.11640     3.76875     5.00343     3.04759
  Fock      -31.70597   -31.30692   -30.96192     0.06403     0.16301     0.15817
  -------------------------------------------------------------------------------------
  Total      -0.54274    -4.98491    -0.71183     0.06225    -0.06871     0.01173
  in kB      -0.94981    -8.72368    -1.24572     0.10894    -0.12025     0.02053
  external pressure =       -3.64 kB  Pullay stress =        0.00 kB


 VOLUME and BASIS-vectors are now :
 -----------------------------------------------------------------------------
  energy-cutoff  :      450.00
  volume of cell :      915.52
      direct lattice vectors                 reciprocal lattice vectors
     6.019200000  0.000000000  0.000000000     0.166135035  0.000000000  0.000000000
     0.000000000 10.140000000  0.000000000     0.000000000  0.098619329  0.000000000
     0.000000000  0.000000000 15.000000000     0.000000000  0.000000000  0.066666667

  length of vectors
     6.019200000 10.140000000 15.000000000     0.166135035  0.098619329  0.066666667


 FORCES acting on ions:
    Electron-Ion                     Ewald-Force                    Non-Local-Force
 -----------------------------------------------------------------------------------------------
   0.265E+00 0.487E+02 0.350E+02   -.259E+00 -.459E+02 -.341E+02   -.579E-02 -.308E+01 -.922E+00
   -.322E+00 0.484E+02 -.591E+01   0.337E+00 -.456E+02 0.526E+01   -.157E-01 -.308E+01 0.707E+00
   0.121E+01 -.577E+02 0.478E+02   -.129E+01 0.550E+02 -.467E+02   0.890E-01 0.292E+01 -.125E+01
   -.221E+01 -.598E+02 -.973E+00   0.222E+01 0.571E+02 0.227E+00   -.139E-01 0.296E+01 0.798E+00
   0.473E+01 0.536E+02 0.367E+01   -.485E+01 -.515E+02 -.537E+01   0.138E+00 -.234E+01 0.185E+01
   -.182E+01 0.522E+02 0.477E+02   0.200E+01 -.496E+02 -.467E+02   -.207E+00 -.293E+01 -.104E+01
   0.910E+00 -.410E+02 -.185E+01   -.927E+00 0.386E+02 0.123E+01   0.161E-01 0.265E+01 0.662E+00
   -.646E+00 -.447E+02 0.365E+02   0.649E+00 0.418E+02 -.357E+02   0.254E-02 0.323E+01 -.856E+00
   0.735E-01 0.393E+01 0.208E+02   -.963E-02 -.389E+01 -.209E+02   -.638E-01 -.381E-01 0.137E+00
   -.679E-01 0.436E+01 0.203E+02   0.563E-03 -.434E+01 -.204E+02   0.670E-01 -.251E-01 0.960E-01
   0.259E+01 -.555E+01 0.308E+02   -.250E+01 0.562E+01 -.310E+02   -.954E-01 -.694E-01 0.960E-01
   -.323E+01 -.765E+01 0.364E+02   0.309E+01 0.775E+01 -.366E+02   0.144E+00 -.954E-01 0.171E+00
   0.146E+02 -.200E+02 -.192E+03   -.189E+02 0.261E+02 0.188E+03   0.439E+01 -.621E+01 0.373E+01
   -.245E+02 0.138E+02 -.314E+02   0.270E+02 -.150E+02 0.313E+02   -.252E+01 0.118E+01 0.126E+00
   0.614E+01 0.148E+02 -.490E+02   -.662E+01 -.162E+02 0.512E+02   0.485E+00 0.134E+01 -.215E+01
 -----------------------------------------------------------------------------------------------
   -.241E+01 0.358E+01 -.213E+01   0.533E-14 0.213E-13 0.142E-13   0.242E+01 -.357E+01 0.214E+01


 POSITION                                       TOTAL-FORCE (eV/Angst)
 -----------------------------------------------------------------------------------
      2.60053      8.89630      3.56051        -0.000245      0.004332      0.019387
      5.60987      8.90018      3.91916        -0.000720     -0.014268     -0.004011
      2.60337      6.25994      3.60817         0.004617     -0.022032     -0.012684
      5.61849      6.27804      4.02185        -0.006220      0.007462     -0.010647
      2.59625      3.81506      4.13016         0.009952      0.028140      0.002506
      5.61811      3.83435      3.64151        -0.011460      0.005512      0.011627
      2.59897      1.19946      3.93339        -0.002208      0.011223     -0.017087
      5.60872      1.19879      3.57988         0.004658      0.021006      0.016247
      1.09520     10.11718      3.73142        -0.002266     -0.006850      0.018304
      4.10439     10.11743      3.73877         0.000928     -0.004477      0.009858
      1.10048      5.05155      3.85239        -0.007405     -0.002260     -0.010412
      4.10949      5.05570      3.88518         0.006588     -0.003678     -0.007638
      3.36423      4.43812      7.00001        -0.014129     -0.024967     -0.015923
      4.86271      3.72888      6.92922         0.007183     -0.003762      0.006977
      3.04777      3.56644      8.40936         0.010727      0.004619     -0.006505
 -----------------------------------------------------------------------------------
    total drift:                                0.007642     -0.000053      0.004614


--------------------------------------------------------------------------------------------------------



  FREE ENERGIE OF THE ION-ELECTRON SYSTEM (eV)
  ---------------------------------------------------
  free  energy   TOTEN  =       -80.14370692 eV

  energy  without entropy=      -80.14370692  energy(sigma->0) =      -80.14370692

 d Force = 0.3402730E-03[ 0.243E-03, 0.438E-03]  d Energy = 0.3189697E-03 0.213E-04
 d Force =-0.9571063E-01[-0.953E-01,-0.961E-01]  d Ewald  =-0.9571063E-01 0.803E-08


--------------------------------------------------------------------------------------------------------


    POTLOK:  cpu time    9.2128: real time    9.2308


--------------------------------------------------------------------------------------------------------


 stress matrix after NEB project (eV)
     -0.54274      0.06225      0.01173
      0.06225     -4.98491     -0.06871
      0.01173     -0.06871     -0.71183
  FORCES: max atom, RMS     0.032810    0.019987
  FORCE total and by dimension    0.077411    0.028140
  Stress total and by dimension    5.066366    4.984909
 Conjugate gradient step on ions:
 trial-energy change:   -0.000319  1 .order   -0.000340   -0.000438   -0.000243
  (g-gl).g = 0.234E-03      g.g   = 0.545E-03  gl.gl    = 0.637E-03
 g(Force)  = 0.545E-03   g(Stress)= 0.000E+00 ortho     =-0.200E-04
 gamma     =   0.36794
 trial     =   0.81385
 opt step  =   1.82453  (harmonic =   1.82453) maximal distance =0.00401461
 next E    =   -80.143879   (d E  =  -0.00049)


--------------------------------------------------------------------------------------------------------


    WAVPRE:  cpu time    0.5243: real time    6.1778
    FEWALD:  cpu time    0.0024: real time    0.0024
    ORTHCH:  cpu time    2.7069: real time    2.7176
    CHARGE:  cpu time    1.5552: real time    1.5604
     LOOP+:  cpu time 6362.1816: real time 6424.5197


--------------------------------------- Iteration     16(   1)  ---------------------------------------


    POTLOK:  cpu time    8.2530: real time    8.2875
    SETDIJ:  cpu time    0.9389: real time    0.9431
    TRIAL :  cpu time  633.8532: real time  637.0644
    CORREC:  cpu time    0.0004: real time    0.0004
    CHARGE:  cpu time    1.5196: real time    1.5253
    --------------------------------------------
      LOOP:  cpu time  644.6290: real time  647.8855

 eigenvalue-minimisations  :     0
 total energy-change (2. order) : 0.3300143E-02  (-0.4066510E-02)
 number of electron      48.0000002 magnetization 
 augmentation part       -1.2491448 magnetization 

 Free energy of the ion-electron system (eV)
  ---------------------------------------------------
  alpha Z        PSCENC =        13.10177784
  Ewald energy   TEWEN  =      1361.11183081
  -Hartree energ DENC   =     -2508.94593548
  -exchange      EXHF   =        75.38031566
  -V(xc)+E(xc)   XCENC  =      -142.09809042
  PAW double counting   =      1713.76681167    -1484.63661153
  entropy T*S    EENTRO =        -0.00000000
  eigenvalues    EBANDS =      -359.01372991
  atomic energy  EATOM  =      1251.19323263
  ---------------------------------------------------
  free energy    TOTEN  =       -80.14039873 eV

  energy without entropy =      -80.14039873  energy(sigma->0) =      -80.14039873
  exchange ACFDT corr.  =        -0.00000000  see jH, gK, PRB 81, 115126


--------------------------------------------------------------------------------------------------------




--------------------------------------- Iteration     16(   2)  ---------------------------------------


    POTLOK:  cpu time    8.3151: real time    8.3286
    SETDIJ:  cpu time    0.9497: real time    0.9516
    TRIAL :  cpu time  643.5395: real time  645.8122
    CORREC:  cpu time    0.0004: real time    0.0004
    CHARGE:  cpu time    1.5629: real time    1.5702
    --------------------------------------------
      LOOP:  cpu time  654.3680: real time  656.6644

 eigenvalue-minimisations  :     0
 total energy-change (2. order) :-0.2323862E-02  (-0.1190872E-02)
 number of electron      48.0000002 magnetization 
 augmentation part       -1.2491253 magnetization 

 Free energy of the ion-electron system (eV)
  ---------------------------------------------------
  alpha Z        PSCENC =        13.10177784
  Ewald energy   TEWEN  =      1361.11183081
  -Hartree energ DENC   =     -2508.97769424
  -exchange      EXHF   =        75.37959663
  -V(xc)+E(xc)   XCENC  =      -142.09856205
  PAW double counting   =      1713.74342311    -1484.61299080
  entropy T*S    EENTRO =        -0.00000000
  eigenvalues    EBANDS =      -358.98333653
  atomic energy  EATOM  =      1251.19323263
  ---------------------------------------------------
  free energy    TOTEN  =       -80.14272259 eV

  energy without entropy =      -80.14272259  energy(sigma->0) =      -80.14272259
  exchange ACFDT corr.  =        -0.00000000  see jH, gK, PRB 81, 115126


--------------------------------------------------------------------------------------------------------




--------------------------------------- Iteration     16(   3)  ---------------------------------------


    POTLOK:  cpu time    8.2942: real time    8.3095
    SETDIJ:  cpu time    0.9553: real time    0.9578
    TRIAL :  cpu time  641.7939: real time  644.1966
    CORREC:  cpu time    0.0004: real time    0.0004
    CHARGE:  cpu time    1.5247: real time    1.5612
    --------------------------------------------
      LOOP:  cpu time  652.5691: real time  655.0269

 eigenvalue-minimisations  :     0
 total energy-change (2. order) :-0.6985126E-03  (-0.4217308E-03)
 number of electron      48.0000002 magnetization 
 augmentation part       -1.2491643 magnetization 

 Free energy of the ion-electron system (eV)
  ---------------------------------------------------
  alpha Z        PSCENC =        13.10177784
  Ewald energy   TEWEN  =      1361.11183081
  -Hartree energ DENC   =     -2509.02331258
  -exchange      EXHF   =        75.37991661
  -V(xc)+E(xc)   XCENC  =      -142.09823822
  PAW double counting   =      1713.76386356    -1484.63347927
  entropy T*S    EENTRO =        -0.00000000
  eigenvalues    EBANDS =      -358.93901250
  atomic energy  EATOM  =      1251.19323263
  ---------------------------------------------------
  free energy    TOTEN  =       -80.14342111 eV

  energy without entropy =      -80.14342111  energy(sigma->0) =      -80.14342111
  exchange ACFDT corr.  =        -0.00000000  see jH, gK, PRB 81, 115126


--------------------------------------------------------------------------------------------------------




--------------------------------------- Iteration     16(   4)  ---------------------------------------


    POTLOK:  cpu time    8.2859: real time    8.2966
    SETDIJ:  cpu time    0.9481: real time    0.9497
    TRIAL :  cpu time  645.6135: real time  647.3449
    CORREC:  cpu time    0.0006: real time    0.0006
    CHARGE:  cpu time    1.5186: real time    1.5215
    --------------------------------------------
      LOOP:  cpu time  656.3671: real time  658.1143

 eigenvalue-minimisations  :     0
 total energy-change (2. order) :-0.2216417E-03  (-0.1417387E-03)
 number of electron      48.0000002 magnetization 
 augmentation part       -1.2491772 magnetization 

 Free energy of the ion-electron system (eV)
  ---------------------------------------------------
  alpha Z        PSCENC =        13.10177784
  Ewald energy   TEWEN  =      1361.11183081
  -Hartree energ DENC   =     -2509.05717450
  -exchange      EXHF   =        75.38032899
  -V(xc)+E(xc)   XCENC  =      -142.09779920
  PAW double counting   =      1713.77863246    -1484.64826168
  entropy T*S    EENTRO =        -0.00000000
  eigenvalues    EBANDS =      -358.90621010
  atomic energy  EATOM  =      1251.19323263
  ---------------------------------------------------
  free energy    TOTEN  =       -80.14364275 eV

  energy without entropy =      -80.14364275  energy(sigma->0) =      -80.14364275
  exchange ACFDT corr.  =        -0.00000000  see jH, gK, PRB 81, 115126


--------------------------------------------------------------------------------------------------------




--------------------------------------- Iteration     16(   5)  ---------------------------------------


    POTLOK:  cpu time    8.2927: real time    8.3011
    SETDIJ:  cpu time    0.9591: real time    0.9610
    TRIAL :  cpu time  643.7327: real time  645.0922
    CORREC:  cpu time    0.0004: real time    0.0004
    CHARGE:  cpu time    1.5775: real time    1.5807
    --------------------------------------------
      LOOP:  cpu time  654.5628: real time  655.9366

 eigenvalue-minimisations  :     0
 total energy-change (2. order) :-0.6945653E-04  (-0.3639524E-04)
 number of electron      48.0000002 magnetization 
 augmentation part       -1.2491603 magnetization 

 Free energy of the ion-electron system (eV)
  ---------------------------------------------------
  alpha Z        PSCENC =        13.10177784
  Ewald energy   TEWEN  =      1361.11183081
  -Hartree energ DENC   =     -2509.07019565
  -exchange      EXHF   =        75.38041906
  -V(xc)+E(xc)   XCENC  =      -142.09759297
  PAW double counting   =      1713.77557841    -1484.64512925
  entropy T*S    EENTRO =        -0.00000000
  eigenvalues    EBANDS =      -358.89363309
  atomic energy  EATOM  =      1251.19323263
  ---------------------------------------------------
  free energy    TOTEN  =       -80.14371220 eV

  energy without entropy =      -80.14371220  energy(sigma->0) =      -80.14371220
  exchange ACFDT corr.  =        -0.00000000  see jH, gK, PRB 81, 115126


--------------------------------------------------------------------------------------------------------




--------------------------------------- Iteration     16(   6)  ---------------------------------------


    POTLOK:  cpu time    8.2846: real time    8.2992
    SETDIJ:  cpu time    0.9500: real time    0.9520
    TRIAL :  cpu time  645.7007: real time  647.0277
    CORREC:  cpu time    0.0004: real time    0.0004
    CHARGE:  cpu time    1.5402: real time    1.5434
    --------------------------------------------
      LOOP:  cpu time  656.4764: real time  657.8238

 eigenvalue-minimisations  :     0
 total energy-change (2. order) :-0.1382488E-04  (-0.2123698E-04)
 number of electron      48.0000002 magnetization 
 augmentation part       -1.2491472 magnetization 

 Free energy of the ion-electron system (eV)
  ---------------------------------------------------
  alpha Z        PSCENC =        13.10177784
  Ewald energy   TEWEN  =      1361.11183081
  -Hartree energ DENC   =     -2509.06350383
  -exchange      EXHF   =        75.38030019
  -V(xc)+E(xc)   XCENC  =      -142.09776667
  PAW double counting   =      1713.76054211    -1484.63012385
  entropy T*S    EENTRO =        -0.00000000
  eigenvalues    EBANDS =      -358.90001526
  atomic energy  EATOM  =      1251.19323263
  ---------------------------------------------------
  free energy    TOTEN  =       -80.14372603 eV

  energy without entropy =      -80.14372603  energy(sigma->0) =      -80.14372603
  exchange ACFDT corr.  =        -0.00000000  see jH, gK, PRB 81, 115126


--------------------------------------------------------------------------------------------------------




--------------------------------------- Iteration     16(   7)  ---------------------------------------


    POTLOK:  cpu time    8.2929: real time    8.3002
    SETDIJ:  cpu time    0.9538: real time    0.9550
    TRIAL :  cpu time  643.9425: real time  645.6767
    CORREC:  cpu time    0.0007: real time    0.0007
    CHARGE:  cpu time    1.5580: real time    1.5624
    --------------------------------------------
      LOOP:  cpu time  654.7486: real time  656.4967

 eigenvalue-minimisations  :     0
 total energy-change (2. order) :-0.1221060E-04  (-0.8782286E-05)
 number of electron      48.0000002 magnetization 
 augmentation part       -1.2491503 magnetization 

 Free energy of the ion-electron system (eV)
  ---------------------------------------------------
  alpha Z        PSCENC =        13.10177784
  Ewald energy   TEWEN  =      1361.11183081
  -Hartree energ DENC   =     -2509.05495759
  -exchange      EXHF   =        75.38017611
  -V(xc)+E(xc)   XCENC  =      -142.09791078
  PAW double counting   =      1713.75643738    -1484.62603843
  entropy T*S    EENTRO =        -0.00000000
  eigenvalues    EBANDS =      -358.90828621
  atomic energy  EATOM  =      1251.19323263
  ---------------------------------------------------
  free energy    TOTEN  =       -80.14373824 eV

  energy without entropy =      -80.14373824  energy(sigma->0) =      -80.14373824
  exchange ACFDT corr.  =        -0.00000000  see jH, gK, PRB 81, 115126


--------------------------------------------------------------------------------------------------------




--------------------------------------- Iteration     16(   8)  ---------------------------------------


    POTLOK:  cpu time    8.2901: real time    8.3008
    SETDIJ:  cpu time    0.9477: real time    0.9493
    TRIAL :  cpu time  643.2301: real time  645.3456
    CORREC:  cpu time    0.0004: real time    0.0004
    EDDIAG:  cpu time  631.6442: real time  633.4921
    CHARGE:  cpu time    1.5760: real time    1.5791
    --------------------------------------------
      LOOP:  cpu time 1285.6890: real time 1289.6687

 eigenvalue-minimisations  :     0
 total energy-change (2. order) :-0.5046931E-05  (-0.4027640E-05)
 number of electron      48.0000002 magnetization 
 augmentation part       -1.2491582 magnetization 

 Free energy of the ion-electron system (eV)
  ---------------------------------------------------
  alpha Z        PSCENC =        13.10177784
  Ewald energy   TEWEN  =      1361.11183081
  -Hartree energ DENC   =     -2509.05591151
  -exchange      EXHF   =        75.38022182
  -V(xc)+E(xc)   XCENC  =      -142.09787401
  PAW double counting   =      1713.76543358    -1484.63501578
  entropy T*S    EENTRO =        -0.00000000
  eigenvalues    EBANDS =      -358.90738978
  atomic energy  EATOM  =      1251.19323263
  ---------------------------------------------------
  free energy    TOTEN  =       -80.14374329 eV

  energy without entropy =      -80.14374329  energy(sigma->0) =      -80.14374329
  exchange ACFDT corr.  =        -0.00000000  see jH, gK, PRB 81, 115126


--------------------------------------------------------------------------------------------------------


  average scaling for gradient   0.8002


 average (electrostatic) potential at core
  the test charge radii are     1.0406  0.6991  1.1897  0.5883
  (the norm of the test charge is              1.0000)
       1 -54.8747       2 -54.8586       3 -54.8722       4 -54.8825       5 -54.9168
       6 -54.9484       7 -54.8174       8 -54.8897       9 -51.0196      10 -51.0188
      11 -51.0782      12 -51.1339      13 -93.2191      14 -34.2969      15 -33.8390



 E-fermi :  -2.0342     XC(G=0):  -2.9195     alpha+bet : -2.8557


 k-point     1 :       0.0000    0.0000    0.0000
  band No.  band energies     occupation 
      1     -15.8591      2.00000
      2     -15.2309      2.00000
      3     -15.0751      2.00000
      4     -12.9591      2.00000
      5     -12.8611      2.00000
      6      -9.6285      2.00000
      7      -9.3516      2.00000
      8      -9.3211      2.00000
      9      -8.4399      2.00000
     10      -7.4259      2.00000
     11      -7.0012      2.00000
     12      -6.4506      2.00000
     13      -6.0012      2.00000
     14      -5.5030      2.00000
     15      -5.1917      2.00000
     16      -4.9143      2.00000
     17      -4.5053      2.00000
     18      -4.3768      2.00000
     19      -3.4200      2.00000
     20      -3.2045      2.00000
     21      -3.1668      2.00000
     22      -2.6105      2.00000
     23      -2.3464      2.00000
     24      -2.3011      2.00000
     25      -0.8244      0.00000
     26      -0.2756      0.00000
     27       0.2489      0.00000
     28       0.6029      0.00000
     29       0.7804      0.00000
     30       0.9396      0.00000
     31       1.0785      0.00000
     32       1.3694      0.00000

 k-point     2 :       0.2000    0.0000    0.0000
  band No.  band energies     occupation 
      1     -15.8371      2.00000
      2     -15.1049      2.00000
      3     -14.9495      2.00000
      4     -13.3704      2.00000
      5     -13.2510      2.00000
      6      -9.1761      2.00000
      7      -8.9788      2.00000
      8      -8.7089      2.00000
      9      -8.4556      2.00000
     10      -7.4380      2.00000
     11      -6.8766      2.00000
     12      -6.8072      2.00000
     13      -6.3179      2.00000
     14      -5.4492      2.00000
     15      -5.2191      2.00000
     16      -4.8016      2.00000
     17      -4.4461      2.00000
     18      -3.9706      2.00000
     19      -3.9196      2.00000
     20      -3.8807      2.00000
     21      -3.7509      2.00000
     22      -3.0157      2.00000
     23      -2.7659      2.00000
     24      -2.3168      2.00000
     25      -0.8024      0.00000
     26       0.4424      0.00000
     27       0.7160      0.00000
     28       0.8270      0.00000
     29       1.0327      0.00000
     30       1.0646      0.00000
     31       1.1579      0.00000
     32       1.5028      0.00000

 k-point     3 :       0.4000    0.0000    0.0000
  band No.  band energies     occupation 
      1     -15.8056      2.00000
      2     -14.7227      2.00000
      3     -14.5683      2.00000
      4     -14.1023      2.00000
      5     -13.9587      2.00000
      6      -8.7244      2.00000
      7      -8.4640      2.00000
      8      -7.9197      2.00000
      9      -7.6854      2.00000
     10      -7.3700      2.00000
     11      -7.1444      2.00000
     12      -6.5104      2.00000
     13      -6.1743      2.00000
     14      -5.9755      2.00000
     15      -5.5387      2.00000
     16      -5.2498      2.00000
     17      -5.0493      2.00000
     18      -4.7851      2.00000
     19      -4.4581      2.00000
     20      -4.2108      2.00000
     21      -3.7425      2.00000
     22      -3.4407      2.00000
     23      -2.8432      2.00000
     24      -2.4041      2.00000
     25      -0.4581      0.00000
     26       0.2414      0.00000
     27       0.9222      0.00000
     28       1.3189      0.00000
     29       1.4097      0.00000
     30       1.6141      0.00000
     31       1.7267      0.00000
     32       2.1447      0.00000

 k-point     4 :       0.0000    0.3333    0.0000
  band No.  band energies     occupation 
      1     -15.8579      2.00000
      2     -15.1971      2.00000
      3     -15.1148      2.00000
      4     -12.9479      2.00000
      5     -12.8731      2.00000
      6      -9.5764      2.00000
      7      -9.4038      2.00000
      8      -9.0248      2.00000
      9      -8.4535      2.00000
     10      -8.0830      2.00000
     11      -7.4006      2.00000
     12      -5.8307      2.00000
     13      -5.4530      2.00000
     14      -5.3800      2.00000
     15      -5.0901      2.00000
     16      -5.0494      2.00000
     17      -4.4175      2.00000
     18      -4.2049      2.00000
     19      -3.7128      2.00000
     20      -3.2975      2.00000
     21      -3.2000      2.00000
     22      -3.1694      2.00000
     23      -2.5959      2.00000
     24      -2.3168      2.00000
     25      -0.5911      0.00000
     26       0.0962      0.00000
     27       0.2829      0.00000
     28       0.4537      0.00000
     29       0.6947      0.00000
     30       0.8774      0.00000
     31       1.1308      0.00000
     32       1.3782      0.00000

 k-point     5 :       0.2000    0.3333    0.0000
  band No.  band energies     occupation 
      1     -15.8364      2.00000
      2     -15.0690      2.00000
      3     -14.9907      2.00000
      4     -13.3518      2.00000
      5     -13.2711      2.00000
      6      -8.9479      2.00000
      7      -8.8679      2.00000
      8      -8.7660      2.00000
      9      -8.4509      2.00000
     10      -7.9527      2.00000
     11      -7.4011      2.00000
     12      -6.5584      2.00000
     13      -5.9186      2.00000
     14      -5.2016      2.00000
     15      -4.9767      2.00000
     16      -4.8869      2.00000
     17      -4.3785      2.00000
     18      -3.9548      2.00000
     19      -3.9065      2.00000
     20      -3.7288      2.00000
     21      -3.6773      2.00000
     22      -3.2271      2.00000
     23      -2.9432      2.00000
     24      -2.7998      2.00000
     25      -0.4660      0.00000
     26       0.2164      0.00000
     27       0.6248      0.00000
     28       0.7730      0.00000
     29       0.8946      0.00000
     30       1.1156      0.00000
     31       1.2854      0.00000
     32       1.5103      0.00000

 k-point     6 :       0.4000    0.3333    0.0000
  band No.  band energies     occupation 
      1     -15.8054      2.00000
      2     -14.6881      2.00000
      3     -14.6070      2.00000
      4     -14.0741      2.00000
      5     -13.9899      2.00000
      6      -8.5745      2.00000
      7      -8.3133      2.00000
      8      -7.8451      2.00000
      9      -7.5859      2.00000
     10      -7.5054      2.00000
     11      -7.3274      2.00000
     12      -7.1170      2.00000
     13      -6.6681      2.00000
     14      -5.6685      2.00000
     15      -5.5654      2.00000
     16      -4.9658      2.00000
     17      -4.5114      2.00000
     18      -4.4698      2.00000
     19      -4.2627      2.00000
     20      -4.0205      2.00000
     21      -3.7468      2.00000
     22      -3.4643      2.00000
     23      -3.1332      2.00000
     24      -3.0406      2.00000
     25      -0.1186      0.00000
     26       0.3622      0.00000
     27       0.7510      0.00000
     28       1.0675      0.00000
     29       1.1979      0.00000
     30       1.6076      0.00000
     31       1.7626      0.00000
     32       1.8393      0.00000

 k-point     7 :      -0.4000    0.3333    0.0000
  band No.  band energies     occupation 
      1     -15.8054      2.00000
      2     -14.6880      2.00000
      3     -14.6071      2.00000
      4     -14.0740      2.00000
      5     -13.9899      2.00000
      6      -8.5718      2.00000
      7      -8.3263      2.00000
      8      -7.8160      2.00000
      9      -7.5970      2.00000
     10      -7.5057      2.00000
     11      -7.3344      2.00000
     12      -7.1185      2.00000
     13      -6.6676      2.00000
     14      -5.6774      2.00000
     15      -5.5627      2.00000
     16      -4.9537      2.00000
     17      -4.5295      2.00000
     18      -4.4685      2.00000
     19      -4.2487      2.00000
     20      -4.0167      2.00000
     21      -3.7335      2.00000
     22      -3.4940      2.00000
     23      -3.1260      2.00000
     24      -3.0370      2.00000
     25      -0.1427      0.00000
     26       0.4703      0.00000
     27       0.7175      0.00000
     28       0.9148      0.00000
     29       1.2853      0.00000
     30       1.6080      0.00000
     31       1.7860      0.00000
     32       1.8805      0.00000

 k-point     8 :      -0.2000    0.3333    0.0000
  band No.  band energies     occupation 
      1     -15.8364      2.00000
      2     -15.0689      2.00000
      3     -14.9908      2.00000
      4     -13.3518      2.00000
      5     -13.2712      2.00000
      6      -8.9503      2.00000
      7      -8.8656      2.00000
      8      -8.7655      2.00000
      9      -8.4555      2.00000
     10      -7.9427      2.00000
     11      -7.4051      2.00000
     12      -6.5558      2.00000
     13      -5.9310      2.00000
     14      -5.1918      2.00000
     15      -4.9866      2.00000
     16      -4.8945      2.00000
     17      -4.3528      2.00000
     18      -3.9496      2.00000
     19      -3.9079      2.00000
     20      -3.7427      2.00000
     21      -3.6668      2.00000
     22      -3.2488      2.00000
     23      -2.9175      2.00000
     24      -2.8107      2.00000
     25      -0.4878      0.00000
     26       0.2845      0.00000
     27       0.5318      0.00000
     28       0.7933      0.00000
     29       0.9185      0.00000
     30       1.1946      0.00000
     31       1.2404      0.00000
     32       1.5484      0.00000


--------------------------------------------------------------------------------------------------------


 soft charge-density along one line, spin component           1
         0         1         2         3         4         5         6         7         8         9
 total charge-density along one line

 pseudopotential strength for first ion, spin component:           1
  7.182 -16.882  -0.005  -0.002  -0.000   0.027   0.008   0.000
-16.882  49.271   0.012   0.004   0.000  -0.057  -0.018  -0.000
 -0.005   0.012   1.704  -0.000   0.000  -6.725   0.001  -0.000
 -0.002   0.004  -0.000   1.709  -0.000   0.001  -6.747   0.000
 -0.000   0.000   0.000  -0.000   1.704  -0.000   0.000  -6.726
  0.027  -0.057  -6.725   0.001  -0.000  28.450  -0.005   0.000
  0.008  -0.018   0.001  -6.747   0.000  -0.005  28.539  -0.000
  0.000  -0.000  -0.000   0.000  -6.726   0.000  -0.000  28.457
  0.000  -0.000  -0.000  -0.000  -0.005   0.000   0.000   0.012
 -0.001   0.001  -0.001  -0.004  -0.000   0.003   0.010   0.000
  0.011  -0.012   0.002  -0.002   0.000  -0.005   0.004  -0.000
 -0.000   0.000  -0.000  -0.000  -0.001   0.000   0.000   0.003
  0.001  -0.001   0.003  -0.000  -0.000  -0.007   0.000   0.000
 -0.000   0.000   0.000   0.000   0.018  -0.000  -0.000  -0.059
  0.004  -0.007   0.004   0.016   0.000  -0.015  -0.056  -0.000
 -0.041   0.072  -0.007   0.007  -0.000   0.026  -0.022   0.000
  0.000  -0.000   0.000   0.000   0.005  -0.000  -0.000  -0.017
 -0.002   0.004  -0.012   0.000   0.000   0.041  -0.001  -0.000
 total augmentation occupancy for first ion, spin component:           1
  1.390   0.033   0.002   0.012   0.000   0.005   0.001   0.000  -0.000   0.014  -0.104   0.000  -0.024  -0.000   0.001  -0.005
  0.033   0.001   0.008   0.002   0.000   0.000   0.000   0.000  -0.000   0.001  -0.003   0.000  -0.000  -0.000   0.000  -0.000
  0.002   0.008   1.338   0.062  -0.000   0.027   0.002  -0.000   0.000   0.021  -0.074   0.000   0.068   0.000   0.001  -0.003
  0.012   0.002   0.062   0.408   0.002   0.002   0.007   0.000   0.000   0.062   0.007   0.000   0.005   0.000   0.002   0.000
  0.000   0.000  -0.000   0.002   1.197  -0.000   0.000   0.026   0.247   0.000   0.000   0.032  -0.000   0.008   0.000   0.000
  0.005   0.000   0.027   0.002  -0.000   0.001   0.000  -0.000   0.000   0.001  -0.002   0.000   0.001   0.000   0.000  -0.000
  0.001   0.000   0.002   0.007   0.000   0.000   0.000   0.000   0.000   0.001   0.000   0.000   0.000   0.000   0.000  -0.000
  0.000   0.000  -0.000   0.000   0.026  -0.000   0.000   0.001   0.005   0.000   0.000   0.001  -0.000   0.000   0.000   0.000
 -0.000  -0.000   0.000   0.000   0.247   0.000   0.000   0.005   0.070   0.000   0.000   0.007   0.000   0.002   0.000   0.000
  0.014   0.001   0.021   0.062   0.000   0.001   0.001   0.000   0.000   0.011  -0.000   0.000  -0.002   0.000   0.000  -0.000
 -0.104  -0.003  -0.074   0.007   0.000  -0.002   0.000   0.000   0.000  -0.000   0.014   0.000  -0.004   0.000  -0.000   0.001
  0.000   0.000   0.000   0.000   0.032   0.000   0.000   0.001   0.007   0.000   0.000   0.022   0.000   0.000   0.000  -0.000
 -0.024  -0.000   0.068   0.005  -0.000   0.001   0.000  -0.000   0.000  -0.002  -0.004   0.000   0.045  -0.000  -0.000  -0.000
 -0.000  -0.000   0.000   0.000   0.008   0.000   0.000   0.000   0.002   0.000   0.000   0.000  -0.000   0.000   0.000   0.000
  0.001   0.000   0.001   0.002   0.000   0.000   0.000   0.000   0.000   0.000  -0.000   0.000  -0.000   0.000   0.000  -0.000
 -0.005  -0.000  -0.003   0.000   0.000  -0.000  -0.000   0.000   0.000  -0.000   0.001  -0.000  -0.000   0.000  -0.000   0.000
  0.000   0.000   0.000   0.000   0.001   0.000   0.000   0.000   0.000   0.000  -0.000   0.001   0.000   0.000   0.000  -0.000
 -0.001  -0.000   0.001   0.000  -0.000   0.000   0.000  -0.000  -0.000  -0.000  -0.000   0.000   0.001  -0.000  -0.000  -0.000


------------------------ aborting loop because EDIFF is reached ----------------------------------------


    FORLOC:  cpu time    0.2194: real time    0.2197
    FORHF :  cpu time 1070.5692: real time 1074.8289
    FORNL :  cpu time    6.2933: real time    6.3332
    STRESS:  cpu time   18.9844: real time   19.1095
    FORCOR:  cpu time    8.2119: real time    8.2485
    OFIELD:  cpu time    0.0089: real time    0.0089

  FORCE on cell =-STRESS in cart. coord.  units (eV):
  Direction    XX          YY          ZZ          XY          YZ          ZX
  --------------------------------------------------------------------------------------
  Alpha Z    13.10178    13.10178    13.10178
  Ewald    2358.81629  1934.47451 -2932.18048    -8.60858   -42.16101    -7.53748
  Hartree  2378.08992  2083.78516 -1952.81452    -0.47450   -20.63180    -2.53743
  E(xc)    -120.10684  -120.72976  -118.26888     0.03542    -0.03185    -0.07356
  Local   -5229.04821 -4519.87113  4406.14412     6.17639    57.89893     6.08720
  n-local   224.49312   236.37194   190.78519    -0.49292     0.55011     1.67002
  augment   -29.48738   -31.21086   -27.62376    -0.37167    -0.88634    -0.80416
  Kinetic   435.26622   430.40778   451.13617     3.77297     5.02237     3.04522
  Fock      -31.70976   -31.30695   -30.95907     0.06605     0.16194     0.15784
  -------------------------------------------------------------------------------------
  Total      -0.58486    -4.97753    -0.67945     0.10317    -0.07766     0.00764
  in kB      -1.02351    -8.71077    -1.18904     0.18055    -0.13590     0.01337
  external pressure =       -3.64 kB  Pullay stress =        0.00 kB


 VOLUME and BASIS-vectors are now :
 -----------------------------------------------------------------------------
  energy-cutoff  :      450.00
  volume of cell :      915.52
      direct lattice vectors                 reciprocal lattice vectors
     6.019200000  0.000000000  0.000000000     0.166135035  0.000000000  0.000000000
     0.000000000 10.140000000  0.000000000     0.000000000  0.098619329  0.000000000
     0.000000000  0.000000000 15.000000000     0.000000000  0.000000000  0.066666667

  length of vectors
     6.019200000 10.140000000 15.000000000     0.166135035  0.098619329  0.066666667


 FORCES acting on ions:
    Electron-Ion                     Ewald-Force                    Non-Local-Force
 -----------------------------------------------------------------------------------------------
   0.259E+00 0.486E+02 0.348E+02   -.253E+00 -.458E+02 -.339E+02   -.383E-02 -.307E+01 -.910E+00
   -.310E+00 0.484E+02 -.575E+01   0.324E+00 -.456E+02 0.511E+01   -.174E-01 -.308E+01 0.701E+00
   0.120E+01 -.576E+02 0.477E+02   -.128E+01 0.550E+02 -.465E+02   0.950E-01 0.289E+01 -.125E+01
   -.222E+01 -.599E+02 -.807E+00   0.222E+01 0.572E+02 0.707E-01   -.621E-02 0.299E+01 0.793E+00
   0.474E+01 0.536E+02 0.378E+01   -.485E+01 -.515E+02 -.548E+01   0.127E+00 -.233E+01 0.184E+01
   -.183E+01 0.524E+02 0.475E+02   0.201E+01 -.497E+02 -.466E+02   -.207E+00 -.298E+01 -.104E+01
   0.908E+00 -.409E+02 -.162E+01   -.921E+00 0.386E+02 0.101E+01   0.141E-01 0.262E+01 0.646E+00
   -.631E+00 -.446E+02 0.363E+02   0.635E+00 0.417E+02 -.355E+02   -.474E-02 0.322E+01 -.849E+00
   -.221E-01 0.391E+01 0.206E+02   0.873E-01 -.388E+01 -.208E+02   -.390E-01 -.281E-01 0.126E+00
   0.133E-01 0.434E+01 0.203E+02   -.797E-01 -.432E+01 -.204E+02   0.449E-01 -.176E-01 0.948E-01
   0.240E+01 -.556E+01 0.308E+02   -.230E+01 0.563E+01 -.309E+02   -.585E-01 -.591E-01 0.942E-01
   -.303E+01 -.767E+01 0.366E+02   0.288E+01 0.777E+01 -.368E+02   0.105E+00 -.878E-01 0.184E+00
   0.145E+02 -.200E+02 -.192E+03   -.188E+02 0.260E+02 0.188E+03   0.443E+01 -.621E+01 0.371E+01
   -.244E+02 0.137E+02 -.314E+02   0.269E+02 -.149E+02 0.313E+02   -.251E+01 0.117E+01 0.126E+00
   0.611E+01 0.148E+02 -.490E+02   -.660E+01 -.162E+02 0.513E+02   0.482E+00 0.134E+01 -.216E+01
 -----------------------------------------------------------------------------------------------
   -.246E+01 0.364E+01 -.210E+01   0.178E-14 0.355E-14 0.568E-13   0.246E+01 -.363E+01 0.211E+01


 POSITION                                       TOTAL-FORCE (eV/Angst)
 -----------------------------------------------------------------------------------
      2.60034      8.89582      3.56274         0.002481      0.024417      0.019796
      5.60983      8.89958      3.91813        -0.002761     -0.005176     -0.004388
      2.60306      6.26033      3.60904         0.007427     -0.032608     -0.010911
      5.61814      6.27775      4.01983        -0.000564      0.028323     -0.006337
      2.59700      3.81548      4.12884         0.003158      0.028337     -0.000553
      5.61828      3.83537      3.64286        -0.010204     -0.029195      0.005104
      2.59899      1.20065      3.93204        -0.000562     -0.018960     -0.018412
      5.60905      1.19973      3.58156        -0.000316      0.005090      0.018362
      1.09459     10.11691      3.73266         0.025422      0.003826      0.012414
      4.10489     10.11720      3.73898        -0.020802      0.005611      0.007486
      1.09961      5.05138      3.85258         0.038364      0.008036     -0.007958
      4.11057      5.05553      3.88368        -0.042995      0.007912      0.001164
      3.36225      4.43698      7.00014         0.029157     -0.032756     -0.036829
      4.86370      3.72812      6.92912        -0.031457      0.015707      0.008574
      3.04828      3.56656      8.40881         0.003653     -0.008564      0.012490
 -----------------------------------------------------------------------------------
    total drift:                                0.002570      0.001191      0.003293


--------------------------------------------------------------------------------------------------------



  FREE ENERGIE OF THE ION-ELECTRON SYSTEM (eV)
  ---------------------------------------------------
  free  energy   TOTEN  =       -80.14374329 eV

  energy  without entropy=      -80.14374329  energy(sigma->0) =      -80.14374329

 d Force = 0.8820328E-04[-0.125E-03, 0.301E-03]  d Energy = 0.3636422E-04 0.518E-04
 d Force =-0.1177294E+00[-0.117E+00,-0.118E+00]  d Ewald  =-0.1177295E+00 0.106E-06


--------------------------------------------------------------------------------------------------------


    POTLOK:  cpu time    9.1659: real time    9.2049


--------------------------------------------------------------------------------------------------------


 stress matrix after NEB project (eV)
     -0.58486      0.10317      0.00764
      0.10317     -4.97753     -0.07766
      0.00764     -0.07766     -0.67945
  FORCES: max atom, RMS     0.057267    0.032316
  FORCE total and by dimension    0.125160    0.042995
  Stress total and by dimension    5.060929    4.977532


--------------------------------------------------------------------------------------------------------


    WAVPRE:  cpu time    0.5302: real time    1.0610
    FEWALD:  cpu time    0.0024: real time    0.0024
    ORTHCH:  cpu time    2.5677: real time    2.5872
    CHARGE:  cpu time    1.5809: real time    1.5916
     LOOP+:  cpu time 7005.5440: real time 7039.8750


--------------------------------------- Iteration     17(   1)  ---------------------------------------


    POTLOK:  cpu time    8.2725: real time    8.3108
    SETDIJ:  cpu time    0.9064: real time    0.9109
    TRIAL :  cpu time  637.8183: real time  642.3163
    CORREC:  cpu time    0.0009: real time    0.0009
    CHARGE:  cpu time    1.5698: real time    1.5784
    --------------------------------------------
      LOOP:  cpu time  648.6325: real time  653.1822

 eigenvalue-minimisations  :     0
 total energy-change (2. order) : 0.2662712E-03  (-0.3729211E-03)
 number of electron      48.0000002 magnetization 
 augmentation part       -1.2491860 magnetization 

 Free energy of the ion-electron system (eV)
  ---------------------------------------------------
  alpha Z        PSCENC =        13.10177784
  Ewald energy   TEWEN  =      1361.07746377
  -Hartree energ DENC   =     -2509.05914742
  -exchange      EXHF   =        75.38025305
  -V(xc)+E(xc)   XCENC  =      -142.09780022
  PAW double counting   =      1713.76175528    -1484.63129324
  entropy T*S    EENTRO =        -0.00000000
  eigenvalues    EBANDS =      -358.86971364
  atomic energy  EATOM  =      1251.19323263
  ---------------------------------------------------
  free energy    TOTEN  =       -80.14347197 eV

  energy without entropy =      -80.14347197  energy(sigma->0) =      -80.14347197
  exchange ACFDT corr.  =        -0.00000000  see jH, gK, PRB 81, 115126


--------------------------------------------------------------------------------------------------------




--------------------------------------- Iteration     17(   2)  ---------------------------------------


    POTLOK:  cpu time    8.2987: real time    8.3169
    SETDIJ:  cpu time    0.9307: real time    0.9340
    TRIAL :  cpu time  642.9429: real time  645.3487
    CORREC:  cpu time    0.0005: real time    0.0005
    CHARGE:  cpu time    1.5768: real time    1.5820
    --------------------------------------------
      LOOP:  cpu time  653.7502: real time  656.1834

 eigenvalue-minimisations  :     0
 total energy-change (2. order) :-0.2141954E-03  (-0.1149902E-03)
 number of electron      48.0000002 magnetization 
 augmentation part       -1.2491859 magnetization 

 Free energy of the ion-electron system (eV)
  ---------------------------------------------------
  alpha Z        PSCENC =        13.10177784
  Ewald energy   TEWEN  =      1361.07746377
  -Hartree energ DENC   =     -2509.04740568
  -exchange      EXHF   =        75.38028058
  -V(xc)+E(xc)   XCENC  =      -142.09783727
  PAW double counting   =      1713.76077845    -1484.63042124
  entropy T*S    EENTRO =        -0.00000000
  eigenvalues    EBANDS =      -358.88155525
  atomic energy  EATOM  =      1251.19323263
  ---------------------------------------------------
  free energy    TOTEN  =       -80.14368616 eV

  energy without entropy =      -80.14368616  energy(sigma->0) =      -80.14368616
  exchange ACFDT corr.  =        -0.00000000  see jH, gK, PRB 81, 115126


--------------------------------------------------------------------------------------------------------




--------------------------------------- Iteration     17(   3)  ---------------------------------------


    POTLOK:  cpu time    8.2857: real time    8.2966
    SETDIJ:  cpu time    0.9356: real time    0.9372
    TRIAL :  cpu time  642.0161: real time  644.0046
    CORREC:  cpu time    0.0004: real time    0.0004
    CHARGE:  cpu time    1.5629: real time    1.5680
    --------------------------------------------
      LOOP:  cpu time  652.8012: real time  654.8080

 eigenvalue-minimisations  :     0
 total energy-change (2. order) :-0.6539356E-04  (-0.3914170E-04)
 number of electron      48.0000002 magnetization 
 augmentation part       -1.2491736 magnetization 

 Free energy of the ion-electron system (eV)
  ---------------------------------------------------
  alpha Z        PSCENC =        13.10177784
  Ewald energy   TEWEN  =      1361.07746377
  -Hartree energ DENC   =     -2509.03756353
  -exchange      EXHF   =        75.38026702
  -V(xc)+E(xc)   XCENC  =      -142.09782518
  PAW double counting   =      1713.76176370    -1484.63138749
  entropy T*S    EENTRO =        -0.00000000
  eigenvalues    EBANDS =      -358.89148031
  atomic energy  EATOM  =      1251.19323263
  ---------------------------------------------------
  free energy    TOTEN  =       -80.14375156 eV

  energy without entropy =      -80.14375156  energy(sigma->0) =      -80.14375156
  exchange ACFDT corr.  =        -0.00000000  see jH, gK, PRB 81, 115126


--------------------------------------------------------------------------------------------------------




--------------------------------------- Iteration     17(   4)  ---------------------------------------


    POTLOK:  cpu time    8.2823: real time    8.2960
    SETDIJ:  cpu time    0.9452: real time    0.9476
    TRIAL :  cpu time  643.5115: real time  645.1672
    CORREC:  cpu time    0.0004: real time    0.0004
    CHARGE:  cpu time    1.5715: real time    1.5746
    --------------------------------------------
      LOOP:  cpu time  654.3113: real time  655.9871

 eigenvalue-minimisations  :     0
 total energy-change (2. order) :-0.1991480E-04  (-0.1251930E-04)
 number of electron      48.0000002 magnetization 
 augmentation part       -1.2491739 magnetization 

 Free energy of the ion-electron system (eV)
  ---------------------------------------------------
  alpha Z        PSCENC =        13.10177784
  Ewald energy   TEWEN  =      1361.07746377
  -Hartree energ DENC   =     -2509.02668748
  -exchange      EXHF   =        75.38016840
  -V(xc)+E(xc)   XCENC  =      -142.09795341
  PAW double counting   =      1713.75716301    -1484.62679454
  entropy T*S    EENTRO =        -0.00000000
  eigenvalues    EBANDS =      -358.90214169
  atomic energy  EATOM  =      1251.19323263
  ---------------------------------------------------
  free energy    TOTEN  =       -80.14377147 eV

  energy without entropy =      -80.14377147  energy(sigma->0) =      -80.14377147
  exchange ACFDT corr.  =        -0.00000000  see jH, gK, PRB 81, 115126


--------------------------------------------------------------------------------------------------------




--------------------------------------- Iteration     17(   5)  ---------------------------------------


    POTLOK:  cpu time    8.3026: real time    8.3109
    SETDIJ:  cpu time    0.9362: real time    0.9373
    TRIAL :  cpu time  645.3520: real time  646.6971
    CORREC:  cpu time    0.0004: real time    0.0004
    EDDIAG:  cpu time  635.0998: real time  636.3154
    CHARGE:  cpu time    1.5760: real time    1.5795
    --------------------------------------------
      LOOP:  cpu time 1291.2675: real time 1293.8420

 eigenvalue-minimisations  :     0
 total energy-change (2. order) :-0.4668822E-05  (-0.2343850E-05)
 number of electron      48.0000002 magnetization 
 augmentation part       -1.2491802 magnetization 

 Free energy of the ion-electron system (eV)
  ---------------------------------------------------
  alpha Z        PSCENC =        13.10177784
  Ewald energy   TEWEN  =      1361.07746377
  -Hartree energ DENC   =     -2509.02393761
  -exchange      EXHF   =        75.38026520
  -V(xc)+E(xc)   XCENC  =      -142.09794811
  PAW double counting   =      1713.76222158    -1484.63185918
  entropy T*S    EENTRO =        -0.00000000
  eigenvalues    EBANDS =      -358.90491088
  atomic energy  EATOM  =      1251.19323263
  ---------------------------------------------------
  free energy    TOTEN  =       -80.14377614 eV

  energy without entropy =      -80.14377614  energy(sigma->0) =      -80.14377614
  exchange ACFDT corr.  =        -0.00000000  see jH, gK, PRB 81, 115126


--------------------------------------------------------------------------------------------------------


  average scaling for gradient   0.8997


 average (electrostatic) potential at core
  the test charge radii are     1.0406  0.6991  1.1897  0.5883
  (the norm of the test charge is              1.0000)
       1 -54.8749       2 -54.8596       3 -54.8710       4 -54.8829       5 -54.9159
       6 -54.9495       7 -54.8168       8 -54.8902       9 -51.0202      10 -51.0196
      11 -51.0777      12 -51.1335      13 -93.2183      14 -34.3000      15 -33.8352



 E-fermi :  -2.0343     XC(G=0):  -2.9196     alpha+bet : -2.8557


 k-point     1 :       0.0000    0.0000    0.0000
  band No.  band energies     occupation 
      1     -15.8590      2.00000
      2     -15.2313      2.00000
      3     -15.0749      2.00000
      4     -12.9583      2.00000
      5     -12.8621      2.00000
      6      -9.6279      2.00000
      7      -9.3519      2.00000
      8      -9.3210      2.00000
      9      -8.4396      2.00000
     10      -7.4257      2.00000
     11      -7.0010      2.00000
     12      -6.4500      2.00000
     13      -6.0009      2.00000
     14      -5.5037      2.00000
     15      -5.1916      2.00000
     16      -4.9152      2.00000
     17      -4.5038      2.00000
     18      -4.3764      2.00000
     19      -3.4199      2.00000
     20      -3.2031      2.00000
     21      -3.1685      2.00000
     22      -2.6102      2.00000
     23      -2.3461      2.00000
     24      -2.3027      2.00000
     25      -0.8235      0.00000
     26      -0.2748      0.00000
     27       0.2497      0.00000
     28       0.6041      0.00000
     29       0.7798      0.00000
     30       0.9387      0.00000
     31       1.0791      0.00000
     32       1.3688      0.00000

 k-point     2 :       0.2000    0.0000    0.0000
  band No.  band energies     occupation 
      1     -15.8371      2.00000
      2     -15.1051      2.00000
      3     -14.9495      2.00000
      4     -13.3698      2.00000
      5     -13.2518      2.00000
      6      -9.1755      2.00000
      7      -8.9782      2.00000
      8      -8.7098      2.00000
      9      -8.4555      2.00000
     10      -7.4376      2.00000
     11      -6.8763      2.00000
     12      -6.8069      2.00000
     13      -6.3174      2.00000
     14      -5.4491      2.00000
     15      -5.2193      2.00000
     16      -4.8026      2.00000
     17      -4.4454      2.00000
     18      -3.9697      2.00000
     19      -3.9212      2.00000
     20      -3.8797      2.00000
     21      -3.7504      2.00000
     22      -3.0158      2.00000
     23      -2.7669      2.00000
     24      -2.3165      2.00000
     25      -0.8021      0.00000
     26       0.4442      0.00000
     27       0.7168      0.00000
     28       0.8263      0.00000
     29       1.0324      0.00000
     30       1.0641      0.00000
     31       1.1585      0.00000
     32       1.5022      0.00000

 k-point     3 :       0.4000    0.0000    0.0000
  band No.  band energies     occupation 
      1     -15.8056      2.00000
      2     -14.7225      2.00000
      3     -14.5686      2.00000
      4     -14.1019      2.00000
      5     -13.9593      2.00000
      6      -8.7237      2.00000
      7      -8.4639      2.00000
      8      -7.9193      2.00000
      9      -7.6843      2.00000
     10      -7.3712      2.00000
     11      -7.1438      2.00000
     12      -6.5103      2.00000
     13      -6.1741      2.00000
     14      -5.9753      2.00000
     15      -5.5389      2.00000
     16      -5.2498      2.00000
     17      -5.0490      2.00000
     18      -4.7850      2.00000
     19      -4.4589      2.00000
     20      -4.2105      2.00000
     21      -3.7436      2.00000
     22      -3.4403      2.00000
     23      -2.8427      2.00000
     24      -2.4037      2.00000
     25      -0.4581      0.00000
     26       0.2415      0.00000
     27       0.9229      0.00000
     28       1.3184      0.00000
     29       1.4100      0.00000
     30       1.6137      0.00000
     31       1.7271      0.00000
     32       2.1440      0.00000

 k-point     4 :       0.0000    0.3333    0.0000
  band No.  band energies     occupation 
      1     -15.8579      2.00000
      2     -15.1977      2.00000
      3     -15.1145      2.00000
      4     -12.9468      2.00000
      5     -12.8744      2.00000
      6      -9.5754      2.00000
      7      -9.4050      2.00000
      8      -9.0242      2.00000
      9      -8.4532      2.00000
     10      -8.0828      2.00000
     11      -7.4002      2.00000
     12      -5.8303      2.00000
     13      -5.4531      2.00000
     14      -5.3802      2.00000
     15      -5.0904      2.00000
     16      -5.0498      2.00000
     17      -4.4165      2.00000
     18      -4.2044      2.00000
     19      -3.7124      2.00000
     20      -3.2971      2.00000
     21      -3.1983      2.00000
     22      -3.1713      2.00000
     23      -2.5955      2.00000
     24      -2.3185      2.00000
     25      -0.5906      0.00000
     26       0.0967      0.00000
     27       0.2836      0.00000
     28       0.4540      0.00000
     29       0.6958      0.00000
     30       0.8776      0.00000
     31       1.1303      0.00000
     32       1.3774      0.00000

 k-point     5 :       0.2000    0.3333    0.0000
  band No.  band energies     occupation 
      1     -15.8363      2.00000
      2     -15.0692      2.00000
      3     -14.9906      2.00000
      4     -13.3509      2.00000
      5     -13.2723      2.00000
      6      -8.9467      2.00000
      7      -8.8675      2.00000
      8      -8.7673      2.00000
      9      -8.4507      2.00000
     10      -7.9525      2.00000
     11      -7.4006      2.00000
     12      -6.5581      2.00000
     13      -5.9184      2.00000
     14      -5.2016      2.00000
     15      -4.9766      2.00000
     16      -4.8879      2.00000
     17      -4.3779      2.00000
     18      -3.9541      2.00000
     19      -3.9075      2.00000
     20      -3.7281      2.00000
     21      -3.6770      2.00000
     22      -3.2269      2.00000
     23      -2.9429      2.00000
     24      -2.8010      2.00000
     25      -0.4658      0.00000
     26       0.2169      0.00000
     27       0.6257      0.00000
     28       0.7747      0.00000
     29       0.8940      0.00000
     30       1.1153      0.00000
     31       1.2847      0.00000
     32       1.5105      0.00000

 k-point     6 :       0.4000    0.3333    0.0000
  band No.  band energies     occupation 
      1     -15.8054      2.00000
      2     -14.6877      2.00000
      3     -14.6075      2.00000
      4     -14.0734      2.00000
      5     -13.9908      2.00000
      6      -8.5740      2.00000
      7      -8.3132      2.00000
      8      -7.8445      2.00000
      9      -7.5856      2.00000
     10      -7.5051      2.00000
     11      -7.3280      2.00000
     12      -7.1166      2.00000
     13      -6.6678      2.00000
     14      -5.6681      2.00000
     15      -5.5661      2.00000
     16      -4.9657      2.00000
     17      -4.5113      2.00000
     18      -4.4707      2.00000
     19      -4.2624      2.00000
     20      -4.0201      2.00000
     21      -3.7481      2.00000
     22      -3.4638      2.00000
     23      -3.1330      2.00000
     24      -3.0400      2.00000
     25      -0.1187      0.00000
     26       0.3624      0.00000
     27       0.7509      0.00000
     28       1.0681      0.00000
     29       1.1976      0.00000
     30       1.6080      0.00000
     31       1.7628      0.00000
     32       1.8386      0.00000

 k-point     7 :      -0.4000    0.3333    0.0000
  band No.  band energies     occupation 
      1     -15.8054      2.00000
      2     -14.6876      2.00000
      3     -14.6077      2.00000
      4     -14.0733      2.00000
      5     -13.9909      2.00000
      6      -8.5714      2.00000
      7      -8.3261      2.00000
      8      -7.8152      2.00000
      9      -7.5966      2.00000
     10      -7.5056      2.00000
     11      -7.3351      2.00000
     12      -7.1179      2.00000
     13      -6.6673      2.00000
     14      -5.6770      2.00000
     15      -5.5635      2.00000
     16      -4.9537      2.00000
     17      -4.5295      2.00000
     18      -4.4693      2.00000
     19      -4.2483      2.00000
     20      -4.0163      2.00000
     21      -3.7348      2.00000
     22      -3.4935      2.00000
     23      -3.1258      2.00000
     24      -3.0363      2.00000
     25      -0.1427      0.00000
     26       0.4703      0.00000
     27       0.7172      0.00000
     28       0.9157      0.00000
     29       1.2850      0.00000
     30       1.6086      0.00000
     31       1.7859      0.00000
     32       1.8794      0.00000

 k-point     8 :      -0.2000    0.3333    0.0000
  band No.  band energies     occupation 
      1     -15.8363      2.00000
      2     -15.0691      2.00000
      3     -14.9907      2.00000
      4     -13.3508      2.00000
      5     -13.2723      2.00000
      6      -8.9492      2.00000
      7      -8.8652      2.00000
      8      -8.7668      2.00000
      9      -8.4553      2.00000
     10      -7.9424      2.00000
     11      -7.4046      2.00000
     12      -6.5555      2.00000
     13      -5.9308      2.00000
     14      -5.1919      2.00000
     15      -4.9865      2.00000
     16      -4.8954      2.00000
     17      -4.3521      2.00000
     18      -3.9489      2.00000
     19      -3.9088      2.00000
     20      -3.7421      2.00000
     21      -3.6665      2.00000
     22      -3.2486      2.00000
     23      -2.9170      2.00000
     24      -2.8120      2.00000
     25      -0.4876      0.00000
     26       0.2848      0.00000
     27       0.5331      0.00000
     28       0.7939      0.00000
     29       0.9182      0.00000
     30       1.1950      0.00000
     31       1.2397      0.00000
     32       1.5460      0.00000


--------------------------------------------------------------------------------------------------------


 soft charge-density along one line, spin component           1
         0         1         2         3         4         5         6         7         8         9
 total charge-density along one line

 pseudopotential strength for first ion, spin component:           1
  7.182 -16.882  -0.005  -0.002  -0.000   0.027   0.009   0.000
-16.882  49.271   0.012   0.004   0.000  -0.057  -0.018  -0.000
 -0.005   0.012   1.704  -0.000   0.000  -6.725   0.001  -0.000
 -0.002   0.004  -0.000   1.709  -0.000   0.001  -6.747   0.000
 -0.000   0.000   0.000  -0.000   1.704  -0.000   0.000  -6.726
  0.027  -0.057  -6.725   0.001  -0.000  28.450  -0.005   0.000
  0.009  -0.018   0.001  -6.747   0.000  -0.005  28.539  -0.000
  0.000  -0.000  -0.000   0.000  -6.726   0.000  -0.000  28.457
  0.000  -0.000  -0.000  -0.000  -0.005   0.000   0.000   0.012
 -0.001   0.001  -0.001  -0.004  -0.000   0.003   0.010   0.000
  0.011  -0.012   0.002  -0.002   0.000  -0.005   0.004  -0.000
 -0.000   0.000  -0.000  -0.000  -0.001   0.000   0.000   0.003
  0.001  -0.001   0.003  -0.000  -0.000  -0.007   0.000   0.000
 -0.000   0.000   0.000   0.000   0.017  -0.000  -0.000  -0.059
  0.004  -0.007   0.004   0.016   0.000  -0.015  -0.056  -0.000
 -0.041   0.072  -0.007   0.007  -0.000   0.026  -0.022   0.000
  0.000  -0.000   0.000   0.000   0.005  -0.000  -0.000  -0.017
 -0.002   0.004  -0.012   0.000   0.000   0.041  -0.001  -0.000
 total augmentation occupancy for first ion, spin component:           1
  1.390   0.033   0.002   0.013   0.000   0.005   0.001   0.000  -0.000   0.014  -0.104   0.000  -0.024  -0.000   0.001  -0.005
  0.033   0.001   0.008   0.002   0.000   0.000   0.000   0.000  -0.000   0.001  -0.003   0.000  -0.000  -0.000   0.000  -0.000
  0.002   0.008   1.338   0.062  -0.000   0.027   0.002  -0.000   0.000   0.021  -0.074   0.000   0.068   0.000   0.001  -0.003
  0.013   0.002   0.062   0.408   0.002   0.002   0.007   0.000   0.000   0.062   0.007   0.000   0.005   0.000   0.002   0.000
  0.000   0.000  -0.000   0.002   1.198  -0.000   0.000   0.026   0.248   0.000   0.000   0.032  -0.000   0.008   0.000   0.000
  0.005   0.000   0.027   0.002  -0.000   0.001   0.000  -0.000   0.000   0.001  -0.002   0.000   0.001   0.000   0.000  -0.000
  0.001   0.000   0.002   0.007   0.000   0.000   0.000   0.000   0.000   0.001   0.000   0.000   0.000   0.000   0.000  -0.000
  0.000   0.000  -0.000   0.000   0.026  -0.000   0.000   0.001   0.005   0.000   0.000   0.001  -0.000   0.000   0.000   0.000
 -0.000  -0.000   0.000   0.000   0.248   0.000   0.000   0.005   0.070   0.000   0.000   0.007   0.000   0.002   0.000   0.000
  0.014   0.001   0.021   0.062   0.000   0.001   0.001   0.000   0.000   0.011  -0.000   0.000  -0.002   0.000   0.000  -0.000
 -0.104  -0.003  -0.074   0.007   0.000  -0.002   0.000   0.000   0.000  -0.000   0.014   0.000  -0.004   0.000  -0.000   0.001
  0.000   0.000   0.000   0.000   0.032   0.000   0.000   0.001   0.007   0.000   0.000   0.022   0.000   0.000   0.000  -0.000
 -0.024  -0.000   0.068   0.005  -0.000   0.001   0.000  -0.000   0.000  -0.002  -0.004   0.000   0.045  -0.000  -0.000  -0.000
 -0.000  -0.000   0.000   0.000   0.008   0.000   0.000   0.000   0.002   0.000   0.000   0.000  -0.000   0.000   0.000   0.000
  0.001   0.000   0.001   0.002   0.000   0.000   0.000   0.000   0.000   0.000  -0.000   0.000  -0.000   0.000   0.000  -0.000
 -0.005  -0.000  -0.003   0.000   0.000  -0.000  -0.000   0.000   0.000  -0.000   0.001  -0.000  -0.000   0.000  -0.000   0.000
  0.000   0.000   0.000   0.000   0.001   0.000   0.000   0.000   0.000   0.000  -0.000   0.001   0.000   0.000   0.000  -0.000
 -0.001  -0.000   0.001   0.000  -0.000   0.000   0.000  -0.000  -0.000  -0.000  -0.000   0.000   0.001  -0.000  -0.000  -0.000


------------------------ aborting loop because EDIFF is reached ----------------------------------------


    FORLOC:  cpu time    0.2238: real time    0.2240
    FORHF :  cpu time 1077.2560: real time 1079.4414
    FORNL :  cpu time    6.3602: real time    6.3855
    STRESS:  cpu time   19.2952: real time   19.3609
    FORCOR:  cpu time    8.2340: real time    8.2495
    OFIELD:  cpu time    0.0086: real time    0.0086

  FORCE on cell =-STRESS in cart. coord.  units (eV):
  Direction    XX          YY          ZZ          XY          YZ          ZX
  --------------------------------------------------------------------------------------
  Alpha Z    13.10178    13.10178    13.10178
  Ewald    2358.74870  1934.33533 -2932.00807    -8.61775   -42.13265    -7.53219
  Hartree  2378.02825  2083.70914 -1952.70962    -0.46830   -20.62819    -2.53356
  E(xc)    -120.10790  -120.72930  -118.26816     0.03620    -0.03218    -0.07363
  Local   -5228.92615 -4519.65808  4405.87555     6.17934    57.86942     6.07769
  n-local   224.51200   236.36631   190.77662    -0.50487     0.55701     1.67084
  augment   -29.49067   -31.21019   -27.62201    -0.36990    -0.88738    -0.80452
  Kinetic   435.27044   430.41449   451.12604     3.77153     5.01614     3.04604
  Fock      -31.70861   -31.30697   -30.95992     0.06542     0.16225     0.15792
  -------------------------------------------------------------------------------------
  Total      -0.57216    -4.97751    -0.68779     0.09166    -0.07559     0.00859
  in kB      -1.00129    -8.71073    -1.20365     0.16040    -0.13228     0.01503
  external pressure =       -3.64 kB  Pullay stress =        0.00 kB


 VOLUME and BASIS-vectors are now :
 -----------------------------------------------------------------------------
  energy-cutoff  :      450.00
  volume of cell :      915.52
      direct lattice vectors                 reciprocal lattice vectors
     6.019200000  0.000000000  0.000000000     0.166135035  0.000000000  0.000000000
     0.000000000 10.140000000  0.000000000     0.000000000  0.098619329  0.000000000
     0.000000000  0.000000000 15.000000000     0.000000000  0.000000000  0.066666667

  length of vectors
     6.019200000 10.140000000 15.000000000     0.166135035  0.098619329  0.066666667


 FORCES acting on ions:
    Electron-Ion                     Ewald-Force                    Non-Local-Force
 -----------------------------------------------------------------------------------------------
   0.261E+00 0.487E+02 0.348E+02   -.255E+00 -.459E+02 -.340E+02   -.424E-02 -.307E+01 -.915E+00
   -.314E+00 0.484E+02 -.580E+01   0.327E+00 -.456E+02 0.515E+01   -.169E-01 -.308E+01 0.703E+00
   0.121E+01 -.576E+02 0.477E+02   -.129E+01 0.550E+02 -.466E+02   0.933E-01 0.290E+01 -.125E+01
   -.222E+01 -.598E+02 -.858E+00   0.222E+01 0.572E+02 0.117E+00   -.814E-02 0.298E+01 0.796E+00
   0.474E+01 0.536E+02 0.375E+01   -.485E+01 -.515E+02 -.545E+01   0.130E+00 -.233E+01 0.184E+01
   -.183E+01 0.523E+02 0.476E+02   0.201E+01 -.497E+02 -.466E+02   -.207E+00 -.297E+01 -.104E+01
   0.908E+00 -.409E+02 -.169E+01   -.923E+00 0.386E+02 0.108E+01   0.147E-01 0.262E+01 0.651E+00
   -.635E+00 -.447E+02 0.364E+02   0.639E+00 0.417E+02 -.356E+02   -.287E-02 0.322E+01 -.852E+00
   0.959E-02 0.392E+01 0.207E+02   0.589E-01 -.388E+01 -.208E+02   -.404E-01 -.286E-01 0.120E+00
   -.134E-01 0.435E+01 0.203E+02   -.562E-01 -.432E+01 -.204E+02   0.461E-01 -.176E-01 0.928E-01
   0.246E+01 -.556E+01 0.308E+02   -.236E+01 0.563E+01 -.309E+02   -.598E-01 -.608E-01 0.942E-01
   -.309E+01 -.766E+01 0.365E+02   0.294E+01 0.776E+01 -.367E+02   0.105E+00 -.885E-01 0.190E+00
   0.145E+02 -.200E+02 -.192E+03   -.188E+02 0.260E+02 0.188E+03   0.443E+01 -.621E+01 0.372E+01
   -.244E+02 0.137E+02 -.314E+02   0.270E+02 -.149E+02 0.313E+02   -.251E+01 0.118E+01 0.126E+00
   0.612E+01 0.148E+02 -.490E+02   -.661E+01 -.162E+02 0.512E+02   0.483E+00 0.134E+01 -.216E+01
 -----------------------------------------------------------------------------------------------
   -.244E+01 0.363E+01 -.211E+01   -.622E-14 0.213E-13 -.711E-14   0.245E+01 -.361E+01 0.211E+01


 POSITION                                       TOTAL-FORCE (eV/Angst)
 -----------------------------------------------------------------------------------
      2.60040      8.89596      3.56208         0.001963      0.017498      0.019927
      5.60984      8.89976      3.91843        -0.001976     -0.008852     -0.004194
      2.60315      6.26021      3.60879         0.006948     -0.030687     -0.011500
      5.61824      6.27783      4.02042        -0.001665      0.021552     -0.008087
      2.59678      3.81536      4.12923         0.005176      0.027031      0.000122
      5.61823      3.83507      3.64247        -0.010490     -0.020800      0.006732
      2.59899      1.20030      3.93244        -0.000829     -0.011581     -0.017905
      5.60895      1.19945      3.58107         0.001245      0.008463      0.018066
      1.09477     10.11699      3.73230         0.027720      0.004245     -0.004161
      4.10475     10.11727      3.73892        -0.023077      0.005548      0.004595
      1.09986      5.05143      3.85253         0.040732      0.006977     -0.011118
      4.11025      5.05558      3.88412        -0.047071      0.006655      0.020473
      3.36283      4.43731      7.00010         0.019017     -0.030629     -0.029173
      4.86341      3.72834      6.92915        -0.022375      0.010783      0.008183
      3.04813      3.56653      8.40897         0.004680     -0.006205      0.008039
 -----------------------------------------------------------------------------------
    total drift:                                0.001042      0.015346      0.004151


--------------------------------------------------------------------------------------------------------



  FREE ENERGIE OF THE ION-ELECTRON SYSTEM (eV)
  ---------------------------------------------------
  free  energy   TOTEN  =       -80.14377614 eV

  energy  without entropy=      -80.14377614  energy(sigma->0) =      -80.14377614

 d Force = 0.3524352E-04[ 0.339E-04, 0.366E-04]  d Energy = 0.3285454E-04 0.239E-05
 d Force = 0.3436704E-01[ 0.344E-01, 0.343E-01]  d Ewald  = 0.3436704E-01-0.370E-09


--------------------------------------------------------------------------------------------------------


    POTLOK:  cpu time    9.2237: real time    9.2394


--------------------------------------------------------------------------------------------------------


 stress matrix after NEB project (eV)
     -0.57216      0.09166      0.00859
      0.09166     -4.97751     -0.07559
      0.00859     -0.07559     -0.68779
  FORCES: max atom, RMS     0.051760    0.030023
  FORCE total and by dimension    0.116278    0.047071
  Stress total and by dimension    5.060080    4.977511


--------------------------------------------------------------------------------------------------------


    WAVPRE:  cpu time    0.5251: real time    1.1159
    FEWALD:  cpu time    0.0027: real time    0.0028
    ORTHCH:  cpu time    2.6323: real time    2.6459
    CHARGE:  cpu time    1.5636: real time    1.5720
     LOOP+:  cpu time 5054.1250: real time 5070.6690


--------------------------------------- Iteration     18(   1)  ---------------------------------------


    POTLOK:  cpu time    8.2904: real time    8.3032
    SETDIJ:  cpu time    0.9557: real time    0.9577
    TRIAL :  cpu time  646.1632: real time  648.1173
    CORREC:  cpu time    0.0003: real time    0.0003
    CHARGE:  cpu time    1.5582: real time    1.5635
    --------------------------------------------
      LOOP:  cpu time  657.0270: real time  659.0019

 eigenvalue-minimisations  :     0
 total energy-change (2. order) : 0.4051290E-03  (-0.5092181E-03)
 number of electron      48.0000002 magnetization 
 augmentation part       -1.2492145 magnetization 

 Free energy of the ion-electron system (eV)
  ---------------------------------------------------
  alpha Z        PSCENC =        13.10177784
  Ewald energy   TEWEN  =      1361.03586080
  -Hartree energ DENC   =     -2509.02605497
  -exchange      EXHF   =        75.38030275
  -V(xc)+E(xc)   XCENC  =      -142.09785098
  PAW double counting   =      1713.75516554    -1484.62474193
  entropy T*S    EENTRO =        -0.00000000
  eigenvalues    EBANDS =      -358.86105802
  atomic energy  EATOM  =      1251.19323263
  ---------------------------------------------------
  free energy    TOTEN  =       -80.14336634 eV

  energy without entropy =      -80.14336634  energy(sigma->0) =      -80.14336634
  exchange ACFDT corr.  =        -0.00000000  see jH, gK, PRB 81, 115126


--------------------------------------------------------------------------------------------------------




--------------------------------------- Iteration     18(   2)  ---------------------------------------


    POTLOK:  cpu time    8.2844: real time    8.3092
    SETDIJ:  cpu time    0.9358: real time    0.9398
    TRIAL :  cpu time  641.5487: real time  643.5926
    CORREC:  cpu time    0.0004: real time    0.0004
    CHARGE:  cpu time    1.5591: real time    1.5647
    --------------------------------------------
      LOOP:  cpu time  652.3289: real time  654.4081

 eigenvalue-minimisations  :     0
 total energy-change (2. order) :-0.2891012E-03  (-0.1419484E-03)
 number of electron      48.0000002 magnetization 
 augmentation part       -1.2492141 magnetization 

 Free energy of the ion-electron system (eV)
  ---------------------------------------------------
  alpha Z        PSCENC =        13.10177784
  Ewald energy   TEWEN  =      1361.03586080
  -Hartree energ DENC   =     -2509.01211111
  -exchange      EXHF   =        75.38033279
  -V(xc)+E(xc)   XCENC  =      -142.09787136
  PAW double counting   =      1713.75406043    -1484.62372376
  entropy T*S    EENTRO =        -0.00000000
  eigenvalues    EBANDS =      -358.87521370
  atomic energy  EATOM  =      1251.19323263
  ---------------------------------------------------
  free energy    TOTEN  =       -80.14365545 eV

  energy without entropy =      -80.14365545  energy(sigma->0) =      -80.14365545
  exchange ACFDT corr.  =        -0.00000000  see jH, gK, PRB 81, 115126


--------------------------------------------------------------------------------------------------------




--------------------------------------- Iteration     18(   3)  ---------------------------------------


    POTLOK:  cpu time    8.2871: real time    8.3006
    SETDIJ:  cpu time    0.9240: real time    0.9267
    TRIAL :  cpu time  643.7372: real time  645.4295
    CORREC:  cpu time    0.0004: real time    0.0004
    CHARGE:  cpu time    1.5749: real time    1.5786
    --------------------------------------------
      LOOP:  cpu time  654.5242: real time  656.2372

 eigenvalue-minimisations  :     0
 total energy-change (2. order) :-0.7730701E-04  (-0.5170748E-04)
 number of electron      48.0000002 magnetization 
 augmentation part       -1.2491974 magnetization 

 Free energy of the ion-electron system (eV)
  ---------------------------------------------------
  alpha Z        PSCENC =        13.10177784
  Ewald energy   TEWEN  =      1361.03586080
  -Hartree energ DENC   =     -2508.99970088
  -exchange      EXHF   =        75.38032879
  -V(xc)+E(xc)   XCENC  =      -142.09785727
  PAW double counting   =      1713.75440691    -1484.62403580
  entropy T*S    EENTRO =        -0.00000000
  eigenvalues    EBANDS =      -358.88774578
  atomic energy  EATOM  =      1251.19323263
  ---------------------------------------------------
  free energy    TOTEN  =       -80.14373275 eV

  energy without entropy =      -80.14373275  energy(sigma->0) =      -80.14373275
  exchange ACFDT corr.  =        -0.00000000  see jH, gK, PRB 81, 115126


--------------------------------------------------------------------------------------------------------




--------------------------------------- Iteration     18(   4)  ---------------------------------------


    POTLOK:  cpu time    8.3035: real time    8.3106
    SETDIJ:  cpu time    0.9426: real time    0.9436
    TRIAL :  cpu time  643.5596: real time  644.9683
    CORREC:  cpu time    0.0004: real time    0.0004
    CHARGE:  cpu time    1.5658: real time    1.5710
    --------------------------------------------
      LOOP:  cpu time  654.3727: real time  655.7956

 eigenvalue-minimisations  :     0
 total energy-change (2. order) :-0.2663562E-04  (-0.1795683E-04)
 number of electron      48.0000002 magnetization 
 augmentation part       -1.2491966 magnetization 

 Free energy of the ion-electron system (eV)
  ---------------------------------------------------
  alpha Z        PSCENC =        13.10177784
  Ewald energy   TEWEN  =      1361.03586080
  -Hartree energ DENC   =     -2508.98655376
  -exchange      EXHF   =        75.38022351
  -V(xc)+E(xc)   XCENC  =      -142.09800713
  PAW double counting   =      1713.74910207    -1484.61874118
  entropy T*S    EENTRO =        -0.00000000
  eigenvalues    EBANDS =      -358.90065416
  atomic energy  EATOM  =      1251.19323263
  ---------------------------------------------------
  free energy    TOTEN  =       -80.14375939 eV

  energy without entropy =      -80.14375939  energy(sigma->0) =      -80.14375939
  exchange ACFDT corr.  =        -0.00000000  see jH, gK, PRB 81, 115126


--------------------------------------------------------------------------------------------------------




--------------------------------------- Iteration     18(   5)  ---------------------------------------


    POTLOK:  cpu time    8.2910: real time    8.3035
    SETDIJ:  cpu time    0.9451: real time    0.9475
    TRIAL :  cpu time  641.4413: real time  643.7152
    CORREC:  cpu time    0.0004: real time    0.0004
    EDDIAG:  cpu time  630.1763: real time  632.3451
    CHARGE:  cpu time    1.5669: real time    1.5725
    --------------------------------------------
      LOOP:  cpu time 1282.4219: real time 1286.8861

 eigenvalue-minimisations  :     0
 total energy-change (2. order) :-0.7241140E-05  (-0.3810198E-05)
 number of electron      48.0000002 magnetization 
 augmentation part       -1.2492041 magnetization 

 Free energy of the ion-electron system (eV)
  ---------------------------------------------------
  alpha Z        PSCENC =        13.10177784
  Ewald energy   TEWEN  =      1361.03586080
  -Hartree energ DENC   =     -2508.98306931
  -exchange      EXHF   =        75.38034212
  -V(xc)+E(xc)   XCENC  =      -142.09799270
  PAW double counting   =      1713.75566842    -1484.62530224
  entropy T*S    EENTRO =        -0.00000000
  eigenvalues    EBANDS =      -358.90418697
  atomic energy  EATOM  =      1251.19323263
  ---------------------------------------------------
  free energy    TOTEN  =       -80.14376663 eV

  energy without entropy =      -80.14376663  energy(sigma->0) =      -80.14376663
  exchange ACFDT corr.  =        -0.00000000  see jH, gK, PRB 81, 115126


--------------------------------------------------------------------------------------------------------


  average scaling for gradient   0.9239


 average (electrostatic) potential at core
  the test charge radii are     1.0406  0.6991  1.1897  0.5883
  (the norm of the test charge is              1.0000)
       1 -54.8751       2 -54.8609       3 -54.8694       4 -54.8836       5 -54.9150
       6 -54.9510       7 -54.8161       8 -54.8908       9 -51.0209      10 -51.0204
      11 -51.0773      12 -51.1332      13 -93.2174      14 -34.3035      15 -33.8309



 E-fermi :  -2.0367     XC(G=0):  -2.9196     alpha+bet : -2.8557


 k-point     1 :       0.0000    0.0000    0.0000
  band No.  band energies     occupation 
      1     -15.8590      2.00000
      2     -15.2318      2.00000
      3     -15.0748      2.00000
      4     -12.9574      2.00000
      5     -12.8633      2.00000
      6      -9.6273      2.00000
      7      -9.3523      2.00000
      8      -9.3210      2.00000
      9      -8.4393      2.00000
     10      -7.4255      2.00000
     11      -7.0008      2.00000
     12      -6.4494      2.00000
     13      -6.0005      2.00000
     14      -5.5046      2.00000
     15      -5.1915      2.00000
     16      -4.9164      2.00000
     17      -4.5021      2.00000
     18      -4.3760      2.00000
     19      -3.4199      2.00000
     20      -3.2015      2.00000
     21      -3.1704      2.00000
     22      -2.6099      2.00000
     23      -2.3460      2.00000
     24      -2.3045      2.00000
     25      -0.8225      0.00000
     26      -0.2739      0.00000
     27       0.2507      0.00000
     28       0.6056      0.00000
     29       0.7791      0.00000
     30       0.9377      0.00000
     31       1.0798      0.00000
     32       1.3680      0.00000

 k-point     2 :       0.2000    0.0000    0.0000
  band No.  band energies     occupation 
      1     -15.8370      2.00000
      2     -15.1053      2.00000
      3     -14.9496      2.00000
      4     -13.3691      2.00000
      5     -13.2528      2.00000
      6      -9.1749      2.00000
      7      -8.9776      2.00000
      8      -8.7109      2.00000
      9      -8.4553      2.00000
     10      -7.4372      2.00000
     11      -6.8761      2.00000
     12      -6.8066      2.00000
     13      -6.3168      2.00000
     14      -5.4491      2.00000
     15      -5.2197      2.00000
     16      -4.8038      2.00000
     17      -4.4445      2.00000
     18      -3.9688      2.00000
     19      -3.9233      2.00000
     20      -3.8784      2.00000
     21      -3.7498      2.00000
     22      -3.0161      2.00000
     23      -2.7680      2.00000
     24      -2.3161      2.00000
     25      -0.8018      0.00000
     26       0.4464      0.00000
     27       0.7178      0.00000
     28       0.8254      0.00000
     29       1.0320      0.00000
     30       1.0636      0.00000
     31       1.1592      0.00000
     32       1.5017      0.00000

 k-point     3 :       0.4000    0.0000    0.0000
  band No.  band energies     occupation 
      1     -15.8057      2.00000
      2     -14.7223      2.00000
      3     -14.5690      2.00000
      4     -14.1016      2.00000
      5     -13.9600      2.00000
      6      -8.7231      2.00000
      7      -8.4639      2.00000
      8      -7.9188      2.00000
      9      -7.6831      2.00000
     10      -7.3727      2.00000
     11      -7.1431      2.00000
     12      -6.5102      2.00000
     13      -6.1738      2.00000
     14      -5.9751      2.00000
     15      -5.5392      2.00000
     16      -5.2497      2.00000
     17      -5.0488      2.00000
     18      -4.7850      2.00000
     19      -4.4599      2.00000
     20      -4.2102      2.00000
     21      -3.7449      2.00000
     22      -3.4400      2.00000
     23      -2.8423      2.00000
     24      -2.4032      2.00000
     25      -0.4582      0.00000
     26       0.2416      0.00000
     27       0.9237      0.00000
     28       1.3177      0.00000
     29       1.4103      0.00000
     30       1.6131      0.00000
     31       1.7274      0.00000
     32       2.1434      0.00000

 k-point     4 :       0.0000    0.3333    0.0000
  band No.  band energies     occupation 
      1     -15.8578      2.00000
      2     -15.1985      2.00000
      3     -15.1140      2.00000
      4     -12.9456      2.00000
      5     -12.8759      2.00000
      6      -9.5744      2.00000
      7      -9.4064      2.00000
      8      -9.0236      2.00000
      9      -8.4528      2.00000
     10      -8.0826      2.00000
     11      -7.3999      2.00000
     12      -5.8299      2.00000
     13      -5.4534      2.00000
     14      -5.3804      2.00000
     15      -5.0907      2.00000
     16      -5.0504      2.00000
     17      -4.4153      2.00000
     18      -4.2038      2.00000
     19      -3.7120      2.00000
     20      -3.2967      2.00000
     21      -3.1964      2.00000
     22      -3.1736      2.00000
     23      -2.5951      2.00000
     24      -2.3205      2.00000
     25      -0.5902      0.00000
     26       0.0972      0.00000
     27       0.2844      0.00000
     28       0.4544      0.00000
     29       0.6972      0.00000
     30       0.8777      0.00000
     31       1.1297      0.00000
     32       1.3764      0.00000

 k-point     5 :       0.2000    0.3333    0.0000
  band No.  band energies     occupation 
      1     -15.8363      2.00000
      2     -15.0696      2.00000
      3     -14.9905      2.00000
      4     -13.3498      2.00000
      5     -13.2737      2.00000
      6      -8.9453      2.00000
      7      -8.8671      2.00000
      8      -8.7688      2.00000
      9      -8.4505      2.00000
     10      -7.9522      2.00000
     11      -7.4000      2.00000
     12      -6.5578      2.00000
     13      -5.9182      2.00000
     14      -5.2017      2.00000
     15      -4.9765      2.00000
     16      -4.8892      2.00000
     17      -4.3772      2.00000
     18      -3.9535      2.00000
     19      -3.9085      2.00000
     20      -3.7273      2.00000
     21      -3.6768      2.00000
     22      -3.2266      2.00000
     23      -2.9426      2.00000
     24      -2.8025      2.00000
     25      -0.4655      0.00000
     26       0.2174      0.00000
     27       0.6266      0.00000
     28       0.7767      0.00000
     29       0.8933      0.00000
     30       1.1149      0.00000
     31       1.2840      0.00000
     32       1.5106      0.00000

 k-point     6 :       0.4000    0.3333    0.0000
  band No.  band energies     occupation 
      1     -15.8055      2.00000
      2     -14.6872      2.00000
      3     -14.6081      2.00000
      4     -14.0726      2.00000
      5     -13.9919      2.00000
      6      -8.5735      2.00000
      7      -8.3130      2.00000
      8      -7.8438      2.00000
      9      -7.5853      2.00000
     10      -7.5048      2.00000
     11      -7.3287      2.00000
     12      -7.1161      2.00000
     13      -6.6675      2.00000
     14      -5.6678      2.00000
     15      -5.5669      2.00000
     16      -4.9657      2.00000
     17      -4.5112      2.00000
     18      -4.4718      2.00000
     19      -4.2620      2.00000
     20      -4.0197      2.00000
     21      -3.7497      2.00000
     22      -3.4633      2.00000
     23      -3.1328      2.00000
     24      -3.0393      2.00000
     25      -0.1187      0.00000
     26       0.3626      0.00000
     27       0.7509      0.00000
     28       1.0687      0.00000
     29       1.1971      0.00000
     30       1.6086      0.00000
     31       1.7630      0.00000
     32       1.8379      0.00000

 k-point     7 :      -0.4000    0.3333    0.0000
  band No.  band energies     occupation 
      1     -15.8055      2.00000
      2     -14.6871      2.00000
      3     -14.6083      2.00000
      4     -14.0726      2.00000
      5     -13.9920      2.00000
      6      -8.5708      2.00000
      7      -8.3261      2.00000
      8      -7.8142      2.00000
      9      -7.5962      2.00000
     10      -7.5056      2.00000
     11      -7.3360      2.00000
     12      -7.1172      2.00000
     13      -6.6671      2.00000
     14      -5.6767      2.00000
     15      -5.5644      2.00000
     16      -4.9536      2.00000
     17      -4.5296      2.00000
     18      -4.4704      2.00000
     19      -4.2477      2.00000
     20      -4.0158      2.00000
     21      -3.7364      2.00000
     22      -3.4930      2.00000
     23      -3.1257      2.00000
     24      -3.0355      2.00000
     25      -0.1428      0.00000
     26       0.4703      0.00000
     27       0.7169      0.00000
     28       0.9168      0.00000
     29       1.2847      0.00000
     30       1.6092      0.00000
     31       1.7858      0.00000
     32       1.8783      0.00000

 k-point     8 :      -0.2000    0.3333    0.0000
  band No.  band energies     occupation 
      1     -15.8363      2.00000
      2     -15.0695      2.00000
      3     -14.9906      2.00000
      4     -13.3498      2.00000
      5     -13.2737      2.00000
      6      -8.9479      2.00000
      7      -8.8647      2.00000
      8      -8.7682      2.00000
      9      -8.4551      2.00000
     10      -7.9422      2.00000
     11      -7.4040      2.00000
     12      -6.5551      2.00000
     13      -5.9307      2.00000
     14      -5.1921      2.00000
     15      -4.9865      2.00000
     16      -4.8965      2.00000
     17      -4.3513      2.00000
     18      -3.9484      2.00000
     19      -3.9098      2.00000
     20      -3.7415      2.00000
     21      -3.6661      2.00000
     22      -3.2484      2.00000
     23      -2.9165      2.00000
     24      -2.8137      2.00000
     25      -0.4873      0.00000
     26       0.2851      0.00000
     27       0.5346      0.00000
     28       0.7946      0.00000
     29       0.9179      0.00000
     30       1.1954      0.00000
     31       1.2388      0.00000
     32       1.5437      0.00000


--------------------------------------------------------------------------------------------------------


 soft charge-density along one line, spin component           1
         0         1         2         3         4         5         6         7         8         9
 total charge-density along one line

 pseudopotential strength for first ion, spin component:           1
  7.182 -16.883  -0.005  -0.002  -0.000   0.027   0.009   0.000
-16.883  49.271   0.012   0.004   0.000  -0.057  -0.018  -0.000
 -0.005   0.012   1.704  -0.000   0.000  -6.725   0.001  -0.000
 -0.002   0.004  -0.000   1.709  -0.000   0.001  -6.747   0.000
 -0.000   0.000   0.000  -0.000   1.704  -0.000   0.000  -6.726
  0.027  -0.057  -6.725   0.001  -0.000  28.450  -0.005   0.000
  0.009  -0.018   0.001  -6.747   0.000  -0.005  28.540  -0.000
  0.000  -0.000  -0.000   0.000  -6.726   0.000  -0.000  28.457
  0.000  -0.000  -0.000  -0.000  -0.005   0.000   0.000   0.012
 -0.001   0.001  -0.001  -0.004  -0.000   0.003   0.010   0.000
  0.011  -0.012   0.002  -0.002   0.000  -0.005   0.004  -0.000
 -0.000   0.000  -0.000  -0.000  -0.001   0.000   0.000   0.003
  0.001  -0.001   0.003  -0.000  -0.000  -0.007   0.000   0.000
 -0.000   0.000   0.000   0.000   0.017  -0.000  -0.000  -0.059
  0.004  -0.007   0.004   0.016   0.000  -0.015  -0.056  -0.000
 -0.041   0.072  -0.007   0.007  -0.000   0.025  -0.022   0.000
  0.000  -0.000   0.000   0.000   0.005  -0.000  -0.000  -0.017
 -0.002   0.004  -0.012   0.000   0.000   0.041  -0.001  -0.000
 total augmentation occupancy for first ion, spin component:           1
  1.390   0.033   0.003   0.013   0.000   0.005   0.001   0.000  -0.000   0.014  -0.104   0.000  -0.024  -0.000   0.001  -0.005
  0.033   0.001   0.008   0.002   0.000   0.000   0.000   0.000  -0.000   0.001  -0.003   0.000  -0.000  -0.000   0.000  -0.000
  0.003   0.008   1.338   0.062  -0.000   0.027   0.002  -0.000   0.000   0.021  -0.074   0.001   0.068   0.000   0.001  -0.003
  0.013   0.002   0.062   0.408   0.002   0.002   0.007   0.000   0.001   0.062   0.007   0.000   0.005   0.000   0.002   0.000
  0.000   0.000  -0.000   0.002   1.198  -0.000   0.000   0.026   0.248   0.000   0.000   0.032  -0.000   0.008   0.000   0.000
  0.005   0.000   0.027   0.002  -0.000   0.001   0.000  -0.000   0.000   0.001  -0.002   0.000   0.001   0.000   0.000  -0.000
  0.001   0.000   0.002   0.007   0.000   0.000   0.000   0.000   0.000   0.001   0.000   0.000   0.000   0.000   0.000  -0.000
  0.000   0.000  -0.000   0.000   0.026  -0.000   0.000   0.001   0.005   0.000   0.000   0.001  -0.000   0.000   0.000   0.000
 -0.000  -0.000   0.000   0.001   0.248   0.000   0.000   0.005   0.070   0.000   0.000   0.007   0.000   0.002   0.000   0.000
  0.014   0.001   0.021   0.062   0.000   0.001   0.001   0.000   0.000   0.011  -0.000   0.000  -0.002   0.000   0.000  -0.000
 -0.104  -0.003  -0.074   0.007   0.000  -0.002   0.000   0.000   0.000  -0.000   0.014   0.000  -0.004   0.000  -0.000   0.001
  0.000   0.000   0.001   0.000   0.032   0.000   0.000   0.001   0.007   0.000   0.000   0.022   0.000   0.000   0.000  -0.000
 -0.024  -0.000   0.068   0.005  -0.000   0.001   0.000  -0.000   0.000  -0.002  -0.004   0.000   0.045  -0.000  -0.000  -0.000
 -0.000  -0.000   0.000   0.000   0.008   0.000   0.000   0.000   0.002   0.000   0.000   0.000  -0.000   0.000   0.000   0.000
  0.001   0.000   0.001   0.002   0.000   0.000   0.000   0.000   0.000   0.000  -0.000   0.000  -0.000   0.000   0.000  -0.000
 -0.005  -0.000  -0.003   0.000   0.000  -0.000  -0.000   0.000   0.000  -0.000   0.001  -0.000  -0.000   0.000  -0.000   0.000
  0.000   0.000   0.000   0.000   0.001   0.000   0.000   0.000   0.000   0.000  -0.000   0.001   0.000   0.000   0.000  -0.000
 -0.001  -0.000   0.001   0.000  -0.000   0.000   0.000  -0.000  -0.000  -0.000  -0.000   0.000   0.001  -0.000  -0.000  -0.000


------------------------ aborting loop because EDIFF is reached ----------------------------------------


    FORLOC:  cpu time    0.2183: real time    0.2187
    FORHF :  cpu time 1073.5625: real time 1078.7294
    FORNL :  cpu time    6.3045: real time    6.3420
    STRESS:  cpu time   19.1923: real time   19.2910
    FORCOR:  cpu time    8.2379: real time    8.2627
    OFIELD:  cpu time    0.0092: real time    0.0093

  FORCE on cell =-STRESS in cart. coord.  units (eV):
  Direction    XX          YY          ZZ          XY          YZ          ZX
  --------------------------------------------------------------------------------------
  Alpha Z    13.10178    13.10178    13.10178
  Ewald    2358.66676  1934.16708 -2931.79949    -8.62882   -42.09850    -7.52566
  Hartree  2377.95210  2083.61452 -1952.57926    -0.46038   -20.62355    -2.52872
  E(xc)    -120.10919  -120.72873  -118.26733     0.03713    -0.03258    -0.07372
  Local   -5228.77513 -4519.39644  4405.54372     6.18140    57.83335     6.06586
  n-local   224.53335   236.35873   190.76554    -0.51848     0.56519     1.67273
  augment   -29.49455   -31.20925   -27.62008    -0.36792    -0.88861    -0.80506
  Kinetic   435.27436   430.41987   451.11771     3.76996     5.00922     3.04694
  Fock      -31.70725   -31.30696   -30.96093     0.06468     0.16263     0.15804
  -------------------------------------------------------------------------------------
  Total      -0.55776    -4.97940    -0.69834     0.07758    -0.07285     0.01040
  in kB      -0.97609    -8.71405    -1.22211     0.13576    -0.12749     0.01820
  external pressure =       -3.64 kB  Pullay stress =        0.00 kB


 VOLUME and BASIS-vectors are now :
 -----------------------------------------------------------------------------
  energy-cutoff  :      450.00
  volume of cell :      915.52
      direct lattice vectors                 reciprocal lattice vectors
     6.019200000  0.000000000  0.000000000     0.166135035  0.000000000  0.000000000
     0.000000000 10.140000000  0.000000000     0.000000000  0.098619329  0.000000000
     0.000000000  0.000000000 15.000000000     0.000000000  0.000000000  0.066666667

  length of vectors
     6.019200000 10.140000000 15.000000000     0.166135035  0.098619329  0.066666667


 FORCES acting on ions:
    Electron-Ion                     Ewald-Force                    Non-Local-Force
 -----------------------------------------------------------------------------------------------
   0.263E+00 0.487E+02 0.349E+02   -.257E+00 -.459E+02 -.341E+02   -.495E-02 -.307E+01 -.919E+00
   -.318E+00 0.484E+02 -.585E+01   0.332E+00 -.456E+02 0.520E+01   -.163E-01 -.308E+01 0.705E+00
   0.121E+01 -.577E+02 0.478E+02   -.129E+01 0.550E+02 -.466E+02   0.911E-01 0.291E+01 -.125E+01
   -.221E+01 -.598E+02 -.917E+00   0.222E+01 0.571E+02 0.172E+00   -.109E-01 0.297E+01 0.798E+00
   0.474E+01 0.536E+02 0.371E+01   -.485E+01 -.515E+02 -.541E+01   0.133E+00 -.233E+01 0.185E+01
   -.182E+01 0.523E+02 0.476E+02   0.200E+01 -.496E+02 -.467E+02   -.207E+00 -.295E+01 -.104E+01
   0.909E+00 -.410E+02 -.177E+01   -.925E+00 0.386E+02 0.115E+01   0.155E-01 0.264E+01 0.657E+00
   -.641E+00 -.447E+02 0.364E+02   0.644E+00 0.418E+02 -.356E+02   -.326E-03 0.323E+01 -.855E+00
   0.437E-01 0.392E+01 0.207E+02   0.246E-01 -.389E+01 -.209E+02   -.484E-01 -.320E-01 0.123E+00
   -.423E-01 0.436E+01 0.203E+02   -.278E-01 -.433E+01 -.204E+02   0.534E-01 -.202E-01 0.928E-01
   0.252E+01 -.555E+01 0.308E+02   -.243E+01 0.562E+01 -.309E+02   -.718E-01 -.643E-01 0.953E-01
   -.316E+01 -.765E+01 0.365E+02   0.301E+01 0.776E+01 -.367E+02   0.118E+00 -.908E-01 0.187E+00
   0.146E+02 -.200E+02 -.192E+03   -.188E+02 0.260E+02 0.188E+03   0.441E+01 -.621E+01 0.372E+01
   -.245E+02 0.138E+02 -.314E+02   0.270E+02 -.150E+02 0.313E+02   -.251E+01 0.118E+01 0.126E+00
   0.613E+01 0.148E+02 -.490E+02   -.661E+01 -.162E+02 0.512E+02   0.484E+00 0.134E+01 -.216E+01
 -----------------------------------------------------------------------------------------------
   -.243E+01 0.361E+01 -.212E+01   0.888E-15 0.249E-13 0.000E+00   0.243E+01 -.359E+01 0.212E+01


 POSITION                                       TOTAL-FORCE (eV/Angst)
 -----------------------------------------------------------------------------------
      2.60046      8.89613      3.56130         0.001159      0.010266      0.020071
      5.60986      8.89997      3.91880        -0.001101     -0.012135     -0.004187
      2.60326      6.26008      3.60848         0.006157     -0.026736     -0.012096
      5.61837      6.27794      4.02113        -0.003478      0.014129     -0.010043
      2.59652      3.81521      4.12970         0.007778      0.026741      0.001067
      5.61817      3.83471      3.64199        -0.010819     -0.008608      0.009095
      2.59898      1.19988      3.93291        -0.001173     -0.001006     -0.017541
      5.60884      1.19912      3.58047         0.003155      0.013930      0.017573
      1.09498     10.11708      3.73186         0.019281      0.000717     -0.004184
      4.10457     10.11735      3.73884        -0.015929      0.002115      0.004781
      1.10017      5.05149      3.85246         0.025795      0.003697     -0.011774
      4.10987      5.05564      3.88465        -0.031263      0.003009      0.019673
      3.36353      4.43772      7.00006         0.002194     -0.028514     -0.021407
      4.86306      3.72861      6.92919        -0.008845      0.004077      0.007556
      3.04795      3.56648      8.40916         0.007086     -0.001683      0.001416
 -----------------------------------------------------------------------------------
    total drift:                                0.000258      0.015363      0.004595


--------------------------------------------------------------------------------------------------------



  FREE ENERGIE OF THE ION-ELECTRON SYSTEM (eV)
  ---------------------------------------------------
  free  energy   TOTEN  =       -80.14376663 eV

  energy  without entropy=      -80.14376663  energy(sigma->0) =      -80.14376663

 d Force = 0.1510529E-04[-0.107E-04, 0.409E-04]  d Energy =-0.9512808E-05 0.246E-04
 d Force = 0.4160296E-01[ 0.417E-01, 0.415E-01]  d Ewald  = 0.4160297E-01-0.672E-09


--------------------------------------------------------------------------------------------------------


    POTLOK:  cpu time    9.2055: real time    9.2266


--------------------------------------------------------------------------------------------------------


 stress matrix after NEB project (eV)
     -0.55776      0.07758      0.01040
      0.07758     -4.97940     -0.07285
      0.01040     -0.07285     -0.69834
  FORCES: max atom, RMS     0.037060    0.023246
  FORCE total and by dimension    0.090032    0.031263
  Stress total and by dimension    5.061235    4.979403


--------------------------------------------------------------------------------------------------------


    WAVPRE:  cpu time    0.5255: real time    1.0817
    FEWALD:  cpu time    0.0024: real time    0.0024
    ORTHCH:  cpu time    2.6923: real time    2.7044
    CHARGE:  cpu time    1.5762: real time    1.5812
     LOOP+:  cpu time 5050.2320: real time 5068.7184


--------------------------------------- Iteration     19(   1)  ---------------------------------------


    POTLOK:  cpu time    8.2789: real time    8.3047
    SETDIJ:  cpu time    0.9436: real time    0.9468
    TRIAL :  cpu time  642.2135: real time  646.3710
    CORREC:  cpu time    0.0003: real time    0.0003
    CHARGE:  cpu time    1.5663: real time    1.5775
    --------------------------------------------
      LOOP:  cpu time  653.0664: real time  657.2644

 eigenvalue-minimisations  :     0
 total energy-change (2. order) : 0.6753092E-03  (-0.1266964E-02)
 number of electron      48.0000002 magnetization 
 augmentation part       -1.2491740 magnetization 

 Free energy of the ion-electron system (eV)
  ---------------------------------------------------
  alpha Z        PSCENC =        13.10177784
  Ewald energy   TEWEN  =      1361.30606655
  -Hartree energ DENC   =     -2508.98599348
  -exchange      EXHF   =        75.38043027
  -V(xc)+E(xc)   XCENC  =      -142.09779020
  PAW double counting   =      1713.86567063    -1484.73551345
  entropy T*S    EENTRO =        -0.00000000
  eigenvalues    EBANDS =      -359.17096488
  atomic energy  EATOM  =      1251.19323263
  ---------------------------------------------------
  free energy    TOTEN  =       -80.14308408 eV

  energy without entropy =      -80.14308408  energy(sigma->0) =      -80.14308408
  exchange ACFDT corr.  =        -0.00000000  see jH, gK, PRB 81, 115126


--------------------------------------------------------------------------------------------------------




--------------------------------------- Iteration     19(   2)  ---------------------------------------


    POTLOK:  cpu time    8.2729: real time    8.3007
    SETDIJ:  cpu time    0.9427: real time    0.9471
    TRIAL :  cpu time  643.9392: real time  648.0849
    CORREC:  cpu time    0.0003: real time    0.0003
    CHARGE:  cpu time    1.5642: real time    1.5821
    --------------------------------------------
      LOOP:  cpu time  654.7199: real time  658.9165

 eigenvalue-minimisations  :     0
 total energy-change (2. order) :-0.6207827E-03  (-0.2996584E-03)
 number of electron      48.0000002 magnetization 
 augmentation part       -1.2491737 magnetization 

 Free energy of the ion-electron system (eV)
  ---------------------------------------------------
  alpha Z        PSCENC =        13.10177784
  Ewald energy   TEWEN  =      1361.30606655
  -Hartree energ DENC   =     -2509.20935472
  -exchange      EXHF   =        75.38256715
  -V(xc)+E(xc)   XCENC  =      -142.09598985
  PAW double counting   =      1713.92007615    -1484.79020334
  entropy T*S    EENTRO =        -0.00000000
  eigenvalues    EBANDS =      -358.95187727
  atomic energy  EATOM  =      1251.19323263
  ---------------------------------------------------
  free energy    TOTEN  =       -80.14370486 eV

  energy without entropy =      -80.14370486  energy(sigma->0) =      -80.14370486
  exchange ACFDT corr.  =        -0.00000000  see jH, gK, PRB 81, 115126


--------------------------------------------------------------------------------------------------------




--------------------------------------- Iteration     19(   3)  ---------------------------------------


    POTLOK:  cpu time    8.2618: real time    8.2986
    SETDIJ:  cpu time    0.9297: real time    0.9341
    TRIAL :  cpu time  643.7057: real time  645.8779
    CORREC:  cpu time    0.0005: real time    0.0005
    CHARGE:  cpu time    1.5537: real time    1.5571
    --------------------------------------------
      LOOP:  cpu time  654.4520: real time  656.6695

 eigenvalue-minimisations  :     0
 total energy-change (2. order) :-0.1713386E-03  (-0.1316629E-03)
 number of electron      48.0000002 magnetization 
 augmentation part       -1.2491764 magnetization 

 Free energy of the ion-electron system (eV)
  ---------------------------------------------------
  alpha Z        PSCENC =        13.10177784
  Ewald energy   TEWEN  =      1361.30606655
  -Hartree energ DENC   =     -2509.27524523
  -exchange      EXHF   =        75.38306719
  -V(xc)+E(xc)   XCENC  =      -142.09541690
  PAW double counting   =      1713.92661513    -1484.79668668
  entropy T*S    EENTRO =        -0.00000000
  eigenvalues    EBANDS =      -358.88728674
  atomic energy  EATOM  =      1251.19323263
  ---------------------------------------------------
  free energy    TOTEN  =       -80.14387620 eV

  energy without entropy =      -80.14387620  energy(sigma->0) =      -80.14387620
  exchange ACFDT corr.  =        -0.00000000  see jH, gK, PRB 81, 115126


--------------------------------------------------------------------------------------------------------




--------------------------------------- Iteration     19(   4)  ---------------------------------------


    POTLOK:  cpu time    8.3066: real time    8.3145
    SETDIJ:  cpu time    0.9533: real time    0.9543
    TRIAL :  cpu time  644.1170: real time  645.4570
    CORREC:  cpu time    0.0004: real time    0.0004
    CHARGE:  cpu time    1.5697: real time    1.5737
    --------------------------------------------
      LOOP:  cpu time  654.9475: real time  656.3013

 eigenvalue-minimisations  :     0
 total energy-change (2. order) :-0.5066266E-04  (-0.4377976E-04)
 number of electron      48.0000002 magnetization 
 augmentation part       -1.2491728 magnetization 

 Free energy of the ion-electron system (eV)
  ---------------------------------------------------
  alpha Z        PSCENC =        13.10177784
  Ewald energy   TEWEN  =      1361.30606655
  -Hartree energ DENC   =     -2509.23188864
  -exchange      EXHF   =        75.38238457
  -V(xc)+E(xc)   XCENC  =      -142.09597258
  PAW double counting   =      1713.89162810    -1484.76155241
  entropy T*S    EENTRO =        -0.00000000
  eigenvalues    EBANDS =      -358.92960293
  atomic energy  EATOM  =      1251.19323263
  ---------------------------------------------------
  free energy    TOTEN  =       -80.14392686 eV

  energy without entropy =      -80.14392686  energy(sigma->0) =      -80.14392686
  exchange ACFDT corr.  =        -0.00000000  see jH, gK, PRB 81, 115126


--------------------------------------------------------------------------------------------------------




--------------------------------------- Iteration     19(   5)  ---------------------------------------


    POTLOK:  cpu time    8.2856: real time    8.2946
    SETDIJ:  cpu time    0.9383: real time    0.9393
    TRIAL :  cpu time  644.7556: real time  646.1208
    CORREC:  cpu time    0.0003: real time    0.0003
    CHARGE:  cpu time    1.5746: real time    1.5779
    --------------------------------------------
      LOOP:  cpu time  655.5548: real time  656.9344

 eigenvalue-minimisations  :     0
 total energy-change (2. order) :-0.2080608E-04  (-0.1068764E-04)
 number of electron      48.0000002 magnetization 
 augmentation part       -1.2491695 magnetization 

 Free energy of the ion-electron system (eV)
  ---------------------------------------------------
  alpha Z        PSCENC =        13.10177784
  Ewald energy   TEWEN  =      1361.30606655
  -Hartree energ DENC   =     -2509.21908266
  -exchange      EXHF   =        75.38218797
  -V(xc)+E(xc)   XCENC  =      -142.09615716
  PAW double counting   =      1713.88049351    -1484.75037299
  entropy T*S    EENTRO =        -0.00000000
  eigenvalues    EBANDS =      -358.94209337
  atomic energy  EATOM  =      1251.19323263
  ---------------------------------------------------
  free energy    TOTEN  =       -80.14394767 eV

  energy without entropy =      -80.14394767  energy(sigma->0) =      -80.14394767
  exchange ACFDT corr.  =        -0.00000000  see jH, gK, PRB 81, 115126


--------------------------------------------------------------------------------------------------------




--------------------------------------- Iteration     19(   6)  ---------------------------------------


    POTLOK:  cpu time    8.2855: real time    8.2930
    SETDIJ:  cpu time    0.9366: real time    0.9380
    TRIAL :  cpu time  643.5525: real time  644.9025
    CORREC:  cpu time    0.0003: real time    0.0003
    EDDIAG:  cpu time  631.5319: real time  633.4627
    CHARGE:  cpu time    1.5616: real time    1.5670
    --------------------------------------------
      LOOP:  cpu time 1285.8695: real time 1289.1657

 eigenvalue-minimisations  :     0
 total energy-change (2. order) :-0.3156678E-05  (-0.6338179E-05)
 number of electron      48.0000002 magnetization 
 augmentation part       -1.2491699 magnetization 

 Free energy of the ion-electron system (eV)
  ---------------------------------------------------
  alpha Z        PSCENC =        13.10177784
  Ewald energy   TEWEN  =      1361.30606655
  -Hartree energ DENC   =     -2509.23006436
  -exchange      EXHF   =        75.38248872
  -V(xc)+E(xc)   XCENC  =      -142.09603004
  PAW double counting   =      1713.88793565    -1484.75787731
  entropy T*S    EENTRO =        -0.00000000
  eigenvalues    EBANDS =      -358.93136956
  atomic energy  EATOM  =      1251.19323263
  ---------------------------------------------------
  free energy    TOTEN  =       -80.14395083 eV

  energy without entropy =      -80.14395083  energy(sigma->0) =      -80.14395083
  exchange ACFDT corr.  =        -0.00000000  see jH, gK, PRB 81, 115126


--------------------------------------------------------------------------------------------------------


  average scaling for gradient   0.8913


 average (electrostatic) potential at core
  the test charge radii are     1.0406  0.6991  1.1897  0.5883
  (the norm of the test charge is              1.0000)
       1 -54.8726       2 -54.8619       3 -54.8690       4 -54.8866       5 -54.9139
       6 -54.9532       7 -54.8145       8 -54.8915       9 -51.0195      10 -51.0183
      11 -51.0792      12 -51.1355      13 -93.2174      14 -34.3031      15 -33.8348



 E-fermi :  -2.0349     XC(G=0):  -2.9195     alpha+bet : -2.8557


 k-point     1 :       0.0000    0.0000    0.0000
  band No.  band energies     occupation 
      1     -15.8607      2.00000
      2     -15.2315      2.00000
      3     -15.0758      2.00000
      4     -12.9602      2.00000
      5     -12.8617      2.00000
      6      -9.6295      2.00000
      7      -9.3521      2.00000
      8      -9.3214      2.00000
      9      -8.4406      2.00000
     10      -7.4278      2.00000
     11      -7.0012      2.00000
     12      -6.4500      2.00000
     13      -6.0014      2.00000
     14      -5.5027      2.00000
     15      -5.1921      2.00000
     16      -4.9144      2.00000
     17      -4.5049      2.00000
     18      -4.3769      2.00000
     19      -3.4192      2.00000
     20      -3.2058      2.00000
     21      -3.1677      2.00000
     22      -2.6122      2.00000
     23      -2.3462      2.00000
     24      -2.3016      2.00000
     25      -0.8237      0.00000
     26      -0.2749      0.00000
     27       0.2487      0.00000
     28       0.6068      0.00000
     29       0.7791      0.00000
     30       0.9396      0.00000
     31       1.0797      0.00000
     32       1.3682      0.00000

 k-point     2 :       0.2000    0.0000    0.0000
  band No.  band energies     occupation 
      1     -15.8387      2.00000
      2     -15.1055      2.00000
      3     -14.9502      2.00000
      4     -13.3715      2.00000
      5     -13.2517      2.00000
      6      -9.1759      2.00000
      7      -8.9799      2.00000
      8      -8.7099      2.00000
      9      -8.4564      2.00000
     10      -7.4398      2.00000
     11      -6.8769      2.00000
     12      -6.8068      2.00000
     13      -6.3174      2.00000
     14      -5.4495      2.00000
     15      -5.2190      2.00000
     16      -4.8017      2.00000
     17      -4.4464      2.00000
     18      -3.9727      2.00000
     19      -3.9199      2.00000
     20      -3.8797      2.00000
     21      -3.7507      2.00000
     22      -3.0168      2.00000
     23      -2.7668      2.00000
     24      -2.3166      2.00000
     25      -0.8021      0.00000
     26       0.4445      0.00000
     27       0.7162      0.00000
     28       0.8268      0.00000
     29       1.0337      0.00000
     30       1.0650      0.00000
     31       1.1587      0.00000
     32       1.5015      0.00000

 k-point     3 :       0.4000    0.0000    0.0000
  band No.  band energies     occupation 
      1     -15.8071      2.00000
      2     -14.7233      2.00000
      3     -14.5689      2.00000
      4     -14.1034      2.00000
      5     -13.9596      2.00000
      6      -8.7244      2.00000
      7      -8.4647      2.00000
      8      -7.9204      2.00000
      9      -7.6852      2.00000
     10      -7.3708      2.00000
     11      -7.1458      2.00000
     12      -6.5107      2.00000
     13      -6.1743      2.00000
     14      -5.9757      2.00000
     15      -5.5399      2.00000
     16      -5.2508      2.00000
     17      -5.0492      2.00000
     18      -4.7848      2.00000
     19      -4.4578      2.00000
     20      -4.2104      2.00000
     21      -3.7430      2.00000
     22      -3.4428      2.00000
     23      -2.8429      2.00000
     24      -2.4037      2.00000
     25      -0.4582      0.00000
     26       0.2427      0.00000
     27       0.9230      0.00000
     28       1.3181      0.00000
     29       1.4114      0.00000
     30       1.6144      0.00000
     31       1.7277      0.00000
     32       2.1443      0.00000

 k-point     4 :       0.0000    0.3333    0.0000
  band No.  band energies     occupation 
      1     -15.8595      2.00000
      2     -15.1977      2.00000
      3     -15.1156      2.00000
      4     -12.9491      2.00000
      5     -12.8737      2.00000
      6      -9.5775      2.00000
      7      -9.4047      2.00000
      8      -9.0247      2.00000
      9      -8.4541      2.00000
     10      -8.0832      2.00000
     11      -7.4019      2.00000
     12      -5.8310      2.00000
     13      -5.4531      2.00000
     14      -5.3799      2.00000
     15      -5.0899      2.00000
     16      -5.0498      2.00000
     17      -4.4173      2.00000
     18      -4.2049      2.00000
     19      -3.7118      2.00000
     20      -3.2971      2.00000
     21      -3.2012      2.00000
     22      -3.1703      2.00000
     23      -2.5977      2.00000
     24      -2.3172      2.00000
     25      -0.5908      0.00000
     26       0.0958      0.00000
     27       0.2835      0.00000
     28       0.4555      0.00000
     29       0.6970      0.00000
     30       0.8778      0.00000
     31       1.1302      0.00000
     32       1.3775      0.00000

 k-point     5 :       0.2000    0.3333    0.0000
  band No.  band energies     occupation 
      1     -15.8379      2.00000
      2     -15.0696      2.00000
      3     -14.9914      2.00000
      4     -13.3530      2.00000
      5     -13.2717      2.00000
      6      -8.9486      2.00000
      7      -8.8680      2.00000
      8      -8.7670      2.00000
      9      -8.4515      2.00000
     10      -7.9530      2.00000
     11      -7.4022      2.00000
     12      -6.5583      2.00000
     13      -5.9187      2.00000
     14      -5.2014      2.00000
     15      -4.9766      2.00000
     16      -4.8874      2.00000
     17      -4.3787      2.00000
     18      -3.9565      2.00000
     19      -3.9074      2.00000
     20      -3.7279      2.00000
     21      -3.6772      2.00000
     22      -3.2266      2.00000
     23      -2.9445      2.00000
     24      -2.8003      2.00000
     25      -0.4658      0.00000
     26       0.2169      0.00000
     27       0.6258      0.00000
     28       0.7760      0.00000
     29       0.8939      0.00000
     30       1.1159      0.00000
     31       1.2852      0.00000
     32       1.5104      0.00000

 k-point     6 :       0.4000    0.3333    0.0000
  band No.  band energies     occupation 
      1     -15.8069      2.00000
      2     -14.6887      2.00000
      3     -14.6076      2.00000
      4     -14.0753      2.00000
      5     -13.9906      2.00000
      6      -8.5751      2.00000
      7      -8.3135      2.00000
      8      -7.8465      2.00000
      9      -7.5851      2.00000
     10      -7.5060      2.00000
     11      -7.3277      2.00000
     12      -7.1182      2.00000
     13      -6.6682      2.00000
     14      -5.6696      2.00000
     15      -5.5664      2.00000
     16      -4.9659      2.00000
     17      -4.5115      2.00000
     18      -4.4703      2.00000
     19      -4.2623      2.00000
     20      -4.0203      2.00000
     21      -3.7473      2.00000
     22      -3.4658      2.00000
     23      -3.1345      2.00000
     24      -3.0387      2.00000
     25      -0.1188      0.00000
     26       0.3633      0.00000
     27       0.7506      0.00000
     28       1.0699      0.00000
     29       1.1974      0.00000
     30       1.6089      0.00000
     31       1.7627      0.00000
     32       1.8371      0.00000

 k-point     7 :      -0.4000    0.3333    0.0000
  band No.  band energies     occupation 
      1     -15.8069      2.00000
      2     -14.6886      2.00000
      3     -14.6077      2.00000
      4     -14.0753      2.00000
      5     -13.9907      2.00000
      6      -8.5725      2.00000
      7      -8.3266      2.00000
      8      -7.8164      2.00000
      9      -7.5969      2.00000
     10      -7.5070      2.00000
     11      -7.3343      2.00000
     12      -7.1193      2.00000
     13      -6.6677      2.00000
     14      -5.6785      2.00000
     15      -5.5638      2.00000
     16      -4.9538      2.00000
     17      -4.5298      2.00000
     18      -4.4689      2.00000
     19      -4.2483      2.00000
     20      -4.0161      2.00000
     21      -3.7338      2.00000
     22      -3.4959      2.00000
     23      -3.1274      2.00000
     24      -3.0349      2.00000
     25      -0.1428      0.00000
     26       0.4711      0.00000
     27       0.7168      0.00000
     28       0.9168      0.00000
     29       1.2858      0.00000
     30       1.6092      0.00000
     31       1.7851      0.00000
     32       1.8782      0.00000

 k-point     8 :      -0.2000    0.3333    0.0000
  band No.  band energies     occupation 
      1     -15.8379      2.00000
      2     -15.0695      2.00000
      3     -14.9915      2.00000
      4     -13.3530      2.00000
      5     -13.2718      2.00000
      6      -8.9513      2.00000
      7      -8.8657      2.00000
      8      -8.7664      2.00000
      9      -8.4562      2.00000
     10      -7.9429      2.00000
     11      -7.4063      2.00000
     12      -6.5557      2.00000
     13      -5.9311      2.00000
     14      -5.1916      2.00000
     15      -4.9867      2.00000
     16      -4.8949      2.00000
     17      -4.3527      2.00000
     18      -3.9513      2.00000
     19      -3.9088      2.00000
     20      -3.7421      2.00000
     21      -3.6666      2.00000
     22      -3.2484      2.00000
     23      -2.9186      2.00000
     24      -2.8113      2.00000
     25      -0.4877      0.00000
     26       0.2842      0.00000
     27       0.5340      0.00000
     28       0.7945      0.00000
     29       0.9189      0.00000
     30       1.1952      0.00000
     31       1.2401      0.00000
     32       1.5403      0.00000


--------------------------------------------------------------------------------------------------------


 soft charge-density along one line, spin component           1
         0         1         2         3         4         5         6         7         8         9
 total charge-density along one line

 pseudopotential strength for first ion, spin component:           1
  7.182 -16.882  -0.005  -0.002  -0.000   0.027   0.008   0.000
-16.882  49.271   0.012   0.004   0.000  -0.057  -0.018  -0.000
 -0.005   0.012   1.704  -0.000   0.000  -6.725   0.001  -0.000
 -0.002   0.004  -0.000   1.709  -0.000   0.001  -6.747   0.000
 -0.000   0.000   0.000  -0.000   1.704  -0.000   0.000  -6.726
  0.027  -0.057  -6.725   0.001  -0.000  28.450  -0.005   0.000
  0.008  -0.018   0.001  -6.747   0.000  -0.005  28.539  -0.000
  0.000  -0.000  -0.000   0.000  -6.726   0.000  -0.000  28.457
  0.000  -0.000  -0.000  -0.000  -0.005   0.000   0.000   0.012
 -0.001   0.001  -0.001  -0.004  -0.000   0.003   0.010   0.000
  0.011  -0.012   0.002  -0.002   0.000  -0.005   0.004  -0.000
 -0.000   0.000  -0.000  -0.000  -0.001   0.000   0.000   0.003
  0.001  -0.001   0.003  -0.000  -0.000  -0.007   0.000   0.000
 -0.000   0.000   0.000   0.000   0.018  -0.000  -0.000  -0.059
  0.004  -0.007   0.004   0.016   0.000  -0.015  -0.056  -0.000
 -0.041   0.072  -0.007   0.007  -0.000   0.026  -0.022   0.000
  0.000  -0.000   0.000   0.000   0.005  -0.000  -0.000  -0.017
 -0.002   0.004  -0.012   0.000   0.000   0.041  -0.001  -0.000
 total augmentation occupancy for first ion, spin component:           1
  1.390   0.033   0.003   0.012   0.000   0.005   0.001   0.000  -0.000   0.014  -0.104   0.000  -0.023  -0.000   0.001  -0.005
  0.033   0.001   0.008   0.002   0.000   0.000   0.000  -0.000  -0.000   0.001  -0.003   0.000  -0.000  -0.000   0.000  -0.000
  0.003   0.008   1.338   0.062  -0.000   0.027   0.002  -0.000   0.000   0.021  -0.075   0.000   0.068   0.000   0.001  -0.003
  0.012   0.002   0.062   0.409   0.002   0.002   0.007   0.000   0.001   0.062   0.007   0.000   0.005   0.000   0.002   0.000
  0.000   0.000  -0.000   0.002   1.199  -0.000   0.000   0.026   0.248   0.000   0.000   0.032  -0.000   0.008   0.000   0.000
  0.005   0.000   0.027   0.002  -0.000   0.001   0.000  -0.000   0.000   0.001  -0.002   0.000   0.001   0.000   0.000  -0.000
  0.001   0.000   0.002   0.007   0.000   0.000   0.000   0.000   0.000   0.001   0.000   0.000   0.000   0.000   0.000  -0.000
  0.000  -0.000  -0.000   0.000   0.026  -0.000   0.000   0.001   0.005   0.000   0.000   0.001  -0.000   0.000   0.000   0.000
 -0.000  -0.000   0.000   0.001   0.248   0.000   0.000   0.005   0.070   0.000   0.000   0.007   0.000   0.002   0.000   0.000
  0.014   0.001   0.021   0.062   0.000   0.001   0.001   0.000   0.000   0.011  -0.000   0.000  -0.002   0.000   0.000  -0.000
 -0.104  -0.003  -0.075   0.007   0.000  -0.002   0.000   0.000   0.000  -0.000   0.014   0.000  -0.004   0.000  -0.000   0.001
  0.000   0.000   0.000   0.000   0.032   0.000   0.000   0.001   0.007   0.000   0.000   0.022   0.000   0.000   0.000  -0.000
 -0.023  -0.000   0.068   0.005  -0.000   0.001   0.000  -0.000   0.000  -0.002  -0.004   0.000   0.045  -0.000  -0.000  -0.000
 -0.000  -0.000   0.000   0.000   0.008   0.000   0.000   0.000   0.002   0.000   0.000   0.000  -0.000   0.000   0.000   0.000
  0.001   0.000   0.001   0.002   0.000   0.000   0.000   0.000   0.000   0.000  -0.000   0.000  -0.000   0.000   0.000  -0.000
 -0.005  -0.000  -0.003   0.000   0.000  -0.000  -0.000   0.000   0.000  -0.000   0.001  -0.000  -0.000   0.000  -0.000   0.000
  0.000   0.000   0.000   0.000   0.001   0.000   0.000   0.000   0.000   0.000  -0.000   0.001   0.000   0.000   0.000  -0.000
 -0.001  -0.000   0.001   0.000  -0.000   0.000   0.000  -0.000  -0.000  -0.000  -0.000   0.000   0.001  -0.000  -0.000  -0.000


------------------------ aborting loop because EDIFF is reached ----------------------------------------


    FORLOC:  cpu time    0.2191: real time    0.2197
    FORHF :  cpu time 1078.3785: real time 1080.6061
    FORNL :  cpu time    6.3257: real time    6.3484
    STRESS:  cpu time   19.2203: real time   19.2840
    FORCOR:  cpu time    8.2250: real time    8.2369
    OFIELD:  cpu time    0.0088: real time    0.0089

  FORCE on cell =-STRESS in cart. coord.  units (eV):
  Direction    XX          YY          ZZ          XY          YZ          ZX
  --------------------------------------------------------------------------------------
  Alpha Z    13.10178    13.10178    13.10178
  Ewald    2358.98820  1934.42948 -2932.11312    -8.62094   -42.28491    -7.49111
  Hartree  2378.18534  2083.85303 -1952.80328    -0.46734   -20.67217    -2.51319
  E(xc)    -120.11139  -120.73172  -118.27036     0.03671    -0.03202    -0.07373
  Local   -5229.31566 -4519.91001  4406.06664     6.18249    58.05376     6.02183
  n-local   224.52994   236.36557   190.77565    -0.51285     0.55214     1.67310
  augment   -29.49189   -31.21089   -27.62061    -0.36853    -0.88737    -0.80411
  Kinetic   435.26757   430.44778   451.14115     3.76883     5.02799     3.03796
  Fock      -31.70892   -31.30744   -30.96094     0.06490     0.16251     0.15781
  -------------------------------------------------------------------------------------
  Total      -0.55503    -4.96243    -0.68309     0.08326    -0.08006     0.00856
  in kB      -0.97131    -8.68434    -1.19543     0.14571    -0.14011     0.01498
  external pressure =       -3.62 kB  Pullay stress =        0.00 kB


 VOLUME and BASIS-vectors are now :
 -----------------------------------------------------------------------------
  energy-cutoff  :      450.00
  volume of cell :      915.52
      direct lattice vectors                 reciprocal lattice vectors
     6.019200000  0.000000000  0.000000000     0.166135035  0.000000000  0.000000000
     0.000000000 10.140000000  0.000000000     0.000000000  0.098619329  0.000000000
     0.000000000  0.000000000 15.000000000     0.000000000  0.000000000  0.066666667

  length of vectors
     6.019200000 10.140000000 15.000000000     0.166135035  0.098619329  0.066666667


 FORCES acting on ions:
    Electron-Ion                     Ewald-Force                    Non-Local-Force
 -----------------------------------------------------------------------------------------------
   0.259E+00 0.487E+02 0.348E+02   -.253E+00 -.459E+02 -.339E+02   -.368E-02 -.309E+01 -.910E+00
   -.321E+00 0.483E+02 -.577E+01   0.333E+00 -.455E+02 0.512E+01   -.144E-01 -.306E+01 0.699E+00
   0.122E+01 -.578E+02 0.478E+02   -.130E+01 0.551E+02 -.466E+02   0.910E-01 0.294E+01 -.126E+01
   -.222E+01 -.598E+02 -.807E+00   0.223E+01 0.571E+02 0.724E-01   -.816E-02 0.295E+01 0.790E+00
   0.478E+01 0.537E+02 0.375E+01   -.489E+01 -.516E+02 -.545E+01   0.122E+00 -.237E+01 0.185E+01
   -.185E+01 0.522E+02 0.475E+02   0.203E+01 -.496E+02 -.466E+02   -.203E+00 -.294E+01 -.104E+01
   0.909E+00 -.410E+02 -.162E+01   -.923E+00 0.386E+02 0.102E+01   0.153E-01 0.264E+01 0.648E+00
   -.636E+00 -.446E+02 0.363E+02   0.639E+00 0.417E+02 -.355E+02   -.302E-02 0.320E+01 -.846E+00
   0.130E+00 0.392E+01 0.207E+02   -.676E-01 -.389E+01 -.208E+02   -.588E-01 -.297E-01 0.132E+00
   -.128E+00 0.435E+01 0.203E+02   0.636E-01 -.432E+01 -.204E+02   0.638E-01 -.189E-01 0.973E-01
   0.265E+01 -.555E+01 0.308E+02   -.256E+01 0.562E+01 -.310E+02   -.876E-01 -.625E-01 0.931E-01
   -.330E+01 -.769E+01 0.365E+02   0.315E+01 0.779E+01 -.366E+02   0.134E+00 -.917E-01 0.177E+00
   0.146E+02 -.200E+02 -.192E+03   -.189E+02 0.260E+02 0.188E+03   0.441E+01 -.621E+01 0.372E+01
   -.245E+02 0.137E+02 -.314E+02   0.270E+02 -.149E+02 0.313E+02   -.251E+01 0.118E+01 0.125E+00
   0.612E+01 0.148E+02 -.490E+02   -.660E+01 -.162E+02 0.512E+02   0.483E+00 0.134E+01 -.216E+01
 -----------------------------------------------------------------------------------------------
   -.242E+01 0.363E+01 -.210E+01   0.888E-15 0.000E+00 0.426E-13   0.243E+01 -.361E+01 0.211E+01


 POSITION                                       TOTAL-FORCE (eV/Angst)
 -----------------------------------------------------------------------------------
      2.60043      8.89626      3.56271         0.002648      0.003650      0.016341
      5.60981      8.89939      3.91829        -0.001375      0.009129     -0.007990
      2.60333      6.25942      3.60844         0.003122     -0.001628     -0.013424
      5.61813      6.27825      4.02009         0.000258      0.006347     -0.008162
      2.59703      3.81616      4.12924        -0.000581      0.002331      0.001838
      5.61791      3.83483      3.64276        -0.005604     -0.004722      0.009811
      2.59895      1.20029      3.93190         0.000356      0.002863     -0.016549
      5.60905      1.19988      3.58161         0.000262     -0.005508      0.018471
      1.09534     10.11700      3.73219         0.002477      0.002066      0.014591
      4.10428     10.11733      3.73906         0.000500      0.006300      0.010979
      1.10062      5.05154      3.85218         0.004029      0.003264     -0.014195
      4.10933      5.05567      3.88469        -0.007512      0.004705      0.006866
      3.36287      4.43645      6.99946         0.003744     -0.029408     -0.029891
      4.86316      3.72845      6.92938        -0.009449      0.004978      0.006933
      3.04835      3.56648      8.40900         0.007125     -0.004368      0.004381
 -----------------------------------------------------------------------------------
    total drift:                                0.000941      0.000539      0.010981


--------------------------------------------------------------------------------------------------------



  FREE ENERGIE OF THE ION-ELECTRON SYSTEM (eV)
  ---------------------------------------------------
  free  energy   TOTEN  =       -80.14395083 eV

  energy  without entropy=      -80.14395083  energy(sigma->0) =      -80.14395083

 d Force = 0.2024317E-03[ 0.151E-03, 0.253E-03]  d Energy = 0.1841963E-03 0.182E-04
 d Force =-0.2702058E+00[-0.270E+00,-0.270E+00]  d Ewald  =-0.2702058E+00-0.215E-07


--------------------------------------------------------------------------------------------------------


    POTLOK:  cpu time    9.2191: real time    9.2297


--------------------------------------------------------------------------------------------------------


 stress matrix after NEB project (eV)
     -0.55503      0.08326      0.00856
      0.08326     -4.96243     -0.08006
      0.00856     -0.08006     -0.68309
  FORCES: max atom, RMS     0.042099    0.016952
  FORCE total and by dimension    0.065653    0.029891
  Stress total and by dimension    5.042540    4.962429
 Conjugate gradient step on ions:
 trial-energy change:   -0.000184  1 .order   -0.000202   -0.000253   -0.000151
  (g-gl).g = 0.229E-03      g.g   = 0.274E-03  gl.gl    = 0.545E-03
 g(Force)  = 0.274E-03   g(Stress)= 0.000E+00 ortho     = 0.299E-04
 gamma     =   0.41945
 trial     =   0.88530
 opt step  =   2.19937  (harmonic =   2.19937) maximal distance =0.00352059
 next E    =   -80.144081   (d E  =  -0.00031)


--------------------------------------------------------------------------------------------------------


    WAVPRE:  cpu time    0.5312: real time    0.9641
    FEWALD:  cpu time    0.0025: real time    0.0025
    ORTHCH:  cpu time    2.7017: real time    2.7088
    CHARGE:  cpu time    1.5614: real time    1.5656
     LOOP+:  cpu time 5713.0379: real time 5733.1789


--------------------------------------- Iteration     20(   1)  ---------------------------------------


    POTLOK:  cpu time    8.2885: real time    8.3103
    SETDIJ:  cpu time    0.9459: real time    0.9495
    TRIAL :  cpu time  641.7205: real time  643.7321
    CORREC:  cpu time    0.0003: real time    0.0003
    CHARGE:  cpu time    1.5595: real time    1.5671
    --------------------------------------------
      LOOP:  cpu time  652.5784: real time  654.6236

 eigenvalue-minimisations  :     0
 total energy-change (2. order) : 0.1835980E-02  (-0.2705355E-02)
 number of electron      48.0000001 magnetization 
 augmentation part       -1.2491264 magnetization 

 Free energy of the ion-electron system (eV)
  ---------------------------------------------------
  alpha Z        PSCENC =        13.10177784
  Ewald energy   TEWEN  =      1361.70656212
  -Hartree energ DENC   =     -2509.23305608
  -exchange      EXHF   =        75.38261753
  -V(xc)+E(xc)   XCENC  =      -142.09574204
  PAW double counting   =      1714.04796196    -1484.91821027
  entropy T*S    EENTRO =        -0.00000000
  eigenvalues    EBANDS =      -359.32725538
  atomic energy  EATOM  =      1251.19323263
  ---------------------------------------------------
  free energy    TOTEN  =       -80.14211169 eV

  energy without entropy =      -80.14211169  energy(sigma->0) =      -80.14211169
  exchange ACFDT corr.  =        -0.00000000  see jH, gK, PRB 81, 115126


--------------------------------------------------------------------------------------------------------




--------------------------------------- Iteration     20(   2)  ---------------------------------------


    POTLOK:  cpu time    8.2872: real time    8.3114
    SETDIJ:  cpu time    0.9501: real time    0.9539
    TRIAL :  cpu time  644.4318: real time  645.9898
    CORREC:  cpu time    0.0004: real time    0.0003
    CHARGE:  cpu time    1.5671: real time    1.5704
    --------------------------------------------
      LOOP:  cpu time  655.2377: real time  656.8277

 eigenvalue-minimisations  :     0
 total energy-change (2. order) :-0.1342455E-02  (-0.6310319E-03)
 number of electron      48.0000001 magnetization 
 augmentation part       -1.2491273 magnetization 

 Free energy of the ion-electron system (eV)
  ---------------------------------------------------
  alpha Z        PSCENC =        13.10177784
  Ewald energy   TEWEN  =      1361.70656212
  -Hartree energ DENC   =     -2509.55856558
  -exchange      EXHF   =        75.38567142
  -V(xc)+E(xc)   XCENC  =      -142.09316127
  PAW double counting   =      1714.13219982    -1485.00290176
  entropy T*S    EENTRO =        -0.00000000
  eigenvalues    EBANDS =      -359.00826938
  atomic energy  EATOM  =      1251.19323263
  ---------------------------------------------------
  free energy    TOTEN  =       -80.14345414 eV

  energy without entropy =      -80.14345414  energy(sigma->0) =      -80.14345414
  exchange ACFDT corr.  =        -0.00000000  see jH, gK, PRB 81, 115126


--------------------------------------------------------------------------------------------------------




--------------------------------------- Iteration     20(   3)  ---------------------------------------


    POTLOK:  cpu time    8.3561: real time    8.3634
    SETDIJ:  cpu time    0.9528: real time    0.9545
    TRIAL :  cpu time  647.7884: real time  649.0447
    CORREC:  cpu time    0.0004: real time    0.0004
    CHARGE:  cpu time    1.5685: real time    1.5712
    --------------------------------------------
      LOOP:  cpu time  658.6678: real time  659.9365

 eigenvalue-minimisations  :     0
 total energy-change (2. order) :-0.3547830E-03  (-0.2772468E-03)
 number of electron      48.0000001 magnetization 
 augmentation part       -1.2491350 magnetization 

 Free energy of the ion-electron system (eV)
  ---------------------------------------------------
  alpha Z        PSCENC =        13.10177784
  Ewald energy   TEWEN  =      1361.70656212
  -Hartree energ DENC   =     -2509.65657082
  -exchange      EXHF   =        75.38639436
  -V(xc)+E(xc)   XCENC  =      -142.09230797
  PAW double counting   =      1714.14778541    -1485.01843255
  entropy T*S    EENTRO =        -0.00000000
  eigenvalues    EBANDS =      -358.91224995
  atomic energy  EATOM  =      1251.19323263
  ---------------------------------------------------
  free energy    TOTEN  =       -80.14380893 eV

  energy without entropy =      -80.14380893  energy(sigma->0) =      -80.14380893
  exchange ACFDT corr.  =        -0.00000000  see jH, gK, PRB 81, 115126


--------------------------------------------------------------------------------------------------------




--------------------------------------- Iteration     20(   4)  ---------------------------------------


    POTLOK:  cpu time    8.2895: real time    8.2977
    SETDIJ:  cpu time    0.9555: real time    0.9565
    TRIAL :  cpu time  644.0843: real time  645.3762
    CORREC:  cpu time    0.0003: real time    0.0003
    CHARGE:  cpu time    1.5718: real time    1.5762
    --------------------------------------------
      LOOP:  cpu time  654.9022: real time  656.2086

 eigenvalue-minimisations  :     0
 total energy-change (2. order) :-0.1112855E-03  (-0.9571755E-04)
 number of electron      48.0000001 magnetization 
 augmentation part       -1.2491318 magnetization 

 Free energy of the ion-electron system (eV)
  ---------------------------------------------------
  alpha Z        PSCENC =        13.10177784
  Ewald energy   TEWEN  =      1361.70656212
  -Hartree energ DENC   =     -2509.59568022
  -exchange      EXHF   =        75.38541139
  -V(xc)+E(xc)   XCENC  =      -142.09310987
  PAW double counting   =      1714.09788442    -1484.96834345
  entropy T*S    EENTRO =        -0.00000000
  eigenvalues    EBANDS =      -358.97165508
  atomic energy  EATOM  =      1251.19323263
  ---------------------------------------------------
  free energy    TOTEN  =       -80.14392021 eV

  energy without entropy =      -80.14392021  energy(sigma->0) =      -80.14392021
  exchange ACFDT corr.  =        -0.00000000  see jH, gK, PRB 81, 115126


--------------------------------------------------------------------------------------------------------




--------------------------------------- Iteration     20(   5)  ---------------------------------------


    POTLOK:  cpu time    8.3342: real time    8.3440
    SETDIJ:  cpu time    0.9335: real time    0.9355
    TRIAL :  cpu time  644.9170: real time  646.5729
    CORREC:  cpu time    0.0007: real time    0.0007
    CHARGE:  cpu time    1.5531: real time    1.5574
    --------------------------------------------
      LOOP:  cpu time  655.7421: real time  657.4147

 eigenvalue-minimisations  :     0
 total energy-change (2. order) :-0.4706198E-04  (-0.2364087E-04)
 number of electron      48.0000001 magnetization 
 augmentation part       -1.2491269 magnetization 

 Free energy of the ion-electron system (eV)
  ---------------------------------------------------
  alpha Z        PSCENC =        13.10177784
  Ewald energy   TEWEN  =      1361.70656212
  -Hartree energ DENC   =     -2509.57588097
  -exchange      EXHF   =        75.38509820
  -V(xc)+E(xc)   XCENC  =      -142.09340378
  PAW double counting   =      1714.07943449    -1484.94982853
  entropy T*S    EENTRO =        -0.00000000
  eigenvalues    EBANDS =      -358.99095928
  atomic energy  EATOM  =      1251.19323263
  ---------------------------------------------------
  free energy    TOTEN  =       -80.14396727 eV

  energy without entropy =      -80.14396727  energy(sigma->0) =      -80.14396727
  exchange ACFDT corr.  =        -0.00000000  see jH, gK, PRB 81, 115126


--------------------------------------------------------------------------------------------------------




--------------------------------------- Iteration     20(   6)  ---------------------------------------


    POTLOK:  cpu time    8.2851: real time    8.2989
    SETDIJ:  cpu time    0.9455: real time    0.9473
    TRIAL :  cpu time  642.3525: real time  644.4767
    CORREC:  cpu time    0.0003: real time    0.0003
    CHARGE:  cpu time    1.5681: real time    1.5736
    --------------------------------------------
      LOOP:  cpu time  653.1521: real time  655.2982

 eigenvalue-minimisations  :     0
 total energy-change (2. order) :-0.7494889E-05  (-0.1354888E-04)
 number of electron      48.0000001 magnetization 
 augmentation part       -1.2491271 magnetization 

 Free energy of the ion-electron system (eV)
  ---------------------------------------------------
  alpha Z        PSCENC =        13.10177784
  Ewald energy   TEWEN  =      1361.70656212
  -Hartree energ DENC   =     -2509.59079588
  -exchange      EXHF   =        75.38535179
  -V(xc)+E(xc)   XCENC  =      -142.09323101
  PAW double counting   =      1714.08899886    -1484.95944995
  entropy T*S    EENTRO =        -0.00000000
  eigenvalues    EBANDS =      -358.97642118
  atomic energy  EATOM  =      1251.19323263
  ---------------------------------------------------
  free energy    TOTEN  =       -80.14397477 eV

  energy without entropy =      -80.14397477  energy(sigma->0) =      -80.14397477
  exchange ACFDT corr.  =        -0.00000000  see jH, gK, PRB 81, 115126


--------------------------------------------------------------------------------------------------------




--------------------------------------- Iteration     20(   7)  ---------------------------------------


    POTLOK:  cpu time    8.2883: real time    8.3005
    SETDIJ:  cpu time    0.9328: real time    0.9345
    TRIAL :  cpu time  643.9144: real time  646.1561
    CORREC:  cpu time    0.0003: real time    0.0003
    EDDIAG:  cpu time  631.5156: real time  633.7226
    CHARGE:  cpu time    1.5703: real time    1.5771
    --------------------------------------------
      LOOP:  cpu time 1286.2223: real time 1290.6924

 eigenvalue-minimisations  :     0
 total energy-change (2. order) :-0.8089879E-05  (-0.6067379E-05)
 number of electron      48.0000001 magnetization 
 augmentation part       -1.2491320 magnetization 

 Free energy of the ion-electron system (eV)
  ---------------------------------------------------
  alpha Z        PSCENC =        13.10177784
  Ewald energy   TEWEN  =      1361.70656212
  -Hartree energ DENC   =     -2509.59869586
  -exchange      EXHF   =        75.38547803
  -V(xc)+E(xc)   XCENC  =      -142.09308834
  PAW double counting   =      1714.09989994    -1484.97038997
  entropy T*S    EENTRO =        -0.00000000
  eigenvalues    EBANDS =      -358.96879327
  atomic energy  EATOM  =      1251.19323263
  ---------------------------------------------------
  free energy    TOTEN  =       -80.14398286 eV

  energy without entropy =      -80.14398286  energy(sigma->0) =      -80.14398286
  exchange ACFDT corr.  =        -0.00000000  see jH, gK, PRB 81, 115126


--------------------------------------------------------------------------------------------------------


  average scaling for gradient   0.9252


 average (electrostatic) potential at core
  the test charge radii are     1.0406  0.6991  1.1897  0.5883
  (the norm of the test charge is              1.0000)
       1 -54.8682       2 -54.8638       3 -54.8660       4 -54.8918       5 -54.9101
       6 -54.9565       7 -54.8118       8 -54.8942       9 -51.0190      10 -51.0175
      11 -51.0805      12 -51.1359      13 -93.2182      14 -34.3031      15 -33.8397



 E-fermi :  -2.0347     XC(G=0):  -2.9192     alpha+bet : -2.8557


 k-point     1 :       0.0000    0.0000    0.0000
  band No.  band energies     occupation 
      1     -15.8635      2.00000
      2     -15.2315      2.00000
      3     -15.0770      2.00000
      4     -12.9636      2.00000
      5     -12.8599      2.00000
      6      -9.6325      2.00000
      7      -9.3518      2.00000
      8      -9.3219      2.00000
      9      -8.4427      2.00000
     10      -7.4317      2.00000
     11      -7.0018      2.00000
     12      -6.4508      2.00000
     13      -6.0025      2.00000
     14      -5.4999      2.00000
     15      -5.1930      2.00000
     16      -4.9117      2.00000
     17      -4.5086      2.00000
     18      -4.3782      2.00000
     19      -3.4180      2.00000
     20      -3.2117      2.00000
     21      -3.1639      2.00000
     22      -2.6149      2.00000
     23      -2.3463      2.00000
     24      -2.2979      2.00000
     25      -0.8255      0.00000
     26      -0.2762      0.00000
     27       0.2457      0.00000
     28       0.6085      0.00000
     29       0.7792      0.00000
     30       0.9423      0.00000
     31       1.0794      0.00000
     32       1.3685      0.00000

 k-point     2 :       0.2000    0.0000    0.0000
  band No.  band energies     occupation 
      1     -15.8414      2.00000
      2     -15.1060      2.00000
      3     -14.9510      2.00000
      4     -13.3745      2.00000
      5     -13.2503      2.00000
      6      -9.1773      2.00000
      7      -8.9829      2.00000
      8      -8.7085      2.00000
      9      -8.4584      2.00000
     10      -7.4438      2.00000
     11      -6.8780      2.00000
     12      -6.8067      2.00000
     13      -6.3181      2.00000
     14      -5.4502      2.00000
     15      -5.2178      2.00000
     16      -4.7989      2.00000
     17      -4.4491      2.00000
     18      -3.9778      2.00000
     19      -3.9158      2.00000
     20      -3.8808      2.00000
     21      -3.7519      2.00000
     22      -3.0175      2.00000
     23      -2.7651      2.00000
     24      -2.3170      2.00000
     25      -0.8024      0.00000
     26       0.4415      0.00000
     27       0.7141      0.00000
     28       0.8290      0.00000
     29       1.0361      0.00000
     30       1.0673      0.00000
     31       1.1580      0.00000
     32       1.5016      0.00000

 k-point     3 :       0.4000    0.0000    0.0000
  band No.  band energies     occupation 
      1     -15.8097      2.00000
      2     -14.7247      2.00000
      3     -14.5688      2.00000
      4     -14.1059      2.00000
      5     -13.9589      2.00000
      6      -8.7263      2.00000
      7      -8.4660      2.00000
      8      -7.9226      2.00000
      9      -7.6881      2.00000
     10      -7.3686      2.00000
     11      -7.1495      2.00000
     12      -6.5114      2.00000
     13      -6.1749      2.00000
     14      -5.9764      2.00000
     15      -5.5408      2.00000
     16      -5.2520      2.00000
     17      -5.0497      2.00000
     18      -4.7843      2.00000
     19      -4.4552      2.00000
     20      -4.2104      2.00000
     21      -3.7406      2.00000
     22      -3.4463      2.00000
     23      -2.8438      2.00000
     24      -2.4041      2.00000
     25      -0.4583      0.00000
     26       0.2446      0.00000
     27       0.9218      0.00000
     28       1.3185      0.00000
     29       1.4133      0.00000
     30       1.6164      0.00000
     31       1.7280      0.00000
     32       2.1456      0.00000

 k-point     4 :       0.0000    0.3333    0.0000
  band No.  band energies     occupation 
      1     -15.8624      2.00000
      2     -15.1971      2.00000
      3     -15.1173      2.00000
      4     -12.9533      2.00000
      5     -12.8711      2.00000
      6      -9.5818      2.00000
      7      -9.4024      2.00000
      8      -9.0260      2.00000
      9      -8.4561      2.00000
     10      -8.0840      2.00000
     11      -7.4053      2.00000
     12      -5.8323      2.00000
     13      -5.4529      2.00000
     14      -5.3790      2.00000
     15      -5.0888      2.00000
     16      -5.0486      2.00000
     17      -4.4203      2.00000
     18      -4.2065      2.00000
     19      -3.7112      2.00000
     20      -3.2974      2.00000
     21      -3.2074      2.00000
     22      -3.1660      2.00000
     23      -2.6006      2.00000
     24      -2.3132      2.00000
     25      -0.5916      0.00000
     26       0.0939      0.00000
     27       0.2824      0.00000
     28       0.4571      0.00000
     29       0.6964      0.00000
     30       0.8780      0.00000
     31       1.1310      0.00000
     32       1.3790      0.00000

 k-point     5 :       0.2000    0.3333    0.0000
  band No.  band energies     occupation 
      1     -15.8407      2.00000
      2     -15.0700      2.00000
      3     -14.9922      2.00000
      4     -13.3570      2.00000
      5     -13.2694      2.00000
      6      -8.9531      2.00000
      7      -8.8693      2.00000
      8      -8.7647      2.00000
      9      -8.4532      2.00000
     10      -7.9539      2.00000
     11      -7.4058      2.00000
     12      -6.5588      2.00000
     13      -5.9194      2.00000
     14      -5.2008      2.00000
     15      -4.9766      2.00000
     16      -4.8848      2.00000
     17      -4.3808      2.00000
     18      -3.9612      2.00000
     19      -3.9053      2.00000
     20      -3.7285      2.00000
     21      -3.6779      2.00000
     22      -3.2262      2.00000
     23      -2.9468      2.00000
     24      -2.7975      2.00000
     25      -0.4663      0.00000
     26       0.2161      0.00000
     27       0.6248      0.00000
     28       0.7748      0.00000
     29       0.8950      0.00000
     30       1.1174      0.00000
     31       1.2872      0.00000
     32       1.5103      0.00000

 k-point     6 :       0.4000    0.3333    0.0000
  band No.  band energies     occupation 
      1     -15.8095      2.00000
      2     -14.6909      2.00000
      3     -14.6067      2.00000
      4     -14.0788      2.00000
      5     -13.9890      2.00000
      6      -8.5777      2.00000
      7      -8.3142      2.00000
      8      -7.8506      2.00000
      9      -7.5847      2.00000
     10      -7.5076      2.00000
     11      -7.3266      2.00000
     12      -7.1210      2.00000
     13      -6.6690      2.00000
     14      -5.6721      2.00000
     15      -5.5655      2.00000
     16      -4.9660      2.00000
     17      -4.5118      2.00000
     18      -4.4682      2.00000
     19      -4.2626      2.00000
     20      -4.0210      2.00000
     21      -3.7442      2.00000
     22      -3.4691      2.00000
     23      -3.1372      2.00000
     24      -3.0374      2.00000
     25      -0.1189      0.00000
     26       0.3644      0.00000
     27       0.7502      0.00000
     28       1.0718      0.00000
     29       1.1979      0.00000
     30       1.6095      0.00000
     31       1.7623      0.00000
     32       1.8363      0.00000

 k-point     7 :      -0.4000    0.3333    0.0000
  band No.  band energies     occupation 
      1     -15.8095      2.00000
      2     -14.6907      2.00000
      3     -14.6068      2.00000
      4     -14.0788      2.00000
      5     -13.9890      2.00000
      6      -8.5751      2.00000
      7      -8.3274      2.00000
      8      -7.8197      2.00000
      9      -7.5977      2.00000
     10      -7.5090      2.00000
     11      -7.3324      2.00000
     12      -7.1221      2.00000
     13      -6.6684      2.00000
     14      -5.6811      2.00000
     15      -5.5628      2.00000
     16      -4.9539      2.00000
     17      -4.5302      2.00000
     18      -4.4669      2.00000
     19      -4.2489      2.00000
     20      -4.0162      2.00000
     21      -3.7305      2.00000
     22      -3.4996      2.00000
     23      -3.1300      2.00000
     24      -3.0336      2.00000
     25      -0.1428      0.00000
     26       0.4724      0.00000
     27       0.7168      0.00000
     28       0.9168      0.00000
     29       1.2875      0.00000
     30       1.6093      0.00000
     31       1.7843      0.00000
     32       1.8785      0.00000

 k-point     8 :      -0.2000    0.3333    0.0000
  band No.  band energies     occupation 
      1     -15.8407      2.00000
      2     -15.0699      2.00000
      3     -14.9923      2.00000
      4     -13.3569      2.00000
      5     -13.2695      2.00000
      6      -8.9558      2.00000
      7      -8.8669      2.00000
      8      -8.7639      2.00000
      9      -8.4581      2.00000
     10      -7.9438      2.00000
     11      -7.4099      2.00000
     12      -6.5564      2.00000
     13      -5.9316      2.00000
     14      -5.1908      2.00000
     15      -4.9869      2.00000
     16      -4.8927      2.00000
     17      -4.3548      2.00000
     18      -3.9559      2.00000
     19      -3.9069      2.00000
     20      -3.7426      2.00000
     21      -3.6672      2.00000
     22      -3.2480      2.00000
     23      -2.9212      2.00000
     24      -2.8082      2.00000
     25      -0.4881      0.00000
     26       0.2828      0.00000
     27       0.5331      0.00000
     28       0.7945      0.00000
     29       0.9205      0.00000
     30       1.1949      0.00000
     31       1.2419      0.00000
     32       1.5363      0.00000


--------------------------------------------------------------------------------------------------------


 soft charge-density along one line, spin component           1
         0         1         2         3         4         5         6         7         8         9
 total charge-density along one line

 pseudopotential strength for first ion, spin component:           1
  7.181 -16.882  -0.005  -0.002  -0.000   0.027   0.008   0.000
-16.882  49.270   0.012   0.004   0.000  -0.058  -0.017  -0.000
 -0.005   0.012   1.704  -0.000   0.000  -6.725   0.001  -0.000
 -0.002   0.004  -0.000   1.709  -0.000   0.001  -6.747   0.000
 -0.000   0.000   0.000  -0.000   1.704  -0.000   0.000  -6.726
  0.027  -0.058  -6.725   0.001  -0.000  28.450  -0.005   0.000
  0.008  -0.017   0.001  -6.747   0.000  -0.005  28.539  -0.000
  0.000  -0.000  -0.000   0.000  -6.726   0.000  -0.000  28.456
  0.000  -0.000  -0.000  -0.000  -0.005   0.000   0.000   0.012
 -0.001   0.001  -0.001  -0.004  -0.000   0.003   0.010   0.000
  0.011  -0.012   0.002  -0.002   0.000  -0.005   0.004  -0.000
 -0.000   0.000  -0.000  -0.000  -0.001   0.000   0.000   0.003
  0.001  -0.001   0.003  -0.000  -0.000  -0.007   0.000   0.000
 -0.000   0.000   0.000   0.000   0.018  -0.000  -0.000  -0.059
  0.004  -0.007   0.004   0.017   0.000  -0.014  -0.056  -0.000
 -0.041   0.072  -0.007   0.006  -0.000   0.026  -0.021   0.000
  0.000  -0.000   0.000   0.000   0.005  -0.000  -0.000  -0.017
 -0.002   0.004  -0.012   0.000   0.000   0.041  -0.001  -0.000
 total augmentation occupancy for first ion, spin component:           1
  1.390   0.033   0.004   0.012   0.000   0.005   0.001   0.000  -0.000   0.014  -0.104   0.000  -0.023  -0.000   0.001  -0.005
  0.033   0.001   0.008   0.002  -0.000   0.000   0.000  -0.000  -0.000   0.001  -0.003   0.000  -0.000  -0.000   0.000  -0.000
  0.004   0.008   1.338   0.062  -0.000   0.027   0.002  -0.000   0.000   0.021  -0.075   0.000   0.068   0.000   0.001  -0.003
  0.012   0.002   0.062   0.409   0.002   0.002   0.007   0.000   0.001   0.062   0.007   0.000   0.005   0.000   0.002   0.000
  0.000  -0.000  -0.000   0.002   1.200  -0.000   0.000   0.026   0.248   0.000   0.000   0.032  -0.000   0.008   0.000   0.000
  0.005   0.000   0.027   0.002  -0.000   0.001   0.000  -0.000   0.000   0.001  -0.002   0.000   0.001   0.000   0.000  -0.000
  0.001   0.000   0.002   0.007   0.000   0.000   0.000   0.000   0.000   0.001   0.000   0.000   0.000   0.000   0.000  -0.000
  0.000  -0.000  -0.000   0.000   0.026  -0.000   0.000   0.001   0.005   0.000   0.000   0.001  -0.000   0.000   0.000   0.000
 -0.000  -0.000   0.000   0.001   0.248   0.000   0.000   0.005   0.070   0.000   0.000   0.007   0.000   0.002   0.000   0.000
  0.014   0.001   0.021   0.062   0.000   0.001   0.001   0.000   0.000   0.011  -0.000   0.000  -0.002   0.000   0.000  -0.000
 -0.104  -0.003  -0.075   0.007   0.000  -0.002   0.000   0.000   0.000  -0.000   0.014   0.000  -0.004   0.000  -0.000   0.001
  0.000   0.000   0.000   0.000   0.032   0.000   0.000   0.001   0.007   0.000   0.000   0.022   0.000   0.000   0.000  -0.000
 -0.023  -0.000   0.068   0.005  -0.000   0.001   0.000  -0.000   0.000  -0.002  -0.004   0.000   0.045  -0.000  -0.000  -0.000
 -0.000  -0.000   0.000   0.000   0.008   0.000   0.000   0.000   0.002   0.000   0.000   0.000  -0.000   0.000   0.000   0.000
  0.001   0.000   0.001   0.002   0.000   0.000   0.000   0.000   0.000   0.000  -0.000   0.000  -0.000   0.000   0.000  -0.000
 -0.005  -0.000  -0.003   0.000   0.000  -0.000  -0.000   0.000   0.000  -0.000   0.001  -0.000  -0.000   0.000  -0.000   0.000
  0.000   0.000   0.000   0.000   0.001   0.000   0.000   0.000   0.000   0.000  -0.000   0.001   0.000   0.000   0.000  -0.000
 -0.001  -0.000   0.001   0.000  -0.000   0.000   0.000  -0.000   0.000  -0.000  -0.000   0.000   0.001  -0.000  -0.000  -0.000


------------------------ aborting loop because EDIFF is reached ----------------------------------------


    FORLOC:  cpu time    0.2201: real time    0.2208
    FORHF :  cpu time 1076.7555: real time 1079.3521
    FORNL :  cpu time    6.3181: real time    6.3312
    STRESS:  cpu time   19.1221: real time   19.1799
    FORCOR:  cpu time    8.2343: real time    8.2457
    OFIELD:  cpu time    0.0083: real time    0.0085

  FORCE on cell =-STRESS in cart. coord.  units (eV):
  Direction    XX          YY          ZZ          XY          YZ          ZX
  --------------------------------------------------------------------------------------
  Alpha Z    13.10178    13.10178    13.10178
  Ewald    2359.46365  1934.81739 -2932.57598    -8.60924   -42.56201    -7.43974
  Hartree  2378.52808  2084.21452 -1953.14533    -0.47867   -20.74596    -2.49026
  E(xc)    -120.11490  -120.73637  -118.27491     0.03611    -0.03112    -0.07371
  Local   -5230.11649 -4520.68314  4406.85762     6.18737    58.38293     5.95671
  n-local   224.52645   236.37783   190.78929    -0.50649     0.53474     1.67297
  augment   -29.48821   -31.21396   -27.62063    -0.36897    -0.88563    -0.80239
  Kinetic   435.25935   430.49356   451.16794     3.76687     5.05454     3.02460
  Fock      -31.71117   -31.30797   -30.96091     0.06512     0.16235     0.15745
  -------------------------------------------------------------------------------------
  Total      -0.55147    -4.93636    -0.66114     0.09211    -0.09016     0.00563
  in kB      -0.96508    -8.63872    -1.15700     0.16120    -0.15778     0.00986
  external pressure =       -3.59 kB  Pullay stress =        0.00 kB


 VOLUME and BASIS-vectors are now :
 -----------------------------------------------------------------------------
  energy-cutoff  :      450.00
  volume of cell :      915.52
      direct lattice vectors                 reciprocal lattice vectors
     6.019200000  0.000000000  0.000000000     0.166135035  0.000000000  0.000000000
     0.000000000 10.140000000  0.000000000     0.000000000  0.098619329  0.000000000
     0.000000000  0.000000000 15.000000000     0.000000000  0.000000000  0.066666667

  length of vectors
     6.019200000 10.140000000 15.000000000     0.166135035  0.098619329  0.066666667


 FORCES acting on ions:
    Electron-Ion                     Ewald-Force                    Non-Local-Force
 -----------------------------------------------------------------------------------------------
   0.255E+00 0.488E+02 0.346E+02   -.248E+00 -.460E+02 -.337E+02   -.159E-02 -.312E+01 -.899E+00
   -.325E+00 0.482E+02 -.564E+01   0.334E+00 -.454E+02 0.499E+01   -.117E-01 -.303E+01 0.691E+00
   0.123E+01 -.579E+02 0.478E+02   -.131E+01 0.552E+02 -.467E+02   0.905E-01 0.298E+01 -.127E+01
   -.224E+01 -.597E+02 -.650E+00   0.225E+01 0.571E+02 -.752E-01   -.359E-02 0.292E+01 0.780E+00
   0.484E+01 0.538E+02 0.379E+01   -.495E+01 -.517E+02 -.550E+01   0.103E+00 -.241E+01 0.185E+01
   -.188E+01 0.522E+02 0.474E+02   0.207E+01 -.496E+02 -.465E+02   -.197E+00 -.292E+01 -.103E+01
   0.909E+00 -.410E+02 -.141E+01   -.920E+00 0.387E+02 0.816E+00   0.152E-01 0.265E+01 0.638E+00
   -.629E+00 -.445E+02 0.361E+02   0.632E+00 0.416E+02 -.353E+02   -.733E-02 0.317E+01 -.836E+00
   0.260E+00 0.393E+01 0.207E+02   -.204E+00 -.390E+01 -.208E+02   -.763E-01 -.234E-01 0.132E+00
   -.257E+00 0.434E+01 0.203E+02   0.199E+00 -.431E+01 -.204E+02   0.815E-01 -.150E-01 0.995E-01
   0.284E+01 -.556E+01 0.309E+02   -.275E+01 0.563E+01 -.310E+02   -.112E+00 -.596E-01 0.929E-01
   -.349E+01 -.774E+01 0.364E+02   0.336E+01 0.785E+01 -.366E+02   0.160E+00 -.915E-01 0.173E+00
   0.146E+02 -.199E+02 -.192E+03   -.189E+02 0.259E+02 0.188E+03   0.442E+01 -.619E+01 0.372E+01
   -.245E+02 0.137E+02 -.314E+02   0.270E+02 -.149E+02 0.313E+02   -.251E+01 0.117E+01 0.122E+00
   0.610E+01 0.148E+02 -.491E+02   -.659E+01 -.161E+02 0.513E+02   0.481E+00 0.134E+01 -.216E+01
 -----------------------------------------------------------------------------------------------
   -.242E+01 0.366E+01 -.209E+01   0.444E-14 0.355E-14 0.284E-13   0.243E+01 -.363E+01 0.210E+01


 POSITION                                       TOTAL-FORCE (eV/Angst)
 -----------------------------------------------------------------------------------
      2.60038      8.89646      3.56482         0.004958     -0.009192      0.011696
      5.60974      8.89852      3.91754        -0.002044      0.037931     -0.012186
      2.60344      6.25845      3.60837        -0.001848      0.035623     -0.016876
      5.61779      6.27872      4.01854         0.006498     -0.005113     -0.007192
      2.59778      3.81758      4.12857        -0.014013     -0.037456      0.001803
      5.61753      3.83500      3.64390         0.001975     -0.001963      0.008721
      2.59891      1.20090      3.93038         0.002723      0.004282     -0.013133
      5.60937      1.20101      3.58331        -0.004613     -0.038136      0.020898
      1.09586     10.11689      3.73268        -0.023529      0.005706      0.014178
      4.10384     10.11730      3.73938         0.025972      0.011707      0.011622
      1.10129      5.05161      3.85176        -0.029837      0.004415     -0.015688
      4.10853      5.05570      3.88474         0.029820      0.010248      0.004753
      3.36189      4.43456      6.99858         0.015157     -0.012601     -0.027453
      4.86331      3.72822      6.92966        -0.013853      0.006480      0.006281
      3.04894      3.56647      8.40877         0.002633     -0.011932      0.012576
 -----------------------------------------------------------------------------------
    total drift:                                0.004731      0.010514      0.009670


--------------------------------------------------------------------------------------------------------



  FREE ENERGIE OF THE ION-ELECTRON SYSTEM (eV)
  ---------------------------------------------------
  free  energy   TOTEN  =       -80.14398286 eV

  energy  without entropy=      -80.14398286  energy(sigma->0) =      -80.14398286

 d Force = 0.6663723E-04[-0.915E-04, 0.225E-03]  d Energy = 0.3203377E-04 0.346E-04
 d Force =-0.4004956E+00[-0.400E+00,-0.401E+00]  d Ewald  =-0.4004956E+00-0.708E-07


--------------------------------------------------------------------------------------------------------


    POTLOK:  cpu time    9.1952: real time    9.2083


--------------------------------------------------------------------------------------------------------


 stress matrix after NEB project (eV)
     -0.55147      0.09211      0.00563
      0.09211     -4.93636     -0.09016
      0.00563     -0.09016     -0.66114
  FORCES: max atom, RMS     0.043730    0.029372
  FORCE total and by dimension    0.113759    0.038136
  Stress total and by dimension    5.014196    4.936360


--------------------------------------------------------------------------------------------------------


    WAVPRE:  cpu time    0.5312: real time    0.9689
    FEWALD:  cpu time    0.0024: real time    0.0024
    ORTHCH:  cpu time    2.6488: real time    2.6560
    CHARGE:  cpu time    1.5728: real time    1.5786
     LOOP+:  cpu time 6369.1528: real time 6387.2025


--------------------------------------- Iteration     21(   1)  ---------------------------------------


    POTLOK:  cpu time    8.2754: real time    8.2936
    SETDIJ:  cpu time    0.9552: real time    0.9587
    TRIAL :  cpu time  640.4023: real time  642.5636
    CORREC:  cpu time    0.0004: real time    0.0004
    CHARGE:  cpu time    1.5652: real time    1.5751
    --------------------------------------------
      LOOP:  cpu time  651.2621: real time  653.4559

 eigenvalue-minimisations  :     0
 total energy-change (2. order) : 0.1359615E-03  (-0.2543663E-03)
 number of electron      48.0000001 magnetization 
 augmentation part       -1.2491501 magnetization 

 Free energy of the ion-electron system (eV)
  ---------------------------------------------------
  alpha Z        PSCENC =        13.10177784
  Ewald energy   TEWEN  =      1361.59077422
  -Hartree energ DENC   =     -2509.59779128
  -exchange      EXHF   =        75.38544052
  -V(xc)+E(xc)   XCENC  =      -142.09314122
  PAW double counting   =      1714.05702998    -1484.92742358
  entropy T*S    EENTRO =        -0.00000000
  eigenvalues    EBANDS =      -358.85373792
  atomic energy  EATOM  =      1251.19323263
  ---------------------------------------------------
  free energy    TOTEN  =       -80.14383881 eV

  energy without entropy =      -80.14383881  energy(sigma->0) =      -80.14383881
  exchange ACFDT corr.  =        -0.00000000  see jH, gK, PRB 81, 115126


--------------------------------------------------------------------------------------------------------




--------------------------------------- Iteration     21(   2)  ---------------------------------------


    POTLOK:  cpu time    8.2834: real time    8.3025
    SETDIJ:  cpu time    0.9382: real time    0.9404
    TRIAL :  cpu time  643.3519: real time  645.3185
    CORREC:  cpu time    0.0004: real time    0.0004
    CHARGE:  cpu time    1.5561: real time    1.5646
    --------------------------------------------
      LOOP:  cpu time  654.1304: real time  656.1275

 eigenvalue-minimisations  :     0
 total energy-change (2. order) :-0.1187612E-03  (-0.6783075E-04)
 number of electron      48.0000001 magnetization 
 augmentation part       -1.2491501 magnetization 

 Free energy of the ion-electron system (eV)
  ---------------------------------------------------
  alpha Z        PSCENC =        13.10177784
  Ewald energy   TEWEN  =      1361.59077422
  -Hartree energ DENC   =     -2509.48764464
  -exchange      EXHF   =        75.38422811
  -V(xc)+E(xc)   XCENC  =      -142.09417034
  PAW double counting   =      1714.02233448    -1484.89258075
  entropy T*S    EENTRO =        -0.00000000
  eigenvalues    EBANDS =      -358.96190912
  atomic energy  EATOM  =      1251.19323263
  ---------------------------------------------------
  free energy    TOTEN  =       -80.14395757 eV

  energy without entropy =      -80.14395757  energy(sigma->0) =      -80.14395757
  exchange ACFDT corr.  =        -0.00000000  see jH, gK, PRB 81, 115126


--------------------------------------------------------------------------------------------------------




--------------------------------------- Iteration     21(   3)  ---------------------------------------


    POTLOK:  cpu time    8.2866: real time    8.3018
    SETDIJ:  cpu time    0.9398: real time    0.9412
    TRIAL :  cpu time  643.7106: real time  645.8592
    CORREC:  cpu time    0.0004: real time    0.0004
    CHARGE:  cpu time    1.5600: real time    1.5676
    --------------------------------------------
      LOOP:  cpu time  654.4980: real time  656.6715

 eigenvalue-minimisations  :     0
 total energy-change (2. order) :-0.3639547E-04  (-0.2173016E-04)
 number of electron      48.0000001 magnetization 
 augmentation part       -1.2491492 magnetization 

 Free energy of the ion-electron system (eV)
  ---------------------------------------------------
  alpha Z        PSCENC =        13.10177784
  Ewald energy   TEWEN  =      1361.59077422
  -Hartree energ DENC   =     -2509.47039468
  -exchange      EXHF   =        75.38415764
  -V(xc)+E(xc)   XCENC  =      -142.09428281
  PAW double counting   =      1714.02503029    -1484.89531259
  entropy T*S    EENTRO =        -0.00000000
  eigenvalues    EBANDS =      -358.97897650
  atomic energy  EATOM  =      1251.19323263
  ---------------------------------------------------
  free energy    TOTEN  =       -80.14399396 eV

  energy without entropy =      -80.14399396  energy(sigma->0) =      -80.14399396
  exchange ACFDT corr.  =        -0.00000000  see jH, gK, PRB 81, 115126


--------------------------------------------------------------------------------------------------------




--------------------------------------- Iteration     21(   4)  ---------------------------------------


    POTLOK:  cpu time    8.2819: real time    8.2966
    SETDIJ:  cpu time    0.9425: real time    0.9454
    TRIAL :  cpu time  643.9797: real time  646.1296
    CORREC:  cpu time    0.0004: real time    0.0004
    EDDIAG:  cpu time  633.8299: real time  635.9382
    CHARGE:  cpu time    1.5771: real time    1.5840
    --------------------------------------------
      LOOP:  cpu time 1288.6121: real time 1292.8957

 eigenvalue-minimisations  :     0
 total energy-change (2. order) :-0.9659415E-05  (-0.9501038E-05)
 number of electron      48.0000001 magnetization 
 augmentation part       -1.2491515 magnetization 

 Free energy of the ion-electron system (eV)
  ---------------------------------------------------
  alpha Z        PSCENC =        13.10177784
  Ewald energy   TEWEN  =      1361.59077422
  -Hartree energ DENC   =     -2509.49187045
  -exchange      EXHF   =        75.38460790
  -V(xc)+E(xc)   XCENC  =      -142.09400025
  PAW double counting   =      1714.04111913    -1484.91146389
  entropy T*S    EENTRO =        -0.00000000
  eigenvalues    EBANDS =      -358.95806859
  atomic energy  EATOM  =      1251.19323263
  ---------------------------------------------------
  free energy    TOTEN  =       -80.14400362 eV

  energy without entropy =      -80.14400362  energy(sigma->0) =      -80.14400362
  exchange ACFDT corr.  =        -0.00000000  see jH, gK, PRB 81, 115126


--------------------------------------------------------------------------------------------------------


  average scaling for gradient   0.9178


 average (electrostatic) potential at core
  the test charge radii are     1.0406  0.6991  1.1897  0.5883
  (the norm of the test charge is              1.0000)
       1 -54.8695       2 -54.8630       3 -54.8673       4 -54.8902       5 -54.9114
       6 -54.9553       7 -54.8125       8 -54.8930       9 -51.0190      10 -51.0175
      11 -51.0802      12 -51.1361      13 -93.2181      14 -34.3032      15 -33.8384



 E-fermi :  -2.0346     XC(G=0):  -2.9193     alpha+bet : -2.8557


 k-point     1 :       0.0000    0.0000    0.0000
  band No.  band energies     occupation 
      1     -15.8629      2.00000
      2     -15.2314      2.00000
      3     -15.0767      2.00000
      4     -12.9628      2.00000
      5     -12.8603      2.00000
      6      -9.6317      2.00000
      7      -9.3518      2.00000
      8      -9.3217      2.00000
      9      -8.4422      2.00000
     10      -7.4307      2.00000
     11      -7.0016      2.00000
     12      -6.4505      2.00000
     13      -6.0022      2.00000
     14      -5.5007      2.00000
     15      -5.1927      2.00000
     16      -4.9124      2.00000
     17      -4.5075      2.00000
     18      -4.3779      2.00000
     19      -3.4183      2.00000
     20      -3.2101      2.00000
     21      -3.1649      2.00000
     22      -2.6142      2.00000
     23      -2.3462      2.00000
     24      -2.2989      2.00000
     25      -0.8249      0.00000
     26      -0.2757      0.00000
     27       0.2465      0.00000
     28       0.6080      0.00000
     29       0.7791      0.00000
     30       0.9416      0.00000
     31       1.0795      0.00000
     32       1.3684      0.00000

 k-point     2 :       0.2000    0.0000    0.0000
  band No.  band energies     occupation 
      1     -15.8408      2.00000
      2     -15.1058      2.00000
      3     -14.9508      2.00000
      4     -13.3737      2.00000
      5     -13.2506      2.00000
      6      -9.1768      2.00000
      7      -8.9821      2.00000
      8      -8.7088      2.00000
      9      -8.4580      2.00000
     10      -7.4428      2.00000
     11      -6.8776      2.00000
     12      -6.8067      2.00000
     13      -6.3178      2.00000
     14      -5.4500      2.00000
     15      -5.2181      2.00000
     16      -4.7996      2.00000
     17      -4.4484      2.00000
     18      -3.9765      2.00000
     19      -3.9168      2.00000
     20      -3.8805      2.00000
     21      -3.7515      2.00000
     22      -3.0174      2.00000
     23      -2.7656      2.00000
     24      -2.3169      2.00000
     25      -0.8022      0.00000
     26       0.4424      0.00000
     27       0.7148      0.00000
     28       0.8284      0.00000
     29       1.0355      0.00000
     30       1.0667      0.00000
     31       1.1582      0.00000
     32       1.5014      0.00000

 k-point     3 :       0.4000    0.0000    0.0000
  band No.  band energies     occupation 
      1     -15.8092      2.00000
      2     -14.7243      2.00000
      3     -14.5688      2.00000
      4     -14.1052      2.00000
      5     -13.9590      2.00000
      6      -8.7257      2.00000
      7      -8.4657      2.00000
      8      -7.9220      2.00000
      9      -7.6873      2.00000
     10      -7.3691      2.00000
     11      -7.1486      2.00000
     12      -6.5111      2.00000
     13      -6.1747      2.00000
     14      -5.9762      2.00000
     15      -5.5405      2.00000
     16      -5.2517      2.00000
     17      -5.0495      2.00000
     18      -4.7844      2.00000
     19      -4.4558      2.00000
     20      -4.2104      2.00000
     21      -3.7412      2.00000
     22      -3.4454      2.00000
     23      -2.8435      2.00000
     24      -2.4040      2.00000
     25      -0.4582      0.00000
     26       0.2441      0.00000
     27       0.9221      0.00000
     28       1.3184      0.00000
     29       1.4128      0.00000
     30       1.6158      0.00000
     31       1.7279      0.00000
     32       2.1451      0.00000

 k-point     4 :       0.0000    0.3333    0.0000
  band No.  band energies     occupation 
      1     -15.8617      2.00000
      2     -15.1972      2.00000
      3     -15.1169      2.00000
      4     -12.9522      2.00000
      5     -12.8717      2.00000
      6      -9.5806      2.00000
      7      -9.4029      2.00000
      8      -9.0256      2.00000
      9      -8.4556      2.00000
     10      -8.0837      2.00000
     11      -7.4045      2.00000
     12      -5.8319      2.00000
     13      -5.4529      2.00000
     14      -5.3792      2.00000
     15      -5.0891      2.00000
     16      -5.0489      2.00000
     17      -4.4195      2.00000
     18      -4.2060      2.00000
     19      -3.7113      2.00000
     20      -3.2973      2.00000
     21      -3.2058      2.00000
     22      -3.1671      2.00000
     23      -2.5999      2.00000
     24      -2.3142      2.00000
     25      -0.5913      0.00000
     26       0.0944      0.00000
     27       0.2828      0.00000
     28       0.4567      0.00000
     29       0.6966      0.00000
     30       0.8779      0.00000
     31       1.1307      0.00000
     32       1.3784      0.00000

 k-point     5 :       0.2000    0.3333    0.0000
  band No.  band energies     occupation 
      1     -15.8401      2.00000
      2     -15.0698      2.00000
      3     -14.9920      2.00000
      4     -13.3560      2.00000
      5     -13.2700      2.00000
      6      -8.9519      2.00000
      7      -8.8689      2.00000
      8      -8.7653      2.00000
      9      -8.4528      2.00000
     10      -7.9536      2.00000
     11      -7.4049      2.00000
     12      -6.5586      2.00000
     13      -5.9192      2.00000
     14      -5.2010      2.00000
     15      -4.9766      2.00000
     16      -4.8855      2.00000
     17      -4.3803      2.00000
     18      -3.9599      2.00000
     19      -3.9059      2.00000
     20      -3.7283      2.00000
     21      -3.6776      2.00000
     22      -3.2263      2.00000
     23      -2.9463      2.00000
     24      -2.7982      2.00000
     25      -0.4661      0.00000
     26       0.2164      0.00000
     27       0.6251      0.00000
     28       0.7751      0.00000
     29       0.8947      0.00000
     30       1.1170      0.00000
     31       1.2866      0.00000
     32       1.5103      0.00000

 k-point     6 :       0.4000    0.3333    0.0000
  band No.  band energies     occupation 
      1     -15.8089      2.00000
      2     -14.6903      2.00000
      3     -14.6069      2.00000
      4     -14.0779      2.00000
      5     -13.9894      2.00000
      6      -8.5770      2.00000
      7      -8.3140      2.00000
      8      -7.8495      2.00000
      9      -7.5847      2.00000
     10      -7.5071      2.00000
     11      -7.3269      2.00000
     12      -7.1203      2.00000
     13      -6.6687      2.00000
     14      -5.6714      2.00000
     15      -5.5657      2.00000
     16      -4.9661      2.00000
     17      -4.5117      2.00000
     18      -4.4687      2.00000
     19      -4.2625      2.00000
     20      -4.0208      2.00000
     21      -3.7450      2.00000
     22      -3.4683      2.00000
     23      -3.1364      2.00000
     24      -3.0377      2.00000
     25      -0.1188      0.00000
     26       0.3641      0.00000
     27       0.7503      0.00000
     28       1.0713      0.00000
     29       1.1978      0.00000
     30       1.6092      0.00000
     31       1.7624      0.00000
     32       1.8357      0.00000

 k-point     7 :      -0.4000    0.3333    0.0000
  band No.  band energies     occupation 
      1     -15.8089      2.00000
      2     -14.6902      2.00000
      3     -14.6070      2.00000
      4     -14.0779      2.00000
      5     -13.9894      2.00000
      6      -8.5745      2.00000
      7      -8.3271      2.00000
      8      -7.8188      2.00000
      9      -7.5974      2.00000
     10      -7.5084      2.00000
     11      -7.3328      2.00000
     12      -7.1214      2.00000
     13      -6.6682      2.00000
     14      -5.6804      2.00000
     15      -5.5630      2.00000
     16      -4.9539      2.00000
     17      -4.5301      2.00000
     18      -4.4674      2.00000
     19      -4.2487      2.00000
     20      -4.0161      2.00000
     21      -3.7314      2.00000
     22      -3.4987      2.00000
     23      -3.1292      2.00000
     24      -3.0340      2.00000
     25      -0.1428      0.00000
     26       0.4721      0.00000
     27       0.7168      0.00000
     28       0.9168      0.00000
     29       1.2870      0.00000
     30       1.6092      0.00000
     31       1.7842      0.00000
     32       1.8778      0.00000

 k-point     8 :      -0.2000    0.3333    0.0000
  band No.  band energies     occupation 
      1     -15.8401      2.00000
      2     -15.0697      2.00000
      3     -14.9921      2.00000
      4     -13.3559      2.00000
      5     -13.2700      2.00000
      6      -8.9546      2.00000
      7      -8.8665      2.00000
      8      -8.7645      2.00000
      9      -8.4576      2.00000
     10      -7.9435      2.00000
     11      -7.4090      2.00000
     12      -6.5561      2.00000
     13      -5.9314      2.00000
     14      -5.1910      2.00000
     15      -4.9868      2.00000
     16      -4.8933      2.00000
     17      -4.3543      2.00000
     18      -3.9546      2.00000
     19      -3.9074      2.00000
     20      -3.7424      2.00000
     21      -3.6670      2.00000
     22      -3.2480      2.00000
     23      -2.9205      2.00000
     24      -2.8090      2.00000
     25      -0.4879      0.00000
     26       0.2832      0.00000
     27       0.5334      0.00000
     28       0.7945      0.00000
     29       0.9200      0.00000
     30       1.1949      0.00000
     31       1.2413      0.00000
     32       1.5347      0.00000


--------------------------------------------------------------------------------------------------------


 soft charge-density along one line, spin component           1
         0         1         2         3         4         5         6         7         8         9
 total charge-density along one line

 pseudopotential strength for first ion, spin component:           1
  7.182 -16.882  -0.005  -0.002  -0.000   0.027   0.008   0.000
-16.882  49.270   0.012   0.004   0.000  -0.058  -0.017  -0.000
 -0.005   0.012   1.704  -0.000   0.000  -6.725   0.001  -0.000
 -0.002   0.004  -0.000   1.709  -0.000   0.001  -6.747   0.000
 -0.000   0.000   0.000  -0.000   1.704  -0.000   0.000  -6.726
  0.027  -0.058  -6.725   0.001  -0.000  28.450  -0.005   0.000
  0.008  -0.017   0.001  -6.747   0.000  -0.005  28.539  -0.000
  0.000  -0.000  -0.000   0.000  -6.726   0.000  -0.000  28.456
  0.000  -0.000  -0.000  -0.000  -0.005   0.000   0.000   0.012
 -0.001   0.001  -0.001  -0.004  -0.000   0.003   0.010   0.000
  0.011  -0.012   0.002  -0.002   0.000  -0.005   0.004  -0.000
 -0.000   0.000  -0.000  -0.000  -0.001   0.000   0.000   0.003
  0.001  -0.001   0.003  -0.000  -0.000  -0.007   0.000   0.000
 -0.000   0.000   0.000   0.000   0.018  -0.000  -0.000  -0.059
  0.004  -0.007   0.004   0.017   0.000  -0.015  -0.056  -0.000
 -0.041   0.072  -0.007   0.007  -0.000   0.026  -0.021   0.000
  0.000  -0.000   0.000   0.000   0.005  -0.000  -0.000  -0.017
 -0.002   0.004  -0.012   0.000   0.000   0.041  -0.001  -0.000
 total augmentation occupancy for first ion, spin component:           1
  1.390   0.033   0.004   0.012   0.000   0.005   0.001   0.000  -0.000   0.014  -0.104   0.000  -0.023  -0.000   0.001  -0.005
  0.033   0.001   0.008   0.002  -0.000   0.000   0.000  -0.000  -0.000   0.001  -0.003   0.000  -0.000  -0.000   0.000  -0.000
  0.004   0.008   1.339   0.062  -0.000   0.027   0.002  -0.000   0.000   0.021  -0.075   0.000   0.068   0.000   0.001  -0.003
  0.012   0.002   0.062   0.409   0.002   0.002   0.007   0.000   0.001   0.062   0.007   0.000   0.005   0.000   0.002   0.000
  0.000  -0.000  -0.000   0.002   1.200  -0.000   0.000   0.026   0.248   0.000   0.000   0.032  -0.000   0.008   0.000   0.000
  0.005   0.000   0.027   0.002  -0.000   0.001   0.000  -0.000   0.000   0.001  -0.002   0.000   0.001   0.000   0.000  -0.000
  0.001   0.000   0.002   0.007   0.000   0.000   0.000   0.000   0.000   0.001   0.000   0.000   0.000   0.000   0.000  -0.000
  0.000  -0.000  -0.000   0.000   0.026  -0.000   0.000   0.001   0.005   0.000   0.000   0.001  -0.000   0.000   0.000   0.000
 -0.000  -0.000   0.000   0.001   0.248   0.000   0.000   0.005   0.070   0.000   0.000   0.007   0.000   0.002   0.000   0.000
  0.014   0.001   0.021   0.062   0.000   0.001   0.001   0.000   0.000   0.011  -0.000   0.000  -0.002   0.000   0.000  -0.000
 -0.104  -0.003  -0.075   0.007   0.000  -0.002   0.000   0.000   0.000  -0.000   0.014   0.000  -0.004   0.000  -0.000   0.001
  0.000   0.000   0.000   0.000   0.032   0.000   0.000   0.001   0.007   0.000   0.000   0.022   0.000   0.000   0.000  -0.000
 -0.023  -0.000   0.068   0.005  -0.000   0.001   0.000  -0.000   0.000  -0.002  -0.004   0.000   0.045  -0.000  -0.000  -0.000
 -0.000  -0.000   0.000   0.000   0.008   0.000   0.000   0.000   0.002   0.000   0.000   0.000  -0.000   0.000   0.000   0.000
  0.001   0.000   0.001   0.002   0.000   0.000   0.000   0.000   0.000   0.000  -0.000   0.000  -0.000   0.000   0.000  -0.000
 -0.005  -0.000  -0.003   0.000   0.000  -0.000  -0.000   0.000   0.000  -0.000   0.001  -0.000  -0.000   0.000  -0.000   0.000
  0.000   0.000   0.000   0.000   0.001   0.000   0.000   0.000   0.000   0.000  -0.000   0.001   0.000   0.000   0.000  -0.000
 -0.001  -0.000   0.001   0.000  -0.000   0.000   0.000  -0.000   0.000  -0.000  -0.000   0.000   0.001  -0.000  -0.000  -0.000


------------------------ aborting loop because EDIFF is reached ----------------------------------------


    FORLOC:  cpu time    0.2193: real time    0.2206
    FORHF :  cpu time 1078.1374: real time 1080.8560
    FORNL :  cpu time    6.3310: real time    6.3566
    STRESS:  cpu time   19.2155: real time   19.2800
    FORCOR:  cpu time    8.2247: real time    8.2381
    OFIELD:  cpu time    0.0085: real time    0.0085

  FORCE on cell =-STRESS in cart. coord.  units (eV):
  Direction    XX          YY          ZZ          XY          YZ          ZX
  --------------------------------------------------------------------------------------
  Alpha Z    13.10178    13.10178    13.10178
  Ewald    2359.32631  1934.70537 -2932.44241    -8.61262   -42.48180    -7.45461
  Hartree  2378.43498  2084.11793 -1953.05424    -0.47583   -20.72443    -2.49704
  E(xc)    -120.11391  -120.73508  -118.27350     0.03630    -0.03135    -0.07370
  Local   -5229.89193 -4520.47002  4406.63994     6.18751    58.28752     5.97605
  n-local   224.52796   236.37479   190.78474    -0.50881     0.53975     1.67272
  augment   -29.48938   -31.21372   -27.62026    -0.36858    -0.88604    -0.80266
  Kinetic   435.26378   430.48388   451.15595     3.76720     5.04516     3.02789
  Fock      -31.71046   -31.30777   -30.96098     0.06501     0.16236     0.15754
  -------------------------------------------------------------------------------------
  Total      -0.55087    -4.94285    -0.66898     0.09017    -0.08883     0.00617
  in kB      -0.96404    -8.65008    -1.17073     0.15779    -0.15545     0.01080
  external pressure =       -3.59 kB  Pullay stress =        0.00 kB


 VOLUME and BASIS-vectors are now :
 -----------------------------------------------------------------------------
  energy-cutoff  :      450.00
  volume of cell :      915.52
      direct lattice vectors                 reciprocal lattice vectors
     6.019200000  0.000000000  0.000000000     0.166135035  0.000000000  0.000000000
     0.000000000 10.140000000  0.000000000     0.000000000  0.098619329  0.000000000
     0.000000000  0.000000000 15.000000000     0.000000000  0.000000000  0.066666667

  length of vectors
     6.019200000 10.140000000 15.000000000     0.166135035  0.098619329  0.066666667


 FORCES acting on ions:
    Electron-Ion                     Ewald-Force                    Non-Local-Force
 -----------------------------------------------------------------------------------------------
   0.256E+00 0.488E+02 0.346E+02   -.250E+00 -.460E+02 -.338E+02   -.207E-02 -.311E+01 -.904E+00
   -.324E+00 0.482E+02 -.567E+01   0.334E+00 -.455E+02 0.503E+01   -.124E-01 -.304E+01 0.693E+00
   0.122E+01 -.579E+02 0.478E+02   -.131E+01 0.552E+02 -.467E+02   0.907E-01 0.297E+01 -.127E+01
   -.224E+01 -.597E+02 -.696E+00   0.225E+01 0.571E+02 -.325E-01   -.458E-02 0.293E+01 0.784E+00
   0.482E+01 0.538E+02 0.378E+01   -.493E+01 -.517E+02 -.549E+01   0.108E+00 -.240E+01 0.185E+01
   -.187E+01 0.522E+02 0.475E+02   0.206E+01 -.496E+02 -.465E+02   -.198E+00 -.293E+01 -.103E+01
   0.909E+00 -.410E+02 -.147E+01   -.921E+00 0.387E+02 0.874E+00   0.153E-01 0.265E+01 0.642E+00
   -.631E+00 -.445E+02 0.362E+02   0.634E+00 0.416E+02 -.354E+02   -.637E-02 0.318E+01 -.840E+00
   0.217E+00 0.393E+01 0.207E+02   -.165E+00 -.389E+01 -.208E+02   -.770E-01 -.237E-01 0.128E+00
   -.216E+00 0.434E+01 0.203E+02   0.160E+00 -.431E+01 -.204E+02   0.817E-01 -.155E-01 0.963E-01
   0.278E+01 -.556E+01 0.309E+02   -.270E+01 0.563E+01 -.310E+02   -.114E+00 -.609E-01 0.965E-01
   -.343E+01 -.773E+01 0.364E+02   0.330E+01 0.783E+01 -.366E+02   0.162E+00 -.917E-01 0.175E+00
   0.146E+02 -.199E+02 -.192E+03   -.189E+02 0.259E+02 0.188E+03   0.442E+01 -.619E+01 0.372E+01
   -.245E+02 0.137E+02 -.314E+02   0.270E+02 -.149E+02 0.313E+02   -.251E+01 0.118E+01 0.123E+00
   0.610E+01 0.148E+02 -.491E+02   -.659E+01 -.161E+02 0.513E+02   0.481E+00 0.134E+01 -.216E+01
 -----------------------------------------------------------------------------------------------
   -.242E+01 0.365E+01 -.209E+01   -.178E-14 -.213E-13 0.142E-13   0.243E+01 -.363E+01 0.210E+01


 POSITION                                       TOTAL-FORCE (eV/Angst)
 -----------------------------------------------------------------------------------
      2.60039      8.89640      3.56421         0.004585     -0.006413      0.013001
      5.60976      8.89877      3.91776        -0.001809      0.030427     -0.010179
      2.60341      6.25873      3.60839        -0.000266      0.026099     -0.015365
      5.61789      6.27858      4.01899         0.004896     -0.003246     -0.006816
      2.59756      3.81717      4.12876        -0.010359     -0.028094      0.002646
      5.61764      3.83495      3.64357        -0.000282     -0.002560      0.009600
      2.59892      1.20072      3.93082         0.002284      0.004371     -0.012841
      5.60928      1.20069      3.58282        -0.003387     -0.029687      0.020899
      1.09571     10.11692      3.73254        -0.027485      0.007914      0.005434
      4.10397     10.11731      3.73929         0.028533      0.011476      0.006098
      1.10109      5.05159      3.85188        -0.036564      0.001877     -0.005507
      4.10876      5.05569      3.88472         0.038575      0.007273      0.005113
      3.36217      4.43511      6.99884         0.012552     -0.015832     -0.029238
      4.86327      3.72829      6.92958        -0.013226      0.006725      0.005670
      3.04877      3.56647      8.40884         0.001952     -0.010331      0.011485
 -----------------------------------------------------------------------------------
    total drift:                                0.002440      0.009760      0.005298


--------------------------------------------------------------------------------------------------------



  FREE ENERGIE OF THE ION-ELECTRON SYSTEM (eV)
  ---------------------------------------------------
  free  energy   TOTEN  =       -80.14400362 eV

  energy  without entropy=      -80.14400362  energy(sigma->0) =      -80.14400362

 d Force = 0.2216833E-04[ 0.179E-04, 0.265E-04]  d Energy = 0.2076474E-04 0.140E-05
 d Force = 0.1157879E+00[ 0.116E+00, 0.116E+00]  d Ewald  = 0.1157879E+00 0.172E-08


--------------------------------------------------------------------------------------------------------


    POTLOK:  cpu time    9.2106: real time    9.2261


--------------------------------------------------------------------------------------------------------


 stress matrix after NEB project (eV)
     -0.55087      0.09017      0.00617
      0.09017     -4.94285     -0.08883
      0.00617     -0.08883     -0.66898
  FORCES: max atom, RMS     0.039586    0.027459
  FORCE total and by dimension    0.106347    0.038575
  Stress total and by dimension    5.021442    4.942851


--------------------------------------------------------------------------------------------------------


    WAVPRE:  cpu time    0.5275: real time    1.0402
    FEWALD:  cpu time    0.0024: real time    0.0024
    ORTHCH:  cpu time    2.6354: real time    2.6505
    CHARGE:  cpu time    1.5565: real time    1.5684
     LOOP+:  cpu time 4402.5955: real time 4417.0502


--------------------------------------- Iteration     22(   1)  ---------------------------------------


    POTLOK:  cpu time    8.2609: real time    8.2929
    SETDIJ:  cpu time    0.9451: real time    0.9491
    TRIAL :  cpu time  637.7894: real time  640.9495
    CORREC:  cpu time    0.0004: real time    0.0004
    CHARGE:  cpu time    1.5730: real time    1.5799
    --------------------------------------------
      LOOP:  cpu time  648.6321: real time  651.8358

 eigenvalue-minimisations  :     0
 total energy-change (2. order) : 0.4190380E-03  (-0.6731043E-03)
 number of electron      48.0000001 magnetization 
 augmentation part       -1.2491780 magnetization 

 Free energy of the ion-electron system (eV)
  ---------------------------------------------------
  alpha Z        PSCENC =        13.10177784
  Ewald energy   TEWEN  =      1361.40181844
  -Hartree energ DENC   =     -2509.49953787
  -exchange      EXHF   =        75.38454643
  -V(xc)+E(xc)   XCENC  =      -142.09395857
  PAW double counting   =      1713.97232802    -1484.84251562
  entropy T*S    EENTRO =        -0.00000000
  eigenvalues    EBANDS =      -358.76126623
  atomic energy  EATOM  =      1251.19323263
  ---------------------------------------------------
  free energy    TOTEN  =       -80.14357493 eV

  energy without entropy =      -80.14357493  energy(sigma->0) =      -80.14357493
  exchange ACFDT corr.  =        -0.00000000  see jH, gK, PRB 81, 115126


--------------------------------------------------------------------------------------------------------




--------------------------------------- Iteration     22(   2)  ---------------------------------------


    POTLOK:  cpu time    8.2810: real time    8.3151
    SETDIJ:  cpu time    0.9376: real time    0.9431
    TRIAL :  cpu time  641.0447: real time  644.1306
    CORREC:  cpu time    0.0003: real time    0.0003
    CHARGE:  cpu time    1.5751: real time    1.5860
    --------------------------------------------
      LOOP:  cpu time  651.8394: real time  654.9767

 eigenvalue-minimisations  :     0
 total energy-change (2. order) :-0.2908886E-03  (-0.1597130E-03)
 number of electron      48.0000001 magnetization 
 augmentation part       -1.2491751 magnetization 

 Free energy of the ion-electron system (eV)
  ---------------------------------------------------
  alpha Z        PSCENC =        13.10177784
  Ewald energy   TEWEN  =      1361.40181844
  -Hartree energ DENC   =     -2509.31414389
  -exchange      EXHF   =        75.38254463
  -V(xc)+E(xc)   XCENC  =      -142.09568696
  PAW double counting   =      1713.91309870    -1484.78304479
  entropy T*S    EENTRO =        -0.00000000
  eigenvalues    EBANDS =      -358.94346241
  atomic energy  EATOM  =      1251.19323263
  ---------------------------------------------------
  free energy    TOTEN  =       -80.14386581 eV

  energy without entropy =      -80.14386581  energy(sigma->0) =      -80.14386581
  exchange ACFDT corr.  =        -0.00000000  see jH, gK, PRB 81, 115126


--------------------------------------------------------------------------------------------------------




--------------------------------------- Iteration     22(   3)  ---------------------------------------


    POTLOK:  cpu time    8.2607: real time    8.2921
    SETDIJ:  cpu time    0.9388: real time    0.9484
    TRIAL :  cpu time  645.9059: real time  648.1969
    CORREC:  cpu time    0.0003: real time    0.0003
    CHARGE:  cpu time    1.5856: real time    1.5908
    --------------------------------------------
      LOOP:  cpu time  656.6930: real time  659.0309

 eigenvalue-minimisations  :     0
 total energy-change (2. order) :-0.8477915E-04  (-0.5715079E-04)
 number of electron      48.0000001 magnetization 
 augmentation part       -1.2491714 magnetization 

 Free energy of the ion-electron system (eV)
  ---------------------------------------------------
  alpha Z        PSCENC =        13.10177784
  Ewald energy   TEWEN  =      1361.40181844
  -Hartree energ DENC   =     -2509.28509484
  -exchange      EXHF   =        75.38244844
  -V(xc)+E(xc)   XCENC  =      -142.09584448
  PAW double counting   =      1713.91816470    -1484.78816246
  entropy T*S    EENTRO =        -0.00000000
  eigenvalues    EBANDS =      -358.97229087
  atomic energy  EATOM  =      1251.19323263
  ---------------------------------------------------
  free energy    TOTEN  =       -80.14395059 eV

  energy without entropy =      -80.14395059  energy(sigma->0) =      -80.14395059
  exchange ACFDT corr.  =        -0.00000000  see jH, gK, PRB 81, 115126


--------------------------------------------------------------------------------------------------------




--------------------------------------- Iteration     22(   4)  ---------------------------------------


    POTLOK:  cpu time    8.2763: real time    8.2898
    SETDIJ:  cpu time    0.9483: real time    0.9497
    TRIAL :  cpu time  647.1846: real time  649.2385
    CORREC:  cpu time    0.0003: real time    0.0003
    CHARGE:  cpu time    1.5726: real time    1.5768
    --------------------------------------------
      LOOP:  cpu time  657.9826: real time  660.0566

 eigenvalue-minimisations  :     0
 total energy-change (2. order) :-0.2347023E-04  (-0.2625998E-04)
 number of electron      48.0000001 magnetization 
 augmentation part       -1.2491730 magnetization 

 Free energy of the ion-electron system (eV)
  ---------------------------------------------------
  alpha Z        PSCENC =        13.10177784
  Ewald energy   TEWEN  =      1361.40181844
  -Hartree energ DENC   =     -2509.32178656
  -exchange      EXHF   =        75.38304135
  -V(xc)+E(xc)   XCENC  =      -142.09536508
  PAW double counting   =      1713.94453852    -1484.81464477
  entropy T*S    EENTRO =        -0.00000000
  eigenvalues    EBANDS =      -358.93658642
  atomic energy  EATOM  =      1251.19323263
  ---------------------------------------------------
  free energy    TOTEN  =       -80.14397406 eV

  energy without entropy =      -80.14397406  energy(sigma->0) =      -80.14397406
  exchange ACFDT corr.  =        -0.00000000  see jH, gK, PRB 81, 115126


--------------------------------------------------------------------------------------------------------




--------------------------------------- Iteration     22(   5)  ---------------------------------------


    POTLOK:  cpu time    8.3038: real time    8.3152
    SETDIJ:  cpu time    0.9458: real time    0.9472
    TRIAL :  cpu time  641.0557: real time  643.1188
    CORREC:  cpu time    0.0003: real time    0.0003
    CHARGE:  cpu time    1.5677: real time    1.5724
    --------------------------------------------
      LOOP:  cpu time  651.8739: real time  653.9552

 eigenvalue-minimisations  :     0
 total energy-change (2. order) :-0.1192066E-04  (-0.4967797E-05)
 number of electron      48.0000001 magnetization 
 augmentation part       -1.2491757 magnetization 

 Free energy of the ion-electron system (eV)
  ---------------------------------------------------
  alpha Z        PSCENC =        13.10177784
  Ewald energy   TEWEN  =      1361.40181844
  -Hartree energ DENC   =     -2509.33309468
  -exchange      EXHF   =        75.38324238
  -V(xc)+E(xc)   XCENC  =      -142.09514132
  PAW double counting   =      1713.95599737    -1484.82609663
  entropy T*S    EENTRO =        -0.00000000
  eigenvalues    EBANDS =      -358.92572201
  atomic energy  EATOM  =      1251.19323263
  ---------------------------------------------------
  free energy    TOTEN  =       -80.14398598 eV

  energy without entropy =      -80.14398598  energy(sigma->0) =      -80.14398598
  exchange ACFDT corr.  =        -0.00000000  see jH, gK, PRB 81, 115126


--------------------------------------------------------------------------------------------------------




--------------------------------------- Iteration     22(   6)  ---------------------------------------


    POTLOK:  cpu time    8.2838: real time    8.2930
    SETDIJ:  cpu time    0.9297: real time    0.9307
    TRIAL :  cpu time  643.8658: real time  645.4685
    CORREC:  cpu time    0.0006: real time    0.0006
    EDDIAG:  cpu time  635.1927: real time  636.5511
    CHARGE:  cpu time    1.5622: real time    1.5669
    --------------------------------------------
      LOOP:  cpu time 1289.8355: real time 1292.8122

 eigenvalue-minimisations  :     0
 total energy-change (2. order) :-0.1483829E-05  (-0.4509882E-05)
 number of electron      48.0000001 magnetization 
 augmentation part       -1.2491739 magnetization 

 Free energy of the ion-electron system (eV)
  ---------------------------------------------------
  alpha Z        PSCENC =        13.10177784
  Ewald energy   TEWEN  =      1361.40181844
  -Hartree energ DENC   =     -2509.32416220
  -exchange      EXHF   =        75.38304290
  -V(xc)+E(xc)   XCENC  =      -142.09526640
  PAW double counting   =      1713.94888041    -1484.81896527
  entropy T*S    EENTRO =        -0.00000000
  eigenvalues    EBANDS =      -358.93442204
  atomic energy  EATOM  =      1251.19323263
  ---------------------------------------------------
  free energy    TOTEN  =       -80.14398747 eV

  energy without entropy =      -80.14398747  energy(sigma->0) =      -80.14398747
  exchange ACFDT corr.  =        -0.00000000  see jH, gK, PRB 81, 115126


--------------------------------------------------------------------------------------------------------


  average scaling for gradient   0.9247


 average (electrostatic) potential at core
  the test charge radii are     1.0406  0.6991  1.1897  0.5883
  (the norm of the test charge is              1.0000)
       1 -54.8701       2 -54.8626       3 -54.8660       4 -54.8885       5 -54.9115
       6 -54.9552       7 -54.8133       8 -54.8934       9 -51.0194      10 -51.0183
      11 -51.0794      12 -51.1349      13 -93.2180      14 -34.3038      15 -33.8356



 E-fermi :  -2.0347     XC(G=0):  -2.9194     alpha+bet : -2.8557


 k-point     1 :       0.0000    0.0000    0.0000
  band No.  band energies     occupation 
      1     -15.8616      2.00000
      2     -15.2314      2.00000
      3     -15.0759      2.00000
      4     -12.9607      2.00000
      5     -12.8612      2.00000
      6      -9.6300      2.00000
      7      -9.3518      2.00000
      8      -9.3213      2.00000
      9      -8.4413      2.00000
     10      -7.4289      2.00000
     11      -7.0012      2.00000
     12      -6.4499      2.00000
     13      -6.0014      2.00000
     14      -5.5020      2.00000
     15      -5.1921      2.00000
     16      -4.9137      2.00000
     17      -4.5056      2.00000
     18      -4.3771      2.00000
     19      -3.4186      2.00000
     20      -3.2069      2.00000
     21      -3.1668      2.00000
     22      -2.6126      2.00000
     23      -2.3460      2.00000
     24      -2.3007      2.00000
     25      -0.8240      0.00000
     26      -0.2749      0.00000
     27       0.2479      0.00000
     28       0.6073      0.00000
     29       0.7792      0.00000
     30       0.9403      0.00000
     31       1.0796      0.00000
     32       1.3683      0.00000

 k-point     2 :       0.2000    0.0000    0.0000
  band No.  band energies     occupation 
      1     -15.8396      2.00000
      2     -15.1055      2.00000
      3     -14.9503      2.00000
      4     -13.3719      2.00000
      5     -13.2513      2.00000
      6      -9.1760      2.00000
      7      -8.9804      2.00000
      8      -8.7095      2.00000
      9      -8.4572      2.00000
     10      -7.4408      2.00000
     11      -6.8769      2.00000
     12      -6.8065      2.00000
     13      -6.3173      2.00000
     14      -5.4495      2.00000
     15      -5.2186      2.00000
     16      -4.8010      2.00000
     17      -4.4470      2.00000
     18      -3.9735      2.00000
     19      -3.9189      2.00000
     20      -3.8796      2.00000
     21      -3.7508      2.00000
     22      -3.0167      2.00000
     23      -2.7663      2.00000
     24      -2.3164      2.00000
     25      -0.8020      0.00000
     26       0.4437      0.00000
     27       0.7160      0.00000
     28       0.8276      0.00000
     29       1.0343      0.00000
     30       1.0657      0.00000
     31       1.1586      0.00000
     32       1.5010      0.00000

 k-point     3 :       0.4000    0.0000    0.0000
  band No.  band energies     occupation 
      1     -15.8080      2.00000
      2     -14.7234      2.00000
      3     -14.5688      2.00000
      4     -14.1038      2.00000
      5     -13.9593      2.00000
      6      -8.7247      2.00000
      7      -8.4652      2.00000
      8      -7.9208      2.00000
      9      -7.6857      2.00000
     10      -7.3702      2.00000
     11      -7.1466      2.00000
     12      -6.5107      2.00000
     13      -6.1742      2.00000
     14      -5.9757      2.00000
     15      -5.5399      2.00000
     16      -5.2509      2.00000
     17      -5.0493      2.00000
     18      -4.7844      2.00000
     19      -4.4572      2.00000
     20      -4.2103      2.00000
     21      -3.7423      2.00000
     22      -3.4433      2.00000
     23      -2.8429      2.00000
     24      -2.4036      2.00000
     25      -0.4582      0.00000
     26       0.2434      0.00000
     27       0.9226      0.00000
     28       1.3181      0.00000
     29       1.4122      0.00000
     30       1.6149      0.00000
     31       1.7277      0.00000
     32       2.1444      0.00000

 k-point     4 :       0.0000    0.3333    0.0000
  band No.  band energies     occupation 
      1     -15.8604      2.00000
      2     -15.1974      2.00000
      3     -15.1158      2.00000
      4     -12.9498      2.00000
      5     -12.8731      2.00000
      6      -9.5783      2.00000
      7      -9.4041      2.00000
      8      -9.0247      2.00000
      9      -8.4547      2.00000
     10      -8.0832      2.00000
     11      -7.4029      2.00000
     12      -5.8310      2.00000
     13      -5.4530      2.00000
     14      -5.3796      2.00000
     15      -5.0895      2.00000
     16      -5.0493      2.00000
     17      -4.4180      2.00000
     18      -4.2050      2.00000
     19      -3.7114      2.00000
     20      -3.2969      2.00000
     21      -3.2023      2.00000
     22      -3.1693      2.00000
     23      -2.5981      2.00000
     24      -2.3163      2.00000
     25      -0.5908      0.00000
     26       0.0954      0.00000
     27       0.2835      0.00000
     28       0.4561      0.00000
     29       0.6968      0.00000
     30       0.8778      0.00000
     31       1.1304      0.00000
     32       1.3775      0.00000

 k-point     5 :       0.2000    0.3333    0.0000
  band No.  band energies     occupation 
      1     -15.8388      2.00000
      2     -15.0695      2.00000
      3     -14.9914      2.00000
      4     -13.3536      2.00000
      5     -13.2712      2.00000
      6      -8.9494      2.00000
      7      -8.8681      2.00000
      8      -8.7664      2.00000
      9      -8.4521      2.00000
     10      -7.9530      2.00000
     11      -7.4032      2.00000
     12      -6.5582      2.00000
     13      -5.9187      2.00000
     14      -5.2012      2.00000
     15      -4.9764      2.00000
     16      -4.8867      2.00000
     17      -4.3792      2.00000
     18      -3.9573      2.00000
     19      -3.9069      2.00000
     20      -3.7276      2.00000
     21      -3.6774      2.00000
     22      -3.2262      2.00000
     23      -2.9448      2.00000
     24      -2.7996      2.00000
     25      -0.4658      0.00000
     26       0.2167      0.00000
     27       0.6258      0.00000
     28       0.7757      0.00000
     29       0.8944      0.00000
     30       1.1162      0.00000
     31       1.2857      0.00000
     32       1.5105      0.00000

 k-point     6 :       0.4000    0.3333    0.0000
  band No.  band energies     occupation 
      1     -15.8078      2.00000
      2     -14.6890      2.00000
      3     -14.6073      2.00000
      4     -14.0758      2.00000
      5     -13.9902      2.00000
      6      -8.5759      2.00000
      7      -8.3135      2.00000
      8      -7.8475      2.00000
      9      -7.5847      2.00000
     10      -7.5061      2.00000
     11      -7.3274      2.00000
     12      -7.1188      2.00000
     13      -6.6681      2.00000
     14      -5.6699      2.00000
     15      -5.5661      2.00000
     16      -4.9659      2.00000
     17      -4.5113      2.00000
     18      -4.4698      2.00000
     19      -4.2624      2.00000
     20      -4.0202      2.00000
     21      -3.7465      2.00000
     22      -3.4663      2.00000
     23      -3.1351      2.00000
     24      -3.0380      2.00000
     25      -0.1188      0.00000
     26       0.3637      0.00000
     27       0.7506      0.00000
     28       1.0706      0.00000
     29       1.1975      0.00000
     30       1.6089      0.00000
     31       1.7626      0.00000
     32       1.8350      0.00000

 k-point     7 :      -0.4000    0.3333    0.0000
  band No.  band energies     occupation 
      1     -15.8078      2.00000
      2     -14.6889      2.00000
      3     -14.6074      2.00000
      4     -14.0758      2.00000
      5     -13.9902      2.00000
      6      -8.5733      2.00000
      7      -8.3266      2.00000
      8      -7.8171      2.00000
      9      -7.5968      2.00000
     10      -7.5074      2.00000
     11      -7.3338      2.00000
     12      -7.1198      2.00000
     13      -6.6676      2.00000
     14      -5.6789      2.00000
     15      -5.5635      2.00000
     16      -4.9538      2.00000
     17      -4.5297      2.00000
     18      -4.4684      2.00000
     19      -4.2484      2.00000
     20      -4.0159      2.00000
     21      -3.7330      2.00000
     22      -3.4965      2.00000
     23      -3.1280      2.00000
     24      -3.0342      2.00000
     25      -0.1428      0.00000
     26       0.4717      0.00000
     27       0.7169      0.00000
     28       0.9169      0.00000
     29       1.2862      0.00000
     30       1.6093      0.00000
     31       1.7841      0.00000
     32       1.8768      0.00000

 k-point     8 :      -0.2000    0.3333    0.0000
  band No.  band energies     occupation 
      1     -15.8388      2.00000
      2     -15.0694      2.00000
      3     -14.9915      2.00000
      4     -13.3536      2.00000
      5     -13.2712      2.00000
      6      -8.9521      2.00000
      7      -8.8657      2.00000
      8      -8.7657      2.00000
      9      -8.4569      2.00000
     10      -7.9429      2.00000
     11      -7.4073      2.00000
     12      -6.5556      2.00000
     13      -5.9310      2.00000
     14      -5.1913      2.00000
     15      -4.9865      2.00000
     16      -4.8943      2.00000
     17      -4.3532      2.00000
     18      -3.9521      2.00000
     19      -3.9084      2.00000
     20      -3.7418      2.00000
     21      -3.6666      2.00000
     22      -3.2480      2.00000
     23      -2.9189      2.00000
     24      -2.8105      2.00000
     25      -0.4876      0.00000
     26       0.2839      0.00000
     27       0.5339      0.00000
     28       0.7947      0.00000
     29       0.9195      0.00000
     30       1.1950      0.00000
     31       1.2404      0.00000
     32       1.5322      0.00000


--------------------------------------------------------------------------------------------------------


 soft charge-density along one line, spin component           1
         0         1         2         3         4         5         6         7         8         9
 total charge-density along one line

 pseudopotential strength for first ion, spin component:           1
  7.182 -16.882  -0.005  -0.002  -0.000   0.027   0.008   0.000
-16.882  49.270   0.012   0.004   0.000  -0.057  -0.018  -0.000
 -0.005   0.012   1.704  -0.000   0.000  -6.725   0.001  -0.000
 -0.002   0.004  -0.000   1.709  -0.000   0.001  -6.747   0.000
 -0.000   0.000   0.000  -0.000   1.704  -0.000   0.000  -6.726
  0.027  -0.057  -6.725   0.001  -0.000  28.450  -0.005   0.000
  0.008  -0.018   0.001  -6.747   0.000  -0.005  28.539  -0.000
  0.000  -0.000  -0.000   0.000  -6.726   0.000  -0.000  28.456
  0.000  -0.000  -0.000  -0.000  -0.005   0.000   0.000   0.012
 -0.001   0.001  -0.001  -0.004  -0.000   0.003   0.010   0.000
  0.011  -0.012   0.002  -0.002   0.000  -0.005   0.004  -0.000
 -0.000   0.000  -0.000  -0.000  -0.001   0.000   0.000   0.003
  0.001  -0.001   0.003  -0.000  -0.000  -0.007   0.000   0.000
 -0.000   0.000   0.000   0.000   0.018  -0.000  -0.000  -0.059
  0.004  -0.007   0.004   0.016   0.000  -0.015  -0.056  -0.000
 -0.041   0.072  -0.007   0.007  -0.000   0.026  -0.022   0.000
  0.000  -0.000   0.000   0.000   0.005  -0.000  -0.000  -0.017
 -0.002   0.004  -0.012   0.000   0.000   0.041  -0.001  -0.000
 total augmentation occupancy for first ion, spin component:           1
  1.390   0.033   0.003   0.012   0.000   0.005   0.001   0.000  -0.000   0.014  -0.104   0.000  -0.023  -0.000   0.001  -0.005
  0.033   0.001   0.008   0.002  -0.000   0.000   0.000  -0.000  -0.000   0.001  -0.003   0.000  -0.000  -0.000   0.000  -0.000
  0.003   0.008   1.338   0.062  -0.000   0.027   0.002  -0.000   0.000   0.021  -0.075   0.000   0.068   0.000   0.001  -0.003
  0.012   0.002   0.062   0.409   0.002   0.002   0.007   0.000   0.001   0.062   0.007   0.000   0.005   0.000   0.002   0.000
  0.000  -0.000  -0.000   0.002   1.199  -0.000   0.000   0.026   0.248   0.000   0.000   0.032  -0.000   0.008   0.000   0.000
  0.005   0.000   0.027   0.002  -0.000   0.001   0.000  -0.000   0.000   0.001  -0.002   0.000   0.001   0.000   0.000  -0.000
  0.001   0.000   0.002   0.007   0.000   0.000   0.000   0.000   0.000   0.001   0.000   0.000   0.000   0.000   0.000  -0.000
  0.000  -0.000  -0.000   0.000   0.026  -0.000   0.000   0.001   0.005   0.000   0.000   0.001  -0.000   0.000   0.000   0.000
 -0.000  -0.000   0.000   0.001   0.248   0.000   0.000   0.005   0.070   0.000   0.000   0.007   0.000   0.002   0.000   0.000
  0.014   0.001   0.021   0.062   0.000   0.001   0.001   0.000   0.000   0.011  -0.000   0.000  -0.002   0.000   0.000  -0.000
 -0.104  -0.003  -0.075   0.007   0.000  -0.002   0.000   0.000   0.000  -0.000   0.014   0.000  -0.004   0.000  -0.000   0.001
  0.000   0.000   0.000   0.000   0.032   0.000   0.000   0.001   0.007   0.000   0.000   0.022   0.000   0.000   0.000  -0.000
 -0.023  -0.000   0.068   0.005  -0.000   0.001   0.000  -0.000   0.000  -0.002  -0.004   0.000   0.045  -0.000  -0.000  -0.000
 -0.000  -0.000   0.000   0.000   0.008   0.000   0.000   0.000   0.002   0.000   0.000   0.000  -0.000   0.000   0.000   0.000
  0.001   0.000   0.001   0.002   0.000   0.000   0.000   0.000   0.000   0.000  -0.000   0.000  -0.000   0.000   0.000  -0.000
 -0.005  -0.000  -0.003   0.000   0.000  -0.000  -0.000   0.000   0.000  -0.000   0.001  -0.000  -0.000   0.000  -0.000   0.000
  0.000   0.000   0.000   0.000   0.001   0.000   0.000   0.000   0.000   0.000  -0.000   0.001   0.000   0.000   0.000  -0.000
 -0.001  -0.000   0.001   0.000  -0.000   0.000   0.000  -0.000  -0.000  -0.000  -0.000   0.000   0.001  -0.000  -0.000  -0.000


------------------------ aborting loop because EDIFF is reached ----------------------------------------


    FORLOC:  cpu time    0.2205: real time    0.2210
    FORHF :  cpu time 1072.7918: real time 1074.5943
    FORNL :  cpu time    6.2847: real time    6.3050
    STRESS:  cpu time   19.1501: real time   19.2180
    FORCOR:  cpu time    8.2323: real time    8.2408
    OFIELD:  cpu time    0.0089: real time    0.0089

  FORCE on cell =-STRESS in cart. coord.  units (eV):
  Direction    XX          YY          ZZ          XY          YZ          ZX
  --------------------------------------------------------------------------------------
  Alpha Z    13.10178    13.10178    13.10178
  Ewald    2359.10197  1934.52234 -2932.22400    -8.61814   -42.35107    -7.47884
  Hartree  2378.26645  2083.94254 -1952.88940    -0.47055   -20.69161    -2.50792
  E(xc)    -120.11235  -120.73294  -118.27149     0.03656    -0.03178    -0.07372
  Local   -5229.50751 -4520.09973  4406.26291     6.18489    58.13516     6.00667
  n-local   224.52976   236.36859   190.77876    -0.51150     0.54786     1.67294
  augment   -29.49117   -31.21212   -27.62030    -0.36840    -0.88683    -0.80356
  Kinetic   435.26601   430.46228   451.14146     3.76796     5.03317     3.03415
  Fock      -31.70931   -31.30745   -30.96091     0.06491     0.16245     0.15772
  -------------------------------------------------------------------------------------
  Total      -0.55436    -4.95472    -0.68120     0.08572    -0.08263     0.00745
  in kB      -0.97015    -8.67085    -1.19210     0.15001    -0.14460     0.01303
  external pressure =       -3.61 kB  Pullay stress =        0.00 kB


 VOLUME and BASIS-vectors are now :
 -----------------------------------------------------------------------------
  energy-cutoff  :      450.00
  volume of cell :      915.52
      direct lattice vectors                 reciprocal lattice vectors
     6.019200000  0.000000000  0.000000000     0.166135035  0.000000000  0.000000000
     0.000000000 10.140000000  0.000000000     0.000000000  0.098619329  0.000000000
     0.000000000  0.000000000 15.000000000     0.000000000  0.000000000  0.066666667

  length of vectors
     6.019200000 10.140000000 15.000000000     0.166135035  0.098619329  0.066666667


 FORCES acting on ions:
    Electron-Ion                     Ewald-Force                    Non-Local-Force
 -----------------------------------------------------------------------------------------------
   0.259E+00 0.487E+02 0.347E+02   -.252E+00 -.459E+02 -.339E+02   -.300E-02 -.310E+01 -.909E+00
   -.322E+00 0.483E+02 -.574E+01   0.333E+00 -.455E+02 0.509E+01   -.137E-01 -.305E+01 0.698E+00
   0.122E+01 -.578E+02 0.478E+02   -.130E+01 0.551E+02 -.466E+02   0.907E-01 0.295E+01 -.126E+01
   -.223E+01 -.597E+02 -.772E+00   0.224E+01 0.571E+02 0.372E-01   -.650E-02 0.294E+01 0.789E+00
   0.479E+01 0.537E+02 0.376E+01   -.490E+01 -.516E+02 -.546E+01   0.116E+00 -.238E+01 0.185E+01
   -.186E+01 0.522E+02 0.475E+02   0.204E+01 -.496E+02 -.465E+02   -.201E+00 -.293E+01 -.104E+01
   0.909E+00 -.410E+02 -.158E+01   -.922E+00 0.386E+02 0.969E+00   0.154E-01 0.264E+01 0.648E+00
   -.634E+00 -.446E+02 0.363E+02   0.637E+00 0.417E+02 -.355E+02   -.445E-02 0.319E+01 -.845E+00
   0.158E+00 0.392E+01 0.207E+02   -.100E+00 -.389E+01 -.208E+02   -.712E-01 -.263E-01 0.127E+00
   -.157E+00 0.434E+01 0.203E+02   0.959E-01 -.432E+01 -.204E+02   0.754E-01 -.172E-01 0.944E-01
   0.269E+01 -.555E+01 0.309E+02   -.260E+01 0.562E+01 -.310E+02   -.104E+00 -.624E-01 0.975E-01
   -.334E+01 -.770E+01 0.365E+02   0.320E+01 0.781E+01 -.366E+02   0.153E+00 -.916E-01 0.177E+00
   0.146E+02 -.199E+02 -.192E+03   -.189E+02 0.260E+02 0.188E+03   0.441E+01 -.620E+01 0.372E+01
   -.245E+02 0.137E+02 -.314E+02   0.270E+02 -.149E+02 0.313E+02   -.251E+01 0.118E+01 0.124E+00
   0.611E+01 0.148E+02 -.490E+02   -.660E+01 -.162E+02 0.513E+02   0.482E+00 0.134E+01 -.216E+01
 -----------------------------------------------------------------------------------------------
   -.243E+01 0.364E+01 -.211E+01   -.178E-14 -.249E-13 0.142E-13   0.243E+01 -.362E+01 0.211E+01


 POSITION                                       TOTAL-FORCE (eV/Angst)
 -----------------------------------------------------------------------------------
      2.60042      8.89631      3.56322         0.003723      0.000532      0.015815
      5.60979      8.89918      3.91811        -0.001522      0.015891     -0.008326
      2.60336      6.25919      3.60842         0.001749      0.008714     -0.013396
      5.61805      6.27836      4.01972         0.002488      0.004564     -0.007229
      2.59721      3.81650      4.12908        -0.004161     -0.008652      0.002453
      5.61782      3.83487      3.64303        -0.003350     -0.005253      0.010060
      2.59894      1.20044      3.93153         0.001205      0.001633     -0.015205
      5.60913      1.20015      3.58202        -0.000967     -0.014709      0.019819
      1.09546     10.11698      3.73231        -0.015928      0.005106      0.002592
      4.10417     10.11732      3.73914         0.017271      0.007222      0.003147
      1.10078      5.05156      3.85208        -0.020750      0.003819     -0.005375
      4.10914      5.05567      3.88470         0.021372      0.006920      0.006865
      3.36264      4.43600      6.99925         0.005796     -0.024757     -0.027072
      4.86320      3.72840      6.92944        -0.010963      0.005906      0.007185
      3.04849      3.56648      8.40895         0.004037     -0.006936      0.008666
 -----------------------------------------------------------------------------------
    total drift:                               -0.000798      0.006196     -0.008686


--------------------------------------------------------------------------------------------------------



  FREE ENERGIE OF THE ION-ELECTRON SYSTEM (eV)
  ---------------------------------------------------
  free  energy   TOTEN  =       -80.14398747 eV

  energy  without entropy=      -80.14398747  energy(sigma->0) =      -80.14398747

 d Force =-0.6225655E-05[-0.416E-04, 0.291E-04]  d Energy =-0.1615495E-04 0.993E-05
 d Force = 0.1889558E+00[ 0.189E+00, 0.189E+00]  d Ewald  = 0.1889558E+00 0.744E-08


--------------------------------------------------------------------------------------------------------


    POTLOK:  cpu time    9.1796: real time    9.1886


--------------------------------------------------------------------------------------------------------


 stress matrix after NEB project (eV)
     -0.55436      0.08572      0.00745
      0.08572     -4.95472     -0.08263
      0.00745     -0.08263     -0.68120
  FORCES: max atom, RMS     0.037140    0.018988
  FORCE total and by dimension    0.073539    0.027072
  Stress total and by dimension    5.034782    4.954717


--------------------------------------------------------------------------------------------------------


    WAVPRE:  cpu time    0.5252: real time    1.3478
    FEWALD:  cpu time    0.0024: real time    0.0024
    ORTHCH:  cpu time    2.7262: real time    2.7357
    CHARGE:  cpu time    1.5522: real time    1.5687
     LOOP+:  cpu time 5705.5307: real time 5724.6188


--------------------------------------- Iteration     23(   1)  ---------------------------------------


    POTLOK:  cpu time    8.2434: real time    8.2873
    SETDIJ:  cpu time    0.9385: real time    0.9440
    TRIAL :  cpu time  641.1403: real time  644.1472
    CORREC:  cpu time    0.0003: real time    0.0003
    CHARGE:  cpu time    1.5428: real time    1.5464
    --------------------------------------------
      LOOP:  cpu time  651.9285: real time  654.9887

 eigenvalue-minimisations  :     0
 total energy-change (2. order) : 0.1307023E-03  (-0.2147242E-03)
 number of electron      48.0000001 magnetization 
 augmentation part       -1.2491599 magnetization 

 Free energy of the ion-electron system (eV)
  ---------------------------------------------------
  alpha Z        PSCENC =        13.10177784
  Ewald energy   TEWEN  =      1361.51294448
  -Hartree energ DENC   =     -2509.31904147
  -exchange      EXHF   =        75.38307882
  -V(xc)+E(xc)   XCENC  =      -142.09529568
  PAW double counting   =      1713.98619467    -1484.85634204
  entropy T*S    EENTRO =        -0.00000000
  eigenvalues    EBANDS =      -359.05040454
  atomic energy  EATOM  =      1251.19323263
  ---------------------------------------------------
  free energy    TOTEN  =       -80.14385528 eV

  energy without entropy =      -80.14385528  energy(sigma->0) =      -80.14385528
  exchange ACFDT corr.  =        -0.00000000  see jH, gK, PRB 81, 115126


--------------------------------------------------------------------------------------------------------




--------------------------------------- Iteration     23(   2)  ---------------------------------------


    POTLOK:  cpu time    8.3433: real time    8.3604
    SETDIJ:  cpu time    0.9387: real time    0.9401
    TRIAL :  cpu time  645.3245: real time  647.4386
    CORREC:  cpu time    0.0004: real time    0.0004
    CHARGE:  cpu time    1.5763: real time    1.5809
    --------------------------------------------
      LOOP:  cpu time  656.1845: real time  658.3225

 eigenvalue-minimisations  :     0
 total energy-change (2. order) :-0.1079373E-03  (-0.5508803E-04)
 number of electron      48.0000001 magnetization 
 augmentation part       -1.2491587 magnetization 

 Free energy of the ion-electron system (eV)
  ---------------------------------------------------
  alpha Z        PSCENC =        13.10177784
  Ewald energy   TEWEN  =      1361.51294448
  -Hartree energ DENC   =     -2509.41255139
  -exchange      EXHF   =        75.38399998
  -V(xc)+E(xc)   XCENC  =      -142.09451581
  PAW double counting   =      1714.01159065    -1484.88186506
  entropy T*S    EENTRO =        -0.00000000
  eigenvalues    EBANDS =      -358.95857654
  atomic energy  EATOM  =      1251.19323263
  ---------------------------------------------------
  free energy    TOTEN  =       -80.14396322 eV

  energy without entropy =      -80.14396322  energy(sigma->0) =      -80.14396322
  exchange ACFDT corr.  =        -0.00000000  see jH, gK, PRB 81, 115126


--------------------------------------------------------------------------------------------------------




--------------------------------------- Iteration     23(   3)  ---------------------------------------


    POTLOK:  cpu time    8.2811: real time    8.2933
    SETDIJ:  cpu time    0.9233: real time    0.9254
    TRIAL :  cpu time  647.2826: real time  649.2685
    CORREC:  cpu time    0.0004: real time    0.0004
    CHARGE:  cpu time    1.5778: real time    1.5821
    --------------------------------------------
      LOOP:  cpu time  658.0656: real time  660.0710

 eigenvalue-minimisations  :     0
 total energy-change (2. order) :-0.3214569E-04  (-0.2320567E-04)
 number of electron      48.0000001 magnetization 
 augmentation part       -1.2491597 magnetization 

 Free energy of the ion-electron system (eV)
  ---------------------------------------------------
  alpha Z        PSCENC =        13.10177784
  Ewald energy   TEWEN  =      1361.51294448
  -Hartree energ DENC   =     -2509.43904836
  -exchange      EXHF   =        75.38422339
  -V(xc)+E(xc)   XCENC  =      -142.09427496
  PAW double counting   =      1714.01513015    -1484.88540344
  entropy T*S    EENTRO =        -0.00000000
  eigenvalues    EBANDS =      -358.93257710
  atomic energy  EATOM  =      1251.19323263
  ---------------------------------------------------
  free energy    TOTEN  =       -80.14399537 eV

  energy without entropy =      -80.14399537  energy(sigma->0) =      -80.14399537
  exchange ACFDT corr.  =        -0.00000000  see jH, gK, PRB 81, 115126


--------------------------------------------------------------------------------------------------------




--------------------------------------- Iteration     23(   4)  ---------------------------------------


    POTLOK:  cpu time    8.2981: real time    8.3108
    SETDIJ:  cpu time    0.9531: real time    0.9546
    TRIAL :  cpu time  647.1801: real time  649.2209
    CORREC:  cpu time    0.0003: real time    0.0003
    EDDIAG:  cpu time  631.1103: real time  634.9524
    CHARGE:  cpu time    1.5624: real time    1.5737
    --------------------------------------------
      LOOP:  cpu time 1289.1071: real time 1295.0159

 eigenvalue-minimisations  :     0
 total energy-change (2. order) :-0.9280064E-05  (-0.7573515E-05)
 number of electron      48.0000001 magnetization 
 augmentation part       -1.2491575 magnetization 

 Free energy of the ion-electron system (eV)
  ---------------------------------------------------
  alpha Z        PSCENC =        13.10177784
  Ewald energy   TEWEN  =      1361.51294448
  -Hartree energ DENC   =     -2509.41974064
  -exchange      EXHF   =        75.38385299
  -V(xc)+E(xc)   XCENC  =      -142.09451906
  PAW double counting   =      1713.99985870    -1484.87006337
  entropy T*S    EENTRO =        -0.00000000
  eigenvalues    EBANDS =      -358.95141921
  atomic energy  EATOM  =      1251.19323263
  ---------------------------------------------------
  free energy    TOTEN  =       -80.14400465 eV

  energy without entropy =      -80.14400465  energy(sigma->0) =      -80.14400465
  exchange ACFDT corr.  =        -0.00000000  see jH, gK, PRB 81, 115126


--------------------------------------------------------------------------------------------------------


  average scaling for gradient   0.9808


 average (electrostatic) potential at core
  the test charge radii are     1.0406  0.6991  1.1897  0.5883
  (the norm of the test charge is              1.0000)
       1 -54.8690       2 -54.8632       3 -54.8654       4 -54.8897       5 -54.9112
       6 -54.9563       7 -54.8128       8 -54.8943       9 -51.0190      10 -51.0178
      11 -51.0801      12 -51.1360      13 -93.2182      14 -34.3038      15 -33.8370



 E-fermi :  -2.0348     XC(G=0):  -2.9193     alpha+bet : -2.8557


 k-point     1 :       0.0000    0.0000    0.0000
  band No.  band energies     occupation 
      1     -15.8624      2.00000
      2     -15.2315      2.00000
      3     -15.0764      2.00000
      4     -12.9619      2.00000
      5     -12.8608      2.00000
      6      -9.6310      2.00000
      7      -9.3519      2.00000
      8      -9.3216      2.00000
      9      -8.4419      2.00000
     10      -7.4300      2.00000
     11      -7.0015      2.00000
     12      -6.4503      2.00000
     13      -6.0019      2.00000
     14      -5.5014      2.00000
     15      -5.1925      2.00000
     16      -4.9131      2.00000
     17      -4.5068      2.00000
     18      -4.3775      2.00000
     19      -3.4185      2.00000
     20      -3.2088      2.00000
     21      -3.1658      2.00000
     22      -2.6136      2.00000
     23      -2.3462      2.00000
     24      -2.2998      2.00000
     25      -0.8246      0.00000
     26      -0.2755      0.00000
     27       0.2471      0.00000
     28       0.6076      0.00000
     29       0.7792      0.00000
     30       0.9410      0.00000
     31       1.0794      0.00000
     32       1.3683      0.00000

 k-point     2 :       0.2000    0.0000    0.0000
  band No.  band energies     occupation 
      1     -15.8403      2.00000
      2     -15.1058      2.00000
      3     -14.9506      2.00000
      4     -13.3730      2.00000
      5     -13.2510      2.00000
      6      -9.1765      2.00000
      7      -8.9814      2.00000
      8      -8.7092      2.00000
      9      -8.4577      2.00000
     10      -7.4420      2.00000
     11      -6.8774      2.00000
     12      -6.8067      2.00000
     13      -6.3177      2.00000
     14      -5.4499      2.00000
     15      -5.2184      2.00000
     16      -4.8004      2.00000
     17      -4.4479      2.00000
     18      -3.9752      2.00000
     19      -3.9178      2.00000
     20      -3.8802      2.00000
     21      -3.7513      2.00000
     22      -3.0171      2.00000
     23      -2.7660      2.00000
     24      -2.3167      2.00000
     25      -0.8022      0.00000
     26       0.4428      0.00000
     27       0.7152      0.00000
     28       0.8282      0.00000
     29       1.0349      0.00000
     30       1.0662      0.00000
     31       1.1583      0.00000
     32       1.5010      0.00000

 k-point     3 :       0.4000    0.0000    0.0000
  band No.  band energies     occupation 
      1     -15.8088      2.00000
      2     -14.7240      2.00000
      3     -14.5689      2.00000
      4     -14.1046      2.00000
      5     -13.9592      2.00000
      6      -8.7253      2.00000
      7      -8.4656      2.00000
      8      -7.9216      2.00000
      9      -7.6867      2.00000
     10      -7.3697      2.00000
     11      -7.1478      2.00000
     12      -6.5110      2.00000
     13      -6.1745      2.00000
     14      -5.9761      2.00000
     15      -5.5403      2.00000
     16      -5.2514      2.00000
     17      -5.0496      2.00000
     18      -4.7845      2.00000
     19      -4.4566      2.00000
     20      -4.2105      2.00000
     21      -3.7417      2.00000
     22      -3.4444      2.00000
     23      -2.8433      2.00000
     24      -2.4039      2.00000
     25      -0.4583      0.00000
     26       0.2438      0.00000
     27       0.9223      0.00000
     28       1.3181      0.00000
     29       1.4126      0.00000
     30       1.6154      0.00000
     31       1.7277      0.00000
     32       2.1447      0.00000

 k-point     4 :       0.0000    0.3333    0.0000
  band No.  band energies     occupation 
      1     -15.8613      2.00000
      2     -15.1973      2.00000
      3     -15.1165      2.00000
      4     -12.9513      2.00000
      5     -12.8723      2.00000
      6      -9.5797      2.00000
      7      -9.4035      2.00000
      8      -9.0253      2.00000
      9      -8.4553      2.00000
     10      -8.0836      2.00000
     11      -7.4039      2.00000
     12      -5.8316      2.00000
     13      -5.4530      2.00000
     14      -5.3795      2.00000
     15      -5.0893      2.00000
     16      -5.0492      2.00000
     17      -4.4190      2.00000
     18      -4.2055      2.00000
     19      -3.7115      2.00000
     20      -3.2972      2.00000
     21      -3.2044      2.00000
     22      -3.1681      2.00000
     23      -2.5992      2.00000
     24      -2.3152      2.00000
     25      -0.5911      0.00000
     26       0.0948      0.00000
     27       0.2830      0.00000
     28       0.4564      0.00000
     29       0.6966      0.00000
     30       0.8778      0.00000
     31       1.1306      0.00000
     32       1.3779      0.00000

 k-point     5 :       0.2000    0.3333    0.0000
  band No.  band energies     occupation 
      1     -15.8396      2.00000
      2     -15.0698      2.00000
      3     -14.9918      2.00000
      4     -13.3550      2.00000
      5     -13.2706      2.00000
      6      -8.9509      2.00000
      7      -8.8686      2.00000
      8      -8.7659      2.00000
      9      -8.4526      2.00000
     10      -7.9534      2.00000
     11      -7.4042      2.00000
     12      -6.5585      2.00000
     13      -5.9190      2.00000
     14      -5.2012      2.00000
     15      -4.9765      2.00000
     16      -4.8861      2.00000
     17      -4.3800      2.00000
     18      -3.9588      2.00000
     19      -3.9064      2.00000
     20      -3.7279      2.00000
     21      -3.6777      2.00000
     22      -3.2263      2.00000
     23      -2.9456      2.00000
     24      -2.7989      2.00000
     25      -0.4661      0.00000
     26       0.2164      0.00000
     27       0.6253      0.00000
     28       0.7753      0.00000
     29       0.8946      0.00000
     30       1.1166      0.00000
     31       1.2862      0.00000
     32       1.5103      0.00000

 k-point     6 :       0.4000    0.3333    0.0000
  band No.  band energies     occupation 
      1     -15.8086      2.00000
      2     -14.6898      2.00000
      3     -14.6072      2.00000
      4     -14.0770      2.00000
      5     -13.9898      2.00000
      6      -8.5766      2.00000
      7      -8.3139      2.00000
      8      -7.8487      2.00000
      9      -7.5848      2.00000
     10      -7.5068      2.00000
     11      -7.3272      2.00000
     12      -7.1197      2.00000
     13      -6.6685      2.00000
     14      -5.6708      2.00000
     15      -5.5660      2.00000
     16      -4.9661      2.00000
     17      -4.5116      2.00000
     18      -4.4693      2.00000
     19      -4.2626      2.00000
     20      -4.0206      2.00000
     21      -3.7457      2.00000
     22      -3.4673      2.00000
     23      -3.1360      2.00000
     24      -3.0379      2.00000
     25      -0.1189      0.00000
     26       0.3639      0.00000
     27       0.7504      0.00000
     28       1.0709      0.00000
     29       1.1976      0.00000
     30       1.6090      0.00000
     31       1.7624      0.00000
     32       1.8344      0.00000

 k-point     7 :      -0.4000    0.3333    0.0000
  band No.  band energies     occupation 
      1     -15.8086      2.00000
      2     -14.6897      2.00000
      3     -14.6073      2.00000
      4     -14.0770      2.00000
      5     -13.9898      2.00000
      6      -8.5741      2.00000
      7      -8.3270      2.00000
      8      -7.8182      2.00000
      9      -7.5971      2.00000
     10      -7.5080      2.00000
     11      -7.3334      2.00000
     12      -7.1208      2.00000
     13      -6.6680      2.00000
     14      -5.6798      2.00000
     15      -5.5633      2.00000
     16      -4.9539      2.00000
     17      -4.5299      2.00000
     18      -4.4680      2.00000
     19      -4.2487      2.00000
     20      -4.0161      2.00000
     21      -3.7321      2.00000
     22      -3.4976      2.00000
     23      -3.1288      2.00000
     24      -3.0341      2.00000
     25      -0.1429      0.00000
     26       0.4719      0.00000
     27       0.7168      0.00000
     28       0.9168      0.00000
     29       1.2866      0.00000
     30       1.6092      0.00000
     31       1.7837      0.00000
     32       1.8766      0.00000

 k-point     8 :      -0.2000    0.3333    0.0000
  band No.  band energies     occupation 
      1     -15.8396      2.00000
      2     -15.0697      2.00000
      3     -14.9919      2.00000
      4     -13.3550      2.00000
      5     -13.2706      2.00000
      6      -8.9536      2.00000
      7      -8.8663      2.00000
      8      -8.7651      2.00000
      9      -8.4574      2.00000
     10      -7.9433      2.00000
     11      -7.4083      2.00000
     12      -6.5560      2.00000
     13      -5.9313      2.00000
     14      -5.1913      2.00000
     15      -4.9867      2.00000
     16      -4.8938      2.00000
     17      -4.3540      2.00000
     18      -3.9536      2.00000
     19      -3.9079      2.00000
     20      -3.7421      2.00000
     21      -3.6670      2.00000
     22      -3.2481      2.00000
     23      -2.9199      2.00000
     24      -2.8097      2.00000
     25      -0.4879      0.00000
     26       0.2834      0.00000
     27       0.5335      0.00000
     28       0.7945      0.00000
     29       0.9198      0.00000
     30       1.1949      0.00000
     31       1.2408      0.00000
     32       1.5306      0.00000


--------------------------------------------------------------------------------------------------------


 soft charge-density along one line, spin component           1
         0         1         2         3         4         5         6         7         8         9
 total charge-density along one line

 pseudopotential strength for first ion, spin component:           1
  7.181 -16.882  -0.005  -0.002  -0.000   0.027   0.008   0.000
-16.882  49.270   0.012   0.004   0.000  -0.058  -0.018  -0.000
 -0.005   0.012   1.704  -0.000   0.000  -6.725   0.001  -0.000
 -0.002   0.004  -0.000   1.709  -0.000   0.001  -6.747   0.000
 -0.000   0.000   0.000  -0.000   1.704  -0.000   0.000  -6.726
  0.027  -0.058  -6.725   0.001  -0.000  28.450  -0.005   0.000
  0.008  -0.018   0.001  -6.747   0.000  -0.005  28.539  -0.000
  0.000  -0.000  -0.000   0.000  -6.726   0.000  -0.000  28.456
  0.000  -0.000  -0.000  -0.000  -0.005   0.000   0.000   0.012
 -0.001   0.001  -0.001  -0.004  -0.000   0.003   0.010   0.000
  0.011  -0.012   0.002  -0.002   0.000  -0.005   0.004  -0.000
 -0.000   0.000  -0.000  -0.000  -0.001   0.000   0.000   0.003
  0.001  -0.001   0.003  -0.000  -0.000  -0.007   0.000   0.000
 -0.000   0.000   0.000   0.000   0.018  -0.000  -0.000  -0.059
  0.004  -0.007   0.004   0.017   0.000  -0.015  -0.056  -0.000
 -0.041   0.072  -0.007   0.007  -0.000   0.026  -0.021   0.000
  0.000  -0.000   0.000   0.000   0.005  -0.000  -0.000  -0.017
 -0.002   0.004  -0.012   0.000   0.000   0.041  -0.001  -0.000
 total augmentation occupancy for first ion, spin component:           1
  1.390   0.033   0.004   0.012   0.000   0.005   0.001   0.000  -0.000   0.014  -0.104   0.000  -0.023  -0.000   0.001  -0.005
  0.033   0.001   0.008   0.002  -0.000   0.000   0.000  -0.000  -0.000   0.001  -0.003   0.000  -0.000  -0.000   0.000  -0.000
  0.004   0.008   1.338   0.062  -0.000   0.027   0.002  -0.000   0.000   0.021  -0.075   0.000   0.068   0.000   0.001  -0.003
  0.012   0.002   0.062   0.409   0.002   0.002   0.007   0.000   0.001   0.062   0.007   0.000   0.005   0.000   0.002   0.000
  0.000  -0.000  -0.000   0.002   1.199  -0.000   0.000   0.026   0.248   0.000   0.000   0.032  -0.000   0.008   0.000   0.000
  0.005   0.000   0.027   0.002  -0.000   0.001   0.000  -0.000   0.000   0.001  -0.002   0.000   0.001   0.000   0.000  -0.000
  0.001   0.000   0.002   0.007   0.000   0.000   0.000   0.000   0.000   0.001   0.000   0.000   0.000   0.000   0.000  -0.000
  0.000  -0.000  -0.000   0.000   0.026  -0.000   0.000   0.001   0.005   0.000   0.000   0.001  -0.000   0.000   0.000   0.000
 -0.000  -0.000   0.000   0.001   0.248   0.000   0.000   0.005   0.070   0.000   0.000   0.007   0.000   0.002   0.000   0.000
  0.014   0.001   0.021   0.062   0.000   0.001   0.001   0.000   0.000   0.011  -0.000   0.000  -0.002   0.000   0.000  -0.000
 -0.104  -0.003  -0.075   0.007   0.000  -0.002   0.000   0.000   0.000  -0.000   0.014   0.000  -0.004   0.000  -0.000   0.001
  0.000   0.000   0.000   0.000   0.032   0.000   0.000   0.001   0.007   0.000   0.000   0.022   0.000   0.000   0.000  -0.000
 -0.023  -0.000   0.068   0.005  -0.000   0.001   0.000  -0.000   0.000  -0.002  -0.004   0.000   0.045  -0.000  -0.000  -0.000
 -0.000  -0.000   0.000   0.000   0.008   0.000   0.000   0.000   0.002   0.000   0.000   0.000  -0.000   0.000   0.000   0.000
  0.001   0.000   0.001   0.002   0.000   0.000   0.000   0.000   0.000   0.000  -0.000   0.000  -0.000   0.000   0.000  -0.000
 -0.005  -0.000  -0.003   0.000   0.000  -0.000  -0.000   0.000   0.000  -0.000   0.001  -0.000  -0.000   0.000  -0.000   0.000
  0.000   0.000   0.000   0.000   0.001   0.000   0.000   0.000   0.000   0.000  -0.000   0.001   0.000   0.000   0.000  -0.000
 -0.001  -0.000   0.001   0.000  -0.000   0.000   0.000  -0.000  -0.000  -0.000  -0.000   0.000   0.001  -0.000  -0.000  -0.000


------------------------ aborting loop because EDIFF is reached ----------------------------------------


    FORLOC:  cpu time    0.2181: real time    0.2184
    FORHF :  cpu time 1080.4507: real time 1084.6438
    FORNL :  cpu time    6.3516: real time    6.3821
    STRESS:  cpu time   19.2030: real time   19.3119
    FORCOR:  cpu time    8.2134: real time    8.2393
    OFIELD:  cpu time    0.0090: real time    0.0090

  FORCE on cell =-STRESS in cart. coord.  units (eV):
  Direction    XX          YY          ZZ          XY          YZ          ZX
  --------------------------------------------------------------------------------------
  Alpha Z    13.10178    13.10178    13.10178
  Ewald    2359.23394  1934.63001 -2932.35251    -8.61490   -42.42792    -7.46460
  Hartree  2378.35753  2084.03518 -1952.97736    -0.47321   -20.71181    -2.50175
  E(xc)    -120.11318  -120.73406  -118.27269     0.03638    -0.03157    -0.07371
  Local   -5229.72533 -4520.30420  4406.47292     6.18476    58.22597     5.98870
  n-local   224.52746   236.37027   190.78152    -0.50926     0.54319     1.67326
  augment   -29.49014   -31.21260   -27.62067    -0.36877    -0.88641    -0.80327
  Kinetic   435.26176   430.47211   451.15230     3.76757     5.04207     3.03108
  Fock      -31.70997   -31.30763   -30.96083     0.06502     0.16244     0.15764
  -------------------------------------------------------------------------------------
  Total      -0.55615    -4.94914    -0.67554     0.08759    -0.08405     0.00735
  in kB      -0.97327    -8.66109    -1.18221     0.15329    -0.14709     0.01286
  external pressure =       -3.61 kB  Pullay stress =        0.00 kB


 VOLUME and BASIS-vectors are now :
 -----------------------------------------------------------------------------
  energy-cutoff  :      450.00
  volume of cell :      915.52
      direct lattice vectors                 reciprocal lattice vectors
     6.019200000  0.000000000  0.000000000     0.166135035  0.000000000  0.000000000
     0.000000000 10.140000000  0.000000000     0.000000000  0.098619329  0.000000000
     0.000000000  0.000000000 15.000000000     0.000000000  0.000000000  0.066666667

  length of vectors
     6.019200000 10.140000000 15.000000000     0.166135035  0.098619329  0.066666667


 FORCES acting on ions:
    Electron-Ion                     Ewald-Force                    Non-Local-Force
 -----------------------------------------------------------------------------------------------
   0.257E+00 0.488E+02 0.347E+02   -.251E+00 -.460E+02 -.338E+02   -.250E-02 -.311E+01 -.905E+00
   -.323E+00 0.483E+02 -.570E+01   0.334E+00 -.455E+02 0.505E+01   -.129E-01 -.305E+01 0.695E+00
   0.122E+01 -.578E+02 0.478E+02   -.131E+01 0.552E+02 -.467E+02   0.906E-01 0.296E+01 -.127E+01
   -.223E+01 -.597E+02 -.727E+00   0.224E+01 0.571E+02 -.380E-02   -.544E-02 0.294E+01 0.785E+00
   0.481E+01 0.538E+02 0.377E+01   -.492E+01 -.516E+02 -.548E+01   0.111E+00 -.239E+01 0.185E+01
   -.186E+01 0.522E+02 0.475E+02   0.205E+01 -.496E+02 -.465E+02   -.200E+00 -.293E+01 -.104E+01
   0.909E+00 -.410E+02 -.152E+01   -.921E+00 0.386E+02 0.913E+00   0.154E-01 0.265E+01 0.644E+00
   -.632E+00 -.445E+02 0.362E+02   0.635E+00 0.416E+02 -.354E+02   -.552E-02 0.318E+01 -.841E+00
   0.198E+00 0.392E+01 0.207E+02   -.138E+00 -.389E+01 -.208E+02   -.717E-01 -.251E-01 0.129E+00
   -.195E+00 0.434E+01 0.203E+02   0.134E+00 -.432E+01 -.204E+02   0.760E-01 -.166E-01 0.967E-01
   0.275E+01 -.555E+01 0.309E+02   -.266E+01 0.563E+01 -.310E+02   -.106E+00 -.611E-01 0.955E-01
   -.340E+01 -.771E+01 0.364E+02   0.326E+01 0.782E+01 -.366E+02   0.154E+00 -.917E-01 0.175E+00
   0.146E+02 -.199E+02 -.192E+03   -.189E+02 0.260E+02 0.188E+03   0.442E+01 -.620E+01 0.372E+01
   -.245E+02 0.137E+02 -.314E+02   0.270E+02 -.149E+02 0.313E+02   -.251E+01 0.118E+01 0.123E+00
   0.611E+01 0.148E+02 -.491E+02   -.659E+01 -.161E+02 0.513E+02   0.482E+00 0.134E+01 -.216E+01
 -----------------------------------------------------------------------------------------------
   -.242E+01 0.365E+01 -.210E+01   0.178E-14 0.711E-14 0.142E-13   0.243E+01 -.362E+01 0.210E+01


 POSITION                                       TOTAL-FORCE (eV/Angst)
 -----------------------------------------------------------------------------------
      2.60040      8.89637      3.56380         0.004154     -0.001946      0.014350
      5.60977      8.89894      3.91790        -0.001753      0.023292     -0.010311
      2.60339      6.25892      3.60841         0.000316      0.018187     -0.014606
      5.61796      6.27849      4.01929         0.004063      0.001861     -0.006998
      2.59742      3.81690      4.12889        -0.007821     -0.018345      0.002046
      5.61771      3.83492      3.64335        -0.001087     -0.004595      0.009615
      2.59893      1.20060      3.93111         0.001617      0.001540     -0.015544
      5.60922      1.20047      3.58249        -0.002165     -0.022623      0.019753
      1.09561     10.11694      3.73245        -0.014168      0.004627      0.009217
      4.10405     10.11732      3.73923         0.016528      0.008039      0.007131
      1.10097      5.05158      3.85196        -0.020716      0.005196     -0.011349
      4.10892      5.05569      3.88471         0.019754      0.008882      0.007555
      3.36236      4.43547      6.99901         0.008107     -0.021762     -0.028001
      4.86324      3.72833      6.92952        -0.011441      0.006053      0.007373
      3.04865      3.56648      8.40888         0.004613     -0.008405      0.009769
 -----------------------------------------------------------------------------------
    total drift:                                0.001037      0.007065     -0.001714


--------------------------------------------------------------------------------------------------------



  FREE ENERGIE OF THE ION-ELECTRON SYSTEM (eV)
  ---------------------------------------------------
  free  energy   TOTEN  =       -80.14400465 eV

  energy  without entropy=      -80.14400465  energy(sigma->0) =      -80.14400465

 d Force = 0.1839803E-04[ 0.123E-04, 0.245E-04]  d Energy = 0.1717690E-04 0.122E-05
 d Force =-0.1111260E+00[-0.111E+00,-0.111E+00]  d Ewald  =-0.1111260E+00-0.151E-08


--------------------------------------------------------------------------------------------------------


    POTLOK:  cpu time    9.1968: real time    9.2276


--------------------------------------------------------------------------------------------------------


 stress matrix after NEB project (eV)
     -0.55615      0.08759      0.00735
      0.08759     -4.94914     -0.08405
      0.00735     -0.08405     -0.67554
  FORCES: max atom, RMS     0.036378    0.021137
  FORCE total and by dimension    0.081862    0.028001
  Stress total and by dimension    5.028840    4.949140


--------------------------------------------------------------------------------------------------------


    WAVPRE:  cpu time    0.5256: real time    1.1952
    FEWALD:  cpu time    0.0024: real time    0.0024
    ORTHCH:  cpu time    2.5970: real time    2.6123
    CHARGE:  cpu time    1.5697: real time    1.5808
     LOOP+:  cpu time 4411.6578: real time 4430.5280


--------------------------------------- Iteration     24(   1)  ---------------------------------------


    POTLOK:  cpu time    8.2637: real time    8.3043
    SETDIJ:  cpu time    0.9335: real time    0.9381
    TRIAL :  cpu time  639.3143: real time  643.5170
    CORREC:  cpu time    0.0006: real time    0.0006
    CHARGE:  cpu time    1.5806: real time    1.5899
    --------------------------------------------
      LOOP:  cpu time  650.1511: real time  654.4085

 eigenvalue-minimisations  :     0
 total energy-change (2. order) : 0.7372992E-03  (-0.1447357E-02)
 number of electron      48.0000001 magnetization 
 augmentation part       -1.2491072 magnetization 

 Free energy of the ion-electron system (eV)
  ---------------------------------------------------
  alpha Z        PSCENC =        13.10177784
  Ewald energy   TEWEN  =      1361.88188944
  -Hartree energ DENC   =     -2509.40873756
  -exchange      EXHF   =        75.38398584
  -V(xc)+E(xc)   XCENC  =      -142.09438856
  PAW double counting   =      1714.12322397    -1484.99363586
  entropy T*S    EENTRO =        -0.00000000
  eigenvalues    EBANDS =      -359.33060581
  atomic energy  EATOM  =      1251.19323263
  ---------------------------------------------------
  free energy    TOTEN  =       -80.14325807 eV

  energy without entropy =      -80.14325807  energy(sigma->0) =      -80.14325807
  exchange ACFDT corr.  =        -0.00000000  see jH, gK, PRB 81, 115126


--------------------------------------------------------------------------------------------------------




--------------------------------------- Iteration     24(   2)  ---------------------------------------


    POTLOK:  cpu time    8.2937: real time    8.3246
    SETDIJ:  cpu time    0.9340: real time    0.9382
    TRIAL :  cpu time  641.5408: real time  643.8605
    CORREC:  cpu time    0.0006: real time    0.0006
    CHARGE:  cpu time    1.5487: real time    1.5585
    --------------------------------------------
      LOOP:  cpu time  652.3196: real time  654.6847

 eigenvalue-minimisations  :     0
 total energy-change (2. order) :-0.6454358E-03  (-0.3212611E-03)
 number of electron      48.0000001 magnetization 
 augmentation part       -1.2491201 magnetization 

 Free energy of the ion-electron system (eV)
  ---------------------------------------------------
  alpha Z        PSCENC =        13.10177784
  Ewald energy   TEWEN  =      1361.88188944
  -Hartree energ DENC   =     -2509.71787335
  -exchange      EXHF   =        75.38689279
  -V(xc)+E(xc)   XCENC  =      -142.09194336
  PAW double counting   =      1714.20040950    -1485.07125874
  entropy T*S    EENTRO =        -0.00000000
  eigenvalues    EBANDS =      -359.02703026
  atomic energy  EATOM  =      1251.19323263
  ---------------------------------------------------
  free energy    TOTEN  =       -80.14390350 eV

  energy without entropy =      -80.14390350  energy(sigma->0) =      -80.14390350
  exchange ACFDT corr.  =        -0.00000000  see jH, gK, PRB 81, 115126


--------------------------------------------------------------------------------------------------------




--------------------------------------- Iteration     24(   3)  ---------------------------------------


    POTLOK:  cpu time    8.2889: real time    8.3087
    SETDIJ:  cpu time    0.9296: real time    0.9339
    TRIAL :  cpu time  646.8861: real time  649.0460
    CORREC:  cpu time    0.0004: real time    0.0003
    CHARGE:  cpu time    1.5688: real time    1.5717
    --------------------------------------------
      LOOP:  cpu time  657.6742: real time  659.8620

 eigenvalue-minimisations  :     0
 total energy-change (2. order) :-0.1924734E-03  (-0.1625258E-03)
 number of electron      48.0000001 magnetization 
 augmentation part       -1.2491329 magnetization 

 Free energy of the ion-electron system (eV)
  ---------------------------------------------------
  alpha Z        PSCENC =        13.10177784
  Ewald energy   TEWEN  =      1361.88188944
  -Hartree energ DENC   =     -2509.81276624
  -exchange      EXHF   =        75.38744762
  -V(xc)+E(xc)   XCENC  =      -142.09125946
  PAW double counting   =      1714.21433603    -1485.08511482
  entropy T*S    EENTRO =        -0.00000000
  eigenvalues    EBANDS =      -358.93363902
  atomic energy  EATOM  =      1251.19323263
  ---------------------------------------------------
  free energy    TOTEN  =       -80.14409598 eV

  energy without entropy =      -80.14409598  energy(sigma->0) =      -80.14409598
  exchange ACFDT corr.  =        -0.00000000  see jH, gK, PRB 81, 115126


--------------------------------------------------------------------------------------------------------




--------------------------------------- Iteration     24(   4)  ---------------------------------------


    POTLOK:  cpu time    8.2971: real time    8.3047
    SETDIJ:  cpu time    0.9399: real time    0.9412
    TRIAL :  cpu time  644.0154: real time  645.3802
    CORREC:  cpu time    0.0004: real time    0.0004
    CHARGE:  cpu time    1.5731: real time    1.5767
    --------------------------------------------
      LOOP:  cpu time  654.8267: real time  656.2048

 eigenvalue-minimisations  :     0
 total energy-change (2. order) :-0.5635247E-04  (-0.5441906E-04)
 number of electron      48.0000001 magnetization 
 augmentation part       -1.2491296 magnetization 

 Free energy of the ion-electron system (eV)
  ---------------------------------------------------
  alpha Z        PSCENC =        13.10177784
  Ewald energy   TEWEN  =      1361.88188944
  -Hartree energ DENC   =     -2509.75861272
  -exchange      EXHF   =        75.38650032
  -V(xc)+E(xc)   XCENC  =      -142.09203949
  PAW double counting   =      1714.17402318    -1485.04462426
  entropy T*S    EENTRO =        -0.00000000
  eigenvalues    EBANDS =      -358.98629927
  atomic energy  EATOM  =      1251.19323263
  ---------------------------------------------------
  free energy    TOTEN  =       -80.14415233 eV

  energy without entropy =      -80.14415233  energy(sigma->0) =      -80.14415233
  exchange ACFDT corr.  =        -0.00000000  see jH, gK, PRB 81, 115126


--------------------------------------------------------------------------------------------------------




--------------------------------------- Iteration     24(   5)  ---------------------------------------


    POTLOK:  cpu time    8.2882: real time    8.2976
    SETDIJ:  cpu time    0.9426: real time    0.9435
    TRIAL :  cpu time  645.4132: real time  646.7883
    CORREC:  cpu time    0.0003: real time    0.0003
    CHARGE:  cpu time    1.5795: real time    1.5834
    --------------------------------------------
      LOOP:  cpu time  656.2246: real time  657.6147

 eigenvalue-minimisations  :     0
 total energy-change (2. order) :-0.2808058E-04  (-0.1342222E-04)
 number of electron      48.0000001 magnetization 
 augmentation part       -1.2491204 magnetization 

 Free energy of the ion-electron system (eV)
  ---------------------------------------------------
  alpha Z        PSCENC =        13.10177784
  Ewald energy   TEWEN  =      1361.88188944
  -Hartree energ DENC   =     -2509.74003230
  -exchange      EXHF   =        75.38619173
  -V(xc)+E(xc)   XCENC  =      -142.09235016
  PAW double counting   =      1714.15639514    -1485.02696780
  entropy T*S    EENTRO =        -0.00000000
  eigenvalues    EBANDS =      -359.00431693
  atomic energy  EATOM  =      1251.19323263
  ---------------------------------------------------
  free energy    TOTEN  =       -80.14418041 eV

  energy without entropy =      -80.14418041  energy(sigma->0) =      -80.14418041
  exchange ACFDT corr.  =        -0.00000000  see jH, gK, PRB 81, 115126


--------------------------------------------------------------------------------------------------------




--------------------------------------- Iteration     24(   6)  ---------------------------------------


    POTLOK:  cpu time    8.2914: real time    8.3006
    SETDIJ:  cpu time    0.9430: real time    0.9440
    TRIAL :  cpu time  645.3504: real time  646.9766
    CORREC:  cpu time    0.0004: real time    0.0004
    EDDIAG:  cpu time  634.1285: real time  635.4724
    CHARGE:  cpu time    1.5691: real time    1.5737
    --------------------------------------------
      LOOP:  cpu time 1290.2838: real time 1293.2696

 eigenvalue-minimisations  :     0
 total energy-change (2. order) :-0.3363672E-05  (-0.7665341E-05)
 number of electron      48.0000001 magnetization 
 augmentation part       -1.2491191 magnetization 

 Free energy of the ion-electron system (eV)
  ---------------------------------------------------
  alpha Z        PSCENC =        13.10177784
  Ewald energy   TEWEN  =      1361.88188944
  -Hartree energ DENC   =     -2509.75057694
  -exchange      EXHF   =        75.38651563
  -V(xc)+E(xc)   XCENC  =      -142.09218752
  PAW double counting   =      1714.16244877    -1485.03307403
  entropy T*S    EENTRO =        -0.00000000
  eigenvalues    EBANDS =      -358.99408603
  atomic energy  EATOM  =      1251.19323263
  ---------------------------------------------------
  free energy    TOTEN  =       -80.14418377 eV

  energy without entropy =      -80.14418377  energy(sigma->0) =      -80.14418377
  exchange ACFDT corr.  =        -0.00000000  see jH, gK, PRB 81, 115126


--------------------------------------------------------------------------------------------------------


  average scaling for gradient   0.9014


 average (electrostatic) potential at core
  the test charge radii are     1.0406  0.6991  1.1897  0.5883
  (the norm of the test charge is              1.0000)
       1 -54.8704       2 -54.8632       3 -54.8678       4 -54.8900       5 -54.9122
       6 -54.9556       7 -54.8133       8 -54.8931       9 -51.0196      10 -51.0182
      11 -51.0806      12 -51.1369      13 -93.2181      14 -34.3073      15 -33.8353



 E-fermi :  -2.0347     XC(G=0):  -2.9191     alpha+bet : -2.8557


 k-point     1 :       0.0000    0.0000    0.0000
  band No.  band energies     occupation 
      1     -15.8640      2.00000
      2     -15.2325      2.00000
      3     -15.0775      2.00000
      4     -12.9631      2.00000
      5     -12.8619      2.00000
      6      -9.6324      2.00000
      7      -9.3532      2.00000
      8      -9.3228      2.00000
      9      -8.4421      2.00000
     10      -7.4326      2.00000
     11      -7.0021      2.00000
     12      -6.4513      2.00000
     13      -6.0032      2.00000
     14      -5.4995      2.00000
     15      -5.1938      2.00000
     16      -4.9123      2.00000
     17      -4.5090      2.00000
     18      -4.3786      2.00000
     19      -3.4181      2.00000
     20      -3.2100      2.00000
     21      -3.1673      2.00000
     22      -2.6144      2.00000
     23      -2.3469      2.00000
     24      -2.2995      2.00000
     25      -0.8257      0.00000
     26      -0.2767      0.00000
     27       0.2473      0.00000
     28       0.6083      0.00000
     29       0.7787      0.00000
     30       0.9421      0.00000
     31       1.0801      0.00000
     32       1.3684      0.00000

 k-point     2 :       0.2000    0.0000    0.0000
  band No.  band energies     occupation 
      1     -15.8419      2.00000
      2     -15.1068      2.00000
      3     -14.9517      2.00000
      4     -13.3741      2.00000
      5     -13.2521      2.00000
      6      -9.1778      2.00000
      7      -8.9827      2.00000
      8      -8.7105      2.00000
      9      -8.4580      2.00000
     10      -7.4445      2.00000
     11      -6.8783      2.00000
     12      -6.8073      2.00000
     13      -6.3186      2.00000
     14      -5.4509      2.00000
     15      -5.2174      2.00000
     16      -4.7997      2.00000
     17      -4.4494      2.00000
     18      -3.9762      2.00000
     19      -3.9193      2.00000
     20      -3.8810      2.00000
     21      -3.7522      2.00000
     22      -3.0175      2.00000
     23      -2.7661      2.00000
     24      -2.3177      2.00000
     25      -0.8023      0.00000
     26       0.4429      0.00000
     27       0.7141      0.00000
     28       0.8284      0.00000
     29       1.0359      0.00000
     30       1.0669      0.00000
     31       1.1588      0.00000
     32       1.5007      0.00000

 k-point     3 :       0.4000    0.0000    0.0000
  band No.  band energies     occupation 
      1     -15.8102      2.00000
      2     -14.7251      2.00000
      3     -14.5700      2.00000
      4     -14.1058      2.00000
      5     -13.9603      2.00000
      6      -8.7267      2.00000
      7      -8.4660      2.00000
      8      -7.9235      2.00000
      9      -7.6881      2.00000
     10      -7.3709      2.00000
     11      -7.1489      2.00000
     12      -6.5119      2.00000
     13      -6.1753      2.00000
     14      -5.9771      2.00000
     15      -5.5416      2.00000
     16      -5.2527      2.00000
     17      -5.0497      2.00000
     18      -4.7840      2.00000
     19      -4.4562      2.00000
     20      -4.2110      2.00000
     21      -3.7418      2.00000
     22      -3.4457      2.00000
     23      -2.8443      2.00000
     24      -2.4049      2.00000
     25      -0.4578      0.00000
     26       0.2445      0.00000
     27       0.9225      0.00000
     28       1.3186      0.00000
     29       1.4125      0.00000
     30       1.6167      0.00000
     31       1.7287      0.00000
     32       2.1457      0.00000

 k-point     4 :       0.0000    0.3333    0.0000
  band No.  band energies     occupation 
      1     -15.8628      2.00000
      2     -15.1984      2.00000
      3     -15.1175      2.00000
      4     -12.9524      2.00000
      5     -12.8734      2.00000
      6      -9.5810      2.00000
      7      -9.4048      2.00000
      8      -9.0265      2.00000
      9      -8.4557      2.00000
     10      -8.0846      2.00000
     11      -7.4059      2.00000
     12      -5.8329      2.00000
     13      -5.4535      2.00000
     14      -5.3790      2.00000
     15      -5.0896      2.00000
     16      -5.0488      2.00000
     17      -4.4210      2.00000
     18      -4.2064      2.00000
     19      -3.7116      2.00000
     20      -3.2979      2.00000
     21      -3.2055      2.00000
     22      -3.1696      2.00000
     23      -2.6000      2.00000
     24      -2.3149      2.00000
     25      -0.5916      0.00000
     26       0.0947      0.00000
     27       0.2820      0.00000
     28       0.4566      0.00000
     29       0.6976      0.00000
     30       0.8781      0.00000
     31       1.1305      0.00000
     32       1.3785      0.00000

 k-point     5 :       0.2000    0.3333    0.0000
  band No.  band energies     occupation 
      1     -15.8411      2.00000
      2     -15.0708      2.00000
      3     -14.9929      2.00000
      4     -13.3562      2.00000
      5     -13.2717      2.00000
      6      -8.9525      2.00000
      7      -8.8698      2.00000
      8      -8.7671      2.00000
      9      -8.4529      2.00000
     10      -7.9547      2.00000
     11      -7.4060      2.00000
     12      -6.5593      2.00000
     13      -5.9200      2.00000
     14      -5.2006      2.00000
     15      -4.9771      2.00000
     16      -4.8856      2.00000
     17      -4.3812      2.00000
     18      -3.9602      2.00000
     19      -3.9078      2.00000
     20      -3.7290      2.00000
     21      -3.6782      2.00000
     22      -3.2269      2.00000
     23      -2.9465      2.00000
     24      -2.7989      2.00000
     25      -0.4662      0.00000
     26       0.2169      0.00000
     27       0.6244      0.00000
     28       0.7753      0.00000
     29       0.8948      0.00000
     30       1.1175      0.00000
     31       1.2870      0.00000
     32       1.5099      0.00000

 k-point     6 :       0.4000    0.3333    0.0000
  band No.  band energies     occupation 
      1     -15.8100      2.00000
      2     -14.6909      2.00000
      3     -14.6083      2.00000
      4     -14.0782      2.00000
      5     -13.9909      2.00000
      6      -8.5775      2.00000
      7      -8.3148      2.00000
      8      -7.8514      2.00000
      9      -7.5855      2.00000
     10      -7.5079      2.00000
     11      -7.3280      2.00000
     12      -7.1208      2.00000
     13      -6.6694      2.00000
     14      -5.6719      2.00000
     15      -5.5672      2.00000
     16      -4.9654      2.00000
     17      -4.5123      2.00000
     18      -4.4692      2.00000
     19      -4.2631      2.00000
     20      -4.0213      2.00000
     21      -3.7456      2.00000
     22      -3.4686      2.00000
     23      -3.1369      2.00000
     24      -3.0387      2.00000
     25      -0.1186      0.00000
     26       0.3644      0.00000
     27       0.7509      0.00000
     28       1.0716      0.00000
     29       1.1972      0.00000
     30       1.6099      0.00000
     31       1.7623      0.00000
     32       1.8336      0.00000

 k-point     7 :      -0.4000    0.3333    0.0000
  band No.  band energies     occupation 
      1     -15.8100      2.00000
      2     -14.6908      2.00000
      3     -14.6084      2.00000
      4     -14.0781      2.00000
      5     -13.9909      2.00000
      6      -8.5750      2.00000
      7      -8.3280      2.00000
      8      -7.8205      2.00000
      9      -7.5984      2.00000
     10      -7.5088      2.00000
     11      -7.3345      2.00000
     12      -7.1215      2.00000
     13      -6.6690      2.00000
     14      -5.6808      2.00000
     15      -5.5646      2.00000
     16      -4.9532      2.00000
     17      -4.5308      2.00000
     18      -4.4679      2.00000
     19      -4.2492      2.00000
     20      -4.0167      2.00000
     21      -3.7320      2.00000
     22      -3.4990      2.00000
     23      -3.1296      2.00000
     24      -3.0351      2.00000
     25      -0.1425      0.00000
     26       0.4724      0.00000
     27       0.7174      0.00000
     28       0.9165      0.00000
     29       1.2872      0.00000
     30       1.6094      0.00000
     31       1.7830      0.00000
     32       1.8765      0.00000

 k-point     8 :      -0.2000    0.3333    0.0000
  band No.  band energies     occupation 
      1     -15.8411      2.00000
      2     -15.0707      2.00000
      3     -14.9930      2.00000
      4     -13.3561      2.00000
      5     -13.2717      2.00000
      6      -8.9552      2.00000
      7      -8.8674      2.00000
      8      -8.7664      2.00000
      9      -8.4577      2.00000
     10      -7.9445      2.00000
     11      -7.4102      2.00000
     12      -6.5568      2.00000
     13      -5.9323      2.00000
     14      -5.1905      2.00000
     15      -4.9873      2.00000
     16      -4.8934      2.00000
     17      -4.3553      2.00000
     18      -3.9549      2.00000
     19      -3.9093      2.00000
     20      -3.7429      2.00000
     21      -3.6676      2.00000
     22      -3.2486      2.00000
     23      -2.9208      2.00000
     24      -2.8097      2.00000
     25      -0.4881      0.00000
     26       0.2835      0.00000
     27       0.5331      0.00000
     28       0.7949      0.00000
     29       0.9201      0.00000
     30       1.1954      0.00000
     31       1.2413      0.00000
     32       1.5281      0.00000


--------------------------------------------------------------------------------------------------------


 soft charge-density along one line, spin component           1
         0         1         2         3         4         5         6         7         8         9
 total charge-density along one line

 pseudopotential strength for first ion, spin component:           1
  7.182 -16.882  -0.005  -0.002  -0.000   0.027   0.008   0.000
-16.882  49.270   0.012   0.004   0.000  -0.058  -0.017  -0.000
 -0.005   0.012   1.704  -0.000   0.000  -6.725   0.001  -0.000
 -0.002   0.004  -0.000   1.709  -0.000   0.001  -6.747   0.000
 -0.000   0.000   0.000  -0.000   1.704  -0.000   0.000  -6.726
  0.027  -0.058  -6.725   0.001  -0.000  28.450  -0.005   0.000
  0.008  -0.017   0.001  -6.747   0.000  -0.005  28.539  -0.000
  0.000  -0.000  -0.000   0.000  -6.726   0.000  -0.000  28.456
  0.000  -0.000  -0.000  -0.000  -0.005   0.000   0.000   0.012
 -0.001   0.001  -0.001  -0.004  -0.000   0.003   0.010   0.000
  0.011  -0.012   0.002  -0.002   0.000  -0.005   0.004  -0.000
 -0.000   0.000  -0.000  -0.000  -0.001   0.000   0.000   0.003
  0.001  -0.001   0.003  -0.000  -0.000  -0.007   0.000   0.000
 -0.000   0.000   0.000   0.000   0.018  -0.000  -0.000  -0.059
  0.004  -0.007   0.004   0.017   0.000  -0.014  -0.056  -0.000
 -0.041   0.072  -0.007   0.006  -0.000   0.026  -0.021   0.000
  0.000  -0.000   0.000   0.000   0.005  -0.000  -0.000  -0.017
 -0.002   0.004  -0.012   0.000   0.000   0.041  -0.001  -0.000
 total augmentation occupancy for first ion, spin component:           1
  1.390   0.033   0.004   0.012   0.000   0.005   0.001   0.000  -0.000   0.014  -0.104   0.000  -0.023  -0.000   0.001  -0.005
  0.033   0.001   0.008   0.002  -0.000   0.000   0.000  -0.000  -0.000   0.001  -0.003   0.000  -0.000  -0.000   0.000  -0.000
  0.004   0.008   1.338   0.062  -0.000   0.027   0.002  -0.000   0.000   0.021  -0.075   0.000   0.068   0.000   0.001  -0.003
  0.012   0.002   0.062   0.409   0.002   0.002   0.007   0.000   0.000   0.062   0.007   0.000   0.005   0.000   0.002   0.000
  0.000  -0.000  -0.000   0.002   1.199  -0.000   0.000   0.026   0.248   0.000   0.000   0.032  -0.000   0.008   0.000   0.000
  0.005   0.000   0.027   0.002  -0.000   0.001   0.000  -0.000   0.000   0.001  -0.002   0.000   0.001   0.000   0.000  -0.000
  0.001   0.000   0.002   0.007   0.000   0.000   0.000   0.000   0.000   0.001   0.000   0.000   0.000   0.000   0.000  -0.000
  0.000  -0.000  -0.000   0.000   0.026  -0.000   0.000   0.001   0.005   0.000   0.000   0.001  -0.000   0.000   0.000   0.000
 -0.000  -0.000   0.000   0.000   0.248   0.000   0.000   0.005   0.070   0.000   0.000   0.007   0.000   0.002   0.000   0.000
  0.014   0.001   0.021   0.062   0.000   0.001   0.001   0.000   0.000   0.011  -0.000   0.000  -0.002   0.000   0.000  -0.000
 -0.104  -0.003  -0.075   0.007   0.000  -0.002   0.000   0.000   0.000  -0.000   0.014   0.000  -0.004   0.000  -0.000   0.001
  0.000   0.000   0.000   0.000   0.032   0.000   0.000   0.001   0.007   0.000   0.000   0.022   0.000   0.000   0.000  -0.000
 -0.023  -0.000   0.068   0.005  -0.000   0.001   0.000  -0.000   0.000  -0.002  -0.004   0.000   0.045  -0.000  -0.000  -0.000
 -0.000  -0.000   0.000   0.000   0.008   0.000   0.000   0.000   0.002   0.000   0.000   0.000  -0.000   0.000   0.000   0.000
  0.001   0.000   0.001   0.002   0.000   0.000   0.000   0.000   0.000   0.000  -0.000   0.000  -0.000   0.000   0.000  -0.000
 -0.005  -0.000  -0.003   0.000   0.000  -0.000  -0.000   0.000   0.000  -0.000   0.001  -0.000  -0.000   0.000  -0.000   0.000
  0.000   0.000   0.000   0.000   0.001   0.000   0.000   0.000   0.000   0.000  -0.000   0.001   0.000   0.000   0.000  -0.000
 -0.001  -0.000   0.001   0.000  -0.000   0.000   0.000  -0.000  -0.000  -0.000  -0.000   0.000   0.001  -0.000  -0.000  -0.000


------------------------ aborting loop because EDIFF is reached ----------------------------------------


    FORLOC:  cpu time    0.2238: real time    0.2240
    FORHF :  cpu time 1068.4234: real time 1073.8524
    FORNL :  cpu time    6.3358: real time    6.3657
    STRESS:  cpu time   19.0095: real time   19.1184
    FORCOR:  cpu time    8.2231: real time    8.2411
    OFIELD:  cpu time    0.0083: real time    0.0084

  FORCE on cell =-STRESS in cart. coord.  units (eV):
  Direction    XX          YY          ZZ          XY          YZ          ZX
  --------------------------------------------------------------------------------------
  Alpha Z    13.10178    13.10178    13.10178
  Ewald    2359.70227  1935.01864 -2932.84053    -8.61010   -42.58028    -7.43726
  Hartree  2378.69233  2084.40282 -1953.33910    -0.47153   -20.75476    -2.50623
  E(xc)    -120.11710  -120.73749  -118.27506     0.03690    -0.03170    -0.07391
  Local   -5230.51370 -4521.07847  4407.31248     6.18460    58.40915     5.97740
  n-local   224.54737   236.37841   190.77678    -0.51905     0.54200     1.67598
  augment   -29.49073   -31.21463   -27.61736    -0.36665    -0.88671    -0.80207
  Kinetic   435.25901   430.51261   451.17046     3.76361     5.06003     3.01432
  Fock      -31.71069   -31.30828   -30.96232     0.06437     0.16286     0.15735
  -------------------------------------------------------------------------------------
  Total      -0.52944    -4.92462    -0.67287     0.08214    -0.07942     0.00558
  in kB      -0.92654    -8.61817    -1.17754     0.14375    -0.13899     0.00977
  external pressure =       -3.57 kB  Pullay stress =        0.00 kB


 VOLUME and BASIS-vectors are now :
 -----------------------------------------------------------------------------
  energy-cutoff  :      450.00
  volume of cell :      915.52
      direct lattice vectors                 reciprocal lattice vectors
     6.019200000  0.000000000  0.000000000     0.166135035  0.000000000  0.000000000
     0.000000000 10.140000000  0.000000000     0.000000000  0.098619329  0.000000000
     0.000000000  0.000000000 15.000000000     0.000000000  0.000000000  0.066666667

  length of vectors
     6.019200000 10.140000000 15.000000000     0.166135035  0.098619329  0.066666667


 FORCES acting on ions:
    Electron-Ion                     Ewald-Force                    Non-Local-Force
 -----------------------------------------------------------------------------------------------
   0.258E+00 0.488E+02 0.345E+02   -.252E+00 -.460E+02 -.337E+02   -.211E-02 -.310E+01 -.895E+00
   -.327E+00 0.483E+02 -.560E+01   0.337E+00 -.455E+02 0.496E+01   -.113E-01 -.305E+01 0.691E+00
   0.123E+01 -.578E+02 0.479E+02   -.131E+01 0.552E+02 -.467E+02   0.897E-01 0.296E+01 -.127E+01
   -.224E+01 -.597E+02 -.634E+00   0.225E+01 0.571E+02 -.891E-01   -.418E-02 0.294E+01 0.780E+00
   0.483E+01 0.537E+02 0.382E+01   -.494E+01 -.516E+02 -.552E+01   0.106E+00 -.239E+01 0.185E+01
   -.188E+01 0.522E+02 0.474E+02   0.206E+01 -.496E+02 -.464E+02   -.198E+00 -.293E+01 -.103E+01
   0.913E+00 -.410E+02 -.134E+01   -.925E+00 0.386E+02 0.747E+00   0.148E-01 0.264E+01 0.633E+00
   -.640E+00 -.445E+02 0.361E+02   0.642E+00 0.416E+02 -.353E+02   -.465E-02 0.319E+01 -.836E+00
   0.158E+00 0.394E+01 0.207E+02   -.997E-01 -.391E+01 -.208E+02   -.691E-01 -.231E-01 0.131E+00
   -.151E+00 0.435E+01 0.203E+02   0.911E-01 -.432E+01 -.203E+02   0.735E-01 -.162E-01 0.985E-01
   0.272E+01 -.556E+01 0.309E+02   -.264E+01 0.563E+01 -.310E+02   -.102E+00 -.605E-01 0.933E-01
   -.338E+01 -.774E+01 0.364E+02   0.325E+01 0.785E+01 -.366E+02   0.150E+00 -.933E-01 0.174E+00
   0.146E+02 -.199E+02 -.192E+03   -.189E+02 0.259E+02 0.188E+03   0.441E+01 -.620E+01 0.372E+01
   -.245E+02 0.137E+02 -.314E+02   0.270E+02 -.149E+02 0.313E+02   -.252E+01 0.118E+01 0.121E+00
   0.610E+01 0.148E+02 -.491E+02   -.658E+01 -.161E+02 0.513E+02   0.480E+00 0.133E+01 -.216E+01
 -----------------------------------------------------------------------------------------------
   -.241E+01 0.365E+01 -.207E+01   0.355E-14 -.142E-13 0.355E-13   0.241E+01 -.362E+01 0.210E+01


 POSITION                                       TOTAL-FORCE (eV/Angst)
 -----------------------------------------------------------------------------------
      2.60048      8.89641      3.56526         0.004046     -0.002557      0.011392
      5.60969      8.89912      3.91724        -0.000581      0.019119     -0.010434
      2.60345      6.25891      3.60798        -0.001420      0.019430     -0.012769
      5.61789      6.27878      4.01832         0.005805      0.000897     -0.006447
      2.59759      3.81713      4.12860        -0.011933     -0.021826     -0.001806
      5.61749      3.83488      3.64419         0.001397     -0.005636      0.007682
      2.59896      1.20095      3.92993         0.001951      0.001623     -0.013442
      5.60932      1.20044      3.58388        -0.002492     -0.017029      0.018413
      1.09549     10.11701      3.73294        -0.013331      0.007837      0.017601
      4.10427     10.11752      3.73958         0.016094      0.013710      0.014201
      1.10075      5.05175      3.85145        -0.023228      0.003431     -0.018879
      4.10904      5.05594      3.88494         0.023620      0.009345      0.010585
      3.36208      4.43393      6.99781        -0.002742     -0.020987     -0.025404
      4.86301      3.72837      6.92986        -0.002019      0.001118      0.004724
      3.04907      3.56625      8.40902         0.004832     -0.008475      0.004581
 -----------------------------------------------------------------------------------
    total drift:                               -0.000011      0.014570      0.024885


--------------------------------------------------------------------------------------------------------



  FREE ENERGIE OF THE ION-ELECTRON SYSTEM (eV)
  ---------------------------------------------------
  free  energy   TOTEN  =       -80.14418377 eV

  energy  without entropy=      -80.14418377  energy(sigma->0) =      -80.14418377

 d Force = 0.1984735E-03[ 0.196E-03, 0.201E-03]  d Energy = 0.1791267E-03 0.193E-04
 d Force =-0.3689449E+00[-0.368E+00,-0.369E+00]  d Ewald  =-0.3689450E+00 0.496E-07


--------------------------------------------------------------------------------------------------------


    POTLOK:  cpu time    9.2094: real time    9.2320


--------------------------------------------------------------------------------------------------------


 stress matrix after NEB project (eV)
     -0.52944      0.08214      0.00558
      0.08214     -4.92462     -0.07942
      0.00558     -0.07942     -0.67287
  FORCES: max atom, RMS     0.033066    0.021421
  FORCE total and by dimension    0.082964    0.025404
  Stress total and by dimension    5.001108    4.924615
 Conjugate gradient step on ions:
 trial-energy change:   -0.000179  1 .order   -0.000198   -0.000201   -0.000196
  (g-gl).g = 0.232E-03      g.g   = 0.226E-03  gl.gl    = 0.274E-03
 g(Force)  = 0.226E-03   g(Stress)= 0.000E+00 ortho     = 0.338E-04
 gamma     =   0.84776
 trial     =   0.78994
 opt step  =   3.15976  (harmonic =  26.89122) maximal distance =0.00581912
 next E    =   -80.147433   (d E  =  -0.00343)


--------------------------------------------------------------------------------------------------------


    WAVPRE:  cpu time    0.5283: real time    1.0436
    FEWALD:  cpu time    0.0024: real time    0.0024
    ORTHCH:  cpu time    2.6096: real time    2.6246
    CHARGE:  cpu time    1.5543: real time    1.5628
     LOOP+:  cpu time 5705.6370: real time 5726.8751
