Al2C                                    
   1.0000000000000000     
     6.0191999999999997    0.0000000000000000    0.0000000000000000
     0.0000000000000000   10.1400000000000006    0.0000000000000000
     0.0000000000000000    0.0000000000000000   15.0000000000000000
   Al   C    Te   H 
     8     4     1     2
Selective dynamics
Direct
  0.4320315758734263  0.8773584208301487  0.2376836906420517   T   T   T
  0.9319664681139090  0.8776253841112580  0.2611496132305692   T   T   T
  0.4325246437419433  0.6172491201535854  0.2405321998537626   T   T   T
  0.9333282503450032  0.6192090609733273  0.2678876850253210   T   T   T
  0.4315509261825953  0.3764428441032414  0.2752401943964335   T   T   T
  0.9332616966489092  0.3781934365169237  0.2429457134043469   T   T   T
  0.4317775104952527  0.1184373354233542  0.2619951745744338   T   T   T
  0.9319046503301806  0.1183864594478751  0.2389251251449995   T   T   T
  0.1819998392583166  0.9977324798589027  0.2488627966327326   T   T   T
  0.6818631471565416  0.9977826026771411  0.2493055740731045   T   T   T
  0.1828734113572138  0.4982003586201941  0.2567631186872528   T   T   T
  0.6826554989528641  0.4986136727393317  0.2589960240949676   T   T   T
  0.5585591564262405  0.4372716062680899  0.4665208725161010   T   T   T
  0.8079161256660105  0.3676896503723717  0.4619907930891080   T   T   T
  0.5065579660119333  0.3517010590285148  0.5606014246348042   T   T   T

  0.00000000E+00  0.00000000E+00  0.00000000E+00
  0.00000000E+00  0.00000000E+00  0.00000000E+00
  0.00000000E+00  0.00000000E+00  0.00000000E+00
  0.00000000E+00  0.00000000E+00  0.00000000E+00
  0.00000000E+00  0.00000000E+00  0.00000000E+00
  0.00000000E+00  0.00000000E+00  0.00000000E+00
  0.00000000E+00  0.00000000E+00  0.00000000E+00
  0.00000000E+00  0.00000000E+00  0.00000000E+00
  0.00000000E+00  0.00000000E+00  0.00000000E+00
  0.00000000E+00  0.00000000E+00  0.00000000E+00
  0.00000000E+00  0.00000000E+00  0.00000000E+00
  0.00000000E+00  0.00000000E+00  0.00000000E+00
  0.00000000E+00  0.00000000E+00  0.00000000E+00
  0.00000000E+00  0.00000000E+00  0.00000000E+00
  0.00000000E+00  0.00000000E+00  0.00000000E+00
