--------------------------------------------------------------------------
[[37309,1],0]: A high-performance Open MPI point-to-point messaging module
was unable to find any relevant network interfaces:

Module: OpenFabrics (openib)
  Host: compute-1-0

Another transport will be used instead, although this may result in
lower performance.
--------------------------------------------------------------------------
 running on    4 total cores
 distrk:  each k-point on    4 cores,    1 groups
 distr:  one band on    1 cores,    4 groups
 using from now: INCAR     
 vasp.5.4.4.18Apr17-6-g9f103f2a35 (build Dec  6 2019 17:49:40) complex           
 POSCAR found type information on POSCAR  Al C  Te H 
 POSCAR found :  4 types and      15 ions
 scaLAPACK will be used
 LDA part: xc-table for Pade appr. of Perdew
 POSCAR found type information on POSCAR  Al C  Te H 
 POSCAR found :  4 types and      15 ions
 POSCAR, INCAR and KPOINTS ok, starting setup
 FFT: planning ...
[compute-1-0.cluster.gsc.inifta.unlp.edu.ar:29626] 3 more processes have sent help message help-mpi-btl-base.txt / btl:no-nics
[compute-1-0.cluster.gsc.inifta.unlp.edu.ar:29626] Set MCA parameter "orte_base_help_aggregate" to 0 to see all help / error messages
 WAVECAR not read
 entering main loop
       N       E                     dE             d eps       ncg     rms          ort
DAV:   1     0.556934781093E+03    0.55693E+03   -0.11515E+04   256   0.962E+02
DAV:   2     0.271547814191E+03   -0.28539E+03   -0.26858E+03   256   0.257E+02
DAV:   3     0.135321845317E+03   -0.13623E+03   -0.12799E+03   256   0.193E+02
DAV:   4     0.638152870687E+02   -0.71507E+02   -0.67932E+02   256   0.152E+02
DAV:   5     0.254447306461E+02   -0.38371E+02   -0.36657E+02   256   0.106E+02
DAV:   6     0.464100361754E+01   -0.20804E+02   -0.19808E+02   256   0.766E+01
DAV:   7    -0.661996274010E+01   -0.11261E+02   -0.10856E+02   256   0.536E+01
 gam= 0.000 g(H,U,f)=  0.886E+02 0.538E+01 0.584E-08 ort(H,U,f) = 0.000E+00 0.000E+00 0.000E+00
SDA:   8    -0.545914895541E+02   -0.47972E+02   -0.37572E+02   256   0.939E+02 0.000E+00
 gam= 0.382 g(H,U,f)=  0.165E+02 0.397E+00 0.199E-12 ort(H,U,f) =-0.513E+01 0.738E+00-0.610E-12
DMP:   9    -0.724143629576E+02   -0.17823E+02   -0.60757E+01   256   0.169E+02-0.439E+01
 gam= 0.382 g(H,U,f)=  0.112E+02 0.464E+00 0.492E-11 ort(H,U,f) = 0.936E+00 0.203E+00 0.202E-11
DMP:  10    -0.757410301465E+02   -0.33267E+01   -0.48381E+01   256   0.117E+02 0.114E+01
 gam= 0.382 g(H,U,f)=  0.214E+01 0.353E+00 0.549E-13 ort(H,U,f) = 0.121E+01 0.492E+00 0.126E-12
DMP:  11    -0.785226975182E+02   -0.27817E+01   -0.12569E+01   256   0.249E+01 0.170E+01
 gam= 0.382 g(H,U,f)=  0.150E+01 0.255E+00 0.179E-11 ort(H,U,f) =-0.310E+00 0.429E+00 0.630E-11
DMP:  12    -0.792056434182E+02   -0.68295E+00   -0.71843E+00   256   0.175E+01 0.119E+00
 gam= 0.382 g(H,U,f)=  0.492E+00 0.143E+00 0.624E-14 ort(H,U,f) = 0.398E+00 0.304E+00 0.116E-13
DMP:  13    -0.797216950990E+02   -0.51605E+00   -0.36122E+00   256   0.635E+00 0.702E+00
 gam= 0.382 g(H,U,f)=  0.184E+00 0.721E-01 0.570E-26 ort(H,U,f) = 0.380E-01 0.173E+00 0.880E-26
DMP:  14    -0.799521293641E+02   -0.23043E+00   -0.13464E+00   256   0.256E+00 0.211E+00
 gam= 0.382 g(H,U,f)=  0.862E-01 0.362E-01 0.146E-13 ort(H,U,f) = 0.496E-01 0.941E-01 0.305E-13
DMP:  15    -0.800508047238E+02   -0.98675E-01   -0.70942E-01   256   0.122E+00 0.144E+00
 gam= 0.382 g(H,U,f)=  0.258E-01 0.186E-01 0.449E-15 ort(H,U,f) = 0.241E-01 0.510E-01-0.417E-14
DMP:  16    -0.801021194629E+02   -0.51315E-01   -0.29243E-01   256   0.444E-01 0.751E-01
 gam= 0.382 g(H,U,f)=  0.135E-01 0.979E-02 0.409E-13 ort(H,U,f) = 0.752E-02 0.272E-01-0.170E-12
DMP:  17    -0.801239960594E+02   -0.21877E-01   -0.14639E-01   256   0.233E-01 0.348E-01
 gam= 0.382 g(H,U,f)=  0.519E-02 0.477E-02 0.607E-14 ort(H,U,f) = 0.553E-02 0.141E-01 0.189E-13
DMP:  18    -0.801353819947E+02   -0.11386E-01   -0.69845E-02   256   0.996E-02 0.196E-01
 gam= 0.382 g(H,U,f)=  0.192E-02 0.224E-02 0.422E-15 ort(H,U,f) = 0.207E-02 0.692E-02 0.127E-14
DMP:  19    -0.801407430230E+02   -0.53610E-02   -0.30407E-02   256   0.417E-02 0.900E-02
 gam= 0.382 g(H,U,f)=  0.929E-03 0.109E-02 0.334E-15 ort(H,U,f) = 0.114E-02 0.340E-02 0.111E-14
DMP:  20    -0.801432076004E+02   -0.24646E-02   -0.15009E-02   256   0.202E-02 0.454E-02
 gam= 0.382 g(H,U,f)=  0.346E-03 0.535E-03 0.100E-14 ort(H,U,f) = 0.646E-03 0.169E-02 0.420E-14
DMP:  21    -0.801444457934E+02   -0.12382E-02   -0.70966E-03   256   0.881E-03 0.234E-02
 gam= 0.382 g(H,U,f)=  0.180E-03 0.263E-03 0.917E-16 ort(H,U,f) = 0.303E-03 0.837E-03 0.286E-15
DMP:  22    -0.801450405113E+02   -0.59472E-03   -0.35129E-03   256   0.443E-03 0.114E-02
 gam= 0.382 g(H,U,f)=  0.994E-04 0.126E-03 0.114E-14 ort(H,U,f) = 0.182E-03 0.408E-03 0.640E-14
DMP:  23    -0.801453411509E+02   -0.30064E-03   -0.18022E-03   256   0.225E-03 0.590E-03
 gam= 0.382 g(H,U,f)=  0.516E-04 0.590E-04 0.137E-16 ort(H,U,f) = 0.109E-03 0.194E-03-0.622E-16
DMP:  24    -0.801454963510E+02   -0.15520E-03   -0.90563E-04   256   0.111E-03 0.303E-03
 gam= 0.382 g(H,U,f)=  0.293E-04 0.277E-04 0.590E-14 ort(H,U,f) = 0.662E-04 0.917E-04 0.732E-14
DMP:  25    -0.801455761630E+02   -0.79812E-04   -0.46937E-04   256   0.570E-04 0.158E-03
 gam= 0.382 g(H,U,f)=  0.175E-04 0.131E-04 0.237E-16 ort(H,U,f) = 0.420E-04 0.433E-04 0.327E-16
DMP:  26    -0.801456186530E+02   -0.42490E-04   -0.25268E-04   256   0.306E-04 0.854E-04
 gam= 0.382 g(H,U,f)=  0.114E-04 0.622E-05 0.724E-14 ort(H,U,f) = 0.272E-04 0.205E-04 0.124E-13
DMP:  27    -0.801456420443E+02   -0.23391E-04   -0.14346E-04   256   0.177E-04 0.477E-04
 gam= 0.382 g(H,U,f)=  0.805E-05 0.298E-05 0.599E-13 ort(H,U,f) = 0.185E-04 0.972E-05 0.118E-12
DMP:  28    -0.801456556170E+02   -0.13573E-04   -0.87215E-05   256   0.110E-04 0.282E-04
 gam= 0.382 g(H,U,f)=  0.584E-05 0.145E-05 0.149E-15 ort(H,U,f) = 0.132E-04 0.465E-05 0.342E-15
DMP:  29    -0.801456640096E+02   -0.83926E-05   -0.56396E-05   256   0.729E-05 0.178E-04
 final diagonalization
   1 F= -.80145664E+02 E0= -.80145664E+02  d E =-.801457E+02
 curvature:   0.00 expect dE= 0.000E+00 dE for cont linesearch  0.000E+00
 trial: gam= 0.00000 g(F)=  0.480E-04 g(S)=  0.000E+00 ort = 0.000E+00 (trialstep = 0.100E+01)
 search vector abs. value=  0.480E-04
 bond charge predicted
       N       E                     dE             d eps       ncg     rms          ort
 gam= 0.000 g(H,U,f)=  0.937E-03 0.207E-04 0.135E-13 ort(H,U,f) = 0.000E+00 0.000E+00 0.000E+00
SDA:   1    -0.801453431490E+02    0.31247E-03   -0.38313E-03   256   0.958E-03 0.000E+00
 gam= 0.382 g(H,U,f)=  0.230E-03 0.280E-05 0.126E-14 ort(H,U,f) = 0.280E-03 0.596E-05 0.167E-14
DMP:   2    -0.801455918803E+02   -0.24873E-03   -0.13674E-03   256   0.233E-03 0.286E-03
 gam= 0.382 g(H,U,f)=  0.904E-04 0.127E-05 0.825E-17 ort(H,U,f) = 0.758E-04 0.132E-06 0.170E-16
DMP:   3    -0.801456756416E+02   -0.83761E-04   -0.48277E-04   256   0.917E-04 0.760E-04
 gam= 0.382 g(H,U,f)=  0.273E-04 0.626E-06 0.161E-15 ort(H,U,f) = 0.233E-04 0.709E-06 0.383E-15
DMP:   4    -0.801457046085E+02   -0.28967E-04   -0.14821E-04   256   0.279E-04 0.240E-04
 gam= 0.382 g(H,U,f)=  0.105E-04 0.260E-06 0.133E-16 ort(H,U,f) =-0.111E-05 0.544E-06 0.360E-16
DMP:   5    -0.801457118712E+02   -0.72627E-05   -0.42246E-05   256   0.108E-04-0.564E-06
 final diagonalization
   2 F= -.80145712E+02 E0= -.80145712E+02  d E =-.478616E-04
 trial-energy change:   -0.000048  1 .order   -0.000036   -0.000048   -0.000025
 step:   2.0440(harm=  2.0440)  dis= 0.00130  next Energy=   -80.145713 (dE=-0.491E-04)
 bond charge predicted
       N       E                     dE             d eps       ncg     rms          ort
 gam= 0.000 g(H,U,f)=  0.986E-03 0.234E-04 0.433E-15 ort(H,U,f) = 0.000E+00 0.000E+00 0.000E+00
SDA:   1    -0.801453325290E+02    0.37208E-03   -0.40361E-03   256   0.101E-02 0.000E+00
 gam= 0.382 g(H,U,f)=  0.211E-03 0.283E-05 0.347E-17 ort(H,U,f) = 0.262E-03 0.630E-05 0.618E-17
DMP:   2    -0.801455879004E+02   -0.25537E-03   -0.12650E-03   256   0.214E-03 0.268E-03
 gam= 0.382 g(H,U,f)=  0.943E-04 0.134E-05 0.276E-16 ort(H,U,f) = 0.465E-04-0.295E-06 0.754E-16
DMP:   3    -0.801456605640E+02   -0.72664E-04   -0.45306E-04   256   0.956E-04 0.462E-04
 gam= 0.382 g(H,U,f)=  0.265E-04 0.578E-06 0.189E-17 ort(H,U,f) = 0.183E-04 0.571E-06 0.444E-17
DMP:   4    -0.801456869788E+02   -0.26415E-04   -0.13717E-04   256   0.271E-04 0.188E-04
 gam= 0.382 g(H,U,f)=  0.899E-05 0.181E-06 0.242E-16 ort(H,U,f) =-0.634E-05 0.393E-06 0.621E-16
DMP:   5    -0.801456925863E+02   -0.56075E-05   -0.27617E-05   256   0.917E-05-0.594E-05
 final diagonalization
   3 F= -.80145693E+02 E0= -.80145693E+02  d E =-.285767E-04
 curvature:  -1.02 expect dE=-0.667E-04 dE for cont linesearch -0.150E-04
 ZBRENT: interpolating
 opt :   1.5010  next Energy=   -80.145718 (dE=-0.540E-04)
 bond charge predicted
       N       E                     dE             d eps       ncg     rms          ort
 gam= 0.000 g(H,U,f)=  0.292E-03 0.555E-05 0.247E-19 ort(H,U,f) = 0.000E+00 0.000E+00 0.000E+00
SDA:   1    -0.801455975269E+02    0.89452E-04   -0.11910E-03   256   0.298E-03 0.000E+00
 gam= 0.382 g(H,U,f)=  0.844E-04 0.635E-06 0.485E-18 ort(H,U,f) = 0.876E-04 0.145E-05-0.392E-18
DMP:   2    -0.801456749598E+02   -0.77433E-04   -0.47625E-04   256   0.850E-04 0.891E-04
 gam= 0.382 g(H,U,f)=  0.237E-04 0.170E-06 0.159E-16 ort(H,U,f) = 0.305E-04-0.127E-06 0.765E-17
DMP:   3    -0.801457047350E+02   -0.29775E-04   -0.14209E-04   256   0.239E-04 0.304E-04
 gam= 0.382 g(H,U,f)=  0.774E-05 0.609E-07 0.241E-18 ort(H,U,f) = 0.403E-05-0.275E-07 0.597E-18
DMP:   4    -0.801457126473E+02   -0.79123E-05   -0.37339E-05   256   0.780E-05 0.401E-05
 final diagonalization
   4 F= -.80145713E+02 E0= -.80145713E+02  d E =-.486377E-04
 curvature:  -0.42 expect dE=-0.320E-04 dE for cont linesearch -0.116E-04
 ZBRENT: interpolating
 opt :   1.2011  next Energy=   -80.145714 (dE=-0.503E-04)
 bond charge predicted
       N       E                     dE             d eps       ncg     rms          ort
 gam= 0.000 g(H,U,f)=  0.786E-04 0.191E-05 0.128E-17 ort(H,U,f) = 0.000E+00 0.000E+00 0.000E+00
SDA:   1    -0.801456913974E+02    0.13338E-04   -0.32208E-04   256   0.805E-04 0.000E+00
 gam= 0.382 g(H,U,f)=  0.163E-04 0.219E-06 0.912E-21 ort(H,U,f) = 0.166E-04 0.428E-06-0.568E-20
DMP:   2    -0.801457108642E+02   -0.19467E-04   -0.92016E-05   256   0.165E-04 0.170E-04
 gam= 0.382 g(H,U,f)=  0.854E-05 0.126E-06 0.589E-19 ort(H,U,f) = 0.399E-05-0.928E-08-0.274E-19
DMP:   3    -0.801457162382E+02   -0.53741E-05   -0.40725E-05   256   0.866E-05 0.398E-05
 final diagonalization
   5 F= -.80145716E+02 E0= -.80145716E+02  d E =-.522287E-04
 curvature:  -0.09 expect dE=-0.239E-05 dE for cont linesearch -0.109E-06
 ZBRENT: interpolating
 opt :   1.1530  next Energy=   -80.145716 (dE=-0.524E-04)
 bond charge predicted
       N       E                     dE             d eps       ncg     rms          ort
 gam= 0.000 g(H,U,f)=  0.337E-05 0.682E-07 0.147E-19 ort(H,U,f) = 0.000E+00 0.000E+00 0.000E+00
SDA:   1    -0.801457182084E+02   -0.73442E-05   -0.13740E-05   256   0.343E-05 0.000E+00
 gam= 0.382 g(H,U,f)=  0.167E-05 0.379E-07 0.207E-20 ort(H,U,f) = 0.456E-06 0.430E-07 0.144E-20
DMP:   2    -0.801457190120E+02   -0.80360E-06   -0.76113E-06   256   0.171E-05 0.499E-06
 final diagonalization
   6 F= -.80145719E+02 E0= -.80145719E+02  d E =-.550024E-04
 curvature:  -0.15 expect dE=-0.229E-05 dE for cont linesearch -0.696E-07
 trial: gam= 0.22001 g(F)=  0.153E-04 g(S)=  0.000E+00 ort = 0.472E-05 (trialstep = 0.103E+01)
 search vector abs. value=  0.197E-04
 reached required accuracy - stopping structural energy minimisation
