<?xml version="1.0" encoding="ISO-8859-1"?>
<modeling>
 <generator>
  <i name="program" type="string">vasp </i>
  <i name="version" type="string">5.4.4.18Apr17-6-g9f103f2a35  </i>
  <i name="subversion" type="string">(build Dec  6 2019 17:49:40) complex            parallel </i>
  <i name="platform" type="string">LinuxGNU </i>
  <i name="date" type="string">2021 11 26 </i>
  <i name="time" type="string">20:12:23 </i>
 </generator>
 <incar>
  <i type="string" name="SYSTEM"> Al2C</i>
  <i type="int" name="ISTART">     0</i>
  <i type="string" name="PREC">accurate</i>
  <i type="string" name="ALGO">Damped</i>
  <i type="int" name="NSIM">     4</i>
  <i type="int" name="NELM">   300</i>
  <i type="int" name="NELMDL">    -7</i>
  <i type="int" name="IBRION">     2</i>
  <i name="EDIFF">      0.00001000</i>
  <i name="EDIFFG">     -0.01000000</i>
  <i type="int" name="NSW">   400</i>
  <i type="int" name="ISIF">     2</i>
  <i type="int" name="ISYM">     0</i>
  <i name="ENCUT">    450.00000000</i>
  <i name="POTIM">      0.35000000</i>
  <i type="string" name="LREAL"> auto</i>
  <v name="ROPT">     -0.00020000     -0.00020000     -0.00020000     -0.00020000</v>
  <i type="logical" name="LPLANE"> T  </i>
  <i name="TIME">      0.40000000</i>
  <i type="int" name="ISMEAR">     0</i>
  <i name="SIGMA">      0.05000000</i>
  <i type="int" name="NWRITE">     2</i>
  <i type="logical" name="LWAVE"> F  </i>
  <i type="logical" name="LCHARG"> F  </i>
  <i type="logical" name="LSCALU"> F  </i>
  <v type="int" name="KPOINT_BSE">    -1     0     0     0</v>
  <i type="int" name="NELM">   300</i>
  <i type="logical" name="LHFCALC"> T  </i>
  <i type="string" name="GGA"> PE</i>
  <i name="HFSCREEN">      0.20000000</i>
 </incar>
 <structure name="primitive_cell" >
  <crystal>
   <varray name="basis" >
    <v>       6.01920000       0.00000000       0.00000000 </v>
    <v>       0.00000000      10.14000000       0.00000000 </v>
    <v>       0.00000000       0.00000000      15.00000000 </v>
   </varray>
   <i name="volume">    915.52032000 </i>
   <varray name="rec_basis" >
    <v>       0.16613503       0.00000000       0.00000000 </v>
    <v>       0.00000000       0.09861933       0.00000000 </v>
    <v>       0.00000000       0.00000000       0.06666667 </v>
   </varray>
  </crystal>
  <varray name="positions" >
   <v>       0.43227099      -0.12241251       0.23921370 </v>
   <v>      -0.31802720      -0.00186757       0.25006099 </v>
   <v>       0.18216806      -0.00194449       0.24951852 </v>
   <v>       0.43184067       0.11889990       0.26120556 </v>
   <v>       0.43268067      -0.38218422       0.24098885 </v>
   <v>      -0.06788426      -0.12215414       0.26043595 </v>
   <v>      -0.06802775       0.11871504       0.24087332 </v>
   <v>      -0.06654018      -0.38038060       0.26672288 </v>
   <v>       0.18265602       0.49852106       0.25586246 </v>
   <v>      -0.31731054       0.49894530       0.25911195 </v>
   <v>       0.43113700       0.37650914       0.27382883 </v>
   <v>      -0.44247994       0.43531773       0.46571605 </v>
   <v>      -0.06702257       0.37825331       0.24383465 </v>
   <v>      -0.19145168       0.36766708       0.46193472 </v>
   <v>      -0.49323841       0.35000846      -0.43990842 </v>
  </varray>
 </structure>
 <varray name="primitive_index" >
  <v type="int" >        1 </v>
  <v type="int" >       10 </v>
  <v type="int" >        9 </v>
  <v type="int" >        7 </v>
  <v type="int" >        3 </v>
  <v type="int" >        2 </v>
  <v type="int" >        8 </v>
  <v type="int" >        4 </v>
  <v type="int" >       11 </v>
  <v type="int" >       12 </v>
  <v type="int" >        5 </v>
  <v type="int" >       13 </v>
  <v type="int" >        6 </v>
  <v type="int" >       14 </v>
  <v type="int" >       15 </v>
 </varray>
 <kpoints>
  <generation param="Gamma">
   <v type="int" name="divisions">       5        3        1 </v>
   <v name="usershift">      0.00000000       0.00000000       0.00000000 </v>
   <v name="genvec1">      0.20000000       0.00000000       0.00000000 </v>
   <v name="genvec2">      0.00000000       0.33333333       0.00000000 </v>
   <v name="genvec3">      0.00000000       0.00000000       1.00000000 </v>
   <v name="shift">      0.00000000       0.00000000       0.00000000 </v>
  </generation>
  <varray name="kpointlist" >
   <v>       0.00000000       0.00000000       0.00000000 </v>
   <v>       0.20000000       0.00000000       0.00000000 </v>
   <v>       0.40000000       0.00000000       0.00000000 </v>
   <v>       0.00000000       0.33333333       0.00000000 </v>
   <v>       0.20000000       0.33333333       0.00000000 </v>
   <v>       0.40000000       0.33333333       0.00000000 </v>
   <v>      -0.40000000       0.33333333       0.00000000 </v>
   <v>      -0.20000000       0.33333333       0.00000000 </v>
  </varray>
  <varray name="weights" >
   <v>       0.06666667 </v>
   <v>       0.13333333 </v>
   <v>       0.13333333 </v>
   <v>       0.13333333 </v>
   <v>       0.13333333 </v>
   <v>       0.13333333 </v>
   <v>       0.13333333 </v>
   <v>       0.13333333 </v>
  </varray>
 </kpoints>
 <parameters>
  <separator name="general" >
   <i type="string" name="SYSTEM">Al2C</i>
   <i type="logical" name="LCOMPAT"> F  </i>
  </separator>
  <separator name="electronic" >
   <i type="string" name="PREC">accura</i>
   <i name="ENMAX">    450.00000000</i>
   <i name="ENAUG">    644.87300000</i>
   <i name="EDIFF">      0.00001000</i>
   <i type="int" name="IALGO">    53</i>
   <i type="int" name="IWAVPR">    11</i>
   <i type="int" name="NBANDS">    32</i>
   <i name="NELECT">     48.00000000</i>
   <i type="int" name="TURBO">     0</i>
   <i type="int" name="IRESTART">     0</i>
   <i type="int" name="NREBOOT">     0</i>
   <i type="int" name="NMIN">     0</i>
   <i name="EREF">      0.00000000</i>
   <separator name="electronic smearing" >
    <i type="int" name="ISMEAR">     0</i>
    <i name="SIGMA">      0.05000000</i>
    <i name="KSPACING">      0.50000000</i>
    <i type="logical" name="KGAMMA"> T  </i>
   </separator>
   <separator name="electronic projectors" >
    <i type="logical" name="LREAL"> T  </i>
    <v name="ROPT">     -0.00020000     -0.00020000     -0.00020000     -0.00020000</v>
    <i type="int" name="LMAXPAW">  -100</i>
    <i type="int" name="LMAXMIX">     2</i>
    <i type="logical" name="NLSPLINE"> F  </i>
   </separator>
   <separator name="electronic startup" >
    <i type="int" name="ISTART">     0</i>
    <i type="int" name="ICHARG">     2</i>
    <i type="int" name="INIWAV">     1</i>
   </separator>
   <separator name="electronic spin" >
    <i type="int" name="ISPIN">     1</i>
    <i type="logical" name="LNONCOLLINEAR"> F  </i>
    <v name="MAGMOM">      1.00000000      1.00000000      1.00000000      1.00000000      1.00000000      1.00000000      1.00000000      1.00000000      1.00000000      1.00000000      1.00000000      1.00000000      1.00000000      1.00000000      1.00000000</v>
    <i name="NUPDOWN">     -1.00000000</i>
    <i type="logical" name="LSORBIT"> F  </i>
    <v name="SAXIS">      0.00000000      0.00000000      1.00000000</v>
    <i type="logical" name="LSPIRAL"> F  </i>
    <v name="QSPIRAL">      0.00000000      0.00000000      0.00000000</v>
    <i type="logical" name="LZEROZ"> F  </i>
   </separator>
   <separator name="electronic exchange-correlation" >
    <i type="logical" name="LASPH"> F  </i>
    <i type="logical" name="LMETAGGA"> F  </i>
   </separator>
   <separator name="electronic convergence" >
    <i type="int" name="NELM">   300</i>
    <i type="int" name="NELMDL">    -7</i>
    <i type="int" name="NELMIN">     2</i>
    <i name="ENINI">    450.00000000</i>
    <separator name="electronic convergence detail" >
     <i type="logical" name="LDIAG"> T  </i>
     <i type="logical" name="LSUBROT"> F  </i>
     <i name="WEIMIN">      0.00100000</i>
     <i name="EBREAK">      0.00000008</i>
     <i name="DEPER">      0.30000000</i>
     <i type="int" name="NRMM">     4</i>
     <i name="TIME">      0.40000000</i>
    </separator>
   </separator>
   <separator name="electronic mixer" >
    <i name="AMIX">      0.40000000</i>
    <i name="BMIX">      1.00000000</i>
    <i name="AMIN">      0.10000000</i>
    <i name="AMIX_MAG">      1.60000000</i>
    <i name="BMIX_MAG">      1.00000000</i>
    <separator name="electronic mixer details" >
     <i type="int" name="IMIX">     4</i>
     <i type="logical" name="MIXFIRST"> F  </i>
     <i type="int" name="MAXMIX">   -45</i>
     <i name="WC">    100.00000000</i>
     <i type="int" name="INIMIX">     1</i>
     <i type="int" name="MIXPRE">     1</i>
     <i type="int" name="MREMOVE">     5</i>
    </separator>
   </separator>
   <separator name="electronic dipolcorrection" >
    <i type="logical" name="LDIPOL"> F  </i>
    <i type="logical" name="LMONO"> F  </i>
    <i type="int" name="IDIPOL">     0</i>
    <i name="EPSILON">      1.00000000</i>
    <v name="DIPOL">   -100.00000000   -100.00000000   -100.00000000</v>
    <i name="EFIELD">      0.00000000</i>
   </separator>
  </separator>
  <separator name="grids" >
   <i type="int" name="NGX">    42</i>
   <i type="int" name="NGY">    70</i>
   <i type="int" name="NGZ">   108</i>
   <i type="int" name="NGXF">    84</i>
   <i type="int" name="NGYF">   140</i>
   <i type="int" name="NGZF">   216</i>
   <i type="logical" name="ADDGRID"> F  </i>
  </separator>
  <separator name="ionic" >
   <i type="int" name="NSW">   400</i>
   <i type="int" name="IBRION">     2</i>
   <i type="int" name="MDALGO">     0</i>
   <i type="int" name="ISIF">     2</i>
   <i name="PSTRESS">      0.00000000</i>
   <i name="EDIFFG">     -0.01000000</i>
   <i type="int" name="NFREE">     1</i>
   <i name="POTIM">      0.35000000</i>
   <i name="SMASS">     -3.00000000</i>
   <i name="SCALEE">      1.00000000</i>
  </separator>
  <separator name="ionic md" >
   <i name="TEBEG">      0.00010000</i>
   <i name="TEEND">      0.00010000</i>
   <i type="int" name="NBLOCK">     1</i>
   <i type="int" name="KBLOCK">   400</i>
   <i type="int" name="NPACO">   256</i>
   <i name="APACO">     16.00000000</i>
  </separator>
  <separator name="symmetry" >
   <i type="int" name="ISYM">     0</i>
   <i name="SYMPREC">      0.00001000</i>
  </separator>
  <separator name="dos" >
   <i type="int" name="LORBIT">     0</i>
   <v name="RWIGS">     -1.00000000     -1.00000000     -1.00000000     -1.00000000</v>
   <i type="int" name="NEDOS">   301</i>
   <i name="EMIN">     10.00000000</i>
   <i name="EMAX">    -10.00000000</i>
   <i name="EFERMI">      0.00000000</i>
  </separator>
  <separator name="writing" >
   <i type="int" name="NWRITE">     2</i>
   <i type="logical" name="LWAVE"> F  </i>
   <i type="logical" name="LDOWNSAMPLE"> F  </i>
   <i type="logical" name="LCHARG"> F  </i>
   <i type="logical" name="LPARD"> F  </i>
   <i type="logical" name="LVTOT"> F  </i>
   <i type="logical" name="LVHAR"> F  </i>
   <i type="logical" name="LELF"> F  </i>
   <i type="logical" name="LOPTICS"> F  </i>
   <v name="STM">      0.00000000      0.00000000      0.00000000      0.00000000      0.00000000      0.00000000      0.00000000</v>
  </separator>
  <separator name="performance" >
   <i type="int" name="NPAR">     4</i>
   <i type="int" name="NSIM">     4</i>
   <i type="int" name="NBLK">    -1</i>
   <i type="logical" name="LPLANE"> T  </i>
   <i type="logical" name="LSCALAPACK"> T  </i>
   <i type="logical" name="LSCAAWARE"> F  </i>
   <i type="logical" name="LSCALU"> F  </i>
   <i type="logical" name="LASYNC"> F  </i>
   <i type="logical" name="LORBITALREAL"> F  </i>
  </separator>
  <separator name="miscellaneous" >
   <i type="int" name="IDIOT">     3</i>
   <i type="int" name="ISPECIAL">     0</i>
   <i type="logical" name="LMUSIC"> F  </i>
   <v name="POMASS">     26.98200000     12.01100000    127.60000000      1.00000000</v>
   <v name="DARWINR">      0.00000000      0.00000000      0.00000000      0.00000000</v>
   <v name="DARWINV">      1.00000000      1.00000000      1.00000000      1.00000000</v>
   <i type="logical" name="LCORR"> T  </i>
  </separator>
  <i type="logical" name="GGA_COMPAT"> T  </i>
  <i type="logical" name="LBERRY"> F  </i>
  <i type="int" name="ICORELEVEL">     0</i>
  <i type="logical" name="LDAU"> F  </i>
  <i type="int" name="I_CONSTRAINED_M">     0</i>
  <separator name="electronic exchange-correlation" >
   <i type="string" name="GGA">PE</i>
   <i type="int" name="VOSKOWN">     0</i>
   <i type="logical" name="LHFCALC"> T  </i>
   <i type="string" name="PRECFOCK">normal</i>
   <i type="logical" name="LSYMGRAD"> F  </i>
   <i type="logical" name="LHFONE"> F  </i>
   <i type="logical" name="LRHFCALC"> F  </i>
   <i type="logical" name="LTHOMAS"> F  </i>
   <i type="logical" name="LMODELHF"> F  </i>
   <i name="ENCUT4O">     -1.00000000</i>
   <i type="int" name="EXXOEP">     0</i>
   <i type="int" name="FOURORBIT">     0</i>
   <i name="AEXX">      0.25000000</i>
   <i name="HFALPHA">     -1.00000000</i>
   <i name="MCALPHA">      0.00000000</i>
   <i name="ALDAX">      0.75000000</i>
   <i name="AGGAX">      0.75000000</i>
   <i name="ALDAC">      1.00000000</i>
   <i name="AGGAC">      1.00000000</i>
   <i type="int" name="NKREDX">     1</i>
   <i type="int" name="NKREDY">     1</i>
   <i type="int" name="NKREDZ">     1</i>
   <i type="logical" name="SHIFTRED"> F  </i>
   <i type="logical" name="ODDONLY"> F  </i>
   <i type="logical" name="EVENONLY"> F  </i>
   <i type="int" name="LMAXFOCK">     4</i>
   <i type="int" name="NMAXFOCKAE">     1</i>
   <i type="logical" name="LFOCKAEDFT"> F  </i>
   <i name="HFSCREEN">      0.20000000</i>
   <i name="HFSCREENC">      0.20000000</i>
   <i type="int" name="NBANDSGWLOW">     1</i>
  </separator>
  <separator name="vdW DFT" >
   <i type="logical" name="LUSE_VDW"> F  </i>
   <i name="Zab_VDW">     -0.84910000</i>
   <i name="PARAM1">      0.12340000</i>
   <i name="PARAM2">      1.00000000</i>
   <i name="PARAM3">      0.00000000</i>
  </separator>
  <separator name="model GW" >
   <i type="int" name="MODEL_GW">     0</i>
   <i name="MODEL_EPS0">     36.62081280</i>
   <i name="MODEL_ALPHA">      1.00000000</i>
  </separator>
  <separator name="linear response parameters" >
   <i type="logical" name="LEPSILON"> F  </i>
   <i type="logical" name="LRPA"> F  </i>
   <i type="logical" name="LNABLA"> F  </i>
   <i type="logical" name="LVEL"> F  </i>
   <i type="int" name="KINTER">     0</i>
   <i name="CSHIFT">      0.10000000</i>
   <i name="OMEGAMAX">     -1.00000000</i>
   <i name="DEG_THRESHOLD">      0.00200000</i>
   <i name="RTIME">     -0.10000000</i>
   <i name="WPLASMAI">      0.00000000</i>
   <v name="DFIELD">      0.00000000      0.00000000      0.00000000</v>
   <v name="WPLASMA">      0.00000000      0.00000000      0.00000000      0.00000000      0.00000000      0.00000000      0.00000000      0.00000000      0.00000000</v>
  </separator>
  <separator name="orbital magnetization" >
   <i type="logical" name="NUCIND"> F  </i>
   <v name="MAGPOS">      0.00000000      0.00000000      0.00000000</v>
   <i type="logical" name="LNICSALL"> T  </i>
   <i type="logical" name="ORBITALMAG"> F  </i>
   <i type="logical" name="LMAGBLOCH"> F  </i>
   <i type="logical" name="LCHIMAG"> F  </i>
   <i type="logical" name="LGAUGE"> T  </i>
   <i type="int" name="MAGATOM">     0</i>
   <v name="MAGDIPOL">      0.00000000      0.00000000      0.00000000</v>
   <v name="AVECCONST">      0.00000000      0.00000000      0.00000000</v>
  </separator>
  <separator name="response functions" >
   <i type="logical" name="LADDER"> F  </i>
   <i type="logical" name="LRPAFORCE"> F  </i>
   <i type="logical" name="LFXC"> F  </i>
   <i type="logical" name="LHARTREE"> T  </i>
   <i type="int" name="IBSE">     0</i>
   <v type="int" name="KPOINT">    -1     0     0     0</v>
   <i type="logical" name="LTCTE"> F  </i>
   <i type="logical" name="LTETE"> F  </i>
   <i type="logical" name="LTRIPLET"> F  </i>
   <i type="logical" name="LFXCEPS"> F  </i>
   <i type="logical" name="LFXHEG"> F  </i>
   <i type="int" name="NATURALO">     2</i>
   <i type="logical" name="L2ORDER"> F  </i>
   <i type="logical" name="LMP2LT"> F  </i>
   <i type="logical" name="LUSEW"> F  </i>
   <i name="ENCUTGW">     -2.00000000</i>
   <i name="ENCUTGWSOFT">     -2.00000000</i>
   <i name="ENCUTLF">     -1.00000000</i>
   <i type="int" name="LMAXMP2">    -1</i>
   <i name="SCISSOR">      0.00000000</i>
   <i type="int" name="NOMEGA">     0</i>
   <i type="int" name="NOMEGAR">     0</i>
   <i type="int" name="NBANDSGW">    -1</i>
   <i type="int" name="NBANDSO">    -1</i>
   <i type="int" name="NBANDSV">    -1</i>
   <i type="int" name="NELM">   300</i>
   <i type="int" name="NELMHF">     1</i>
   <i type="int" name="DIM">     3</i>
   <i type="int" name="ANTIRES">     0</i>
   <i name="OMEGAMAX">    -30.00000000</i>
   <i name="OMEGAMIN">    -30.00000000</i>
   <i name="OMEGATL">   -200.00000000</i>
   <i type="int" name="OMEGAGRID">   140</i>
   <i name="CSHIFT">     -0.10000000</i>
   <i type="logical" name="SELFENERGY"> F  </i>
   <i type="logical" name="LSPECTRAL"> F  </i>
   <i type="logical" name="LSPECTRALGW"> F  </i>
   <i type="logical" name="LSINGLES"> F  </i>
   <i type="logical" name="LFERMIGW"> F  </i>
   <i type="logical" name="ODDONLYGW"> F  </i>
   <i type="logical" name="EVENONLYGW"> F  </i>
   <i type="int" name="NKREDLFX">     1</i>
   <i type="int" name="NKREDLFY">     1</i>
   <i type="int" name="NKREDLFZ">     1</i>
   <i type="int" name="MAXMEM">  2800</i>
   <i type="int" name="TELESCOPE">     0</i>
   <i type="int" name="TAUPAR">     1</i>
   <i type="int" name="OMEGAPAR">    -1</i>
   <i name="LAMBDA">      1.00000000</i>
  </separator>
  <separator name="External order field" >
   <i name="OFIELD_KAPPA">      0.00000000</i>
   <v name="OFIELD_K">      0.00000000      0.00000000      0.00000000</v>
   <i name="OFIELD_Q6_NEAR">      0.00000000</i>
   <i name="OFIELD_Q6_FAR">      0.00000000</i>
   <i name="OFIELD_A">      0.00000000</i>
  </separator>
 </parameters>
 <atominfo>
  <atoms>      15 </atoms>
  <types>       4 </types>
  <array name="atoms" >
   <dimension dim="1">ion</dimension>
   <field type="string">element</field>
   <field type="int">atomtype</field>
   <set>
    <rc><c>Al</c><c>   1</c></rc>
    <rc><c>Al</c><c>   1</c></rc>
    <rc><c>Al</c><c>   1</c></rc>
    <rc><c>Al</c><c>   1</c></rc>
    <rc><c>Al</c><c>   1</c></rc>
    <rc><c>Al</c><c>   1</c></rc>
    <rc><c>Al</c><c>   1</c></rc>
    <rc><c>Al</c><c>   1</c></rc>
    <rc><c>C </c><c>   2</c></rc>
    <rc><c>C </c><c>   2</c></rc>
    <rc><c>C </c><c>   2</c></rc>
    <rc><c>C </c><c>   2</c></rc>
    <rc><c>Te</c><c>   3</c></rc>
    <rc><c>H </c><c>   4</c></rc>
    <rc><c>H </c><c>   4</c></rc>
   </set>
  </array>
  <array name="atomtypes" >
   <dimension dim="1">type</dimension>
   <field type="int">atomspertype</field>
   <field type="string">element</field>
   <field>mass</field>
   <field>valence</field>
   <field type="string">pseudopotential</field>
   <set>
    <rc><c>   8</c><c>Al</c><c>     26.98200000</c><c>      3.00000000</c><c>  PAW Al_GW 19Mar2012                   </c></rc>
    <rc><c>   4</c><c>C </c><c>     12.01100000</c><c>      4.00000000</c><c>  PAW C_GW 28Sep2005                    </c></rc>
    <rc><c>   1</c><c>Te</c><c>    127.60000000</c><c>      6.00000000</c><c>  PAW Te_GW 22Mar2012                   </c></rc>
    <rc><c>   2</c><c>H </c><c>      1.00000000</c><c>      1.00000000</c><c>  PAW H_GW 21Apr2008                    </c></rc>
   </set>
  </array>
 </atominfo>
 <structure name="initialpos" >
  <crystal>
   <varray name="basis" >
    <v>       6.01920000       0.00000000       0.00000000 </v>
    <v>       0.00000000      10.14000000       0.00000000 </v>
    <v>       0.00000000       0.00000000      15.00000000 </v>
   </varray>
   <i name="volume">    915.52032000 </i>
   <varray name="rec_basis" >
    <v>       0.16613503       0.00000000       0.00000000 </v>
    <v>       0.00000000       0.09861933       0.00000000 </v>
    <v>       0.00000000       0.00000000       0.06666667 </v>
   </varray>
  </crystal>
  <varray name="positions" >
   <v>       0.43227099       0.87758749       0.23921370 </v>
   <v>       0.93211574       0.87784586       0.26043595 </v>
   <v>       0.43268067       0.61781578       0.24098885 </v>
   <v>       0.93345982       0.61961940       0.26672288 </v>
   <v>       0.43113700       0.37650914       0.27382883 </v>
   <v>       0.93297743       0.37825331       0.24383465 </v>
   <v>       0.43184067       0.11889990       0.26120556 </v>
   <v>       0.93197225       0.11871504       0.24087332 </v>
   <v>       0.18216806       0.99805551       0.24951852 </v>
   <v>       0.68197280       0.99813243       0.25006099 </v>
   <v>       0.18265602       0.49852106       0.25586246 </v>
   <v>       0.68268946       0.49894530       0.25911195 </v>
   <v>       0.55752006       0.43531773       0.46571605 </v>
   <v>       0.80854832       0.36766708       0.46193472 </v>
   <v>       0.50676159       0.35000846       0.56009158 </v>
  </varray>
  <varray name="selective"  type="logical" >
   <v type="logical" >  T  T  T </v>
   <v type="logical" >  T  T  T </v>
   <v type="logical" >  T  T  T </v>
   <v type="logical" >  T  T  T </v>
   <v type="logical" >  T  T  T </v>
   <v type="logical" >  T  T  T </v>
   <v type="logical" >  T  T  T </v>
   <v type="logical" >  T  T  T </v>
   <v type="logical" >  T  T  T </v>
   <v type="logical" >  T  T  T </v>
   <v type="logical" >  T  T  T </v>
   <v type="logical" >  T  T  T </v>
   <v type="logical" >  T  T  T </v>
   <v type="logical" >  T  T  T </v>
   <v type="logical" >  T  T  T </v>
  </varray>
  <nose>
   <v>      -3.00000000       0.00000000       0.00010000       0.00010000 </v>
  </nose>
 </structure>
 <calculation>
  <scstep>
   <time name="total">   34.97   35.08</time>
   <energy>
    <i name="alphaZ">     13.10177784 </i>
    <i name="ewald">   1366.57937331 </i>
    <i name="hartreedc">  -2339.88437104 </i>
    <i name="XCdc">   -148.22075662 </i>
    <i name="pawpsdc">   1131.56821490 </i>
    <i name="pawaedc">   -901.58210649 </i>
    <i name="eentropy">     -0.00429095 </i>
    <i name="bandstr">    184.18370751 </i>
    <i name="atom">   1251.19323263 </i>
    <i name="e_fr_energy">    556.93478109 </i>
    <i name="e_wo_entrp">    556.93907204 </i>
    <i name="e_0_energy">    556.93692657 </i>
   </energy>
  </scstep>
  <scstep>
   <time name="total">   35.11   35.29</time>
   <energy>
    <i name="e_fr_energy">    271.54781419 </i>
    <i name="e_wo_entrp">    271.55757193 </i>
    <i name="e_0_energy">    271.55269306 </i>
   </energy>
  </scstep>
  <scstep>
   <time name="total">   35.12   35.33</time>
   <energy>
    <i name="e_fr_energy">    135.32184532 </i>
    <i name="e_wo_entrp">    135.33616107 </i>
    <i name="e_0_energy">    135.32900319 </i>
   </energy>
  </scstep>
  <scstep>
   <time name="total">   35.18   35.33</time>
   <energy>
    <i name="e_fr_energy">     63.81528707 </i>
    <i name="e_wo_entrp">     63.81993679 </i>
    <i name="e_0_energy">     63.81761193 </i>
   </energy>
  </scstep>
  <scstep>
   <time name="total">   35.12   35.25</time>
   <energy>
    <i name="e_fr_energy">     25.44473065 </i>
    <i name="e_wo_entrp">     25.44499877 </i>
    <i name="e_0_energy">     25.44486471 </i>
   </energy>
  </scstep>
  <scstep>
   <time name="total">   35.16   35.25</time>
   <energy>
    <i name="e_fr_energy">      4.64100362 </i>
    <i name="e_wo_entrp">      4.64554957 </i>
    <i name="e_0_energy">      4.64327659 </i>
   </energy>
  </scstep>
  <scstep>
   <time name="total">   36.86   36.95</time>
   <energy>
    <i name="e_fr_energy">     -6.61996274 </i>
    <i name="e_wo_entrp">     -6.61996274 </i>
    <i name="e_0_energy">     -6.61996274 </i>
   </energy>
  </scstep>
  <scstep>
   <time name="total">  625.99  627.89</time>
   <energy>
    <i name="e_fr_energy">    -54.59148955 </i>
    <i name="e_wo_entrp">    -54.59148955 </i>
    <i name="e_0_energy">    -54.59148955 </i>
   </energy>
  </scstep>
  <scstep>
   <time name="total">  627.64  629.99</time>
   <energy>
    <i name="e_fr_energy">    -72.41436296 </i>
    <i name="e_wo_entrp">    -72.41436296 </i>
    <i name="e_0_energy">    -72.41436296 </i>
   </energy>
  </scstep>
  <scstep>
   <time name="total">  626.67  628.97</time>
   <energy>
    <i name="e_fr_energy">    -75.74103015 </i>
    <i name="e_wo_entrp">    -75.74103015 </i>
    <i name="e_0_energy">    -75.74103015 </i>
   </energy>
  </scstep>
  <scstep>
   <time name="total">  624.25  627.16</time>
   <energy>
    <i name="e_fr_energy">    -78.52269752 </i>
    <i name="e_wo_entrp">    -78.52269752 </i>
    <i name="e_0_energy">    -78.52269752 </i>
   </energy>
  </scstep>
  <scstep>
   <time name="total">  620.71  624.43</time>
   <energy>
    <i name="e_fr_energy">    -79.20564342 </i>
    <i name="e_wo_entrp">    -79.20564342 </i>
    <i name="e_0_energy">    -79.20564342 </i>
   </energy>
  </scstep>
  <scstep>
   <time name="total">  624.78  627.67</time>
   <energy>
    <i name="e_fr_energy">    -79.72169510 </i>
    <i name="e_wo_entrp">    -79.72169510 </i>
    <i name="e_0_energy">    -79.72169510 </i>
   </energy>
  </scstep>
  <scstep>
   <time name="total">  628.54  631.63</time>
   <energy>
    <i name="e_fr_energy">    -79.95212936 </i>
    <i name="e_wo_entrp">    -79.95212936 </i>
    <i name="e_0_energy">    -79.95212936 </i>
   </energy>
  </scstep>
  <scstep>
   <time name="total">  628.21  630.41</time>
   <energy>
    <i name="e_fr_energy">    -80.05080472 </i>
    <i name="e_wo_entrp">    -80.05080472 </i>
    <i name="e_0_energy">    -80.05080472 </i>
   </energy>
  </scstep>
  <scstep>
   <time name="total">  631.32  634.01</time>
   <energy>
    <i name="e_fr_energy">    -80.10211946 </i>
    <i name="e_wo_entrp">    -80.10211946 </i>
    <i name="e_0_energy">    -80.10211946 </i>
   </energy>
  </scstep>
  <scstep>
   <time name="total">  630.11  631.81</time>
   <energy>
    <i name="e_fr_energy">    -80.12399606 </i>
    <i name="e_wo_entrp">    -80.12399606 </i>
    <i name="e_0_energy">    -80.12399606 </i>
   </energy>
  </scstep>
  <scstep>
   <time name="total">  622.26  626.76</time>
   <energy>
    <i name="e_fr_energy">    -80.13538199 </i>
    <i name="e_wo_entrp">    -80.13538199 </i>
    <i name="e_0_energy">    -80.13538199 </i>
   </energy>
  </scstep>
  <scstep>
   <time name="total">  631.35  633.70</time>
   <energy>
    <i name="e_fr_energy">    -80.14074302 </i>
    <i name="e_wo_entrp">    -80.14074302 </i>
    <i name="e_0_energy">    -80.14074302 </i>
   </energy>
  </scstep>
  <scstep>
   <time name="total">  631.24  632.86</time>
   <energy>
    <i name="e_fr_energy">    -80.14320760 </i>
    <i name="e_wo_entrp">    -80.14320760 </i>
    <i name="e_0_energy">    -80.14320760 </i>
   </energy>
  </scstep>
  <scstep>
   <time name="total">  630.38  632.53</time>
   <energy>
    <i name="e_fr_energy">    -80.14444579 </i>
    <i name="e_wo_entrp">    -80.14444579 </i>
    <i name="e_0_energy">    -80.14444579 </i>
   </energy>
  </scstep>
  <scstep>
   <time name="total">  627.46  630.29</time>
   <energy>
    <i name="e_fr_energy">    -80.14504051 </i>
    <i name="e_wo_entrp">    -80.14504051 </i>
    <i name="e_0_energy">    -80.14504051 </i>
   </energy>
  </scstep>
  <scstep>
   <time name="total">  627.30  629.79</time>
   <energy>
    <i name="e_fr_energy">    -80.14534115 </i>
    <i name="e_wo_entrp">    -80.14534115 </i>
    <i name="e_0_energy">    -80.14534115 </i>
   </energy>
  </scstep>
  <scstep>
   <time name="total">  631.11  633.10</time>
   <energy>
    <i name="e_fr_energy">    -80.14549635 </i>
    <i name="e_wo_entrp">    -80.14549635 </i>
    <i name="e_0_energy">    -80.14549635 </i>
   </energy>
  </scstep>
  <scstep>
   <time name="total">  630.58  632.43</time>
   <energy>
    <i name="e_fr_energy">    -80.14557616 </i>
    <i name="e_wo_entrp">    -80.14557616 </i>
    <i name="e_0_energy">    -80.14557616 </i>
   </energy>
  </scstep>
  <scstep>
   <time name="total">  630.07  632.35</time>
   <energy>
    <i name="e_fr_energy">    -80.14561865 </i>
    <i name="e_wo_entrp">    -80.14561865 </i>
    <i name="e_0_energy">    -80.14561865 </i>
   </energy>
  </scstep>
  <scstep>
   <time name="total">  626.88  630.05</time>
   <energy>
    <i name="e_fr_energy">    -80.14564204 </i>
    <i name="e_wo_entrp">    -80.14564204 </i>
    <i name="e_0_energy">    -80.14564204 </i>
   </energy>
  </scstep>
  <scstep>
   <time name="total">  629.08  631.30</time>
   <energy>
    <i name="e_fr_energy">    -80.14565562 </i>
    <i name="e_wo_entrp">    -80.14565562 </i>
    <i name="e_0_energy">    -80.14565562 </i>
   </energy>
  </scstep>
  <scstep>
   <time name="total"> 1243.42 1248.01</time>
   <energy>
    <i name="alphaZ">     13.10177784 </i>
    <i name="ewald">   1366.57937331 </i>
    <i name="hartreedc">  -2513.88010082 </i>
    <i name="XCdc">   -142.06957697 </i>
    <i name="pawpsdc">   1715.81192356 </i>
    <i name="pawaedc">  -1486.68593363 </i>
    <i name="eentropy">     -0.00000000 </i>
    <i name="bandstr">   -359.60389490 </i>
    <i name="atom">   1251.19323263 </i>
    <i name="e_fr_energy">    -80.14566401 </i>
    <i name="e_wo_entrp">    -80.14566401 </i>
    <i name="e_0_energy">    -80.14566401 </i>
   </energy>
  </scstep>
  <structure>
   <crystal>
    <varray name="basis" >
     <v>       6.01920000       0.00000000       0.00000000 </v>
     <v>       0.00000000      10.14000000       0.00000000 </v>
     <v>       0.00000000       0.00000000      15.00000000 </v>
    </varray>
    <i name="volume">    915.52032000 </i>
    <varray name="rec_basis" >
     <v>       0.16613503       0.00000000       0.00000000 </v>
     <v>       0.00000000       0.09861933       0.00000000 </v>
     <v>       0.00000000       0.00000000       0.06666667 </v>
    </varray>
   </crystal>
   <varray name="positions" >
    <v>       0.43227099       0.87758749       0.23921370 </v>
    <v>       0.93211574       0.87784586       0.26043595 </v>
    <v>       0.43268067       0.61781578       0.24098885 </v>
    <v>       0.93345982       0.61961940       0.26672288 </v>
    <v>       0.43113700       0.37650914       0.27382883 </v>
    <v>       0.93297743       0.37825331       0.24383465 </v>
    <v>       0.43184067       0.11889990       0.26120556 </v>
    <v>       0.93197225       0.11871504       0.24087332 </v>
    <v>       0.18216806       0.99805551       0.24951852 </v>
    <v>       0.68197280       0.99813243       0.25006099 </v>
    <v>       0.18265602       0.49852106       0.25586246 </v>
    <v>       0.68268946       0.49894530       0.25911195 </v>
    <v>       0.55752006       0.43531773       0.46571605 </v>
    <v>       0.80854832       0.36766708       0.46193472 </v>
    <v>       0.50676159       0.35000846       0.56009158 </v>
   </varray>
  </structure>
  <varray name="forces" >
   <v>      -0.00270182      -0.00192510       0.00610003 </v>
   <v>      -0.00155796      -0.00187179       0.00007700 </v>
   <v>      -0.00653373      -0.00233064      -0.00026294 </v>
   <v>      -0.00707645       0.00106387      -0.00479807 </v>
   <v>       0.00487465       0.00444608      -0.00152438 </v>
   <v>       0.00484002       0.00115387       0.00038188 </v>
   <v>       0.00363416       0.00833172      -0.00112418 </v>
   <v>       0.00283488       0.00683977       0.00119362 </v>
   <v>      -0.01220337      -0.00278021       0.00275095 </v>
   <v>       0.01004776      -0.00004006       0.00255540 </v>
   <v>       0.01883628      -0.00029146       0.00334312 </v>
   <v>      -0.01148790       0.00081747      -0.00091022 </v>
   <v>       0.00367659      -0.01039763      -0.00140845 </v>
   <v>      -0.00835943       0.00305176      -0.00210795 </v>
   <v>       0.00117633      -0.00606765      -0.00426581 </v>
  </varray>
  <varray name="stress" >
   <v>      -0.76101551       0.13601636      -0.01175437 </v>
   <v>       0.13601642      -8.14245473      -0.07997659 </v>
   <v>      -0.01175446      -0.07997659      -1.17305148 </v>
  </varray>
  <energy>
   <i name="e_fr_energy">    -80.14566401 </i>
   <i name="e_wo_entrp">    -80.14566401 </i>
   <i name="e_0_energy">     -0.00000000 </i>
  </energy>
  <time name="totalsc">15798.7215860.71</time>
 </calculation>
 <calculation>
  <scstep>
   <time name="total">  630.38  633.03</time>
   <energy>
    <i name="alphaZ">     13.10177784 </i>
    <i name="ewald">   1366.61746409 </i>
    <i name="hartreedc">  -2513.87799817 </i>
    <i name="XCdc">   -142.06949913 </i>
    <i name="pawpsdc">   1715.81706658 </i>
    <i name="pawaedc">  -1486.69097521 </i>
    <i name="eentropy">     -0.00000000 </i>
    <i name="bandstr">   -359.64399432 </i>
    <i name="atom">   1251.19323263 </i>
    <i name="e_fr_energy">    -80.14534315 </i>
    <i name="e_wo_entrp">    -80.14534315 </i>
    <i name="e_0_energy">    -80.14534315 </i>
   </energy>
  </scstep>
  <scstep>
   <time name="total">  633.82  636.30</time>
   <energy>
    <i name="e_fr_energy">    -80.14559188 </i>
    <i name="e_wo_entrp">    -80.14559188 </i>
    <i name="e_0_energy">    -80.14559188 </i>
   </energy>
  </scstep>
  <scstep>
   <time name="total">  631.19  634.50</time>
   <energy>
    <i name="e_fr_energy">    -80.14567564 </i>
    <i name="e_wo_entrp">    -80.14567564 </i>
    <i name="e_0_energy">    -80.14567564 </i>
   </energy>
  </scstep>
  <scstep>
   <time name="total">  632.54  634.78</time>
   <energy>
    <i name="e_fr_energy">    -80.14570461 </i>
    <i name="e_wo_entrp">    -80.14570461 </i>
    <i name="e_0_energy">    -80.14570461 </i>
   </energy>
  </scstep>
  <scstep>
   <time name="total"> 1235.54 1241.26</time>
   <energy>
    <i name="alphaZ">     13.10177784 </i>
    <i name="ewald">   1366.61746409 </i>
    <i name="hartreedc">  -2513.91893312 </i>
    <i name="XCdc">   -142.06920738 </i>
    <i name="pawpsdc">   1715.82460473 </i>
    <i name="pawaedc">  -1486.69880419 </i>
    <i name="eentropy">     -0.00000000 </i>
    <i name="bandstr">   -359.60406080 </i>
    <i name="atom">   1251.19323263 </i>
    <i name="e_fr_energy">    -80.14571187 </i>
    <i name="e_wo_entrp">    -80.14571187 </i>
    <i name="e_0_energy">    -80.14571187 </i>
   </energy>
  </scstep>
  <structure>
   <crystal>
    <varray name="basis" >
     <v>       6.01920000       0.00000000       0.00000000 </v>
     <v>       0.00000000      10.14000000       0.00000000 </v>
     <v>       0.00000000       0.00000000      15.00000000 </v>
    </varray>
    <i name="volume">    915.52032000 </i>
    <varray name="rec_basis" >
     <v>       0.16613503       0.00000000       0.00000000 </v>
     <v>       0.00000000       0.09861933       0.00000000 </v>
     <v>       0.00000000       0.00000000       0.06666667 </v>
    </varray>
   </crystal>
   <varray name="positions" >
    <v>       0.43225583       0.87758108       0.23922743 </v>
    <v>       0.93210700       0.87783963       0.26043613 </v>
    <v>       0.43264401       0.61780802       0.24098826 </v>
    <v>       0.93342011       0.61962294       0.26671208 </v>
    <v>       0.43116435       0.37652394       0.27382540 </v>
    <v>       0.93300459       0.37825715       0.24383551 </v>
    <v>       0.43186105       0.11892765       0.26120303 </v>
    <v>       0.93198816       0.11873782       0.24087601 </v>
    <v>       0.18209959       0.99804625       0.24952471 </v>
    <v>       0.68202917       0.99813230       0.25006675 </v>
    <v>       0.18276169       0.49852009       0.25586999 </v>
    <v>       0.68262501       0.49894802       0.25910990 </v>
    <v>       0.55754068       0.43528310       0.46571288 </v>
    <v>       0.80850142       0.36767725       0.46192997 </v>
    <v>       0.50676819       0.34998825       0.56008197 </v>
   </varray>
  </structure>
  <varray name="forces" >
   <v>      -0.00208567       0.00427613       0.00584267 </v>
   <v>      -0.00216991      -0.00171205      -0.00032775 </v>
   <v>      -0.00319015       0.00471421      -0.00094365 </v>
   <v>      -0.00361066      -0.00361895      -0.00470247 </v>
   <v>       0.00439921      -0.00108157      -0.00105967 </v>
   <v>       0.00413696       0.00639089       0.00103863 </v>
   <v>       0.00128311      -0.00094104      -0.00249934 </v>
   <v>       0.00139973       0.00444368       0.00121711 </v>
   <v>      -0.00621333      -0.00013639       0.00413823 </v>
   <v>       0.00382433       0.00161051       0.00358461 </v>
   <v>       0.01069724      -0.00070419       0.00632186 </v>
   <v>      -0.00367322       0.00167863      -0.00222031 </v>
   <v>      -0.00434479      -0.00726677      -0.00321579 </v>
   <v>      -0.00125768       0.00017025      -0.00309439 </v>
   <v>       0.00080484      -0.00782334      -0.00407976 </v>
  </varray>
  <varray name="stress" >
   <v>      -0.74205880       0.13240353      -0.01092748 </v>
   <v>       0.13240354      -8.14558380      -0.09276719 </v>
   <v>      -0.01092741      -0.09276726      -1.16392725 </v>
  </varray>
  <energy>
   <i name="e_fr_energy">    -80.14571187 </i>
   <i name="e_wo_entrp">    -80.14571187 </i>
   <i name="e_0_energy">     -0.00000000 </i>
  </energy>
  <time name="totalsc"> 4892.89 4915.36</time>
 </calculation>
 <calculation>
  <scstep>
   <time name="total">  622.40  625.63</time>
   <energy>
    <i name="alphaZ">     13.10177784 </i>
    <i name="ewald">   1366.65741146 </i>
    <i name="hartreedc">  -2513.92151026 </i>
    <i name="XCdc">   -142.06908253 </i>
    <i name="pawpsdc">   1715.83229547 </i>
    <i name="pawaedc">  -1486.70638286 </i>
    <i name="eentropy">     -0.00000000 </i>
    <i name="bandstr">   -359.64138607 </i>
    <i name="atom">   1251.19323263 </i>
    <i name="e_fr_energy">    -80.14533253 </i>
    <i name="e_wo_entrp">    -80.14533253 </i>
    <i name="e_0_energy">    -80.14533253 </i>
   </energy>
  </scstep>
  <scstep>
   <time name="total">  626.77  629.46</time>
   <energy>
    <i name="e_fr_energy">    -80.14558790 </i>
    <i name="e_wo_entrp">    -80.14558790 </i>
    <i name="e_0_energy">    -80.14558790 </i>
   </energy>
  </scstep>
  <scstep>
   <time name="total">  630.70  632.56</time>
   <energy>
    <i name="e_fr_energy">    -80.14566056 </i>
    <i name="e_wo_entrp">    -80.14566056 </i>
    <i name="e_0_energy">    -80.14566056 </i>
   </energy>
  </scstep>
  <scstep>
   <time name="total">  624.20  626.68</time>
   <energy>
    <i name="e_fr_energy">    -80.14568698 </i>
    <i name="e_wo_entrp">    -80.14568698 </i>
    <i name="e_0_energy">    -80.14568698 </i>
   </energy>
  </scstep>
  <scstep>
   <time name="total"> 1241.12 1245.87</time>
   <energy>
    <i name="alphaZ">     13.10177784 </i>
    <i name="ewald">   1366.65741146 </i>
    <i name="hartreedc">  -2513.96017811 </i>
    <i name="XCdc">   -142.06882212 </i>
    <i name="pawpsdc">   1715.84386312 </i>
    <i name="pawaedc">  -1486.71819410 </i>
    <i name="eentropy">     -0.00000000 </i>
    <i name="bandstr">   -359.60361423 </i>
    <i name="atom">   1251.19323263 </i>
    <i name="e_fr_energy">    -80.14569259 </i>
    <i name="e_wo_entrp">    -80.14569259 </i>
    <i name="e_0_energy">    -80.14569259 </i>
   </energy>
  </scstep>
  <structure>
   <crystal>
    <varray name="basis" >
     <v>       6.01920000       0.00000000       0.00000000 </v>
     <v>       0.00000000      10.14000000       0.00000000 </v>
     <v>       0.00000000       0.00000000      15.00000000 </v>
    </varray>
    <i name="volume">    915.52032000 </i>
    <varray name="rec_basis" >
     <v>       0.16613503       0.00000000       0.00000000 </v>
     <v>       0.00000000       0.09861933       0.00000000 </v>
     <v>       0.00000000       0.00000000       0.06666667 </v>
    </varray>
   </crystal>
   <varray name="positions" >
    <v>       0.43224001       0.87757439       0.23924177 </v>
    <v>       0.93209788       0.87783312       0.26043631 </v>
    <v>       0.43260574       0.61779992       0.24098764 </v>
    <v>       0.93337867       0.61962664       0.26670080 </v>
    <v>       0.43119290       0.37653940       0.27382181 </v>
    <v>       0.93303294       0.37826117       0.24383640 </v>
    <v>       0.43188234       0.11895662       0.26120038 </v>
    <v>       0.93200476       0.11876160       0.24087881 </v>
    <v>       0.18202811       0.99803658       0.24953118 </v>
    <v>       0.68208802       0.99813216       0.25007275 </v>
    <v>       0.18287202       0.49851907       0.25587785 </v>
    <v>       0.68255773       0.49895086       0.25910776 </v>
    <v>       0.55756222       0.43524695       0.46570957 </v>
    <v>       0.80845246       0.36768786       0.46192502 </v>
    <v>       0.50677508       0.34996716       0.56007195 </v>
   </varray>
  </structure>
  <varray name="forces" >
   <v>      -0.00104775       0.01011993       0.00593399 </v>
   <v>      -0.00250712      -0.00196593      -0.00037736 </v>
   <v>       0.00084843       0.01184317      -0.00151558 </v>
   <v>       0.00089224      -0.00841449      -0.00441660 </v>
   <v>       0.00426821      -0.00747071      -0.00020025 </v>
   <v>       0.00391403       0.01113486       0.00180861 </v>
   <v>      -0.00098753      -0.01101684      -0.00336614 </v>
   <v>       0.00016664       0.00096139       0.00169981 </v>
   <v>       0.01169349       0.00434078       0.00393696 </v>
   <v>      -0.01108434       0.00346361       0.00298954 </v>
   <v>      -0.01590308      -0.00004201       0.00610497 </v>
   <v>       0.01450540       0.00136124      -0.00297465 </v>
   <v>      -0.01318330      -0.00102683      -0.00388844 </v>
   <v>       0.00776626      -0.00412491      -0.00321091 </v>
   <v>       0.00065840      -0.00916326      -0.00252395 </v>
  </varray>
  <varray name="stress" >
   <v>      -0.72167203       0.13002580      -0.01165519 </v>
   <v>       0.13002590      -8.15050382      -0.10643913 </v>
   <v>      -0.01165526      -0.10643906      -1.15695026 </v>
  </varray>
  <energy>
   <i name="e_fr_energy">    -80.14569259 </i>
   <i name="e_wo_entrp">    -80.14569259 </i>
   <i name="e_0_energy">     -0.00000000 </i>
  </energy>
  <time name="totalsc"> 4872.95 4892.65</time>
 </calculation>
 <calculation>
  <scstep>
   <time name="total">  626.98  630.22</time>
   <energy>
    <i name="alphaZ">     13.10177784 </i>
    <i name="ewald">   1366.63660942 </i>
    <i name="hartreedc">  -2513.96263999 </i>
    <i name="XCdc">   -142.06893259 </i>
    <i name="pawpsdc">   1715.83738797 </i>
    <i name="pawaedc">  -1486.71175677 </i>
    <i name="eentropy">     -0.00000000 </i>
    <i name="bandstr">   -359.58003044 </i>
    <i name="atom">   1251.19323263 </i>
    <i name="e_fr_energy">    -80.14559753 </i>
    <i name="e_wo_entrp">    -80.14559753 </i>
    <i name="e_0_energy">    -80.14559753 </i>
   </energy>
  </scstep>
  <scstep>
   <time name="total">  632.32  634.50</time>
   <energy>
    <i name="e_fr_energy">    -80.14567496 </i>
    <i name="e_wo_entrp">    -80.14567496 </i>
    <i name="e_0_energy">    -80.14567496 </i>
   </energy>
  </scstep>
  <scstep>
   <time name="total">  632.27  634.39</time>
   <energy>
    <i name="e_fr_energy">    -80.14570474 </i>
    <i name="e_wo_entrp">    -80.14570474 </i>
    <i name="e_0_energy">    -80.14570474 </i>
   </energy>
  </scstep>
  <scstep>
   <time name="total"> 1242.67 1246.98</time>
   <energy>
    <i name="alphaZ">     13.10177784 </i>
    <i name="ewald">   1366.63660942 </i>
    <i name="hartreedc">  -2513.94412832 </i>
    <i name="XCdc">   -142.06906265 </i>
    <i name="pawpsdc">   1715.83124446 </i>
    <i name="pawaedc">  -1486.70550707 </i>
    <i name="eentropy">     -0.00000000 </i>
    <i name="bandstr">   -359.59839552 </i>
    <i name="atom">   1251.19323263 </i>
    <i name="e_fr_energy">    -80.14571265 </i>
    <i name="e_wo_entrp">    -80.14571265 </i>
    <i name="e_0_energy">    -80.14571265 </i>
   </energy>
  </scstep>
  <structure>
   <crystal>
    <varray name="basis" >
     <v>       6.01920000       0.00000000       0.00000000 </v>
     <v>       0.00000000      10.14000000       0.00000000 </v>
     <v>       0.00000000       0.00000000      15.00000000 </v>
    </varray>
    <i name="volume">    915.52032000 </i>
    <varray name="rec_basis" >
     <v>       0.16613503       0.00000000       0.00000000 </v>
     <v>       0.00000000       0.09861933       0.00000000 </v>
     <v>       0.00000000       0.00000000       0.06666667 </v>
    </varray>
   </crystal>
   <varray name="positions" >
    <v>       0.43224824       0.87757787       0.23923431 </v>
    <v>       0.93210262       0.87783651       0.26043621 </v>
    <v>       0.43262565       0.61780413       0.24098796 </v>
    <v>       0.93340023       0.61962471       0.26670667 </v>
    <v>       0.43117805       0.37653136       0.27382368 </v>
    <v>       0.93301819       0.37825908       0.24383594 </v>
    <v>       0.43187127       0.11894155       0.26120176 </v>
    <v>       0.93199612       0.11874923       0.24087735 </v>
    <v>       0.18206529       0.99804161       0.24952781 </v>
    <v>       0.68205741       0.99813223       0.25006963 </v>
    <v>       0.18281463       0.49851960       0.25587376 </v>
    <v>       0.68259273       0.49894938       0.25910888 </v>
    <v>       0.55755102       0.43526575       0.46571129 </v>
    <v>       0.80847793       0.36768234       0.46192759 </v>
    <v>       0.50677149       0.34997813       0.56007716 </v>
   </varray>
  </structure>
  <varray name="forces" >
   <v>      -0.00099446       0.00624318       0.00655732 </v>
   <v>      -0.00190455      -0.00249808       0.00047642 </v>
   <v>      -0.00004148       0.00786201      -0.00080544 </v>
   <v>      -0.00007183      -0.00662572      -0.00410472 </v>
   <v>       0.00538268      -0.00500970       0.00009410 </v>
   <v>       0.00454989       0.00835416       0.00198405 </v>
   <v>       0.00049535      -0.00650513      -0.00181791 </v>
   <v>       0.00107823       0.00198105       0.00249764 </v>
   <v>       0.01749565       0.00547581       0.00149506 </v>
   <v>      -0.01377807       0.00201536       0.00097633 </v>
   <v>      -0.02694951      -0.00050106       0.00110817 </v>
   <v>       0.01869089      -0.00069212      -0.00150170 </v>
   <v>      -0.01051445       0.00108733      -0.00320739 </v>
   <v>       0.00564757      -0.00358877      -0.00185270 </v>
   <v>       0.00091409      -0.00759833      -0.00189924 </v>
  </varray>
  <varray name="stress" >
   <v>      -0.73194663       0.13443814      -0.01411478 </v>
   <v>       0.13443825      -8.15090407      -0.09926665 </v>
   <v>      -0.01411466      -0.09926642      -1.16464667 </v>
  </varray>
  <energy>
   <i name="e_fr_energy">    -80.14571265 </i>
   <i name="e_wo_entrp">    -80.14571265 </i>
   <i name="e_0_energy">     -0.00000000 </i>
  </energy>
  <time name="totalsc"> 4256.19 4271.66</time>
 </calculation>
 <calculation>
  <scstep>
   <time name="total">  625.65  628.35</time>
   <energy>
    <i name="alphaZ">     13.10177784 </i>
    <i name="ewald">   1366.62514295 </i>
    <i name="hartreedc">  -2513.94491787 </i>
    <i name="XCdc">   -142.06905790 </i>
    <i name="pawpsdc">   1715.83130659 </i>
    <i name="pawaedc">  -1486.70556951 </i>
    <i name="eentropy">     -0.00000000 </i>
    <i name="bandstr">   -359.58608512 </i>
    <i name="atom">   1251.19323263 </i>
    <i name="e_fr_energy">    -80.14569140 </i>
    <i name="e_wo_entrp">    -80.14569140 </i>
    <i name="e_0_energy">    -80.14569140 </i>
   </energy>
  </scstep>
  <scstep>
   <time name="total">  623.43  626.03</time>
   <energy>
    <i name="e_fr_energy">    -80.14571086 </i>
    <i name="e_wo_entrp">    -80.14571086 </i>
    <i name="e_0_energy">    -80.14571086 </i>
   </energy>
  </scstep>
  <scstep>
   <time name="total"> 1240.06 1244.87</time>
   <energy>
    <i name="alphaZ">     13.10177784 </i>
    <i name="ewald">   1366.62514295 </i>
    <i name="hartreedc">  -2513.92850026 </i>
    <i name="XCdc">   -142.06915038 </i>
    <i name="pawpsdc">   1715.82585219 </i>
    <i name="pawaedc">  -1486.70006533 </i>
    <i name="eentropy">     -0.00000000 </i>
    <i name="bandstr">   -359.60236109 </i>
    <i name="atom">   1251.19323263 </i>
    <i name="e_fr_energy">    -80.14571624 </i>
    <i name="e_wo_entrp">    -80.14571624 </i>
    <i name="e_0_energy">    -80.14571624 </i>
   </energy>
  </scstep>
  <structure>
   <crystal>
    <varray name="basis" >
     <v>       6.01920000       0.00000000       0.00000000 </v>
     <v>       0.00000000      10.14000000       0.00000000 </v>
     <v>       0.00000000       0.00000000      15.00000000 </v>
    </varray>
    <i name="volume">    915.52032000 </i>
    <varray name="rec_basis" >
     <v>       0.16613503       0.00000000       0.00000000 </v>
     <v>       0.00000000       0.09861933       0.00000000 </v>
     <v>       0.00000000       0.00000000       0.06666667 </v>
    </varray>
   </crystal>
   <varray name="positions" >
    <v>       0.43225278       0.87757979       0.23923019 </v>
    <v>       0.93210524       0.87783838       0.26043616 </v>
    <v>       0.43263664       0.61780646       0.24098814 </v>
    <v>       0.93341213       0.61962365       0.26670991 </v>
    <v>       0.43116985       0.37652692       0.27382471 </v>
    <v>       0.93301005       0.37825793       0.24383568 </v>
    <v>       0.43186515       0.11893323       0.26120252 </v>
    <v>       0.93199135       0.11874240       0.24087655 </v>
    <v>       0.18208582       0.99804439       0.24952595 </v>
    <v>       0.68204051       0.99813227       0.25006790 </v>
    <v>       0.18278294       0.49851989       0.25587150 </v>
    <v>       0.68261205       0.49894857       0.25910949 </v>
    <v>       0.55754483       0.43527614       0.46571224 </v>
    <v>       0.80849199       0.36767929       0.46192902 </v>
    <v>       0.50676951       0.34998419       0.56008004 </v>
   </varray>
  </structure>
  <varray name="forces" >
   <v>      -0.00165197       0.00563991       0.00623503 </v>
   <v>      -0.00211416      -0.00249371       0.00003907 </v>
   <v>      -0.00176011       0.00672384      -0.00081831 </v>
   <v>      -0.00200361      -0.00558945      -0.00444050 </v>
   <v>       0.00490910      -0.00346992      -0.00048347 </v>
   <v>       0.00437198       0.00782920       0.00160111 </v>
   <v>       0.00094999      -0.00385530      -0.00222974 </v>
   <v>       0.00130063       0.00384731       0.00185504 </v>
   <v>       0.00588640       0.00282585       0.00262000 </v>
   <v>      -0.00570072       0.00190116       0.00199089 </v>
   <v>      -0.00959287      -0.00073702       0.00362922 </v>
   <v>       0.00986070       0.00058342      -0.00175739 </v>
   <v>      -0.00722357      -0.00444996      -0.00300904 </v>
   <v>       0.00208855      -0.00141099      -0.00234317 </v>
   <v>       0.00067965      -0.00734434      -0.00288874 </v>
  </varray>
  <varray name="stress" >
   <v>      -0.73663067       0.13354467      -0.01228834 </v>
   <v>       0.13354473      -8.14687586      -0.09623348 </v>
   <v>      -0.01228830      -0.09623353      -1.16385077 </v>
  </varray>
  <energy>
   <i name="e_fr_energy">    -80.14571624 </i>
   <i name="e_wo_entrp">    -80.14571624 </i>
   <i name="e_0_energy">     -0.00000000 </i>
  </energy>
  <time name="totalsc"> 3619.12 3633.79</time>
 </calculation>
 <calculation>
  <scstep>
   <time name="total">  630.04  632.54</time>
   <energy>
    <i name="alphaZ">     13.10177784 </i>
    <i name="ewald">   1366.62330681 </i>
    <i name="hartreedc">  -2513.93280864 </i>
    <i name="XCdc">   -142.06914924 </i>
    <i name="pawpsdc">   1715.82649976 </i>
    <i name="pawaedc">  -1486.70072103 </i>
    <i name="eentropy">     -0.00000000 </i>
    <i name="bandstr">   -359.59622051 </i>
    <i name="atom">   1251.19323263 </i>
    <i name="e_fr_energy">    -80.14571821 </i>
    <i name="e_wo_entrp">    -80.14571821 </i>
    <i name="e_0_energy">    -80.14571821 </i>
   </energy>
  </scstep>
  <scstep>
   <time name="total"> 1241.55 1246.39</time>
   <energy>
    <i name="alphaZ">     13.10177784 </i>
    <i name="ewald">   1366.62330681 </i>
    <i name="hartreedc">  -2513.92991600 </i>
    <i name="XCdc">   -142.06913746 </i>
    <i name="pawpsdc">   1715.82696837 </i>
    <i name="pawaedc">  -1486.70117439 </i>
    <i name="eentropy">     -0.00000000 </i>
    <i name="bandstr">   -359.59912438 </i>
    <i name="atom">   1251.19323263 </i>
    <i name="e_fr_energy">    -80.14571901 </i>
    <i name="e_wo_entrp">    -80.14571901 </i>
    <i name="e_0_energy">    -80.14571901 </i>
   </energy>
  </scstep>
  <structure>
   <crystal>
    <varray name="basis" >
     <v>       6.01920000       0.00000000       0.00000000 </v>
     <v>       0.00000000      10.14000000       0.00000000 </v>
     <v>       0.00000000       0.00000000      15.00000000 </v>
    </varray>
    <i name="volume">    915.52032000 </i>
    <varray name="rec_basis" >
     <v>       0.16613503       0.00000000       0.00000000 </v>
     <v>       0.00000000       0.09861933       0.00000000 </v>
     <v>       0.00000000       0.00000000       0.06666667 </v>
    </varray>
   </crystal>
   <varray name="positions" >
    <v>       0.43225351       0.87758010       0.23922953 </v>
    <v>       0.93210566       0.87783868       0.26043615 </v>
    <v>       0.43263840       0.61780683       0.24098817 </v>
    <v>       0.93341404       0.61962348       0.26671042 </v>
    <v>       0.43116853       0.37652621       0.27382487 </v>
    <v>       0.93300874       0.37825774       0.24383564 </v>
    <v>       0.43186417       0.11893190       0.26120264 </v>
    <v>       0.93199059       0.11874131       0.24087642 </v>
    <v>       0.18208911       0.99804483       0.24952566 </v>
    <v>       0.68203780       0.99813228       0.25006763 </v>
    <v>       0.18277786       0.49851994       0.25587114 </v>
    <v>       0.68261515       0.49894844       0.25910959 </v>
    <v>       0.55754384       0.43527780       0.46571239 </v>
    <v>       0.80849425       0.36767880       0.46192924 </v>
    <v>       0.50676920       0.34998516       0.56008050 </v>
   </varray>
  </structure>
  <varray name="forces" >
   <v>      -0.00193678       0.00443251       0.00626119 </v>
   <v>      -0.00207560      -0.00182698      -0.00006361 </v>
   <v>      -0.00223259       0.00536942      -0.00074774 </v>
   <v>      -0.00254085      -0.00393670      -0.00452744 </v>
   <v>       0.00474701      -0.00198635      -0.00097185 </v>
   <v>       0.00422787       0.00645499       0.00122691 </v>
   <v>       0.00114913      -0.00254567      -0.00209621 </v>
   <v>       0.00121455       0.00325640       0.00188422 </v>
   <v>       0.00086652       0.00136499       0.00275307 </v>
   <v>      -0.00143016       0.00145592       0.00217391 </v>
   <v>      -0.00167556      -0.00032746       0.00369619 </v>
   <v>       0.00376189       0.00128947      -0.00267875 </v>
   <v>      -0.00588503      -0.00421318      -0.00174519 </v>
   <v>       0.00101414      -0.00113280      -0.00209046 </v>
   <v>       0.00079547      -0.00765455      -0.00307425 </v>
  </varray>
  <varray name="stress" >
   <v>      -0.73806292       0.13363569      -0.01270602 </v>
   <v>       0.13363567      -8.14740562      -0.09362750 </v>
   <v>      -0.01270606      -0.09362765      -1.16321155 </v>
  </varray>
  <energy>
   <i name="e_fr_energy">    -80.14571901 </i>
   <i name="e_wo_entrp">    -80.14571901 </i>
   <i name="e_0_energy">     -0.00000000 </i>
  </energy>
  <time name="totalsc"> 2969.96 2981.06</time>
  <eigenvalues>
   <array>
    <dimension dim="1">band</dimension>
    <dimension dim="2">kpoint</dimension>
    <dimension dim="3">spin</dimension>
    <field>eigene</field>
    <field>occ</field>
    <set>
     <set comment="spin 1">
      <set comment="kpoint 1">
       <r>  -15.8599    1.0000 </r>
       <r>  -15.2484    1.0000 </r>
       <r>  -15.0928    1.0000 </r>
       <r>  -12.9804    1.0000 </r>
       <r>  -12.8809    1.0000 </r>
       <r>   -9.6495    1.0000 </r>
       <r>   -9.3760    1.0000 </r>
       <r>   -9.3463    1.0000 </r>
       <r>   -8.4308    1.0000 </r>
       <r>   -7.4359    1.0000 </r>
       <r>   -7.0193    1.0000 </r>
       <r>   -6.4786    1.0000 </r>
       <r>   -6.0311    1.0000 </r>
       <r>   -5.4757    1.0000 </r>
       <r>   -5.2188    1.0000 </r>
       <r>   -4.9022    1.0000 </r>
       <r>   -4.5474    1.0000 </r>
       <r>   -4.3832    1.0000 </r>
       <r>   -3.4221    1.0000 </r>
       <r>   -3.2264    1.0000 </r>
       <r>   -3.1898    1.0000 </r>
       <r>   -2.6154    1.0000 </r>
       <r>   -2.3670    1.0000 </r>
       <r>   -2.2993    1.0000 </r>
       <r>   -0.8598    0.0000 </r>
       <r>   -0.3097    0.0000 </r>
       <r>    0.2395    0.0000 </r>
       <r>    0.6072    0.0000 </r>
       <r>    0.7850    0.0000 </r>
       <r>    0.9564    0.0000 </r>
       <r>    1.1045    0.0000 </r>
       <r>    1.3858    0.0000 </r>
      </set>
      <set comment="kpoint 2">
       <r>  -15.8365    1.0000 </r>
       <r>  -15.1231    1.0000 </r>
       <r>  -14.9680    1.0000 </r>
       <r>  -13.3914    1.0000 </r>
       <r>  -13.2708    1.0000 </r>
       <r>   -9.2049    1.0000 </r>
       <r>   -8.9999    1.0000 </r>
       <r>   -8.7298    1.0000 </r>
       <r>   -8.4475    1.0000 </r>
       <r>   -7.4487    1.0000 </r>
       <r>   -6.8963    1.0000 </r>
       <r>   -6.8289    1.0000 </r>
       <r>   -6.3449    1.0000 </r>
       <r>   -5.4727    1.0000 </r>
       <r>   -5.2060    1.0000 </r>
       <r>   -4.7896    1.0000 </r>
       <r>   -4.4565    1.0000 </r>
       <r>   -3.9923    1.0000 </r>
       <r>   -3.9417    1.0000 </r>
       <r>   -3.8987    1.0000 </r>
       <r>   -3.7785    1.0000 </r>
       <r>   -3.0170    1.0000 </r>
       <r>   -2.7669    1.0000 </r>
       <r>   -2.3426    1.0000 </r>
       <r>   -0.8163    0.0000 </r>
       <r>    0.4295    0.0000 </r>
       <r>    0.6846    0.0000 </r>
       <r>    0.8435    0.0000 </r>
       <r>    1.0434    0.0000 </r>
       <r>    1.0777    0.0000 </r>
       <r>    1.1637    0.0000 </r>
       <r>    1.8011    0.0000 </r>
      </set>
      <set comment="kpoint 3">
       <r>  -15.8032    1.0000 </r>
       <r>  -14.7421    1.0000 </r>
       <r>  -14.5876    1.0000 </r>
       <r>  -14.1230    1.0000 </r>
       <r>  -13.9786    1.0000 </r>
       <r>   -8.7484    1.0000 </r>
       <r>   -8.4631    1.0000 </r>
       <r>   -7.9452    1.0000 </r>
       <r>   -7.7023    1.0000 </r>
       <r>   -7.3871    1.0000 </r>
       <r>   -7.1594    1.0000 </r>
       <r>   -6.5317    1.0000 </r>
       <r>   -6.1945    1.0000 </r>
       <r>   -5.9991    1.0000 </r>
       <r>   -5.5600    1.0000 </r>
       <r>   -5.2757    1.0000 </r>
       <r>   -5.0544    1.0000 </r>
       <r>   -4.7850    1.0000 </r>
       <r>   -4.4494    1.0000 </r>
       <r>   -4.2125    1.0000 </r>
       <r>   -3.7422    1.0000 </r>
       <r>   -3.4545    1.0000 </r>
       <r>   -2.8714    1.0000 </r>
       <r>   -2.4312    1.0000 </r>
       <r>   -0.4619    0.0000 </r>
       <r>    0.2479    0.0000 </r>
       <r>    0.9277    0.0000 </r>
       <r>    1.3351    0.0000 </r>
       <r>    1.4130    0.0000 </r>
       <r>    1.6418    0.0000 </r>
       <r>    1.8238    0.0000 </r>
       <r>    2.2866    0.0000 </r>
      </set>
      <set comment="kpoint 4">
       <r>  -15.8586    1.0000 </r>
       <r>  -15.2153    1.0000 </r>
       <r>  -15.1321    1.0000 </r>
       <r>  -12.9693    1.0000 </r>
       <r>  -12.8928    1.0000 </r>
       <r>   -9.5973    1.0000 </r>
       <r>   -9.4245    1.0000 </r>
       <r>   -9.0531    1.0000 </r>
       <r>   -8.4490    1.0000 </r>
       <r>   -8.1065    1.0000 </r>
       <r>   -7.4044    1.0000 </r>
       <r>   -5.8601    1.0000 </r>
       <r>   -5.4697    1.0000 </r>
       <r>   -5.3685    1.0000 </r>
       <r>   -5.1056    1.0000 </r>
       <r>   -5.0403    1.0000 </r>
       <r>   -4.4413    1.0000 </r>
       <r>   -4.2274    1.0000 </r>
       <r>   -3.7272    1.0000 </r>
       <r>   -3.3189    1.0000 </r>
       <r>   -3.2217    1.0000 </r>
       <r>   -3.1924    1.0000 </r>
       <r>   -2.6006    1.0000 </r>
       <r>   -2.3146    1.0000 </r>
       <r>   -0.6112    0.0000 </r>
       <r>    0.0817    0.0000 </r>
       <r>    0.2576    0.0000 </r>
       <r>    0.4547    0.0000 </r>
       <r>    0.6951    0.0000 </r>
       <r>    0.8871    0.0000 </r>
       <r>    1.1534    0.0000 </r>
       <r>    1.4149    0.0000 </r>
      </set>
      <set comment="kpoint 5">
       <r>  -15.8357    1.0000 </r>
       <r>  -15.0874    1.0000 </r>
       <r>  -15.0090    1.0000 </r>
       <r>  -13.3730    1.0000 </r>
       <r>  -13.2909    1.0000 </r>
       <r>   -8.9699    1.0000 </r>
       <r>   -8.8940    1.0000 </r>
       <r>   -8.7873    1.0000 </r>
       <r>   -8.4454    1.0000 </r>
       <r>   -7.9793    1.0000 </r>
       <r>   -7.4053    1.0000 </r>
       <r>   -6.5809    1.0000 </r>
       <r>   -5.9421    1.0000 </r>
       <r>   -5.1915    1.0000 </r>
       <r>   -4.9936    1.0000 </r>
       <r>   -4.8790    1.0000 </r>
       <r>   -4.3863    1.0000 </r>
       <r>   -3.9789    1.0000 </r>
       <r>   -3.9299    1.0000 </r>
       <r>   -3.7533    1.0000 </r>
       <r>   -3.6988    1.0000 </r>
       <r>   -3.2435    1.0000 </r>
       <r>   -2.9524    1.0000 </r>
       <r>   -2.8009    1.0000 </r>
       <r>   -0.4800    0.0000 </r>
       <r>    0.2128    0.0000 </r>
       <r>    0.5987    0.0000 </r>
       <r>    0.7676    0.0000 </r>
       <r>    0.9033    0.0000 </r>
       <r>    1.1359    0.0000 </r>
       <r>    1.3093    0.0000 </r>
       <r>    1.5177    0.0000 </r>
      </set>
      <set comment="kpoint 6">
       <r>  -15.8030    1.0000 </r>
       <r>  -14.7074    1.0000 </r>
       <r>  -14.6264    1.0000 </r>
       <r>  -14.0948    1.0000 </r>
       <r>  -14.0097    1.0000 </r>
       <r>   -8.5793    1.0000 </r>
       <r>   -8.3309    1.0000 </r>
       <r>   -7.8706    1.0000 </r>
       <r>   -7.6060    1.0000 </r>
       <r>   -7.5296    1.0000 </r>
       <r>   -7.3405    1.0000 </r>
       <r>   -7.1334    1.0000 </r>
       <r>   -6.6912    1.0000 </r>
       <r>   -5.6885    1.0000 </r>
       <r>   -5.5864    1.0000 </r>
       <r>   -4.9500    1.0000 </r>
       <r>   -4.5242    1.0000 </r>
       <r>   -4.4728    1.0000 </r>
       <r>   -4.2655    1.0000 </r>
       <r>   -4.0398    1.0000 </r>
       <r>   -3.7456    1.0000 </r>
       <r>   -3.4794    1.0000 </r>
       <r>   -3.1618    1.0000 </r>
       <r>   -3.0636    1.0000 </r>
       <r>   -0.1229    0.0000 </r>
       <r>    0.3658    0.0000 </r>
       <r>    0.7504    0.0000 </r>
       <r>    1.0773    0.0000 </r>
       <r>    1.1998    0.0000 </r>
       <r>    1.6673    0.0000 </r>
       <r>    1.7681    0.0000 </r>
       <r>    1.9617    0.0000 </r>
      </set>
      <set comment="kpoint 7">
       <r>  -15.8030    1.0000 </r>
       <r>  -14.7073    1.0000 </r>
       <r>  -14.6265    1.0000 </r>
       <r>  -14.0947    1.0000 </r>
       <r>  -14.0098    1.0000 </r>
       <r>   -8.5763    1.0000 </r>
       <r>   -8.3455    1.0000 </r>
       <r>   -7.8363    1.0000 </r>
       <r>   -7.6194    1.0000 </r>
       <r>   -7.5313    1.0000 </r>
       <r>   -7.3508    1.0000 </r>
       <r>   -7.1310    1.0000 </r>
       <r>   -6.6913    1.0000 </r>
       <r>   -5.6968    1.0000 </r>
       <r>   -5.5842    1.0000 </r>
       <r>   -4.9382    1.0000 </r>
       <r>   -4.5411    1.0000 </r>
       <r>   -4.4719    1.0000 </r>
       <r>   -4.2516    1.0000 </r>
       <r>   -4.0361    1.0000 </r>
       <r>   -3.7320    1.0000 </r>
       <r>   -3.5099    1.0000 </r>
       <r>   -3.1542    1.0000 </r>
       <r>   -3.0601    1.0000 </r>
       <r>   -0.1475    0.0000 </r>
       <r>    0.4749    0.0000 </r>
       <r>    0.7172    0.0000 </r>
       <r>    0.9199    0.0000 </r>
       <r>    1.3003    0.0000 </r>
       <r>    1.6321    0.0000 </r>
       <r>    1.8271    0.0000 </r>
       <r>    1.8973    0.0000 </r>
      </set>
      <set comment="kpoint 8">
       <r>  -15.8357    1.0000 </r>
       <r>  -15.0873    1.0000 </r>
       <r>  -15.0091    1.0000 </r>
       <r>  -13.3729    1.0000 </r>
       <r>  -13.2910    1.0000 </r>
       <r>   -8.9728    1.0000 </r>
       <r>   -8.8916    1.0000 </r>
       <r>   -8.7865    1.0000 </r>
       <r>   -8.4505    1.0000 </r>
       <r>   -7.9681    1.0000 </r>
       <r>   -7.4100    1.0000 </r>
       <r>   -6.5786    1.0000 </r>
       <r>   -5.9539    1.0000 </r>
       <r>   -5.1824    1.0000 </r>
       <r>   -5.0030    1.0000 </r>
       <r>   -4.8869    1.0000 </r>
       <r>   -4.3610    1.0000 </r>
       <r>   -3.9734    1.0000 </r>
       <r>   -3.9308    1.0000 </r>
       <r>   -3.7654    1.0000 </r>
       <r>   -3.6895    1.0000 </r>
       <r>   -3.2650    1.0000 </r>
       <r>   -2.9274    1.0000 </r>
       <r>   -2.8118    1.0000 </r>
       <r>   -0.5029    0.0000 </r>
       <r>    0.2742    0.0000 </r>
       <r>    0.5200    0.0000 </r>
       <r>    0.7886    0.0000 </r>
       <r>    0.9495    0.0000 </r>
       <r>    1.2105    0.0000 </r>
       <r>    1.3344    0.0000 </r>
       <r>    1.5733    0.0000 </r>
      </set>
     </set>
    </set>
   </array>
  </eigenvalues>
  <separator name="orbital magnetization" >
   <v name="MAGDIPOLOUT">      0.00000000      0.00000000      0.00000000</v>
  </separator>
  <dos>
   <i name="efermi">     -2.05833184 </i>
   <total>
    <array>
     <dimension dim="1">gridpoints</dimension>
     <dimension dim="2">spin</dimension>
     <field>energy</field>
     <field>total</field>
     <field>integrated</field>
     <set>
      <set comment="spin 1">
       <r>   -16.7673     0.0000     0.0000 </r>
       <r>   -16.7007     0.0000     0.0000 </r>
       <r>   -16.6342     0.0000     0.0000 </r>
       <r>   -16.5677     0.0000     0.0000 </r>
       <r>   -16.5011     0.0000     0.0000 </r>
       <r>   -16.4346     0.0000     0.0000 </r>
       <r>   -16.3680     0.0000     0.0000 </r>
       <r>   -16.3015     0.0000     0.0000 </r>
       <r>   -16.2350     0.0000     0.0000 </r>
       <r>   -16.1684     0.0000     0.0000 </r>
       <r>   -16.1019     0.0000     0.0000 </r>
       <r>   -16.0354     0.0000     0.0000 </r>
       <r>   -15.9688     0.0068     0.0005 </r>
       <r>   -15.9023     1.0544     0.0706 </r>
       <r>   -15.8357    11.5964     0.8422 </r>
       <r>   -15.7692    14.9777     1.8388 </r>
       <r>   -15.7027     2.3947     1.9981 </r>
       <r>   -15.6361     0.0282     2.0000 </r>
       <r>   -15.5696     0.0000     2.0000 </r>
       <r>   -15.5031     0.0000     2.0000 </r>
       <r>   -15.4365     0.0000     2.0000 </r>
       <r>   -15.3700     0.0006     2.0000 </r>
       <r>   -15.3034     0.1448     2.0097 </r>
       <r>   -15.2369     2.2076     2.1566 </r>
       <r>   -15.1704     4.2488     2.4393 </r>
       <r>   -15.1038     8.7543     3.0218 </r>
       <r>   -15.0373     9.7024     3.6673 </r>
       <r>   -14.9708     7.7619     4.1838 </r>
       <r>   -14.9042     3.0947     4.3897 </r>
       <r>   -14.8377     0.1689     4.4009 </r>
       <r>   -14.7711     1.0938     4.4737 </r>
       <r>   -14.7046     6.6836     4.9184 </r>
       <r>   -14.6381     7.3081     5.4047 </r>
       <r>   -14.5715     7.1625     5.8813 </r>
       <r>   -14.5050     1.7429     5.9972 </r>
       <r>   -14.4385     0.0414     6.0000 </r>
       <r>   -14.3719     0.0000     6.0000 </r>
       <r>   -14.3054     0.0000     6.0000 </r>
       <r>   -14.2388     0.0023     6.0002 </r>
       <r>   -14.1723     0.4375     6.0293 </r>
       <r>   -14.1058     5.3678     6.3864 </r>
       <r>   -14.0392     7.5081     6.8860 </r>
       <r>   -13.9727     7.8091     7.4056 </r>
       <r>   -13.9062     2.8270     7.5937 </r>
       <r>   -13.8396     0.0947     7.6000 </r>
       <r>   -13.7731     0.0002     7.6000 </r>
       <r>   -13.7065     0.0000     7.6000 </r>
       <r>   -13.6400     0.0000     7.6000 </r>
       <r>   -13.5735     0.0000     7.6000 </r>
       <r>   -13.5069     0.0028     7.6002 </r>
       <r>   -13.4404     0.5560     7.6372 </r>
       <r>   -13.3739     6.2161     8.0508 </r>
       <r>   -13.3073     8.1411     8.5925 </r>
       <r>   -13.2408     7.7119     9.1056 </r>
       <r>   -13.1742     1.4022     9.1989 </r>
       <r>   -13.1077     0.0170     9.2000 </r>
       <r>   -13.0412     0.1696     9.2113 </r>
       <r>   -12.9746     2.7749     9.3960 </r>
       <r>   -12.9081     4.6338     9.7043 </r>
       <r>   -12.8416     3.8821     9.9626 </r>
       <r>   -12.7750     0.5580     9.9997 </r>
       <r>   -12.7085     0.0045    10.0000 </r>
       <r>   -12.6419     0.0000    10.0000 </r>
       <r>   -12.5754     0.0000    10.0000 </r>
       <r>   -12.5089     0.0000    10.0000 </r>
       <r>   -12.4423     0.0000    10.0000 </r>
       <r>   -12.3758     0.0000    10.0000 </r>
       <r>   -12.3093     0.0000    10.0000 </r>
       <r>   -12.2427     0.0000    10.0000 </r>
       <r>   -12.1762     0.0000    10.0000 </r>
       <r>   -12.1096     0.0000    10.0000 </r>
       <r>   -12.0431     0.0000    10.0000 </r>
       <r>   -11.9766     0.0000    10.0000 </r>
       <r>   -11.9100     0.0000    10.0000 </r>
       <r>   -11.8435     0.0000    10.0000 </r>
       <r>   -11.7770     0.0000    10.0000 </r>
       <r>   -11.7104     0.0000    10.0000 </r>
       <r>   -11.6439     0.0000    10.0000 </r>
       <r>   -11.5773     0.0000    10.0000 </r>
       <r>   -11.5108     0.0000    10.0000 </r>
       <r>   -11.4443     0.0000    10.0000 </r>
       <r>   -11.3777     0.0000    10.0000 </r>
       <r>   -11.3112     0.0000    10.0000 </r>
       <r>   -11.2447     0.0000    10.0000 </r>
       <r>   -11.1781     0.0000    10.0000 </r>
       <r>   -11.1116     0.0000    10.0000 </r>
       <r>   -11.0450     0.0000    10.0000 </r>
       <r>   -10.9785     0.0000    10.0000 </r>
       <r>   -10.9120     0.0000    10.0000 </r>
       <r>   -10.8454     0.0000    10.0000 </r>
       <r>   -10.7789     0.0000    10.0000 </r>
       <r>   -10.7124     0.0000    10.0000 </r>
       <r>   -10.6458     0.0000    10.0000 </r>
       <r>   -10.5793     0.0000    10.0000 </r>
       <r>   -10.5127     0.0000    10.0000 </r>
       <r>   -10.4462     0.0000    10.0000 </r>
       <r>   -10.3797     0.0000    10.0000 </r>
       <r>   -10.3131     0.0000    10.0000 </r>
       <r>   -10.2466     0.0000    10.0000 </r>
       <r>   -10.1801     0.0000    10.0000 </r>
       <r>   -10.1135     0.0000    10.0000 </r>
       <r>   -10.0470     0.0000    10.0000 </r>
       <r>    -9.9804     0.0000    10.0000 </r>
       <r>    -9.9139     0.0000    10.0000 </r>
       <r>    -9.8474     0.0000    10.0000 </r>
       <r>    -9.7808     0.0002    10.0000 </r>
       <r>    -9.7143     0.0688    10.0046 </r>
       <r>    -9.6478     1.2812    10.0898 </r>
       <r>    -9.5812     3.3085    10.3100 </r>
       <r>    -9.5147     1.3356    10.3988 </r>
       <r>    -9.4481     1.0720    10.4702 </r>
       <r>    -9.3816     3.6976    10.7162 </r>
       <r>    -9.3151     2.8010    10.9026 </r>
       <r>    -9.2485     0.8917    10.9619 </r>
       <r>    -9.1820     2.5431    11.1311 </r>
       <r>    -9.1155     1.1703    11.2090 </r>
       <r>    -9.0489     2.5017    11.3754 </r>
       <r>    -8.9824     7.1179    11.8490 </r>
       <r>    -8.9158     7.8361    12.3704 </r>
       <r>    -8.8493     5.8959    12.7627 </r>
       <r>    -8.7828     5.8624    13.1528 </r>
       <r>    -8.7162     8.4129    13.7126 </r>
       <r>    -8.6497     2.4262    13.8740 </r>
       <r>    -8.5832     3.4131    14.1011 </r>
       <r>    -8.5166     4.8552    14.4242 </r>
       <r>    -8.4501    10.4672    15.1206 </r>
       <r>    -8.3835    11.2716    15.8706 </r>
       <r>    -8.3170     5.7172    16.2510 </r>
       <r>    -8.2505     2.1786    16.3960 </r>
       <r>    -8.1839     0.1174    16.4038 </r>
       <r>    -8.1174     1.4617    16.5011 </r>
       <r>    -8.0509     2.3876    16.6599 </r>
       <r>    -7.9843     3.7120    16.9069 </r>
       <r>    -7.9178     7.4662    17.4037 </r>
       <r>    -7.8512     5.1131    17.7439 </r>
       <r>    -7.7847     3.5691    17.9814 </r>
       <r>    -7.7182     1.6024    18.0880 </r>
       <r>    -7.6516     3.5040    18.3211 </r>
       <r>    -7.5851     5.9086    18.7143 </r>
       <r>    -7.5186     6.4400    19.1428 </r>
       <r>    -7.4520     6.6050    19.5823 </r>
       <r>    -7.3855    13.8153    20.5015 </r>
       <r>    -7.3189    10.4880    21.1993 </r>
       <r>    -7.2524     1.9969    21.3322 </r>
       <r>    -7.1859     1.4442    21.4283 </r>
       <r>    -7.1193     7.2146    21.9083 </r>
       <r>    -7.0528     3.6210    22.1493 </r>
       <r>    -6.9863     1.4354    22.2448 </r>
       <r>    -6.9197     1.3606    22.3353 </r>
       <r>    -6.8532     3.5155    22.5692 </r>
       <r>    -6.7866     3.0274    22.7707 </r>
       <r>    -6.7201     2.0966    22.9102 </r>
       <r>    -6.6536     5.3597    23.2668 </r>
       <r>    -6.5870     4.5802    23.5715 </r>
       <r>    -6.5205     6.8002    24.0240 </r>
       <r>    -6.4540     3.1078    24.2308 </r>
       <r>    -6.3874     0.9886    24.2966 </r>
       <r>    -6.3209     2.5637    24.4672 </r>
       <r>    -6.2543     1.1552    24.5440 </r>
       <r>    -6.1878     2.1444    24.6867 </r>
       <r>    -6.1213     1.6379    24.7957 </r>
       <r>    -6.0547     0.8127    24.8498 </r>
       <r>    -5.9882     4.5699    25.1538 </r>
       <r>    -5.9217     6.9583    25.6168 </r>
       <r>    -5.8551     3.9388    25.8789 </r>
       <r>    -5.7886     1.7616    25.9961 </r>
       <r>    -5.7221     1.6956    26.1089 </r>
       <r>    -5.6555     5.3901    26.4676 </r>
       <r>    -5.5890     5.4805    26.8322 </r>
       <r>    -5.5224     7.4272    27.3264 </r>
       <r>    -5.4559     6.8951    27.7852 </r>
       <r>    -5.3894     4.2460    28.0677 </r>
       <r>    -5.3228     2.9682    28.2652 </r>
       <r>    -5.2563     3.6644    28.5090 </r>
       <r>    -5.1898     8.4297    29.0699 </r>
       <r>    -5.1232     7.0022    29.5358 </r>
       <r>    -5.0567     6.2363    29.9508 </r>
       <r>    -4.9901     9.8510    30.6062 </r>
       <r>    -4.9236    10.0687    31.2762 </r>
       <r>    -4.8571     8.9422    31.8712 </r>
       <r>    -4.7905     5.6149    32.2448 </r>
       <r>    -4.7240     4.0406    32.5136 </r>
       <r>    -4.6575     0.2994    32.5335 </r>
       <r>    -4.5909     0.6563    32.5772 </r>
       <r>    -4.5244     6.3374    32.9989 </r>
       <r>    -4.4578    13.1198    33.8718 </r>
       <r>    -4.3913    12.5903    34.7096 </r>
       <r>    -4.3248     6.7734    35.1603 </r>
       <r>    -4.2582     5.7873    35.5453 </r>
       <r>    -4.1917     8.8474    36.1340 </r>
       <r>    -4.1252     2.0140    36.2680 </r>
       <r>    -4.0586     2.4290    36.4296 </r>
       <r>    -3.9921    10.0644    37.0993 </r>
       <r>    -3.9255    14.8310    38.0861 </r>
       <r>    -3.8590     8.0567    38.6222 </r>
       <r>    -3.7925     4.4871    38.9207 </r>
       <r>    -3.7259    17.9172    40.1129 </r>
       <r>    -3.6594    12.7297    40.9599 </r>
       <r>    -3.5929     1.6267    41.0681 </r>
       <r>    -3.5263     1.7231    41.1828 </r>
       <r>    -3.4598     6.8502    41.6386 </r>
       <r>    -3.3932     4.8893    41.9639 </r>
       <r>    -3.3267     2.3971    42.1234 </r>
       <r>    -3.2602     6.5276    42.5577 </r>
       <r>    -3.1936    12.1699    43.3675 </r>
       <r>    -3.1271    10.0058    44.0333 </r>
       <r>    -3.0606     6.0497    44.4358 </r>
       <r>    -2.9940     6.8245    44.8899 </r>
       <r>    -2.9275     5.9026    45.2826 </r>
       <r>    -2.8609     5.6221    45.6567 </r>
       <r>    -2.7944     7.0213    46.1239 </r>
       <r>    -2.7279     5.5016    46.4899 </r>
       <r>    -2.6613     1.0130    46.5573 </r>
       <r>    -2.5948     3.3487    46.7802 </r>
       <r>    -2.5283     2.2191    46.9278 </r>
       <r>    -2.4617     0.8709    46.9858 </r>
       <r>    -2.3952     3.3562    47.2091 </r>
       <r>    -2.3286     5.9946    47.6079 </r>
       <r>    -2.2621     5.2746    47.9589 </r>
       <r>    -2.1956     0.6128    47.9997 </r>
       <r>    -2.1290     0.0049    48.0000 </r>
       <r>    -2.0625     0.0000    48.0000 </r>
       <r>    -1.9960     0.0000    48.0000 </r>
       <r>    -1.9294     0.0000    48.0000 </r>
       <r>    -1.8629     0.0000    48.0000 </r>
       <r>    -1.7963     0.0000    48.0000 </r>
       <r>    -1.7298     0.0000    48.0000 </r>
       <r>    -1.6633     0.0000    48.0000 </r>
       <r>    -1.5967     0.0000    48.0000 </r>
       <r>    -1.5302     0.0000    48.0000 </r>
       <r>    -1.4637     0.0000    48.0000 </r>
       <r>    -1.3971     0.0000    48.0000 </r>
       <r>    -1.3306     0.0000    48.0000 </r>
       <r>    -1.2640     0.0000    48.0000 </r>
       <r>    -1.1975     0.0000    48.0000 </r>
       <r>    -1.1310     0.0000    48.0000 </r>
       <r>    -1.0644     0.0000    48.0000 </r>
       <r>    -0.9979     0.0001    48.0000 </r>
       <r>    -0.9314     0.0453    48.0030 </r>
       <r>    -0.8648     1.1843    48.0818 </r>
       <r>    -0.7983     3.4761    48.3131 </r>
       <r>    -0.7317     1.2732    48.3978 </r>
       <r>    -0.6652     0.2869    48.4169 </r>
       <r>    -0.5987     2.3215    48.5714 </r>
       <r>    -0.5321     2.5761    48.7428 </r>
       <r>    -0.4656     6.7569    49.1924 </r>
       <r>    -0.3991     3.9320    49.4540 </r>
       <r>    -0.3325     0.7098    49.5012 </r>
       <r>    -0.2660     1.2697    49.5857 </r>
       <r>    -0.1994     0.5587    49.6229 </r>
       <r>    -0.1329     3.8610    49.8798 </r>
       <r>    -0.0664     3.5472    50.1158 </r>
       <r>     0.0002     0.3048    50.1361 </r>
       <r>     0.0667     1.3058    50.2230 </r>
       <r>     0.1332     2.4258    50.3844 </r>
       <r>     0.1998     2.5460    50.5538 </r>
       <r>     0.2663     9.8479    51.2090 </r>
       <r>     0.3329     6.2916    51.6277 </r>
       <r>     0.3994     3.9999    51.8938 </r>
       <r>     0.4659     7.3422    52.3823 </r>
       <r>     0.5325     6.7148    52.8291 </r>
       <r>     0.5990     4.3945    53.1215 </r>
       <r>     0.6655     5.2863    53.4733 </r>
       <r>     0.7321     9.8153    54.1263 </r>
       <r>     0.7986    11.1549    54.8686 </r>
       <r>     0.8652     7.8789    55.3928 </r>
       <r>     0.9317    12.2666    56.2090 </r>
       <r>     0.9982     8.6528    56.7847 </r>
       <r>     1.0648     6.4096    57.2112 </r>
       <r>     1.1313    10.5993    57.9165 </r>
       <r>     1.1978    11.3847    58.6740 </r>
       <r>     1.2644     6.7153    59.1208 </r>
       <r>     1.3309     9.2033    59.7332 </r>
       <r>     1.3975     9.5032    60.3655 </r>
       <r>     1.4640     6.1357    60.7737 </r>
       <r>     1.5305     3.4299    61.0019 </r>
       <r>     1.5971     5.0771    61.3398 </r>
       <r>     1.6636     7.9176    61.8666 </r>
       <r>     1.7301     4.5068    62.1664 </r>
       <r>     1.7967     6.1506    62.5757 </r>
       <r>     1.8632     8.7446    63.1575 </r>
       <r>     1.9298     4.6463    63.4667 </r>
       <r>     1.9963     3.3399    63.6889 </r>
       <r>     2.0628     0.6591    63.7328 </r>
       <r>     2.1294     0.0085    63.7333 </r>
       <r>     2.1959     0.0206    63.7347 </r>
       <r>     2.2624     0.9688    63.7992 </r>
       <r>     2.3290     2.5553    63.9692 </r>
       <r>     2.3955     0.4589    63.9997 </r>
       <r>     2.4621     0.0042    64.0000 </r>
       <r>     2.5286     0.0000    64.0000 </r>
       <r>     2.5951     0.0000    64.0000 </r>
       <r>     2.6617     0.0000    64.0000 </r>
       <r>     2.7282     0.0000    64.0000 </r>
       <r>     2.7947     0.0000    64.0000 </r>
       <r>     2.8613     0.0000    64.0000 </r>
       <r>     2.9278     0.0000    64.0000 </r>
       <r>     2.9944     0.0000    64.0000 </r>
       <r>     3.0609     0.0000    64.0000 </r>
       <r>     3.1274     0.0000    64.0000 </r>
       <r>     3.1940     0.0000    64.0000 </r>
      </set>
     </set>
    </array>
   </total>
  </dos>
 </calculation>
 <structure name="finalpos" >
  <crystal>
   <varray name="basis" >
    <v>       6.01920000       0.00000000       0.00000000 </v>
    <v>       0.00000000      10.14000000       0.00000000 </v>
    <v>       0.00000000       0.00000000      15.00000000 </v>
   </varray>
   <i name="volume">    915.52032000 </i>
   <varray name="rec_basis" >
    <v>       0.16613503       0.00000000       0.00000000 </v>
    <v>       0.00000000       0.09861933       0.00000000 </v>
    <v>       0.00000000       0.00000000       0.06666667 </v>
   </varray>
  </crystal>
  <varray name="positions" >
   <v>       0.43225351       0.87758010       0.23922953 </v>
   <v>       0.93210566       0.87783868       0.26043615 </v>
   <v>       0.43263840       0.61780683       0.24098817 </v>
   <v>       0.93341404       0.61962348       0.26671042 </v>
   <v>       0.43116853       0.37652621       0.27382487 </v>
   <v>       0.93300874       0.37825774       0.24383564 </v>
   <v>       0.43186417       0.11893190       0.26120264 </v>
   <v>       0.93199059       0.11874131       0.24087642 </v>
   <v>       0.18208911       0.99804483       0.24952566 </v>
   <v>       0.68203780       0.99813228       0.25006763 </v>
   <v>       0.18277786       0.49851994       0.25587114 </v>
   <v>       0.68261515       0.49894844       0.25910959 </v>
   <v>       0.55754384       0.43527780       0.46571239 </v>
   <v>       0.80849425       0.36767880       0.46192924 </v>
   <v>       0.50676920       0.34998516       0.56008050 </v>
  </varray>
  <varray name="selective"  type="logical" >
   <v type="logical" >  T  T  T </v>
   <v type="logical" >  T  T  T </v>
   <v type="logical" >  T  T  T </v>
   <v type="logical" >  T  T  T </v>
   <v type="logical" >  T  T  T </v>
   <v type="logical" >  T  T  T </v>
   <v type="logical" >  T  T  T </v>
   <v type="logical" >  T  T  T </v>
   <v type="logical" >  T  T  T </v>
   <v type="logical" >  T  T  T </v>
   <v type="logical" >  T  T  T </v>
   <v type="logical" >  T  T  T </v>
   <v type="logical" >  T  T  T </v>
   <v type="logical" >  T  T  T </v>
   <v type="logical" >  T  T  T </v>
  </varray>
  <nose>
   <v>      -3.00000000       0.00000000       0.00010000       0.00010000 </v>
  </nose>
 </structure>
</modeling>
