V2O5                                    
   1.0000000000000000     
    15.0000000000000000    0.0000000000000000    0.0000000000000000
     0.0000000000000000   15.0000000000000000    0.0000000000000000
     0.0000000000000000    0.0000000000000000   15.0000000000000018
   O    H 
     1     2
Selective dynamics
Direct
  0.5032877657144239  0.5032877650180769  0.4999999749578490   T   T   T
  0.5676030842207256  0.4951091505492965  0.5000000125613138   T   T   T
  0.4951091500648530  0.5676030844326291  0.5000000124808444   T   T   T

  0.00000000E+00  0.00000000E+00  0.00000000E+00
  0.00000000E+00  0.00000000E+00  0.00000000E+00
  0.00000000E+00  0.00000000E+00  0.00000000E+00
