   3   3   0   0
  0.1125000E+04  0.1500000E-08  0.1500000E-08  0.1500000E-08  0.3500000E-15
   1.0000000000000000E-004
  CAR 
 V2O5                                    
      1.57493859    -26.82267415  301     -7.56171328      1.00000000
    -26.823  0.0000E+00  0.0000E+00
    -26.728  0.0000E+00  0.0000E+00
    -26.633  0.0000E+00  0.0000E+00
    -26.539  0.0000E+00  0.0000E+00
    -26.444  0.0000E+00  0.0000E+00
    -26.349  0.0000E+00  0.0000E+00
    -26.255  0.0000E+00  0.0000E+00
    -26.160  0.0000E+00  0.0000E+00
    -26.065  0.0000E+00  0.0000E+00
    -25.971 -0.1816E-33 -0.1719E-34
    -25.876 -0.1073E-20 -0.1016E-21
    -25.781 -0.4338E-11 -0.4106E-12
    -25.687 -0.1129E-04 -0.1069E-05
    -25.592 -0.7467E-02 -0.7079E-03
    -25.497  0.2094E+00  0.1912E-01
    -25.403  0.9514E-02  0.2002E-01
    -25.308 -0.1686E-03  0.2000E-01
    -25.213 -0.5107E-09  0.2000E-01
    -25.119  0.0000E+00  0.2000E-01
    -25.024  0.0000E+00  0.2000E-01
    -24.929  0.0000E+00  0.2000E-01
    -24.835  0.0000E+00  0.2000E-01
    -24.740  0.0000E+00  0.2000E-01
    -24.646  0.0000E+00  0.2000E-01
    -24.551  0.0000E+00  0.2000E-01
    -24.456  0.0000E+00  0.2000E-01
    -24.362  0.0000E+00  0.2000E-01
    -24.267  0.0000E+00  0.2000E-01
    -24.172  0.0000E+00  0.2000E-01
    -24.078  0.0000E+00  0.2000E-01
    -23.983  0.0000E+00  0.2000E-01
    -23.888  0.0000E+00  0.2000E-01
    -23.794  0.0000E+00  0.2000E-01
    -23.699  0.0000E+00  0.2000E-01
    -23.604  0.0000E+00  0.2000E-01
    -23.510  0.0000E+00  0.2000E-01
    -23.415  0.0000E+00  0.2000E-01
    -23.320  0.0000E+00  0.2000E-01
    -23.226  0.0000E+00  0.2000E-01
    -23.131  0.0000E+00  0.2000E-01
    -23.036  0.0000E+00  0.2000E-01
    -22.942  0.0000E+00  0.2000E-01
    -22.847  0.0000E+00  0.2000E-01
    -22.752  0.0000E+00  0.2000E-01
    -22.658  0.0000E+00  0.2000E-01
    -22.563  0.0000E+00  0.2000E-01
    -22.468  0.0000E+00  0.2000E-01
    -22.374  0.0000E+00  0.2000E-01
    -22.279  0.0000E+00  0.2000E-01
    -22.184  0.0000E+00  0.2000E-01
    -22.090  0.0000E+00  0.2000E-01
    -21.995  0.0000E+00  0.2000E-01
    -21.900  0.0000E+00  0.2000E-01
    -21.806  0.0000E+00  0.2000E-01
    -21.711  0.0000E+00  0.2000E-01
    -21.616  0.0000E+00  0.2000E-01
    -21.522  0.0000E+00  0.2000E-01
    -21.427  0.0000E+00  0.2000E-01
    -21.332  0.0000E+00  0.2000E-01
    -21.238  0.0000E+00  0.2000E-01
    -21.143  0.0000E+00  0.2000E-01
    -21.048  0.0000E+00  0.2000E-01
    -20.954  0.0000E+00  0.2000E-01
    -20.859  0.0000E+00  0.2000E-01
    -20.765  0.0000E+00  0.2000E-01
    -20.670  0.0000E+00  0.2000E-01
    -20.575  0.0000E+00  0.2000E-01
    -20.481  0.0000E+00  0.2000E-01
    -20.386  0.0000E+00  0.2000E-01
    -20.291  0.0000E+00  0.2000E-01
    -20.197  0.0000E+00  0.2000E-01
    -20.102  0.0000E+00  0.2000E-01
    -20.007  0.0000E+00  0.2000E-01
    -19.913  0.0000E+00  0.2000E-01
    -19.818  0.0000E+00  0.2000E-01
    -19.723  0.0000E+00  0.2000E-01
    -19.629  0.0000E+00  0.2000E-01
    -19.534  0.0000E+00  0.2000E-01
    -19.439  0.0000E+00  0.2000E-01
    -19.345  0.0000E+00  0.2000E-01
    -19.250  0.0000E+00  0.2000E-01
    -19.155  0.0000E+00  0.2000E-01
    -19.061  0.0000E+00  0.2000E-01
    -18.966  0.0000E+00  0.2000E-01
    -18.871  0.0000E+00  0.2000E-01
    -18.777  0.0000E+00  0.2000E-01
    -18.682  0.0000E+00  0.2000E-01
    -18.587  0.0000E+00  0.2000E-01
    -18.493  0.0000E+00  0.2000E-01
    -18.398  0.0000E+00  0.2000E-01
    -18.303  0.0000E+00  0.2000E-01
    -18.209  0.0000E+00  0.2000E-01
    -18.114  0.0000E+00  0.2000E-01
    -18.019  0.0000E+00  0.2000E-01
    -17.925  0.0000E+00  0.2000E-01
    -17.830  0.0000E+00  0.2000E-01
    -17.735  0.0000E+00  0.2000E-01
    -17.641  0.0000E+00  0.2000E-01
    -17.546  0.0000E+00  0.2000E-01
    -17.451  0.0000E+00  0.2000E-01
    -17.357  0.0000E+00  0.2000E-01
    -17.262  0.0000E+00  0.2000E-01
    -17.167  0.0000E+00  0.2000E-01
    -17.073  0.0000E+00  0.2000E-01
    -16.978  0.0000E+00  0.2000E-01
    -16.884  0.0000E+00  0.2000E-01
    -16.789  0.0000E+00  0.2000E-01
    -16.694  0.0000E+00  0.2000E-01
    -16.600  0.0000E+00  0.2000E-01
    -16.505  0.0000E+00  0.2000E-01
    -16.410  0.0000E+00  0.2000E-01
    -16.316  0.0000E+00  0.2000E-01
    -16.221  0.0000E+00  0.2000E-01
    -16.126  0.0000E+00  0.2000E-01
    -16.032  0.0000E+00  0.2000E-01
    -15.937  0.0000E+00  0.2000E-01
    -15.842  0.0000E+00  0.2000E-01
    -15.748  0.0000E+00  0.2000E-01
    -15.653  0.0000E+00  0.2000E-01
    -15.558  0.0000E+00  0.2000E-01
    -15.464  0.0000E+00  0.2000E-01
    -15.369  0.0000E+00  0.2000E-01
    -15.274  0.0000E+00  0.2000E-01
    -15.180  0.0000E+00  0.2000E-01
    -15.085  0.0000E+00  0.2000E-01
    -14.990  0.0000E+00  0.2000E-01
    -14.896  0.0000E+00  0.2000E-01
    -14.801  0.0000E+00  0.2000E-01
    -14.706  0.0000E+00  0.2000E-01
    -14.612  0.0000E+00  0.2000E-01
    -14.517  0.0000E+00  0.2000E-01
    -14.422  0.0000E+00  0.2000E-01
    -14.328  0.0000E+00  0.2000E-01
    -14.233  0.0000E+00  0.2000E-01
    -14.138  0.0000E+00  0.2000E-01
    -14.044  0.0000E+00  0.2000E-01
    -13.949  0.0000E+00  0.2000E-01
    -13.854 -0.1017E-28  0.2000E-01
    -13.760 -0.4988E-17  0.2000E-01
    -13.665 -0.1623E-08  0.2000E-01
    -13.570 -0.3096E-03  0.1997E-01
    -13.476  0.2186E-01  0.2204E-01
    -13.381  0.1969E+00  0.4067E-01
    -13.286 -0.7120E-02  0.4000E-01
    -13.192 -0.5057E-05  0.4000E-01
    -13.097 -0.1139E-11  0.4000E-01
    -13.003  0.0000E+00  0.4000E-01
    -12.908  0.0000E+00  0.4000E-01
    -12.813  0.0000E+00  0.4000E-01
    -12.719  0.0000E+00  0.4000E-01
    -12.624  0.0000E+00  0.4000E-01
    -12.529  0.0000E+00  0.4000E-01
    -12.435  0.0000E+00  0.4000E-01
    -12.340  0.0000E+00  0.4000E-01
    -12.245  0.0000E+00  0.4000E-01
    -12.151  0.0000E+00  0.4000E-01
    -12.056  0.0000E+00  0.4000E-01
    -11.961  0.0000E+00  0.4000E-01
    -11.867  0.0000E+00  0.4000E-01
    -11.772  0.0000E+00  0.4000E-01
    -11.677  0.0000E+00  0.4000E-01
    -11.583  0.0000E+00  0.4000E-01
    -11.488  0.0000E+00  0.4000E-01
    -11.393  0.0000E+00  0.4000E-01
    -11.299  0.0000E+00  0.4000E-01
    -11.204  0.0000E+00  0.4000E-01
    -11.109  0.0000E+00  0.4000E-01
    -11.015  0.0000E+00  0.4000E-01
    -10.920  0.0000E+00  0.4000E-01
    -10.825  0.0000E+00  0.4000E-01
    -10.731  0.0000E+00  0.4000E-01
    -10.636  0.0000E+00  0.4000E-01
    -10.541  0.0000E+00  0.4000E-01
    -10.447  0.0000E+00  0.4000E-01
    -10.352  0.0000E+00  0.4000E-01
    -10.257  0.0000E+00  0.4000E-01
    -10.163 -0.3829E-39  0.4000E-01
    -10.068 -0.3521E-25  0.4000E-01
     -9.973 -0.2270E-14  0.4000E-01
     -9.879 -0.9962E-07  0.4000E-01
     -9.784 -0.2141E-02  0.3980E-01
     -9.689  0.1022E+00  0.4947E-01
     -9.595  0.1138E+00  0.6024E-01
     -9.500 -0.2569E-02  0.6000E-01
     -9.405 -0.1565E-06  0.6000E-01
     -9.311 -0.4551E-14  0.6000E-01
     -9.216  0.0000E+00  0.6000E-01
     -9.121  0.0000E+00  0.6000E-01
     -9.027  0.0000E+00  0.6000E-01
     -8.932  0.0000E+00  0.6000E-01
     -8.838  0.0000E+00  0.6000E-01
     -8.743  0.0000E+00  0.6000E-01
     -8.648  0.0000E+00  0.6000E-01
     -8.554  0.0000E+00  0.6000E-01
     -8.459  0.0000E+00  0.6000E-01
     -8.364  0.0000E+00  0.6000E-01
     -8.270  0.0000E+00  0.6000E-01
     -8.175  0.0000E+00  0.6000E-01
     -8.080 -0.2093E-39  0.6000E-01
     -7.986 -0.2174E-25  0.6000E-01
     -7.891 -0.1586E-14  0.6000E-01
     -7.796 -0.7874E-07  0.6000E-01
     -7.702 -0.1941E-02  0.5982E-01
     -7.607  0.9635E-01  0.6894E-01
     -7.512  0.1197E+00  0.8027E-01
     -7.418 -0.2809E-02  0.8000E-01
     -7.323 -0.1968E-06  0.8000E-01
     -7.228 -0.6474E-14  0.8000E-01
     -7.134  0.0000E+00  0.8000E-01
     -7.039  0.0000E+00  0.8000E-01
     -6.944  0.0000E+00  0.8000E-01
     -6.850  0.0000E+00  0.8000E-01
     -6.755  0.0000E+00  0.8000E-01
     -6.660  0.0000E+00  0.8000E-01
     -6.566  0.0000E+00  0.8000E-01
     -6.471  0.0000E+00  0.8000E-01
     -6.376  0.0000E+00  0.8000E-01
     -6.282  0.0000E+00  0.8000E-01
     -6.187  0.0000E+00  0.8000E-01
     -6.092  0.0000E+00  0.8000E-01
     -5.998  0.0000E+00  0.8000E-01
     -5.903  0.0000E+00  0.8000E-01
     -5.808  0.0000E+00  0.8000E-01
     -5.714  0.0000E+00  0.8000E-01
     -5.619  0.0000E+00  0.8000E-01
     -5.524  0.0000E+00  0.8000E-01
     -5.430  0.0000E+00  0.8000E-01
     -5.335  0.0000E+00  0.8000E-01
     -5.240  0.0000E+00  0.8000E-01
     -5.146  0.0000E+00  0.8000E-01
     -5.051  0.0000E+00  0.8000E-01
     -4.957  0.0000E+00  0.8000E-01
     -4.862  0.0000E+00  0.8000E-01
     -4.767  0.0000E+00  0.8000E-01
     -4.673  0.0000E+00  0.8000E-01
     -4.578  0.0000E+00  0.8000E-01
     -4.483  0.0000E+00  0.8000E-01
     -4.389  0.0000E+00  0.8000E-01
     -4.294  0.0000E+00  0.8000E-01
     -4.199  0.0000E+00  0.8000E-01
     -4.105  0.0000E+00  0.8000E-01
     -4.010  0.0000E+00  0.8000E-01
     -3.915  0.0000E+00  0.8000E-01
     -3.821  0.0000E+00  0.8000E-01
     -3.726  0.0000E+00  0.8000E-01
     -3.631  0.0000E+00  0.8000E-01
     -3.537  0.0000E+00  0.8000E-01
     -3.442  0.0000E+00  0.8000E-01
     -3.347  0.0000E+00  0.8000E-01
     -3.253  0.0000E+00  0.8000E-01
     -3.158  0.0000E+00  0.8000E-01
     -3.063  0.0000E+00  0.8000E-01
     -2.969  0.0000E+00  0.8000E-01
     -2.874  0.0000E+00  0.8000E-01
     -2.779  0.0000E+00  0.8000E-01
     -2.685  0.0000E+00  0.8000E-01
     -2.590  0.0000E+00  0.8000E-01
     -2.495  0.0000E+00  0.8000E-01
     -2.401  0.0000E+00  0.8000E-01
     -2.306  0.0000E+00  0.8000E-01
     -2.211  0.0000E+00  0.8000E-01
     -2.117  0.0000E+00  0.8000E-01
     -2.022  0.0000E+00  0.8000E-01
     -1.927 -0.3813E-35  0.8000E-01
     -1.833 -0.5192E-22  0.8000E-01
     -1.738 -0.4878E-12  0.8000E-01
     -1.643 -0.3013E-05  0.8000E-01
     -1.549 -0.6522E-02  0.7938E-01
     -1.454  0.1868E+00  0.9706E-01
     -1.359  0.3150E-01  0.1000E+00
     -1.265 -0.4416E-03  0.1000E+00
     -1.170 -0.3262E-08  0.1000E+00
     -1.076  0.0000E+00  0.1000E+00
     -0.981  0.0000E+00  0.1000E+00
     -0.886  0.0000E+00  0.1000E+00
     -0.792  0.0000E+00  0.1000E+00
     -0.697  0.0000E+00  0.1000E+00
     -0.602  0.0000E+00  0.1000E+00
     -0.508 -0.3909E-34  0.1000E+00
     -0.413 -0.3227E-21  0.1000E+00
     -0.318 -0.1829E-11  0.1000E+00
     -0.224 -0.6736E-05  0.1000E+00
     -0.129 -0.7361E-02  0.9930E-01
     -0.034  0.1944E+00  0.1177E+00
      0.060  0.2270E+00  0.1392E+00
      0.155  0.8608E-02  0.1400E+00
      0.250  0.9350E-02  0.1409E+00
      0.344  0.2094E+00  0.1607E+00
      0.439 -0.7467E-02  0.1600E+00
      0.534 -0.1129E-04  0.1600E+00
      0.628 -0.4338E-11  0.1600E+00
      0.723  0.0000E+00  0.1600E+00
      0.818  0.0000E+00  0.1600E+00
      0.912  0.0000E+00  0.1600E+00
      1.007  0.0000E+00  0.1600E+00
      1.102  0.0000E+00  0.1600E+00
      1.196  0.0000E+00  0.1600E+00
      1.291  0.0000E+00  0.1600E+00
      1.386  0.0000E+00  0.1600E+00
      1.480  0.0000E+00  0.1600E+00
      1.575  0.0000E+00  0.1600E+00
