    3    3  100    1
  0.1125000E+04  0.1500000E-08  0.1500000E-08  0.1500000E-08  0.3500000E-15
   1.0000000000000000E-004
  CAR 
 V2O5                                    
      8      1      8

  0.1262379E-14  0.1262379E-14  0.1262379E-14  0.1000000E+01
    1      -25.531874   1.000000
    2      -13.448126   1.000000
    3       -9.687895   1.000000
    4       -7.603807   1.000000
    5       -1.477624   0.000000
    6       -0.064300   0.000000
    7        0.025659   0.000000
    8        0.284138   0.000000
