V2O5                                    
   1.00000000000000     
    15.0000000000000000    0.0000000000000000    0.0000000000000000
     0.0000000000000000   15.0000000000000000    0.0000000000000000
     0.0000000000000000    0.0000000000000000   15.0000000000000018
   O    H 
     1     2
Selective dynamics
Direct
  0.5032751057413520  0.5032751070545629  0.5000000179794597   T   T   T
  0.5676191133239215  0.4951057811930184  0.4999999910504300   T   T   T
  0.4951057809347290  0.5676191117524212  0.4999999909701174   T   T   T
 
  0.00000000E+00  0.00000000E+00  0.00000000E+00
  0.00000000E+00  0.00000000E+00  0.00000000E+00
  0.00000000E+00  0.00000000E+00  0.00000000E+00
