<?xml version="1.0" encoding="ISO-8859-1"?>
<modeling>
 <generator>
  <i name="program" type="string">vasp </i>
  <i name="version" type="string">5.4.4.18Apr17-6-g9f103f2a35  </i>
  <i name="subversion" type="string">(build Dec  6 2019 17:49:40) complex            parallel </i>
  <i name="platform" type="string">LinuxGNU </i>
  <i name="date" type="string">2022 05 09 </i>
  <i name="time" type="string">04:19:18 </i>
 </generator>
 <incar>
  <i type="string" name="SYSTEM"> V2O5</i>
  <i type="int" name="ISTART">     0</i>
  <i type="string" name="PREC">accurate</i>
  <i type="string" name="ALGO"> Fast</i>
  <i type="int" name="NSIM">     4</i>
  <i type="int" name="NELM">   300</i>
  <i type="int" name="NELMDL">    -7</i>
  <i type="int" name="IBRION">     2</i>
  <i name="EDIFF">      0.00001000</i>
  <i name="EDIFFG">     -0.01000000</i>
  <i type="int" name="NSW">   100</i>
  <i type="int" name="ISIF">     2</i>
  <i type="int" name="ISYM">     0</i>
  <i name="ENCUT">    450.00000000</i>
  <i name="POTIM">      0.35000000</i>
  <i type="string" name="LREAL"> auto</i>
  <v name="ROPT">     -0.00020000     -0.00020000      0.00000000</v>
  <i type="logical" name="LPLANE"> T  </i>
  <i type="int" name="ISMEAR">     1</i>
  <i name="SIGMA">      0.05000000</i>
  <i type="int" name="NWRITE">     2</i>
  <i type="logical" name="LSCALU"> F  </i>
  <i type="logical" name="LASPH"> T  </i>
  <v type="int" name="KPOINT_BSE">    -1     0     0     0</v>
  <i type="int" name="NELM">   300</i>
  <i type="string" name="GGA"> ML</i>
  <i type="int" name="VOSKOWN">     1</i>
  <i type="logical" name="LUSE_VDW"> T  </i>
  <i name="Zab_VDW">     -1.88670000</i>
  <i name="AGGAC">      0.00000000</i>
  <i type="logical" name="LDAU"> T  </i>
  <v type="int" name="LDAUL">    -1    -1</v>
  <v name="LDAUU">      0.00000000      0.00000000</v>
  <v name="LDAUJ">      0.00000000      0.00000000</v>
  <i type="logical" name="LASPH"> T  </i>
 </incar>
 <structure name="primitive_cell" >
  <crystal>
   <varray name="basis" >
    <v>      15.00000000       0.00000000       0.00000000 </v>
    <v>       0.00000000      15.00000000       0.00000000 </v>
    <v>       0.00000000       0.00000000      15.00000000 </v>
   </varray>
   <i name="volume">   3375.00000000 </i>
   <varray name="rec_basis" >
    <v>       0.06666667       0.00000000       0.00000000 </v>
    <v>       0.00000000       0.06666667       0.00000000 </v>
    <v>       0.00000000       0.00000000       0.06666667 </v>
   </varray>
  </crystal>
  <varray name="positions" >
   <v>      -0.49672489      -0.49672489      -0.49999998 </v>
   <v>       0.49510578      -0.43238089       0.49999999 </v>
   <v>      -0.43238089       0.49510578       0.49999999 </v>
  </varray>
 </structure>
 <varray name="primitive_index" >
  <v type="int" >        1 </v>
  <v type="int" >        3 </v>
  <v type="int" >        2 </v>
 </varray>
 <kpoints>
  <generation param="Gamma">
   <v type="int" name="divisions">       1        1        1 </v>
   <v name="usershift">      0.00000000       0.00000000       0.00000000 </v>
   <v name="genvec1">      1.00000000       0.00000000       0.00000000 </v>
   <v name="genvec2">      0.00000000       1.00000000       0.00000000 </v>
   <v name="genvec3">      0.00000000       0.00000000       1.00000000 </v>
   <v name="shift">      0.00000000       0.00000000       0.00000000 </v>
  </generation>
  <varray name="kpointlist" >
   <v>       0.00000000       0.00000000       0.00000000 </v>
  </varray>
  <varray name="weights" >
   <v>       1.00000000 </v>
  </varray>
 </kpoints>
 <parameters>
  <separator name="general" >
   <i type="string" name="SYSTEM">V2O5</i>
   <i type="logical" name="LCOMPAT"> F  </i>
  </separator>
  <separator name="electronic" >
   <i type="string" name="PREC">accura</i>
   <i name="ENMAX">    450.00000000</i>
   <i name="ENAUG">   1139.60900000</i>
   <i name="EDIFF">      0.00001000</i>
   <i type="int" name="IALGO">    68</i>
   <i type="int" name="IWAVPR">    11</i>
   <i type="int" name="NBANDS">     8</i>
   <i name="NELECT">      8.00000000</i>
   <i type="int" name="TURBO">     0</i>
   <i type="int" name="IRESTART">     0</i>
   <i type="int" name="NREBOOT">     0</i>
   <i type="int" name="NMIN">     0</i>
   <i name="EREF">      0.00000000</i>
   <separator name="electronic smearing" >
    <i type="int" name="ISMEAR">     1</i>
    <i name="SIGMA">      0.05000000</i>
    <i name="KSPACING">      0.50000000</i>
    <i type="logical" name="KGAMMA"> T  </i>
   </separator>
   <separator name="electronic projectors" >
    <i type="logical" name="LREAL"> T  </i>
    <v name="ROPT">     -0.00020000     -0.00020000</v>
    <i type="int" name="LMAXPAW">  -100</i>
    <i type="int" name="LMAXMIX">     2</i>
    <i type="logical" name="NLSPLINE"> F  </i>
   </separator>
   <separator name="electronic startup" >
    <i type="int" name="ISTART">     0</i>
    <i type="int" name="ICHARG">     2</i>
    <i type="int" name="INIWAV">     1</i>
   </separator>
   <separator name="electronic spin" >
    <i type="int" name="ISPIN">     1</i>
    <i type="logical" name="LNONCOLLINEAR"> F  </i>
    <v name="MAGMOM">      1.00000000      1.00000000      1.00000000</v>
    <i name="NUPDOWN">     -1.00000000</i>
    <i type="logical" name="LSORBIT"> F  </i>
    <v name="SAXIS">      0.00000000      0.00000000      1.00000000</v>
    <i type="logical" name="LSPIRAL"> F  </i>
    <v name="QSPIRAL">      0.00000000      0.00000000      0.00000000</v>
    <i type="logical" name="LZEROZ"> F  </i>
   </separator>
   <separator name="electronic exchange-correlation" >
    <i type="logical" name="LASPH"> T  </i>
    <i type="logical" name="LMETAGGA"> F  </i>
   </separator>
   <separator name="electronic convergence" >
    <i type="int" name="NELM">   300</i>
    <i type="int" name="NELMDL">    -7</i>
    <i type="int" name="NELMIN">     2</i>
    <i name="ENINI">    450.00000000</i>
    <separator name="electronic convergence detail" >
     <i type="logical" name="LDIAG"> T  </i>
     <i type="logical" name="LSUBROT"> F  </i>
     <i name="WEIMIN">      0.00100000</i>
     <i name="EBREAK">      0.00000031</i>
     <i name="DEPER">      0.30000000</i>
     <i type="int" name="NRMM">     4</i>
     <i name="TIME">      0.40000000</i>
    </separator>
   </separator>
   <separator name="electronic mixer" >
    <i name="AMIX">      0.40000000</i>
    <i name="BMIX">      1.00000000</i>
    <i name="AMIN">      0.10000000</i>
    <i name="AMIX_MAG">      1.60000000</i>
    <i name="BMIX_MAG">      1.00000000</i>
    <separator name="electronic mixer details" >
     <i type="int" name="IMIX">     4</i>
     <i type="logical" name="MIXFIRST"> F  </i>
     <i type="int" name="MAXMIX">   -45</i>
     <i name="WC">    100.00000000</i>
     <i type="int" name="INIMIX">     1</i>
     <i type="int" name="MIXPRE">     1</i>
     <i type="int" name="MREMOVE">     5</i>
    </separator>
   </separator>
   <separator name="electronic dipolcorrection" >
    <i type="logical" name="LDIPOL"> F  </i>
    <i type="logical" name="LMONO"> F  </i>
    <i type="int" name="IDIPOL">     0</i>
    <i name="EPSILON">      1.00000000</i>
    <v name="DIPOL">   -100.00000000   -100.00000000   -100.00000000</v>
    <i name="EFIELD">      0.00000000</i>
   </separator>
  </separator>
  <separator name="grids" >
   <i type="int" name="NGX">   108</i>
   <i type="int" name="NGY">   108</i>
   <i type="int" name="NGZ">   108</i>
   <i type="int" name="NGXF">   216</i>
   <i type="int" name="NGYF">   216</i>
   <i type="int" name="NGZF">   216</i>
   <i type="logical" name="ADDGRID"> F  </i>
  </separator>
  <separator name="ionic" >
   <i type="int" name="NSW">   100</i>
   <i type="int" name="IBRION">     2</i>
   <i type="int" name="MDALGO">     0</i>
   <i type="int" name="ISIF">     2</i>
   <i name="PSTRESS">      0.00000000</i>
   <i name="EDIFFG">     -0.01000000</i>
   <i type="int" name="NFREE">     1</i>
   <i name="POTIM">      0.35000000</i>
   <i name="SMASS">     -3.00000000</i>
   <i name="SCALEE">      1.00000000</i>
  </separator>
  <separator name="ionic md" >
   <i name="TEBEG">      0.00010000</i>
   <i name="TEEND">      0.00010000</i>
   <i type="int" name="NBLOCK">     1</i>
   <i type="int" name="KBLOCK">   100</i>
   <i type="int" name="NPACO">   256</i>
   <i name="APACO">     16.00000000</i>
  </separator>
  <separator name="symmetry" >
   <i type="int" name="ISYM">     0</i>
   <i name="SYMPREC">      0.00001000</i>
  </separator>
  <separator name="dos" >
   <i type="int" name="LORBIT">     0</i>
   <v name="RWIGS">     -1.00000000     -1.00000000</v>
   <i type="int" name="NEDOS">   301</i>
   <i name="EMIN">     10.00000000</i>
   <i name="EMAX">    -10.00000000</i>
   <i name="EFERMI">      0.00000000</i>
  </separator>
  <separator name="writing" >
   <i type="int" name="NWRITE">     2</i>
   <i type="logical" name="LWAVE"> T  </i>
   <i type="logical" name="LDOWNSAMPLE"> F  </i>
   <i type="logical" name="LCHARG"> T  </i>
   <i type="logical" name="LPARD"> F  </i>
   <i type="logical" name="LVTOT"> F  </i>
   <i type="logical" name="LVHAR"> F  </i>
   <i type="logical" name="LELF"> F  </i>
   <i type="logical" name="LOPTICS"> F  </i>
   <v name="STM">      0.00000000      0.00000000      0.00000000      0.00000000      0.00000000      0.00000000      0.00000000</v>
  </separator>
  <separator name="performance" >
   <i type="int" name="NPAR">     4</i>
   <i type="int" name="NSIM">     4</i>
   <i type="int" name="NBLK">    -1</i>
   <i type="logical" name="LPLANE"> T  </i>
   <i type="logical" name="LSCALAPACK"> T  </i>
   <i type="logical" name="LSCAAWARE"> F  </i>
   <i type="logical" name="LSCALU"> F  </i>
   <i type="logical" name="LASYNC"> F  </i>
   <i type="logical" name="LORBITALREAL"> F  </i>
  </separator>
  <separator name="miscellaneous" >
   <i type="int" name="IDIOT">     3</i>
   <i type="int" name="ISPECIAL">     0</i>
   <i type="logical" name="LMUSIC"> F  </i>
   <v name="POMASS">     16.00000000      1.00000000</v>
   <v name="DARWINR">      0.00000000      0.00000000</v>
   <v name="DARWINV">      1.00000000      1.00000000</v>
   <i type="logical" name="LCORR"> T  </i>
  </separator>
  <i type="logical" name="GGA_COMPAT"> T  </i>
  <i type="logical" name="LBERRY"> F  </i>
  <i type="int" name="ICORELEVEL">     0</i>
  <i type="logical" name="LDAU"> T  </i>
  <v type="int" name="LDAUTYPE">     2</v>
  <v type="int" name="LDAUL">    -1</v>
  <v name="LDAUU">      0.00000000</v>
  <v name="LDAUJ">      0.00000000</v>
  <i type="int" name="LDAUPRINT">     0</i>
  <i type="int" name="I_CONSTRAINED_M">     0</i>
  <separator name="electronic exchange-correlation" >
   <i type="string" name="GGA">ML</i>
   <i type="int" name="VOSKOWN">     1</i>
   <i type="logical" name="LHFCALC"> F  </i>
   <i type="string" name="PRECFOCK"></i>
   <i type="logical" name="LSYMGRAD"> F  </i>
   <i type="logical" name="LHFONE"> F  </i>
   <i type="logical" name="LRHFCALC"> F  </i>
   <i type="logical" name="LTHOMAS"> F  </i>
   <i type="logical" name="LMODELHF"> F  </i>
   <i name="ENCUT4O">     -1.00000000</i>
   <i type="int" name="EXXOEP">     0</i>
   <i type="int" name="FOURORBIT">     0</i>
   <i name="AEXX">      0.00000000</i>
   <i name="HFALPHA">      0.00000000</i>
   <i name="MCALPHA">      0.00000000</i>
   <i name="ALDAX">      1.00000000</i>
   <i name="AGGAX">      1.00000000</i>
   <i name="ALDAC">      1.00000000</i>
   <i name="AGGAC">      0.00000000</i>
   <i type="int" name="NKREDX">     1</i>
   <i type="int" name="NKREDY">     1</i>
   <i type="int" name="NKREDZ">     1</i>
   <i type="logical" name="SHIFTRED"> F  </i>
   <i type="logical" name="ODDONLY"> F  </i>
   <i type="logical" name="EVENONLY"> F  </i>
   <i type="int" name="LMAXFOCK">     0</i>
   <i type="int" name="NMAXFOCKAE">     0</i>
   <i type="logical" name="LFOCKAEDFT"> F  </i>
   <i name="HFSCREEN">      0.00000000</i>
   <i name="HFSCREENC">      0.00000000</i>
   <i type="int" name="NBANDSGWLOW">     0</i>
  </separator>
  <separator name="vdW DFT" >
   <i type="logical" name="LUSE_VDW"> T  </i>
   <i name="Zab_VDW">     -1.88670000</i>
   <i name="PARAM1">      0.12340000</i>
   <i name="PARAM2">      1.00000000</i>
   <i name="PARAM3">      0.00000000</i>
  </separator>
  <separator name="model GW" >
   <i type="int" name="MODEL_GW">     0</i>
   <i name="MODEL_EPS0">    675.00000000</i>
   <i name="MODEL_ALPHA">      1.00000000</i>
  </separator>
  <separator name="linear response parameters" >
   <i type="logical" name="LEPSILON"> F  </i>
   <i type="logical" name="LRPA"> F  </i>
   <i type="logical" name="LNABLA"> F  </i>
   <i type="logical" name="LVEL"> F  </i>
   <i type="int" name="KINTER">     0</i>
   <i name="CSHIFT">      0.10000000</i>
   <i name="OMEGAMAX">     -1.00000000</i>
   <i name="DEG_THRESHOLD">      0.00200000</i>
   <i name="RTIME">     -0.10000000</i>
   <i name="WPLASMAI">      0.00000000</i>
   <v name="DFIELD">      0.00000000      0.00000000      0.00000000</v>
   <v name="WPLASMA">      0.00000000      0.00000000      0.00000000      0.00000000      0.00000000      0.00000000      0.00000000      0.00000000      0.00000000</v>
  </separator>
  <separator name="orbital magnetization" >
   <i type="logical" name="NUCIND"> F  </i>
   <v name="MAGPOS">      0.00000000      0.00000000      0.00000000</v>
   <i type="logical" name="LNICSALL"> T  </i>
   <i type="logical" name="ORBITALMAG"> F  </i>
   <i type="logical" name="LMAGBLOCH"> F  </i>
   <i type="logical" name="LCHIMAG"> F  </i>
   <i type="logical" name="LGAUGE"> T  </i>
   <i type="int" name="MAGATOM">     0</i>
   <v name="MAGDIPOL">      0.00000000      0.00000000      0.00000000</v>
   <v name="AVECCONST">      0.00000000      0.00000000      0.00000000</v>
  </separator>
  <separator name="response functions" >
   <i type="logical" name="LADDER"> F  </i>
   <i type="logical" name="LRPAFORCE"> F  </i>
   <i type="logical" name="LFXC"> F  </i>
   <i type="logical" name="LHARTREE"> T  </i>
   <i type="int" name="IBSE">     0</i>
   <v type="int" name="KPOINT">    -1     0     0     0</v>
   <i type="logical" name="LTCTE"> F  </i>
   <i type="logical" name="LTETE"> F  </i>
   <i type="logical" name="LTRIPLET"> F  </i>
   <i type="logical" name="LFXCEPS"> F  </i>
   <i type="logical" name="LFXHEG"> F  </i>
   <i type="int" name="NATURALO">     2</i>
   <i type="logical" name="L2ORDER"> F  </i>
   <i type="logical" name="LMP2LT"> F  </i>
   <i type="logical" name="LUSEW"> F  </i>
   <i name="ENCUTGW">     -2.00000000</i>
   <i name="ENCUTGWSOFT">     -2.00000000</i>
   <i name="ENCUTLF">     -1.00000000</i>
   <i type="int" name="LMAXMP2">    -1</i>
   <i name="SCISSOR">      0.00000000</i>
   <i type="int" name="NOMEGA">     0</i>
   <i type="int" name="NOMEGAR">     0</i>
   <i type="int" name="NBANDSGW">    -1</i>
   <i type="int" name="NBANDSO">    -1</i>
   <i type="int" name="NBANDSV">    -1</i>
   <i type="int" name="NELM">   300</i>
   <i type="int" name="NELMHF">     1</i>
   <i type="int" name="DIM">     3</i>
   <i type="int" name="ANTIRES">     0</i>
   <i name="OMEGAMAX">    -30.00000000</i>
   <i name="OMEGAMIN">    -30.00000000</i>
   <i name="OMEGATL">   -200.00000000</i>
   <i type="int" name="OMEGAGRID">   140</i>
   <i name="CSHIFT">     -0.10000000</i>
   <i type="logical" name="SELFENERGY"> F  </i>
   <i type="logical" name="LSPECTRAL"> F  </i>
   <i type="logical" name="LSPECTRALGW"> F  </i>
   <i type="logical" name="LSINGLES"> F  </i>
   <i type="logical" name="LFERMIGW"> F  </i>
   <i type="logical" name="ODDONLYGW"> F  </i>
   <i type="logical" name="EVENONLYGW"> F  </i>
   <i type="int" name="NKREDLFX">     1</i>
   <i type="int" name="NKREDLFY">     1</i>
   <i type="int" name="NKREDLFZ">     1</i>
   <i type="int" name="MAXMEM">  2800</i>
   <i type="int" name="TELESCOPE">     0</i>
   <i type="int" name="TAUPAR">     1</i>
   <i type="int" name="OMEGAPAR">    -1</i>
   <i name="LAMBDA">      1.00000000</i>
  </separator>
  <separator name="External order field" >
   <i name="OFIELD_KAPPA">      0.00000000</i>
   <v name="OFIELD_K">      0.00000000      0.00000000      0.00000000</v>
   <i name="OFIELD_Q6_NEAR">      0.00000000</i>
   <i name="OFIELD_Q6_FAR">      0.00000000</i>
   <i name="OFIELD_A">      0.00000000</i>
  </separator>
 </parameters>
 <atominfo>
  <atoms>       3 </atoms>
  <types>       2 </types>
  <array name="atoms" >
   <dimension dim="1">ion</dimension>
   <field type="string">element</field>
   <field type="int">atomtype</field>
   <set>
    <rc><c>O </c><c>   1</c></rc>
    <rc><c>H </c><c>   2</c></rc>
    <rc><c>H </c><c>   2</c></rc>
   </set>
  </array>
  <array name="atomtypes" >
   <dimension dim="1">type</dimension>
   <field type="int">atomspertype</field>
   <field type="string">element</field>
   <field>mass</field>
   <field>valence</field>
   <field type="string">pseudopotential</field>
   <set>
    <rc><c>   1</c><c>O </c><c>     16.00000000</c><c>      6.00000000</c><c>  PAW O_GW 19Mar2012                    </c></rc>
    <rc><c>   2</c><c>H </c><c>      1.00000000</c><c>      1.00000000</c><c>  PAW H_GW 21Apr2008                    </c></rc>
   </set>
  </array>
 </atominfo>
 <structure name="initialpos" >
  <crystal>
   <varray name="basis" >
    <v>      15.00000000       0.00000000       0.00000000 </v>
    <v>       0.00000000      15.00000000       0.00000000 </v>
    <v>       0.00000000       0.00000000      15.00000000 </v>
   </varray>
   <i name="volume">   3375.00000000 </i>
   <varray name="rec_basis" >
    <v>       0.06666667       0.00000000       0.00000000 </v>
    <v>       0.00000000       0.06666667       0.00000000 </v>
    <v>       0.00000000       0.00000000       0.06666667 </v>
   </varray>
  </crystal>
  <varray name="positions" >
   <v>       0.50327511       0.50327511       0.50000002 </v>
   <v>       0.56761911       0.49510578       0.49999999 </v>
   <v>       0.49510578       0.56761911       0.49999999 </v>
  </varray>
  <varray name="selective"  type="logical" >
   <v type="logical" >  T  T  T </v>
   <v type="logical" >  T  T  T </v>
   <v type="logical" >  T  T  T </v>
  </varray>
  <nose>
   <v>      -3.00000000       0.00000000       0.00010000       0.00010000 </v>
  </nose>
 </structure>
 <calculation>
  <scstep>
   <time name="dav">    2.14    2.14</time>
   <time name="total">  399.59  400.04</time>
   <energy>
    <i name="alphaZ">      0.03856038 </i>
    <i name="ewald">     99.93309384 </i>
    <i name="hartreedc">   -460.10528967 </i>
    <i name="XCdc">     29.50830651 </i>
    <i name="pawpsdc">    354.16143795 </i>
    <i name="pawaedc">   -354.16796034 </i>
    <i name="eentropy">      0.00289895 </i>
    <i name="bandstr">    -60.52496704 </i>
    <i name="atom">    464.66946796 </i>
    <i name="e_fr_energy">     73.51554854 </i>
    <i name="e_wo_entrp">     73.51264959 </i>
    <i name="e_0_energy">     73.51458222 </i>
   </energy>
  </scstep>
  <scstep>
   <time name="dav">    1.86    1.87</time>
   <time name="total">    1.86    1.87</time>
   <energy>
    <i name="e_fr_energy">     17.54647754 </i>
    <i name="e_wo_entrp">     17.54357859 </i>
    <i name="e_0_energy">     17.54551122 </i>
   </energy>
  </scstep>
  <scstep>
   <time name="dav">    2.29    2.29</time>
   <time name="total">    2.29    2.29</time>
   <energy>
    <i name="e_fr_energy">    -11.92771307 </i>
    <i name="e_wo_entrp">    -11.93061202 </i>
    <i name="e_0_energy">    -11.92867939 </i>
   </energy>
  </scstep>
  <scstep>
   <time name="dav">    1.65    1.65</time>
   <time name="total">    1.65    1.66</time>
   <energy>
    <i name="e_fr_energy">    -14.74229659 </i>
    <i name="e_wo_entrp">    -14.74519554 </i>
    <i name="e_0_energy">    -14.74326291 </i>
   </energy>
  </scstep>
  <scstep>
   <time name="dav">    1.91    1.91</time>
   <time name="total">    1.91    1.91</time>
   <energy>
    <i name="e_fr_energy">    -14.77883059 </i>
    <i name="e_wo_entrp">    -14.78172954 </i>
    <i name="e_0_energy">    -14.77979691 </i>
   </energy>
  </scstep>
  <scstep>
   <time name="dav">    2.74    2.75</time>
   <time name="total">    2.74    2.75</time>
   <energy>
    <i name="e_fr_energy">    -14.77903135 </i>
    <i name="e_wo_entrp">    -14.78193030 </i>
    <i name="e_0_energy">    -14.77999767 </i>
   </energy>
  </scstep>
  <scstep>
   <time name="dav">    2.81    2.81</time>
   <time name="total">    3.36    3.37</time>
   <energy>
    <i name="e_fr_energy">    -14.77903147 </i>
    <i name="e_wo_entrp">    -14.78193042 </i>
    <i name="e_0_energy">    -14.77999779 </i>
   </energy>
  </scstep>
  <scstep>
   <time name="diag">    0.40    0.40</time>
   <time name="diis">    1.67    1.67</time>
   <time name="orth">    0.02    0.02</time>
   <time name="total">  400.34  400.74</time>
   <energy>
    <i name="e_fr_energy">    -12.52656675 </i>
    <i name="e_wo_entrp">    -12.52946570 </i>
    <i name="e_0_energy">    -12.52753307 </i>
   </energy>
  </scstep>
  <scstep>
   <time name="diag">    0.39    0.39</time>
   <time name="diis">    1.57    1.57</time>
   <time name="orth">    0.02    0.02</time>
   <time name="total">  401.59  401.59</time>
   <energy>
    <i name="e_fr_energy">    -12.51820277 </i>
    <i name="e_wo_entrp">    -12.52110172 </i>
    <i name="e_0_energy">    -12.51916909 </i>
   </energy>
  </scstep>
  <scstep>
   <time name="diag">    0.40    0.40</time>
   <time name="diis">    1.38    1.38</time>
   <time name="orth">    0.02    0.02</time>
   <time name="total">  399.21  399.47</time>
   <energy>
    <i name="e_fr_energy">    -12.61172689 </i>
    <i name="e_wo_entrp">    -12.61462585 </i>
    <i name="e_0_energy">    -12.61269321 </i>
   </energy>
  </scstep>
  <scstep>
   <time name="diag">    0.39    0.39</time>
   <time name="diis">    1.36    1.36</time>
   <time name="orth">    0.02    0.02</time>
   <time name="total">  398.66  398.87</time>
   <energy>
    <i name="e_fr_energy">    -12.43855678 </i>
    <i name="e_wo_entrp">    -12.44145573 </i>
    <i name="e_0_energy">    -12.43952309 </i>
   </energy>
  </scstep>
  <scstep>
   <time name="diag">    0.39    0.39</time>
   <time name="diis">    1.59    1.59</time>
   <time name="orth">    0.02    0.02</time>
   <time name="total">  397.56  397.74</time>
   <energy>
    <i name="e_fr_energy">    -12.42394860 </i>
    <i name="e_wo_entrp">    -12.42684755 </i>
    <i name="e_0_energy">    -12.42491492 </i>
   </energy>
  </scstep>
  <scstep>
   <time name="diag">    0.34    0.34</time>
   <time name="diis">    1.21    1.22</time>
   <time name="orth">    0.02    0.02</time>
   <time name="total">  397.91  398.22</time>
   <energy>
    <i name="e_fr_energy">    -12.42876006 </i>
    <i name="e_wo_entrp">    -12.43165901 </i>
    <i name="e_0_energy">    -12.42972637 </i>
   </energy>
  </scstep>
  <scstep>
   <time name="diag">    0.33    0.33</time>
   <time name="diis">    1.22    1.23</time>
   <time name="orth">    0.02    0.02</time>
   <time name="total">  397.41  398.55</time>
   <energy>
    <i name="e_fr_energy">    -12.43780856 </i>
    <i name="e_wo_entrp">    -12.44070751 </i>
    <i name="e_0_energy">    -12.43877488 </i>
   </energy>
  </scstep>
  <scstep>
   <time name="diag">    0.33    0.34</time>
   <time name="diis">    1.44    1.45</time>
   <time name="orth">    0.02    0.02</time>
   <time name="total">  397.35  398.23</time>
   <energy>
    <i name="e_fr_energy">    -12.43632481 </i>
    <i name="e_wo_entrp">    -12.43922376 </i>
    <i name="e_0_energy">    -12.43729113 </i>
   </energy>
  </scstep>
  <scstep>
   <time name="diag">    0.37    0.37</time>
   <time name="diis">    1.34    1.35</time>
   <time name="orth">    0.02    0.02</time>
   <time name="total">  399.81  400.35</time>
   <energy>
    <i name="e_fr_energy">    -12.43932769 </i>
    <i name="e_wo_entrp">    -12.44222664 </i>
    <i name="e_0_energy">    -12.44029401 </i>
   </energy>
  </scstep>
  <scstep>
   <time name="diag">    0.34    0.34</time>
   <time name="diis">    1.32    1.33</time>
   <time name="orth">    0.02    0.02</time>
   <time name="total">  398.40  399.83</time>
   <energy>
    <i name="e_fr_energy">    -12.44280019 </i>
    <i name="e_wo_entrp">    -12.44569914 </i>
    <i name="e_0_energy">    -12.44376651 </i>
   </energy>
  </scstep>
  <scstep>
   <time name="diag">    0.40    0.40</time>
   <time name="diis">    1.32    1.33</time>
   <time name="orth">    0.02    0.02</time>
   <time name="total">  396.80  397.96</time>
   <energy>
    <i name="e_fr_energy">    -12.44553329 </i>
    <i name="e_wo_entrp">    -12.44843225 </i>
    <i name="e_0_energy">    -12.44649961 </i>
   </energy>
  </scstep>
  <scstep>
   <time name="diag">    0.40    0.40</time>
   <time name="diis">    1.41    1.41</time>
   <time name="orth">    0.02    0.02</time>
   <time name="total">  400.66  401.31</time>
   <energy>
    <i name="e_fr_energy">    -12.44553920 </i>
    <i name="e_wo_entrp">    -12.44843815 </i>
    <i name="e_0_energy">    -12.44650551 </i>
   </energy>
  </scstep>
  <scstep>
   <time name="diag">    0.40    0.40</time>
   <time name="diis">    1.58    1.58</time>
   <time name="orth">    0.03    0.03</time>
   <time name="total">  399.36  400.96</time>
   <energy>
    <i name="e_fr_energy">    -12.44563657 </i>
    <i name="e_wo_entrp">    -12.44853552 </i>
    <i name="e_0_energy">    -12.44660288 </i>
   </energy>
  </scstep>
  <scstep>
   <time name="diag">    0.42    0.42</time>
   <time name="diis">    1.19    1.19</time>
   <time name="orth">    0.03    0.03</time>
   <time name="total">  400.47  401.61</time>
   <energy>
    <i name="e_fr_energy">    -12.44567298 </i>
    <i name="e_wo_entrp">    -12.44857193 </i>
    <i name="e_0_energy">    -12.44663930 </i>
   </energy>
  </scstep>
  <scstep>
   <time name="diag">    0.40    0.40</time>
   <time name="diis">    1.08    1.08</time>
   <time name="orth">    0.02    0.02</time>
   <time name="total">  398.15  399.37</time>
   <energy>
    <i name="e_fr_energy">    -12.44572482 </i>
    <i name="e_wo_entrp">    -12.44862377 </i>
    <i name="e_0_energy">    -12.44669114 </i>
   </energy>
  </scstep>
  <scstep>
   <time name="diag">    0.34    0.34</time>
   <time name="diis">    0.98    0.98</time>
   <time name="orth">    0.02    0.02</time>
   <time name="total">  398.17  398.72</time>
   <energy>
    <i name="e_fr_energy">    -12.44575558 </i>
    <i name="e_wo_entrp">    -12.44865453 </i>
    <i name="e_0_energy">    -12.44672190 </i>
   </energy>
  </scstep>
  <scstep>
   <time name="diag">    0.34    0.34</time>
   <time name="diis">    1.05    1.08</time>
   <time name="orth">    0.02    0.02</time>
   <time name="total">  397.60  398.93</time>
   <energy>
    <i name="e_fr_energy">    -12.44576682 </i>
    <i name="e_wo_entrp">    -12.44866577 </i>
    <i name="e_0_energy">    -12.44673314 </i>
   </energy>
  </scstep>
  <scstep>
   <time name="diag">    0.38    0.39</time>
   <time name="diis">    1.09    1.09</time>
   <time name="orth">    0.02    0.02</time>
   <time name="total">  398.59  399.03</time>
   <energy>
    <i name="e_fr_energy">    -12.44578230 </i>
    <i name="e_wo_entrp">    -12.44868125 </i>
    <i name="e_0_energy">    -12.44674862 </i>
   </energy>
  </scstep>
  <scstep>
   <time name="diag">    0.40    0.40</time>
   <time name="diis">    0.97    0.97</time>
   <time name="orth">    0.03    0.03</time>
   <time name="total">  398.46  398.74</time>
   <energy>
    <i name="alphaZ">      0.03856038 </i>
    <i name="ewald">     99.93309384 </i>
    <i name="hartreedc">   -495.73282243 </i>
    <i name="XCdc">     31.48072777 </i>
    <i name="pawpsdc">    657.25466341 </i>
    <i name="pawaedc">   -657.55914162 </i>
    <i name="eentropy">      0.00289895 </i>
    <i name="bandstr">   -112.53323418 </i>
    <i name="atom">    464.66946796 </i>
    <i name="e_fr_energy">    -12.44578593 </i>
    <i name="e_wo_entrp">    -12.44868488 </i>
    <i name="e_0_energy">    -12.44675225 </i>
   </energy>
  </scstep>
  <structure>
   <crystal>
    <varray name="basis" >
     <v>      15.00000000       0.00000000       0.00000000 </v>
     <v>       0.00000000      15.00000000       0.00000000 </v>
     <v>       0.00000000       0.00000000      15.00000000 </v>
    </varray>
    <i name="volume">   3375.00000000 </i>
    <varray name="rec_basis" >
     <v>       0.06666667       0.00000000       0.00000000 </v>
     <v>       0.00000000       0.06666667       0.00000000 </v>
     <v>       0.00000000       0.00000000       0.06666667 </v>
    </varray>
   </crystal>
   <varray name="positions" >
    <v>       0.50327511       0.50327511       0.50000002 </v>
    <v>       0.56761911       0.49510578       0.49999999 </v>
    <v>       0.49510578       0.56761911       0.49999999 </v>
   </varray>
  </structure>
  <varray name="forces" >
   <v>       0.01489706       0.01489470      -0.00005062 </v>
   <v>      -0.01886154       0.00396474       0.00002531 </v>
   <v>       0.00396448      -0.01885944       0.00002531 </v>
  </varray>
  <varray name="stress" >
   <v>      -0.37441227      -0.00407966       0.00000310 </v>
   <v>      -0.00407971      -0.37441133       0.00000311 </v>
   <v>       0.00000312       0.00000311      -0.39128099 </v>
  </varray>
  <energy>
   <i name="e_fr_energy">    -12.44578593 </i>
   <i name="e_wo_entrp">    -12.44675225 </i>
   <i name="e_0_energy">      0.00289895 </i>
  </energy>
  <time name="totalsc"> 8816.31 8847.22</time>
 </calculation>
 <calculation>
  <scstep>
   <time name="dav">    3.08    3.09</time>
   <time name="total">  401.30  401.87</time>
   <energy>
    <i name="alphaZ">      0.03856038 </i>
    <i name="ewald">    100.13762799 </i>
    <i name="hartreedc">   -495.83765182 </i>
    <i name="XCdc">     31.48593226 </i>
    <i name="pawpsdc">    657.25667367 </i>
    <i name="pawaedc">   -657.56114447 </i>
    <i name="eentropy">      0.00289895 </i>
    <i name="bandstr">   -112.63814624 </i>
    <i name="atom">    464.66946796 </i>
    <i name="e_fr_energy">    -12.44578131 </i>
    <i name="e_wo_entrp">    -12.44868027 </i>
    <i name="e_0_energy">    -12.44674763 </i>
   </energy>
  </scstep>
  <scstep>
   <time name="diag">    0.41    0.41</time>
   <time name="diis">    1.41    1.42</time>
   <time name="orth">    0.02    0.02</time>
   <time name="total">  398.89  400.78</time>
   <energy>
    <i name="e_fr_energy">    -12.44576613 </i>
    <i name="e_wo_entrp">    -12.44866509 </i>
    <i name="e_0_energy">    -12.44673245 </i>
   </energy>
  </scstep>
  <scstep>
   <time name="diag">    0.41    0.41</time>
   <time name="diis">    1.18    1.19</time>
   <time name="orth">    0.02    0.02</time>
   <time name="total">  395.25  397.04</time>
   <energy>
    <i name="alphaZ">      0.03856038 </i>
    <i name="ewald">    100.13762799 </i>
    <i name="hartreedc">   -495.91213592 </i>
    <i name="XCdc">     31.49003759 </i>
    <i name="pawpsdc">    657.36003819 </i>
    <i name="pawaedc">   -657.66543788 </i>
    <i name="eentropy">      0.00289895 </i>
    <i name="bandstr">   -112.56682700 </i>
    <i name="atom">    464.66946796 </i>
    <i name="e_fr_energy">    -12.44576975 </i>
    <i name="e_wo_entrp">    -12.44866870 </i>
    <i name="e_0_energy">    -12.44673607 </i>
   </energy>
  </scstep>
  <structure>
   <crystal>
    <varray name="basis" >
     <v>      15.00000000       0.00000000       0.00000000 </v>
     <v>       0.00000000      15.00000000       0.00000000 </v>
     <v>       0.00000000       0.00000000      15.00000000 </v>
    </varray>
    <i name="volume">   3375.00000000 </i>
    <varray name="rec_basis" >
     <v>       0.06666667       0.00000000       0.00000000 </v>
     <v>       0.00000000       0.06666667       0.00000000 </v>
     <v>       0.00000000       0.00000000       0.06666667 </v>
    </varray>
   </crystal>
   <varray name="positions" >
    <v>       0.50330864       0.50330864       0.49999990 </v>
    <v>       0.56757665       0.49511471       0.50000005 </v>
    <v>       0.49511471       0.56757665       0.50000005 </v>
   </varray>
  </structure>
  <varray name="forces" >
   <v>      -0.02892344      -0.02891837      -0.00001207 </v>
   <v>       0.02902070      -0.00009689       0.00000603 </v>
   <v>      -0.00009726       0.02901526       0.00000603 </v>
  </varray>
  <varray name="stress" >
   <v>      -0.36153457      -0.00885454       0.00003450 </v>
   <v>      -0.00885459      -0.36153631       0.00003449 </v>
   <v>       0.00003449       0.00003449      -0.40052084 </v>
  </varray>
  <energy>
   <i name="e_fr_energy">    -12.44576975 </i>
   <i name="e_wo_entrp">    -12.44673607 </i>
   <i name="e_0_energy">      0.00289895 </i>
  </energy>
  <time name="totalsc"> 1996.53 2002.18</time>
 </calculation>
 <calculation>
  <scstep>
   <time name="dav">    3.23    3.23</time>
   <time name="total">  399.15  399.51</time>
   <energy>
    <i name="alphaZ">      0.03856038 </i>
    <i name="ewald">    100.01025411 </i>
    <i name="hartreedc">   -495.83722671 </i>
    <i name="XCdc">     31.48630678 </i>
    <i name="pawpsdc">    657.41756999 </i>
    <i name="pawaedc">   -657.72291719 </i>
    <i name="eentropy">      0.00289895 </i>
    <i name="bandstr">   -112.51070888 </i>
    <i name="atom">    464.66946796 </i>
    <i name="e_fr_energy">    -12.44579461 </i>
    <i name="e_wo_entrp">    -12.44869356 </i>
    <i name="e_0_energy">    -12.44676093 </i>
   </energy>
  </scstep>
  <scstep>
   <time name="diag">    0.38    0.38</time>
   <time name="diis">    1.28    1.29</time>
   <time name="orth">    0.02    0.02</time>
   <time name="total">  395.04  395.39</time>
   <energy>
    <i name="alphaZ">      0.03856038 </i>
    <i name="ewald">    100.01025411 </i>
    <i name="hartreedc">   -495.80278797 </i>
    <i name="XCdc">     31.48440030 </i>
    <i name="pawpsdc">    657.36231624 </i>
    <i name="pawaedc">   -657.66749914 </i>
    <i name="eentropy">      0.00289895 </i>
    <i name="bandstr">   -112.54340386 </i>
    <i name="atom">    464.66946796 </i>
    <i name="e_fr_energy">    -12.44579303 </i>
    <i name="e_wo_entrp">    -12.44869198 </i>
    <i name="e_0_energy">    -12.44675935 </i>
   </energy>
  </scstep>
  <structure>
   <crystal>
    <varray name="basis" >
     <v>      15.00000000       0.00000000       0.00000000 </v>
     <v>       0.00000000      15.00000000       0.00000000 </v>
     <v>       0.00000000       0.00000000      15.00000000 </v>
    </varray>
    <i name="volume">   3375.00000000 </i>
    <varray name="rec_basis" >
     <v>       0.06666667       0.00000000       0.00000000 </v>
     <v>       0.00000000       0.06666667       0.00000000 </v>
     <v>       0.00000000       0.00000000       0.06666667 </v>
    </varray>
   </crystal>
   <varray name="positions" >
    <v>       0.50328777       0.50328777       0.49999997 </v>
    <v>       0.56760308       0.49510915       0.50000001 </v>
    <v>       0.49510915       0.56760308       0.50000001 </v>
   </varray>
  </structure>
  <varray name="forces" >
   <v>      -0.00289618      -0.00289763      -0.00008889 </v>
   <v>       0.00159814       0.00129975       0.00004446 </v>
   <v>       0.00129804       0.00159788       0.00004443 </v>
  </varray>
  <varray name="stress" >
   <v>      -0.37208671      -0.00682641      -0.00000712 </v>
   <v>      -0.00682647      -0.37208690      -0.00000710 </v>
   <v>      -0.00000712      -0.00000710      -0.39881326 </v>
  </varray>
  <energy>
   <i name="e_fr_energy">    -12.44579303 </i>
   <i name="e_wo_entrp">    -12.44675935 </i>
   <i name="e_0_energy">      0.00289895 </i>
  </energy>
  <time name="totalsc"> 1588.84 1595.24</time>
  <eigenvalues>
   <array>
    <dimension dim="1">band</dimension>
    <dimension dim="2">kpoint</dimension>
    <dimension dim="3">spin</dimension>
    <field>eigene</field>
    <field>occ</field>
    <set>
     <set comment="spin 1">
      <set comment="kpoint 1">
       <r>  -25.5319    1.0000 </r>
       <r>  -13.4481    1.0000 </r>
       <r>   -9.6879    1.0000 </r>
       <r>   -7.6038    1.0000 </r>
       <r>   -1.4776    0.0000 </r>
       <r>   -0.0643    0.0000 </r>
       <r>    0.0257    0.0000 </r>
       <r>    0.2841    0.0000 </r>
      </set>
     </set>
    </set>
   </array>
  </eigenvalues>
  <separator name="orbital magnetization" >
   <v name="MAGDIPOLOUT">      0.00000000      0.00000000      0.00000000</v>
  </separator>
  <dos>
   <i name="efermi">     -7.56171328 </i>
   <total>
    <array>
     <dimension dim="1">gridpoints</dimension>
     <dimension dim="2">spin</dimension>
     <field>energy</field>
     <field>total</field>
     <field>integrated</field>
     <set>
      <set comment="spin 1">
       <r>   -26.8227     0.0000     0.0000 </r>
       <r>   -26.7280     0.0000     0.0000 </r>
       <r>   -26.6334     0.0000     0.0000 </r>
       <r>   -26.5387     0.0000     0.0000 </r>
       <r>   -26.4440     0.0000     0.0000 </r>
       <r>   -26.3494     0.0000     0.0000 </r>
       <r>   -26.2547     0.0000     0.0000 </r>
       <r>   -26.1601     0.0000     0.0000 </r>
       <r>   -26.0654     0.0000     0.0000 </r>
       <r>   -25.9707    -0.0000    -0.0000 </r>
       <r>   -25.8761    -0.0000    -0.0000 </r>
       <r>   -25.7814    -0.0000    -0.0000 </r>
       <r>   -25.6868    -0.0011    -0.0001 </r>
       <r>   -25.5921    -0.7467    -0.0708 </r>
       <r>   -25.4975    20.9418     1.9115 </r>
       <r>   -25.4028     0.9514     2.0016 </r>
       <r>   -25.3081    -0.0169     2.0000 </r>
       <r>   -25.2135    -0.0000     2.0000 </r>
       <r>   -25.1188     0.0000     2.0000 </r>
       <r>   -25.0242     0.0000     2.0000 </r>
       <r>   -24.9295     0.0000     2.0000 </r>
       <r>   -24.8348     0.0000     2.0000 </r>
       <r>   -24.7402     0.0000     2.0000 </r>
       <r>   -24.6455     0.0000     2.0000 </r>
       <r>   -24.5509     0.0000     2.0000 </r>
       <r>   -24.4562     0.0000     2.0000 </r>
       <r>   -24.3615     0.0000     2.0000 </r>
       <r>   -24.2669     0.0000     2.0000 </r>
       <r>   -24.1722     0.0000     2.0000 </r>
       <r>   -24.0776     0.0000     2.0000 </r>
       <r>   -23.9829     0.0000     2.0000 </r>
       <r>   -23.8883     0.0000     2.0000 </r>
       <r>   -23.7936     0.0000     2.0000 </r>
       <r>   -23.6989     0.0000     2.0000 </r>
       <r>   -23.6043     0.0000     2.0000 </r>
       <r>   -23.5096     0.0000     2.0000 </r>
       <r>   -23.4150     0.0000     2.0000 </r>
       <r>   -23.3203     0.0000     2.0000 </r>
       <r>   -23.2256     0.0000     2.0000 </r>
       <r>   -23.1310     0.0000     2.0000 </r>
       <r>   -23.0363     0.0000     2.0000 </r>
       <r>   -22.9417     0.0000     2.0000 </r>
       <r>   -22.8470     0.0000     2.0000 </r>
       <r>   -22.7523     0.0000     2.0000 </r>
       <r>   -22.6577     0.0000     2.0000 </r>
       <r>   -22.5630     0.0000     2.0000 </r>
       <r>   -22.4684     0.0000     2.0000 </r>
       <r>   -22.3737     0.0000     2.0000 </r>
       <r>   -22.2791     0.0000     2.0000 </r>
       <r>   -22.1844     0.0000     2.0000 </r>
       <r>   -22.0897     0.0000     2.0000 </r>
       <r>   -21.9951     0.0000     2.0000 </r>
       <r>   -21.9004     0.0000     2.0000 </r>
       <r>   -21.8058     0.0000     2.0000 </r>
       <r>   -21.7111     0.0000     2.0000 </r>
       <r>   -21.6164     0.0000     2.0000 </r>
       <r>   -21.5218     0.0000     2.0000 </r>
       <r>   -21.4271     0.0000     2.0000 </r>
       <r>   -21.3325     0.0000     2.0000 </r>
       <r>   -21.2378     0.0000     2.0000 </r>
       <r>   -21.1432     0.0000     2.0000 </r>
       <r>   -21.0485     0.0000     2.0000 </r>
       <r>   -20.9538     0.0000     2.0000 </r>
       <r>   -20.8592     0.0000     2.0000 </r>
       <r>   -20.7645     0.0000     2.0000 </r>
       <r>   -20.6699     0.0000     2.0000 </r>
       <r>   -20.5752     0.0000     2.0000 </r>
       <r>   -20.4805     0.0000     2.0000 </r>
       <r>   -20.3859     0.0000     2.0000 </r>
       <r>   -20.2912     0.0000     2.0000 </r>
       <r>   -20.1966     0.0000     2.0000 </r>
       <r>   -20.1019     0.0000     2.0000 </r>
       <r>   -20.0072     0.0000     2.0000 </r>
       <r>   -19.9126     0.0000     2.0000 </r>
       <r>   -19.8179     0.0000     2.0000 </r>
       <r>   -19.7233     0.0000     2.0000 </r>
       <r>   -19.6286     0.0000     2.0000 </r>
       <r>   -19.5340     0.0000     2.0000 </r>
       <r>   -19.4393     0.0000     2.0000 </r>
       <r>   -19.3446     0.0000     2.0000 </r>
       <r>   -19.2500     0.0000     2.0000 </r>
       <r>   -19.1553     0.0000     2.0000 </r>
       <r>   -19.0607     0.0000     2.0000 </r>
       <r>   -18.9660     0.0000     2.0000 </r>
       <r>   -18.8713     0.0000     2.0000 </r>
       <r>   -18.7767     0.0000     2.0000 </r>
       <r>   -18.6820     0.0000     2.0000 </r>
       <r>   -18.5874     0.0000     2.0000 </r>
       <r>   -18.4927     0.0000     2.0000 </r>
       <r>   -18.3980     0.0000     2.0000 </r>
       <r>   -18.3034     0.0000     2.0000 </r>
       <r>   -18.2087     0.0000     2.0000 </r>
       <r>   -18.1141     0.0000     2.0000 </r>
       <r>   -18.0194     0.0000     2.0000 </r>
       <r>   -17.9248     0.0000     2.0000 </r>
       <r>   -17.8301     0.0000     2.0000 </r>
       <r>   -17.7354     0.0000     2.0000 </r>
       <r>   -17.6408     0.0000     2.0000 </r>
       <r>   -17.5461     0.0000     2.0000 </r>
       <r>   -17.4515     0.0000     2.0000 </r>
       <r>   -17.3568     0.0000     2.0000 </r>
       <r>   -17.2621     0.0000     2.0000 </r>
       <r>   -17.1675     0.0000     2.0000 </r>
       <r>   -17.0728     0.0000     2.0000 </r>
       <r>   -16.9782     0.0000     2.0000 </r>
       <r>   -16.8835     0.0000     2.0000 </r>
       <r>   -16.7889     0.0000     2.0000 </r>
       <r>   -16.6942     0.0000     2.0000 </r>
       <r>   -16.5995     0.0000     2.0000 </r>
       <r>   -16.5049     0.0000     2.0000 </r>
       <r>   -16.4102     0.0000     2.0000 </r>
       <r>   -16.3156     0.0000     2.0000 </r>
       <r>   -16.2209     0.0000     2.0000 </r>
       <r>   -16.1262     0.0000     2.0000 </r>
       <r>   -16.0316     0.0000     2.0000 </r>
       <r>   -15.9369     0.0000     2.0000 </r>
       <r>   -15.8423     0.0000     2.0000 </r>
       <r>   -15.7476     0.0000     2.0000 </r>
       <r>   -15.6529     0.0000     2.0000 </r>
       <r>   -15.5583     0.0000     2.0000 </r>
       <r>   -15.4636     0.0000     2.0000 </r>
       <r>   -15.3690     0.0000     2.0000 </r>
       <r>   -15.2743     0.0000     2.0000 </r>
       <r>   -15.1797     0.0000     2.0000 </r>
       <r>   -15.0850     0.0000     2.0000 </r>
       <r>   -14.9903     0.0000     2.0000 </r>
       <r>   -14.8957     0.0000     2.0000 </r>
       <r>   -14.8010     0.0000     2.0000 </r>
       <r>   -14.7064     0.0000     2.0000 </r>
       <r>   -14.6117     0.0000     2.0000 </r>
       <r>   -14.5170     0.0000     2.0000 </r>
       <r>   -14.4224     0.0000     2.0000 </r>
       <r>   -14.3277     0.0000     2.0000 </r>
       <r>   -14.2331     0.0000     2.0000 </r>
       <r>   -14.1384     0.0000     2.0000 </r>
       <r>   -14.0437     0.0000     2.0000 </r>
       <r>   -13.9491     0.0000     2.0000 </r>
       <r>   -13.8544    -0.0000     2.0000 </r>
       <r>   -13.7598    -0.0000     2.0000 </r>
       <r>   -13.6651    -0.0000     2.0000 </r>
       <r>   -13.5705    -0.0310     1.9971 </r>
       <r>   -13.4758     2.1859     2.2040 </r>
       <r>   -13.3811    19.6861     4.0674 </r>
       <r>   -13.2865    -0.7120     4.0000 </r>
       <r>   -13.1918    -0.0005     4.0000 </r>
       <r>   -13.0972    -0.0000     4.0000 </r>
       <r>   -13.0025     0.0000     4.0000 </r>
       <r>   -12.9078     0.0000     4.0000 </r>
       <r>   -12.8132     0.0000     4.0000 </r>
       <r>   -12.7185     0.0000     4.0000 </r>
       <r>   -12.6239     0.0000     4.0000 </r>
       <r>   -12.5292     0.0000     4.0000 </r>
       <r>   -12.4346     0.0000     4.0000 </r>
       <r>   -12.3399     0.0000     4.0000 </r>
       <r>   -12.2452     0.0000     4.0000 </r>
       <r>   -12.1506     0.0000     4.0000 </r>
       <r>   -12.0559     0.0000     4.0000 </r>
       <r>   -11.9613     0.0000     4.0000 </r>
       <r>   -11.8666     0.0000     4.0000 </r>
       <r>   -11.7719     0.0000     4.0000 </r>
       <r>   -11.6773     0.0000     4.0000 </r>
       <r>   -11.5826     0.0000     4.0000 </r>
       <r>   -11.4880     0.0000     4.0000 </r>
       <r>   -11.3933     0.0000     4.0000 </r>
       <r>   -11.2986     0.0000     4.0000 </r>
       <r>   -11.2040     0.0000     4.0000 </r>
       <r>   -11.1093     0.0000     4.0000 </r>
       <r>   -11.0147     0.0000     4.0000 </r>
       <r>   -10.9200     0.0000     4.0000 </r>
       <r>   -10.8254     0.0000     4.0000 </r>
       <r>   -10.7307     0.0000     4.0000 </r>
       <r>   -10.6360     0.0000     4.0000 </r>
       <r>   -10.5414     0.0000     4.0000 </r>
       <r>   -10.4467     0.0000     4.0000 </r>
       <r>   -10.3521     0.0000     4.0000 </r>
       <r>   -10.2574     0.0000     4.0000 </r>
       <r>   -10.1627    -0.0000     4.0000 </r>
       <r>   -10.0681    -0.0000     4.0000 </r>
       <r>    -9.9734    -0.0000     4.0000 </r>
       <r>    -9.8788    -0.0000     4.0000 </r>
       <r>    -9.7841    -0.2141     3.9797 </r>
       <r>    -9.6894    10.2233     4.9475 </r>
       <r>    -9.5948    11.3763     6.0243 </r>
       <r>    -9.5001    -0.2569     6.0000 </r>
       <r>    -9.4055    -0.0000     6.0000 </r>
       <r>    -9.3108    -0.0000     6.0000 </r>
       <r>    -9.2162     0.0000     6.0000 </r>
       <r>    -9.1215     0.0000     6.0000 </r>
       <r>    -9.0268     0.0000     6.0000 </r>
       <r>    -8.9322     0.0000     6.0000 </r>
       <r>    -8.8375     0.0000     6.0000 </r>
       <r>    -8.7429     0.0000     6.0000 </r>
       <r>    -8.6482     0.0000     6.0000 </r>
       <r>    -8.5535     0.0000     6.0000 </r>
       <r>    -8.4589     0.0000     6.0000 </r>
       <r>    -8.3642     0.0000     6.0000 </r>
       <r>    -8.2696     0.0000     6.0000 </r>
       <r>    -8.1749     0.0000     6.0000 </r>
       <r>    -8.0802    -0.0000     6.0000 </r>
       <r>    -7.9856    -0.0000     6.0000 </r>
       <r>    -7.8909    -0.0000     6.0000 </r>
       <r>    -7.7963    -0.0000     6.0000 </r>
       <r>    -7.7016    -0.1941     5.9816 </r>
       <r>    -7.6070     9.6348     6.8936 </r>
       <r>    -7.5123    11.9688     8.0266 </r>
       <r>    -7.4176    -0.2809     8.0000 </r>
       <r>    -7.3230    -0.0000     8.0000 </r>
       <r>    -7.2283    -0.0000     8.0000 </r>
       <r>    -7.1337     0.0000     8.0000 </r>
       <r>    -7.0390     0.0000     8.0000 </r>
       <r>    -6.9443     0.0000     8.0000 </r>
       <r>    -6.8497     0.0000     8.0000 </r>
       <r>    -6.7550     0.0000     8.0000 </r>
       <r>    -6.6604     0.0000     8.0000 </r>
       <r>    -6.5657     0.0000     8.0000 </r>
       <r>    -6.4711     0.0000     8.0000 </r>
       <r>    -6.3764     0.0000     8.0000 </r>
       <r>    -6.2817     0.0000     8.0000 </r>
       <r>    -6.1871     0.0000     8.0000 </r>
       <r>    -6.0924     0.0000     8.0000 </r>
       <r>    -5.9978     0.0000     8.0000 </r>
       <r>    -5.9031     0.0000     8.0000 </r>
       <r>    -5.8084     0.0000     8.0000 </r>
       <r>    -5.7138     0.0000     8.0000 </r>
       <r>    -5.6191     0.0000     8.0000 </r>
       <r>    -5.5245     0.0000     8.0000 </r>
       <r>    -5.4298     0.0000     8.0000 </r>
       <r>    -5.3351     0.0000     8.0000 </r>
       <r>    -5.2405     0.0000     8.0000 </r>
       <r>    -5.1458     0.0000     8.0000 </r>
       <r>    -5.0512     0.0000     8.0000 </r>
       <r>    -4.9565     0.0000     8.0000 </r>
       <r>    -4.8619     0.0000     8.0000 </r>
       <r>    -4.7672     0.0000     8.0000 </r>
       <r>    -4.6725     0.0000     8.0000 </r>
       <r>    -4.5779     0.0000     8.0000 </r>
       <r>    -4.4832     0.0000     8.0000 </r>
       <r>    -4.3886     0.0000     8.0000 </r>
       <r>    -4.2939     0.0000     8.0000 </r>
       <r>    -4.1992     0.0000     8.0000 </r>
       <r>    -4.1046     0.0000     8.0000 </r>
       <r>    -4.0099     0.0000     8.0000 </r>
       <r>    -3.9153     0.0000     8.0000 </r>
       <r>    -3.8206     0.0000     8.0000 </r>
       <r>    -3.7259     0.0000     8.0000 </r>
       <r>    -3.6313     0.0000     8.0000 </r>
       <r>    -3.5366     0.0000     8.0000 </r>
       <r>    -3.4420     0.0000     8.0000 </r>
       <r>    -3.3473     0.0000     8.0000 </r>
       <r>    -3.2527     0.0000     8.0000 </r>
       <r>    -3.1580     0.0000     8.0000 </r>
       <r>    -3.0633     0.0000     8.0000 </r>
       <r>    -2.9687     0.0000     8.0000 </r>
       <r>    -2.8740     0.0000     8.0000 </r>
       <r>    -2.7794     0.0000     8.0000 </r>
       <r>    -2.6847     0.0000     8.0000 </r>
       <r>    -2.5900     0.0000     8.0000 </r>
       <r>    -2.4954     0.0000     8.0000 </r>
       <r>    -2.4007     0.0000     8.0000 </r>
       <r>    -2.3061     0.0000     8.0000 </r>
       <r>    -2.2114     0.0000     8.0000 </r>
       <r>    -2.1168     0.0000     8.0000 </r>
       <r>    -2.0221     0.0000     8.0000 </r>
       <r>    -1.9274    -0.0000     8.0000 </r>
       <r>    -1.8328    -0.0000     8.0000 </r>
       <r>    -1.7381    -0.0000     8.0000 </r>
       <r>    -1.6435    -0.0003     8.0000 </r>
       <r>    -1.5488    -0.6522     7.9382 </r>
       <r>    -1.4541    18.6751     9.7060 </r>
       <r>    -1.3595     3.1501    10.0042 </r>
       <r>    -1.2648    -0.0442    10.0000 </r>
       <r>    -1.1702    -0.0000    10.0000 </r>
       <r>    -1.0755     0.0000    10.0000 </r>
       <r>    -0.9808     0.0000    10.0000 </r>
       <r>    -0.8862     0.0000    10.0000 </r>
       <r>    -0.7915     0.0000    10.0000 </r>
       <r>    -0.6969     0.0000    10.0000 </r>
       <r>    -0.6022     0.0000    10.0000 </r>
       <r>    -0.5076    -0.0000    10.0000 </r>
       <r>    -0.4129    -0.0000    10.0000 </r>
       <r>    -0.3182    -0.0000    10.0000 </r>
       <r>    -0.2236    -0.0007     9.9999 </r>
       <r>    -0.1289    -0.7361     9.9303 </r>
       <r>    -0.0343    19.4363    11.7701 </r>
       <r>     0.0604    22.6963    13.9185 </r>
       <r>     0.1551     0.8608    14.0000 </r>
       <r>     0.2497     0.9350    14.0885 </r>
       <r>     0.3444    20.9418    16.0708 </r>
       <r>     0.4390    -0.7467    16.0001 </r>
       <r>     0.5337    -0.0011    16.0000 </r>
       <r>     0.6284    -0.0000    16.0000 </r>
       <r>     0.7230     0.0000    16.0000 </r>
       <r>     0.8177     0.0000    16.0000 </r>
       <r>     0.9123     0.0000    16.0000 </r>
       <r>     1.0070     0.0000    16.0000 </r>
       <r>     1.1016     0.0000    16.0000 </r>
       <r>     1.1963     0.0000    16.0000 </r>
       <r>     1.2910     0.0000    16.0000 </r>
       <r>     1.3856     0.0000    16.0000 </r>
       <r>     1.4803     0.0000    16.0000 </r>
       <r>     1.5749     0.0000    16.0000 </r>
      </set>
     </set>
    </array>
   </total>
  </dos>
 </calculation>
 <structure name="finalpos" >
  <crystal>
   <varray name="basis" >
    <v>      15.00000000       0.00000000       0.00000000 </v>
    <v>       0.00000000      15.00000000       0.00000000 </v>
    <v>       0.00000000       0.00000000      15.00000000 </v>
   </varray>
   <i name="volume">   3375.00000000 </i>
   <varray name="rec_basis" >
    <v>       0.06666667       0.00000000       0.00000000 </v>
    <v>       0.00000000       0.06666667       0.00000000 </v>
    <v>       0.00000000       0.00000000       0.06666667 </v>
   </varray>
  </crystal>
  <varray name="positions" >
   <v>       0.50328777       0.50328777       0.49999997 </v>
   <v>       0.56760308       0.49510915       0.50000001 </v>
   <v>       0.49510915       0.56760308       0.50000001 </v>
  </varray>
  <varray name="selective"  type="logical" >
   <v type="logical" >  T  T  T </v>
   <v type="logical" >  T  T  T </v>
   <v type="logical" >  T  T  T </v>
  </varray>
  <nose>
   <v>      -3.00000000       0.00000000       0.00010000       0.00010000 </v>
  </nose>
 </structure>
</modeling>
