V2O5                                    
           1
    15.000000    0.000000    0.000000
     0.000000   15.000000    0.000000
     0.000000    0.000000   15.000000
   O    H 
   1   2
Direct configuration=     1
   0.50327511  0.50327511  0.50000002
   0.56761911  0.49510578  0.49999999
   0.49510578  0.56761911  0.49999999
Direct configuration=     2
   0.50330864  0.50330864  0.49999990
   0.56757665  0.49511471  0.50000005
   0.49511471  0.56757665  0.50000005
Direct configuration=     3
   0.50328777  0.50328777  0.49999997
   0.56760308  0.49510915  0.50000001
   0.49510915  0.56760308  0.50000001
