V2O5                                    
   1.0000000000000000     
    15.0000000000000000    0.0000000000000000    0.0000000000000000
     0.0000000000000000   15.0000000000000000    0.0000000000000000
     0.0000000000000000    0.0000000000000000   15.0000000000000018
   O    H 
     1     2
Selective dynamics
Direct
  0.5031803060338667  0.5031803095203654  0.5000001978583406   T   T   T
  0.5675482607284987  0.4952714328827237  0.4999999009383043   T   T   T
  0.4952714332376372  0.5675482575969135  0.4999999012033625   T   T   T

  0.00000000E+00  0.00000000E+00  0.00000000E+00
  0.00000000E+00  0.00000000E+00  0.00000000E+00
  0.00000000E+00  0.00000000E+00  0.00000000E+00
