Al2C                                    
   1.0000000000000000     
     6.0191999999999997    0.0000000000000000    0.0000000000000000
     0.0000000000000000   10.1400000000000006    0.0000000000000000
     0.0000000000000000    0.0000000000000000   15.0000000000000000
   Al   C    Se   H 
     8     4     1     2
Selective dynamics
Direct
  0.3443361370706787  0.8675660973332737  0.2478675769878217   T   T   T
  0.8426504433526296  0.8676025159136500  0.2483588280924803   T   T   T
  0.3281150038101893  0.6182505647154911  0.2909839948940732   T   T   T
  0.8597608341138345  0.6182118644128340  0.2912661257028021   T   T   T
  0.3373949951759020  0.3684862812208879  0.2561921064650406   T   T   T
  0.8498429175477580  0.3685783978164616  0.2558489274696019   T   T   T
  0.3428009703410000  0.1117445777636050  0.2393187533540820   T   T   T
  0.8441100073209631  0.1117721312855338  0.2388462525352777   T   T   T
  0.0934843808074444 -0.0095858484012003  0.2386507394609580   T   T   T
  0.5935147019025194 -0.0086578920167770  0.2424115207462039   T   T   T
  0.0937472604743800  0.4903447580357880  0.2484809311225124   T   T   T
  0.5938121945336946  0.4871104212449734  0.3031230197949988   T   T   T
  0.0950073310870767  0.6368222395054205  0.4367174359759913   T   T   T
  0.5937968041624742  0.4589397990589617  0.3750578724782443   T   T   T
  0.0957968848598027  0.7807075832353516  0.4568759149198942   T   T   T

  0.00000000E+00  0.00000000E+00  0.00000000E+00
  0.00000000E+00  0.00000000E+00  0.00000000E+00
  0.00000000E+00  0.00000000E+00  0.00000000E+00
  0.00000000E+00  0.00000000E+00  0.00000000E+00
  0.00000000E+00  0.00000000E+00  0.00000000E+00
  0.00000000E+00  0.00000000E+00  0.00000000E+00
  0.00000000E+00  0.00000000E+00  0.00000000E+00
  0.00000000E+00  0.00000000E+00  0.00000000E+00
  0.00000000E+00  0.00000000E+00  0.00000000E+00
  0.00000000E+00  0.00000000E+00  0.00000000E+00
  0.00000000E+00  0.00000000E+00  0.00000000E+00
  0.00000000E+00  0.00000000E+00  0.00000000E+00
  0.00000000E+00  0.00000000E+00  0.00000000E+00
  0.00000000E+00  0.00000000E+00  0.00000000E+00
  0.00000000E+00  0.00000000E+00  0.00000000E+00
