Al   C    Se   H                        
   1.0000000000000000     
     6.0191999999999997    0.0000000000000000    0.0000000000000000
     0.0000000000000000   10.1400000000000006    0.0000000000000000
     0.0000000000000000    0.0000000000000000   15.0000000000000000
   Al   C    Se   H 
     8     4     1     2
Selective dynamics
Direct
  0.4007986060389328  0.8654389011438681  0.2378513389026509   T   T   T
  0.8996314659695983  0.8652775534509161  0.2370557205642498   T   T   T
  0.4039426603975471  0.6083991878716404  0.2518656111704374   T   T   T
  0.8908627542969114  0.6084902353221793  0.2519550736126845   T   T   T
  0.4111081902407392  0.3599171929756153  0.2893513594272790   T   T   T
  0.8801657323356977  0.3595326038038635  0.2890738125386463   T   T   T
  0.3997093362639816  0.1095009127012787  0.2482082345566639   T   T   T
  0.9005066264002295  0.1088293156362283  0.2501816163572528   T   T   T
  0.1501752699370584  0.9857172967104333  0.2431183045820262   T   T   T
  0.6501356393430555  0.9866745711056595  0.2377642196758316   T   T   T
  0.1459827303450822  0.4910087134263819  0.2989178948312556   T   T   T
  0.6474211458106041  0.4861833241749807  0.2449081431539213   T   T   T
  0.6242433910145451  0.3587638775547646  0.4357516180780081   T   T   T
  0.5856641796734792  0.2241551251285756  0.4728678658056538   T   T   T
  0.1492321404231731  0.5196779495567654  0.3707066573567772   T   T   T

  0.00000000E+00  0.00000000E+00  0.00000000E+00
  0.00000000E+00  0.00000000E+00  0.00000000E+00
  0.00000000E+00  0.00000000E+00  0.00000000E+00
  0.00000000E+00  0.00000000E+00  0.00000000E+00
  0.00000000E+00  0.00000000E+00  0.00000000E+00
  0.00000000E+00  0.00000000E+00  0.00000000E+00
  0.00000000E+00  0.00000000E+00  0.00000000E+00
  0.00000000E+00  0.00000000E+00  0.00000000E+00
  0.00000000E+00  0.00000000E+00  0.00000000E+00
  0.00000000E+00  0.00000000E+00  0.00000000E+00
  0.00000000E+00  0.00000000E+00  0.00000000E+00
  0.00000000E+00  0.00000000E+00  0.00000000E+00
  0.00000000E+00  0.00000000E+00  0.00000000E+00
  0.00000000E+00  0.00000000E+00  0.00000000E+00
  0.00000000E+00  0.00000000E+00  0.00000000E+00
