   15   15  999    1
  0.6103469E+02  0.6019200E-09  0.1014000E-08  0.1500000E-08  0.3500000E-15
   1.0000000000000000E-004
  CAR 
 Al2C                                    
     48      8     32

  0.3742002E-15  0.3742002E-15  0.1262379E-14  0.6666667E-01
    1      -15.663458   1.000000
    2      -14.473859   1.000000
    3      -13.639817   1.000000
    4      -12.583725   1.000000
    5      -11.513684   1.000000
    6       -8.809752   1.000000
    7       -8.739046   1.000000
    8       -8.445455   1.000000
    9       -7.792348   1.000000
   10       -7.284964   1.000000
   11       -6.510725   1.000000
   12       -6.200914   1.000000
   13       -5.758240   1.000000
   14       -5.236909   1.000000
   15       -4.960483   1.000000
   16       -4.702324   1.000000
   17       -4.411897   1.000000
   18       -4.153395   1.000000
   19       -3.526251   1.000000
   20       -3.468346   1.000000
   21       -3.049080   1.000000
   22       -2.766908   1.000000
   23       -2.444811   1.000000
   24       -2.136865   1.000000
   25       -1.360450   0.000000
   26       -0.909626   0.000000
   27       -0.009009   0.000000
   28        0.054145   0.000000
   29        0.270099   0.000000
   30        0.474960   0.000000
   31        0.549048   0.000000
   32        1.078450   0.000000

  0.2000000E+00  0.3742002E-15  0.1262379E-14  0.1333333E+00
    1      -15.648696   1.000000
    2      -14.421951   1.000000
    3      -13.515681   1.000000
    4      -12.772133   1.000000
    5      -11.894134   1.000000
    6       -8.682245   1.000000
    7       -8.450427   1.000000
    8       -7.914219   1.000000
    9       -7.680671   1.000000
   10       -7.197308   1.000000
   11       -6.552971   1.000000
   12       -6.441497   1.000000
   13       -6.059988   1.000000
   14       -5.264421   1.000000
   15       -4.809536   1.000000
   16       -4.626707   1.000000
   17       -4.363577   1.000000
   18       -4.124886   1.000000
   19       -3.832297   1.000000
   20       -3.480071   1.000000
   21       -3.454065   1.000000
   22       -3.219123   1.000000
   23       -2.602687   1.000000
   24       -2.430972   1.000000
   25       -1.125787   0.000000
   26       -0.270215   0.000000
   27       -0.055542   0.000000
   28        0.254585   0.000000
   29        0.501597   0.000000
   30        0.654579   0.000000
   31        0.783789   0.000000
   32        0.930359   0.000000

  0.4000000E+00  0.3742002E-15  0.1262379E-14  0.1333333E+00
    1      -15.624888   1.000000
    2      -14.312815   1.000000
    3      -13.168202   1.000000
    4      -13.059537   1.000000
    5      -12.566554   1.000000
    6       -8.348131   1.000000
    7       -8.116267   1.000000
    8       -7.713292   1.000000
    9       -7.323886   1.000000
   10       -6.699220   1.000000
   11       -6.500600   1.000000
   12       -6.215434   1.000000
   13       -5.834792   1.000000
   14       -5.755148   1.000000
   15       -5.161071   1.000000
   16       -5.006586   1.000000
   17       -4.826762   1.000000
   18       -4.347518   1.000000
   19       -4.161122   1.000000
   20       -4.002654   1.000000
   21       -3.417076   1.000000
   22       -3.291955   1.000000
   23       -2.860643   1.000000
   24       -2.454902   1.000000
   25       -0.849569   0.000000
   26       -0.303678   0.000000
   27        0.040931   0.000000
   28        0.789270   0.000000
   29        0.866012   0.000000
   30        1.030584   0.000000
   31        1.339054   0.000000
   32        1.419840   0.000000

  0.3742002E-15  0.3333333E+00  0.1262379E-14  0.1333333E+00
    1      -15.663291   1.000000
    2      -14.472345   1.000000
    3      -13.643649   1.000000
    4      -12.585474   1.000000
    5      -11.514541   1.000000
    6       -8.689173   1.000000
    7       -8.591733   1.000000
    8       -8.509416   1.000000
    9       -7.937149   1.000000
   10       -7.488186   1.000000
   11       -6.976810   1.000000
   12       -5.737497   1.000000
   13       -5.290482   1.000000
   14       -5.157276   1.000000
   15       -5.034233   1.000000
   16       -4.630172   1.000000
   17       -4.369483   1.000000
   18       -4.087511   1.000000
   19       -3.608441   1.000000
   20       -3.566959   1.000000
   21       -3.233920   1.000000
   22       -3.061987   1.000000
   23       -2.767180   1.000000
   24       -2.129768   1.000000
   25       -1.159517   0.000000
   26       -0.651423   0.000000
   27       -0.112179   0.000000
   28        0.083862   0.000000
   29        0.419617   0.000000
   30        0.723119   0.000000
   31        0.852910   0.000000
   32        0.903992   0.000000

  0.2000000E+00  0.3333333E+00  0.1262379E-14  0.1333333E+00
    1      -15.648555   1.000000
    2      -14.420573   1.000000
    3      -13.518628   1.000000
    4      -12.773675   1.000000
    5      -11.895947   1.000000
    6       -8.518479   1.000000
    7       -8.406406   1.000000
    8       -7.943681   1.000000
    9       -7.772407   1.000000
   10       -7.361665   1.000000
   11       -6.976476   1.000000
   12       -6.345105   1.000000
   13       -5.670428   1.000000
   14       -5.188049   1.000000
   15       -4.723430   1.000000
   16       -4.512706   1.000000
   17       -4.366661   1.000000
   18       -4.066617   1.000000
   19       -3.751277   1.000000
   20       -3.528327   1.000000
   21       -3.425529   1.000000
   22       -3.261356   1.000000
   23       -2.938256   1.000000
   24       -2.602830   1.000000
   25       -1.047471   0.000000
   26       -0.319239   0.000000
   27       -0.077665   0.000000
   28        0.194958   0.000000
   29        0.453397   0.000000
   30        0.754856   0.000000
   31        0.844822   0.000000
   32        1.058073   0.000000

  0.4000000E+00  0.3333333E+00  0.1262379E-14  0.1333333E+00
    1      -15.624820   1.000000
    2      -14.311962   1.000000
    3      -13.157143   1.000000
    4      -13.071788   1.000000
    5      -12.571443   1.000000
    6       -8.248899   1.000000
    7       -8.123910   1.000000
    8       -7.567996   1.000000
    9       -7.180027   1.000000
   10       -7.003342   1.000000
   11       -6.675888   1.000000
   12       -6.482410   1.000000
   13       -6.280368   1.000000
   14       -5.334232   1.000000
   15       -5.040592   1.000000
   16       -4.834078   1.000000
   17       -4.582832   1.000000
   18       -4.156686   1.000000
   19       -4.031684   1.000000
   20       -3.866696   1.000000
   21       -3.478998   1.000000
   22       -3.317661   1.000000
   23       -3.085226   1.000000
   24       -2.758753   1.000000
   25       -0.888497   0.000000
   26       -0.215959   0.000000
   27        0.125896   0.000000
   28        0.546634   0.000000
   29        0.759336   0.000000
   30        0.923174   0.000000
   31        1.056850   0.000000
   32        1.298142   0.000000

 -0.4000000E+00  0.3333333E+00  0.1262379E-14  0.1333333E+00
    1      -15.624821   1.000000
    2      -14.311978   1.000000
    3      -13.156219   1.000000
    4      -13.072794   1.000000
    5      -12.571350   1.000000
    6       -8.240156   1.000000
    7       -8.131854   1.000000
    8       -7.576145   1.000000
    9       -7.196703   1.000000
   10       -6.972399   1.000000
   11       -6.670638   1.000000
   12       -6.472337   1.000000
   13       -6.298379   1.000000
   14       -5.353122   1.000000
   15       -5.038045   1.000000
   16       -4.829263   1.000000
   17       -4.597136   1.000000
   18       -4.116687   1.000000
   19       -4.025197   1.000000
   20       -3.875319   1.000000
   21       -3.480893   1.000000
   22       -3.320407   1.000000
   23       -3.106633   1.000000
   24       -2.750367   1.000000
   25       -0.872575   0.000000
   26       -0.232783   0.000000
   27        0.090998   0.000000
   28        0.593828   0.000000
   29        0.784742   0.000000
   30        0.912420   0.000000
   31        1.050566   0.000000
   32        1.253525   0.000000

 -0.2000000E+00  0.3333333E+00  0.1262379E-14  0.1333333E+00
    1      -15.648556   1.000000
    2      -14.420594   1.000000
    3      -13.518526   1.000000
    4      -12.773795   1.000000
    5      -11.895920   1.000000
    6       -8.515343   1.000000
    7       -8.406026   1.000000
    8       -7.941228   1.000000
    9       -7.792014   1.000000
   10       -7.350422   1.000000
   11       -6.972422   1.000000
   12       -6.330537   1.000000
   13       -5.677525   1.000000
   14       -5.227359   1.000000
   15       -4.726634   1.000000
   16       -4.489610   1.000000
   17       -4.352060   1.000000
   18       -4.058949   1.000000
   19       -3.746440   1.000000
   20       -3.531416   1.000000
   21       -3.418821   1.000000
   22       -3.292424   1.000000
   23       -2.922771   1.000000
   24       -2.603547   1.000000
   25       -1.037945   0.000000
   26       -0.387825   0.000000
   27       -0.066675   0.000000
   28        0.225005   0.000000
   29        0.508486   0.000000
   30        0.774750   0.000000
   31        0.794315   0.000000
   32        1.035490   0.000000
