       N       E                     dE             d eps       ncg     rms          rms(c)
DAV:   1     0.303186160851E+03    0.30319E+03   -0.13387E+04   512   0.924E+02
DAV:   2    -0.723188442657E+01   -0.31042E+03   -0.29321E+03   728   0.216E+02
DAV:   3    -0.871679806993E+02   -0.79936E+02   -0.78811E+02   832   0.102E+02
DAV:   4    -0.900381468028E+02   -0.28702E+01   -0.28626E+01   656   0.241E+01
DAV:   5    -0.901510658878E+02   -0.11292E+00   -0.11287E+00   824   0.485E+00
DAV:   6    -0.901524864858E+02   -0.14206E-02   -0.14202E-02   664   0.648E-01
DAV:   7    -0.901525798791E+02   -0.93393E-04   -0.93386E-04   832   0.120E-01    0.185E+01
DAV:   8    -0.729291092289E+02    0.17223E+02   -0.71404E+01   648   0.427E+01    0.545E+00
DAV:   9    -0.727410688689E+02    0.18804E+00   -0.60689E+00   640   0.116E+01    0.379E+00
DAV:  10    -0.722305440091E+02    0.51052E+00   -0.16097E+00   736   0.734E+00    0.113E+00
DAV:  11    -0.721653010660E+02    0.65243E-01   -0.17939E-01   728   0.233E+00    0.577E-01
DAV:  12    -0.721560217010E+02    0.92794E-02   -0.15374E-01   752   0.174E+00    0.357E-01
DAV:  13    -0.721499198360E+02    0.61019E-02   -0.24661E-02   752   0.859E-01    0.179E-01
DAV:  14    -0.721424524345E+02    0.74674E-02   -0.22492E-02   640   0.592E-01    0.125E-01
DAV:  15    -0.721434676318E+02   -0.10152E-02   -0.36130E-03   712   0.336E-01    0.797E-02
DAV:  16    -0.721461090077E+02   -0.26414E-02   -0.33909E-03   672   0.279E-01    0.759E-02
DAV:  17    -0.721473105042E+02   -0.12015E-02   -0.96388E-04   656   0.176E-01    0.353E-02
DAV:  18    -0.721488202244E+02   -0.15097E-02   -0.12612E-03   736   0.163E-01    0.417E-02
DAV:  19    -0.721508187469E+02   -0.19985E-02   -0.61269E-04   712   0.127E-01    0.121E-02
DAV:  20    -0.721515225791E+02   -0.70383E-03   -0.12690E-04   616   0.539E-02    0.882E-03
DAV:  21    -0.721521598954E+02   -0.63732E-03   -0.11575E-04   608   0.399E-02    0.642E-03
DAV:  22    -0.721522870473E+02   -0.12715E-03   -0.18044E-05   704   0.213E-02    0.435E-03
DAV:  23    -0.721523867211E+02   -0.99674E-04   -0.15459E-05   584   0.162E-02    0.143E-03
DAV:  24    -0.721524172825E+02   -0.30561E-04   -0.35754E-06   560   0.683E-03    0.112E-03
DAV:  25    -0.721524301097E+02   -0.12827E-04   -0.13255E-06   512   0.401E-03    0.504E-04
DAV:  26    -0.721524337493E+02   -0.36395E-05   -0.35099E-07   424   0.254E-03    0.307E-04
DAV:  27    -0.721524362025E+02   -0.24532E-05   -0.41175E-07   416   0.231E-03    0.267E-04
DAV:  28    -0.721524368910E+02   -0.68850E-06   -0.15269E-07   424   0.169E-03
   1 F= -.72152437E+02 E0= -.72152437E+02  d E =-.721524E+02
