Al   C    Se   H                        
   1.0000000000000000     
     6.0191999999999997    0.0000000000000000    0.0000000000000000
     0.0000000000000000   10.1400000000000006    0.0000000000000000
     0.0000000000000000    0.0000000000000000   15.0000000000000000
   Al   C    Se   H 
     8     4     1     2
Selective dynamics
Direct
  0.4007986060389345  0.8654389011438697  0.2378513389026535   T   T   T
  0.8996314659695972  0.8652775534509135  0.2370557205642517   T   T   T
  0.4039426603975504  0.6083991878716385  0.2518656111704404   T   T   T
  0.8908627542969144  0.6084902353221757  0.2519550736126827   T   T   T
  0.4111081902407403  0.3599171929756150  0.2893513594272789   T   T   T
  0.8801657323356979  0.3595326038038625  0.2890738125386471   T   T   T
  0.3997093362639836  0.1095009127012781  0.2482082345566664   T   T   T
  0.9005066264002277  0.1088293156362266  0.2501816163572537   T   T   T
  0.1501752699370570  0.9857172967104348  0.2431183045820247   T   T   T
  0.6501356393430548  0.9866745711056585  0.2377642196758308   T   T   T
  0.1459827303450792  0.4910087134263789  0.2989178948312552   T   T   T
  0.6474211458106073  0.4861833241749799  0.2449081431539178   T   T   T
  0.6242433910145443  0.3587638775547660  0.4357516180780109   T   T   T
  0.5856641796734762  0.2241551251285769  0.4728678658056522   T   T   T
  0.1492321404231705  0.5196779495567655  0.3707066573567785   T   T   T

  0.00000000E+00  0.00000000E+00  0.00000000E+00
  0.00000000E+00  0.00000000E+00  0.00000000E+00
  0.00000000E+00  0.00000000E+00  0.00000000E+00
  0.00000000E+00  0.00000000E+00  0.00000000E+00
  0.00000000E+00  0.00000000E+00  0.00000000E+00
  0.00000000E+00  0.00000000E+00  0.00000000E+00
  0.00000000E+00  0.00000000E+00  0.00000000E+00
  0.00000000E+00  0.00000000E+00  0.00000000E+00
  0.00000000E+00  0.00000000E+00  0.00000000E+00
  0.00000000E+00  0.00000000E+00  0.00000000E+00
  0.00000000E+00  0.00000000E+00  0.00000000E+00
  0.00000000E+00  0.00000000E+00  0.00000000E+00
  0.00000000E+00  0.00000000E+00  0.00000000E+00
  0.00000000E+00  0.00000000E+00  0.00000000E+00
  0.00000000E+00  0.00000000E+00  0.00000000E+00
