Al2C                                    
           1
     6.019200    0.000000    0.000000
     0.000000   10.140000    0.000000
     0.000000    0.000000   15.000000
   Al   C    Se   H 
   8   4   1   2
Direct configuration=     1
   0.40079861  0.86543890  0.23785134
   0.89963147  0.86527755  0.23705572
   0.40394266  0.60839919  0.25186561
   0.89086275  0.60849024  0.25195507
   0.41110819  0.35991719  0.28935136
   0.88016573  0.35953260  0.28907381
   0.39970934  0.10950091  0.24820823
   0.90050663  0.10882932  0.25018162
   0.15017527  0.98571730  0.24311830
   0.65013564  0.98667457  0.23776422
   0.14598273  0.49100871  0.29891789
   0.64742115  0.48618332  0.24490814
   0.62424339  0.35876388  0.43575162
   0.58566418  0.22415513  0.47286787
   0.14923214  0.51967795  0.37070666
