Al   C    Te   H                        
   1.0000000000000000     
     6.0191999999999997    0.0000000000000000    0.0000000000000000
     0.0000000000000000   10.1400000000000006    0.0000000000000000
     0.0000000000000000    0.0000000000000000   15.0000000000000000
   Al   C    Te   H 
     8     4     1     2
Selective dynamics
Direct
  0.4055557147718860  0.8718366777565193  0.2511020373316680   T   T   T
  0.9086794216939326  0.8710492860262915  0.2423414822445571   T   T   T
  0.4185516233092003  0.6163709779604588  0.2592270216118076   T   T   T
  0.9158159820112779  0.6159884148269202  0.2616500145086866   T   T   T
  0.4294869064028278  0.3626383148639984  0.2596795508315095   T   T   T
  0.9057008693564511  0.3668423238569823  0.2661927923223524   T   T   T
  0.4086887523406788  0.1138316037944463  0.2359449148507424   T   T   T
  0.9038029795714405  0.1139309738392903  0.2504679535092229   T   T   T
  0.1565904173586712  0.9934962484025986  0.2453553416249679   T   T   T
  0.6570065280697280  0.9899431751730587  0.2415283280305096   T   T   T
  0.1704480624594912  0.4869502315299624  0.2896110867155999   T   T   T
  0.6682139885643908  0.4971044046464798  0.2442852228189916   T   T   T
  0.5633527490555186  0.3518722876058822  0.4427190996163458   T   T   T
  0.4010644169150824  0.2445616153793331  0.4995996473934661   T   T   T
  0.2470367327918606  0.4545600557166931  0.3593499233708071   T   T   T

  0.00000000E+00  0.00000000E+00  0.00000000E+00
  0.00000000E+00  0.00000000E+00  0.00000000E+00
  0.00000000E+00  0.00000000E+00  0.00000000E+00
  0.00000000E+00  0.00000000E+00  0.00000000E+00
  0.00000000E+00  0.00000000E+00  0.00000000E+00
  0.00000000E+00  0.00000000E+00  0.00000000E+00
  0.00000000E+00  0.00000000E+00  0.00000000E+00
  0.00000000E+00  0.00000000E+00  0.00000000E+00
  0.00000000E+00  0.00000000E+00  0.00000000E+00
  0.00000000E+00  0.00000000E+00  0.00000000E+00
  0.00000000E+00  0.00000000E+00  0.00000000E+00
  0.00000000E+00  0.00000000E+00  0.00000000E+00
  0.00000000E+00  0.00000000E+00  0.00000000E+00
  0.00000000E+00  0.00000000E+00  0.00000000E+00
  0.00000000E+00  0.00000000E+00  0.00000000E+00
