Al   C    Te   H                        
   1.0000000000000000     
     6.0191999999999997    0.0000000000000000    0.0000000000000000
     0.0000000000000000   10.1400000000000006    0.0000000000000000
     0.0000000000000000    0.0000000000000000   15.0000000000000000
   Al   C    Te   H 
     8     4     1     2
Selective dynamics
Direct
  0.4065514015681366  0.8717083131512119  0.2511977065263233   T   T   T
  0.9095591537090008  0.8709592735979047  0.2424216584528853   T   T   T
  0.4192300172767351  0.6162257212405645  0.2588031242969755   T   T   T
  0.9161170407693138  0.6159309533387356  0.2613594768123458   T   T   T
  0.4300109479784999  0.3624798327463905  0.2599861776046146   T   T   T
  0.9064873828282948  0.3668069144442132  0.2657037247302504   T   T   T
  0.4095922912540613  0.1137427029429029  0.2362850163564922   T   T   T
  0.9047946695534297  0.1137698406516691  0.2508302397068341   T   T   T
  0.1575412655841029  0.9933331361488087  0.2456160014838023   T   T   T
  0.6579465647762351  0.9898689256395767  0.2419095789578995   T   T   T
  0.1707404858288877  0.4871469411680327  0.2892123459641776   T   T   T
  0.6687497854060158  0.4968306692013797  0.2440341900966314   T   T   T
  0.5610361991415423  0.3513110408787176  0.4430690920611292   T   T   T
  0.3951802421465634  0.2453168052535449  0.4993832813555393   T   T   T
  0.2457512817956324  0.4554036405728599  0.3591013700175652   T   T   T

  0.00000000E+00  0.00000000E+00  0.00000000E+00
  0.00000000E+00  0.00000000E+00  0.00000000E+00
  0.00000000E+00  0.00000000E+00  0.00000000E+00
  0.00000000E+00  0.00000000E+00  0.00000000E+00
  0.00000000E+00  0.00000000E+00  0.00000000E+00
  0.00000000E+00  0.00000000E+00  0.00000000E+00
  0.00000000E+00  0.00000000E+00  0.00000000E+00
  0.00000000E+00  0.00000000E+00  0.00000000E+00
  0.00000000E+00  0.00000000E+00  0.00000000E+00
  0.00000000E+00  0.00000000E+00  0.00000000E+00
  0.00000000E+00  0.00000000E+00  0.00000000E+00
  0.00000000E+00  0.00000000E+00  0.00000000E+00
  0.00000000E+00  0.00000000E+00  0.00000000E+00
  0.00000000E+00  0.00000000E+00  0.00000000E+00
  0.00000000E+00  0.00000000E+00  0.00000000E+00
