 vasp.5.4.4.18Apr17-6-g9f103f2a35 (build Dec  6 2019 17:49:40) complex           
 POSCAR found type information on POSCAR  Al C  Te H 
 04/POSCAR found :  4 types and      15 ions
 scaLAPACK will be used
 LDA part: xc-table for Pade appr. of Perdew
 POSCAR found type information on POSCAR  Al C  Te H 
 00/POSCAR found :  4 types and      15 ions
 POSCAR found type information on POSCAR  Al C  Te H 
 09/POSCAR found :  4 types and      15 ions
 Jacobian:    15.248877391123434     
 POSCAR, INCAR and KPOINTS ok, starting setup
 FFT: planning ...
 WAVECAR not read
 entering main loop
       N       E                     dE             d eps       ncg     rms          rms(c)
DAV:   1     0.310691928638E+03    0.31069E+03   -0.13212E+04   512   0.925E+02
DAV:   2    -0.576905491414E+01   -0.31646E+03   -0.29824E+03   760   0.220E+02
DAV:   3    -0.847146236702E+02   -0.78946E+02   -0.77877E+02   832   0.101E+02
DAV:   4    -0.880231923984E+02   -0.33086E+01   -0.32972E+01   656   0.253E+01
DAV:   5    -0.881938965055E+02   -0.17070E+00   -0.17063E+00   848   0.640E+00
DAV:   6    -0.881968911702E+02   -0.29947E-02   -0.29937E-02   704   0.824E-01
DAV:   7    -0.881971048887E+02   -0.21372E-03   -0.21370E-03   896   0.185E-01    0.184E+01
DAV:   8    -0.710848271734E+02    0.17112E+02   -0.71705E+01   608   0.421E+01    0.528E+00
DAV:   9    -0.709657838814E+02    0.11904E+00   -0.60344E+00   664   0.121E+01    0.373E+00
DAV:  10    -0.705104712515E+02    0.45531E+00   -0.15465E+00   760   0.756E+00    0.109E+00
DAV:  11    -0.704526229300E+02    0.57848E-01   -0.16469E-01   680   0.238E+00    0.582E-01
DAV:  12    -0.704514247693E+02    0.11982E-02   -0.19618E-01   752   0.202E+00    0.414E-01
DAV:  13    -0.704455301201E+02    0.58946E-02   -0.21615E-02   696   0.847E-01    0.219E-01
DAV:  14    -0.704411869241E+02    0.43432E-02   -0.37097E-02   728   0.853E-01    0.169E-01
DAV:  15    -0.704411804378E+02    0.64864E-05   -0.39159E-03   736   0.401E-01    0.102E-01
DAV:  16    -0.704442042645E+02   -0.30238E-02   -0.87470E-03   736   0.452E-01    0.103E-01
DAV:  17    -0.704457513034E+02   -0.15470E-02   -0.12636E-03   688   0.218E-01    0.602E-02
DAV:  18    -0.704470563780E+02   -0.13051E-02   -0.21493E-03   744   0.218E-01    0.360E-02
DAV:  19    -0.704488434312E+02   -0.17871E-02   -0.39963E-04   656   0.107E-01    0.214E-02
DAV:  20    -0.704491790655E+02   -0.33563E-03   -0.18437E-04   744   0.631E-02    0.127E-02
DAV:  21    -0.704497262400E+02   -0.54717E-03   -0.13188E-04   688   0.588E-02    0.985E-03
DAV:  22    -0.704499797336E+02   -0.25349E-03   -0.38956E-05   624   0.320E-02    0.909E-03
DAV:  23    -0.704501279596E+02   -0.14823E-03   -0.29760E-05   640   0.236E-02    0.268E-03
DAV:  24    -0.704501672380E+02   -0.39278E-04   -0.16551E-05   768   0.182E-02    0.488E-03
DAV:  25    -0.704501813293E+02   -0.14091E-04   -0.45301E-06   616   0.112E-02    0.152E-03
DAV:  26    -0.704501876739E+02   -0.63446E-05   -0.15617E-06   432   0.675E-03    0.551E-04
DAV:  27    -0.704501911355E+02   -0.34616E-05   -0.11097E-06   432   0.495E-03    0.820E-04
DAV:  28    -0.704501924061E+02   -0.12706E-05   -0.36535E-07   448   0.341E-03    0.727E-04
DAV:  29    -0.704501932544E+02   -0.84827E-06   -0.31350E-07   424   0.378E-03
   1 F= -.70450193E+02 E0= -.70450193E+02  d E =-.704502E+02
 BRION: g(F)=  0.793E-03 g(S)=  0.000E+00
 bond charge predicted
       N       E                     dE             d eps       ncg     rms          rms(c)
DAV:   1    -0.704512762402E+02   -0.10838E-02   -0.29201E-03   608   0.360E-01    0.865E-03
DAV:   2    -0.704512804869E+02   -0.42466E-05   -0.53472E-05   632   0.385E-02    0.589E-03
DAV:   3    -0.704512803540E+02    0.13287E-06   -0.39692E-06   688   0.116E-02
   2 F= -.70451280E+02 E0= -.70451280E+02  d E =-.108710E-02
 BRION: g(F)=  0.794E-03 g(S)=  0.000E+00 retain N=  1 mean eig= 0.86
 eig:   0.864
 bond charge predicted
       N       E                     dE             d eps       ncg     rms          rms(c)
DAV:   1    -0.704516537001E+02   -0.37321E-03   -0.35137E-04   608   0.126E-01    0.352E-03
DAV:   2    -0.704516542978E+02   -0.59776E-06   -0.66862E-06   680   0.132E-02
   3 F= -.70451654E+02 E0= -.70451654E+02  d E =-.373944E-03
 BRION: g(F)=  0.797E-03 g(S)=  0.000E+00 retain N=  2 mean eig= 2.17
 eig:   2.174  2.174
 bond charge predicted
       N       E                     dE             d eps       ncg     rms          rms(c)
DAV:   1    -0.704478921326E+02    0.37616E-02   -0.36428E-02   584   0.127E+00    0.294E-02
DAV:   2    -0.704479453326E+02   -0.53200E-04   -0.67762E-04   656   0.137E-01    0.202E-02
DAV:   3    -0.704479417243E+02    0.36083E-05   -0.44386E-05   832   0.385E-02    0.892E-03
DAV:   4    -0.704479421150E+02   -0.39071E-06   -0.82243E-06   640   0.142E-02
   4 F= -.70447942E+02 E0= -.70447942E+02  d E =0.371218E-02
 BRION: g(F)=  0.799E-03 g(S)=  0.000E+00 retain N=  2 mean eig= 4.83
 eig:   4.832  4.832
 bond charge predicted
       N       E                     dE             d eps       ncg     rms          rms(c)
DAV:   1    -0.704500838399E+02   -0.21421E-02   -0.11866E-02   576   0.729E-01    0.170E-02
DAV:   2    -0.704501005347E+02   -0.16695E-04   -0.21750E-04   656   0.775E-02    0.117E-02
DAV:   3    -0.704500992735E+02    0.12613E-05   -0.14718E-05   832   0.220E-02    0.485E-03
DAV:   4    -0.704500995219E+02   -0.24840E-06   -0.24046E-06   552   0.785E-03
   5 F= -.70450100E+02 E0= -.70450100E+02  d E =-.215741E-02
 BRION: g(F)=  0.779E-03 g(S)=  0.000E+00 retain N=  1 mean eig= 0.97
 eig:   0.971
 bond charge predicted
       N       E                     dE             d eps       ncg     rms          rms(c)
DAV:   1    -0.704528796133E+02   -0.27803E-02   -0.19947E-02   576   0.939E-01    0.228E-02
DAV:   2    -0.704529086981E+02   -0.29085E-04   -0.36385E-04   648   0.992E-02    0.155E-02
DAV:   3    -0.704529073947E+02    0.13034E-05   -0.26609E-05   824   0.293E-02    0.674E-03
DAV:   4    -0.704529077886E+02   -0.39397E-06   -0.40634E-06   584   0.103E-02
   6 F= -.70452908E+02 E0= -.70452908E+02  d E =-.280827E-02
 BRION: g(F)=  0.796E-03 g(S)=  0.000E+00 retain N=  2 mean eig= 3.11
 eig:   1.194  5.031
 bond charge predicted
       N       E                     dE             d eps       ncg     rms          rms(c)
DAV:   1    -0.704522315952E+02    0.67580E-03   -0.11911E-03   576   0.230E-01    0.540E-03
DAV:   2    -0.704522331219E+02   -0.15267E-05   -0.21767E-05   640   0.245E-02    0.368E-03
DAV:   3    -0.704522329803E+02    0.14160E-06   -0.99233E-07   392   0.688E-03
   7 F= -.70452233E+02 E0= -.70452233E+02  d E =0.674808E-03
 BRION: g(F)=  0.805E-03 g(S)=  0.000E+00 retain N=  2 mean eig= 6.73
 eig:   5.657  7.793
 bond charge predicted
       N       E                     dE             d eps       ncg     rms          rms(c)
DAV:   1    -0.704546327599E+02   -0.23996E-02   -0.16279E-02   584   0.846E-01    0.203E-02
DAV:   2    -0.704546555394E+02   -0.22779E-04   -0.29489E-04   640   0.891E-02    0.139E-02
DAV:   3    -0.704546538760E+02    0.16634E-05   -0.20081E-05   832   0.256E-02    0.600E-03
DAV:   4    -0.704546542246E+02   -0.34857E-06   -0.34982E-06   576   0.936E-03
   8 F= -.70454654E+02 E0= -.70454654E+02  d E =-.242124E-02
 BRION: g(F)=  0.823E-03 g(S)=  0.000E+00 retain N=  2 mean eig= 6.15
 eig:   5.329  6.979
 bond charge predicted
       N       E                     dE             d eps       ncg     rms          rms(c)
DAV:   1    -0.704609989447E+02   -0.63451E-02   -0.11690E-01   576   0.227E+00    0.552E-02
DAV:   2    -0.704611647206E+02   -0.16578E-03   -0.20933E-03   656   0.236E-01    0.377E-02
DAV:   3    -0.704611531466E+02    0.11574E-04   -0.14171E-04   832   0.681E-02    0.161E-02
DAV:   4    -0.704611550283E+02   -0.18817E-05   -0.24717E-05   656   0.245E-02    0.569E-03
DAV:   5    -0.704611550358E+02   -0.75340E-08   -0.56253E-06   632   0.140E-02
   9 F= -.70461155E+02 E0= -.70461155E+02  d E =-.650081E-02
 BRION: g(F)=  0.888E-03 g(S)=  0.000E+00 BRIONS problems: POTIM should be increased
 retain N=  1 mean eig=15.26
 eig:  15.265
 bond charge predicted
       N       E                     dE             d eps       ncg     rms          rms(c)
DAV:   1    -0.704425835382E+02    0.18571E-01   -0.82200E-01   568   0.602E+00    0.146E-01
DAV:   2    -0.704437611306E+02   -0.11776E-02   -0.15011E-02   648   0.638E-01    0.989E-02
DAV:   3    -0.704436855029E+02    0.75628E-04   -0.10321E-03   824   0.184E-01    0.409E-02
DAV:   4    -0.704436950064E+02   -0.95035E-05   -0.16398E-04   672   0.640E-02    0.148E-02
DAV:   5    -0.704436943309E+02    0.67550E-06   -0.41257E-05   752   0.361E-02    0.599E-03
DAV:   6    -0.704436942397E+02    0.91149E-07   -0.47481E-06   632   0.129E-02
  10 F= -.70443694E+02 E0= -.70443694E+02  d E =0.174608E-01
 BRION: g(F)=  0.796E-03 g(S)=  0.000E+00 BRIONS problems: POTIM should be increased
 retain N=  1 mean eig=16.01
 eig:  16.008
 bond charge predicted
       N       E                     dE             d eps       ncg     rms          rms(c)
DAV:   1    -0.704471450431E+02   -0.34507E-02   -0.29298E-02   568   0.114E+00    0.274E-02
DAV:   2    -0.704471848399E+02   -0.39797E-04   -0.52112E-04   640   0.119E-01    0.188E-02
DAV:   3    -0.704471823691E+02    0.24708E-05   -0.43523E-05   824   0.375E-02    0.783E-03
DAV:   4    -0.704471830746E+02   -0.70554E-06   -0.61269E-06   608   0.130E-02
  11 F= -.70447183E+02 E0= -.70447183E+02  d E =-.348883E-02
 BRION: g(F)=  0.780E-03 g(S)=  0.000E+00 retain N=  1 mean eig= 0.90
 eig:   0.903
 bond charge predicted
       N       E                     dE             d eps       ncg     rms          rms(c)
DAV:   1    -0.704471175420E+02    0.64827E-04   -0.70208E-05   616   0.550E-02    0.161E-03
DAV:   2    -0.704471176488E+02   -0.10678E-06   -0.14472E-06   440   0.708E-03
  12 F= -.70447118E+02 E0= -.70447118E+02  d E =0.654258E-04
 BRION: g(F)=  0.787E-03 g(S)=  0.000E+00 retain N=  1 mean eig= 0.99
 eig:   0.987
 bond charge predicted
       N       E                     dE             d eps       ncg     rms          rms(c)
DAV:   1    -0.704482878091E+02   -0.11703E-02   -0.35357E-03   568   0.395E-01    0.945E-03
DAV:   2    -0.704482929622E+02   -0.51530E-05   -0.63939E-05   656   0.416E-02    0.638E-03
DAV:   3    -0.704482927464E+02    0.21579E-06   -0.42070E-06   704   0.119E-02
  13 F= -.70448293E+02 E0= -.70448293E+02  d E =-.117510E-02
 BRION: g(F)=  0.790E-03 g(S)=  0.000E+00 retain N=  1 mean eig= 0.54
 eig:   0.538
 bond charge predicted
       N       E                     dE             d eps       ncg     rms          rms(c)
DAV:   1    -0.704485277667E+02   -0.23480E-03   -0.10403E-04   536   0.709E-02    0.211E-03
DAV:   2    -0.704485279605E+02   -0.19388E-06   -0.19728E-06   504   0.842E-03
  14 F= -.70448528E+02 E0= -.70448528E+02  d E =-.235214E-03
 BRION: g(F)=  0.779E-03 g(S)=  0.000E+00 retain N=  2 mean eig= 1.04
 eig:   1.044  1.044
 bond charge predicted
       N       E                     dE             d eps       ncg     rms          rms(c)
DAV:   1    -0.704519974196E+02   -0.34697E-02   -0.30131E-02   560   0.116E+00    0.281E-02
DAV:   2    -0.704520414228E+02   -0.44003E-04   -0.55843E-04   648   0.124E-01    0.191E-02
DAV:   3    -0.704520390396E+02    0.23832E-05   -0.41519E-05   832   0.366E-02    0.821E-03
DAV:   4    -0.704520396124E+02   -0.57286E-06   -0.68377E-06   640   0.131E-02
  15 F= -.70452040E+02 E0= -.70452040E+02  d E =-.351165E-02
 BRION: g(F)=  0.804E-03 g(S)=  0.000E+00 retain N=  2 mean eig= 3.25
 eig:   1.169  5.341
 bond charge predicted
       N       E                     dE             d eps       ncg     rms          rms(c)
DAV:   1    -0.704473112553E+02    0.47278E-02   -0.54852E-02   560   0.156E+00    0.371E-02
DAV:   2    -0.704473900326E+02   -0.78777E-04   -0.10150E-03   632   0.167E-01    0.252E-02
DAV:   3    -0.704473854530E+02    0.45796E-05   -0.70193E-05   832   0.478E-02    0.107E-02
DAV:   4    -0.704473860898E+02   -0.63682E-06   -0.11432E-05   640   0.168E-02    0.372E-03
DAV:   5    -0.704473859469E+02    0.14290E-06   -0.21836E-06   528   0.928E-03
  16 F= -.70447386E+02 E0= -.70447386E+02  d E =0.465367E-02
 BRION: g(F)=  0.804E-03 g(S)=  0.000E+00 BRIONS problems: POTIM should be increased
 retain N=  1 mean eig= 8.51
 eig:   8.514
 bond charge predicted
       N       E                     dE             d eps       ncg     rms          rms(c)
DAV:   1    -0.704505165315E+02   -0.31304E-02   -0.25838E-02   568   0.107E+00    0.255E-02
DAV:   2    -0.704505535451E+02   -0.37014E-04   -0.47121E-04   640   0.113E-01    0.175E-02
DAV:   3    -0.704505509084E+02    0.26367E-05   -0.31129E-05   832   0.322E-02    0.741E-03
DAV:   4    -0.704505514542E+02   -0.54578E-06   -0.56034E-06   600   0.117E-02
  17 F= -.70450551E+02 E0= -.70450551E+02  d E =-.316551E-02
 BRION: g(F)=  0.790E-03 g(S)=  0.000E+00 retain N=  1 mean eig= 0.65
 eig:   0.653
 bond charge predicted
       N       E                     dE             d eps       ncg     rms          rms(c)
DAV:   1    -0.704511304550E+02   -0.57955E-03   -0.94825E-04   576   0.204E-01    0.524E-03
DAV:   2    -0.704511319816E+02   -0.15266E-05   -0.17776E-05   664   0.217E-02    0.354E-03
DAV:   3    -0.704511319021E+02    0.79457E-07   -0.87264E-07   424   0.668E-03
  18 F= -.70451132E+02 E0= -.70451132E+02  d E =-.580448E-03
 BRION: g(F)=  0.804E-03 g(S)=  0.000E+00 retain N=  1 mean eig= 1.38
 eig:   1.383
 bond charge predicted
       N       E                     dE             d eps       ncg     rms          rms(c)
DAV:   1    -0.704511986254E+02   -0.66644E-04   -0.72985E-06   648   0.178E-02    0.952E-04
DAV:   2    -0.704511986348E+02   -0.94208E-08   -0.19130E-07   328   0.302E-03
  19 F= -.70451199E+02 E0= -.70451199E+02  d E =-.667327E-04
 BRION: g(F)=  0.805E-03 g(S)=  0.000E+00 retain N=  1 mean eig= 0.61
 eig:   0.613
 bond charge predicted
       N       E                     dE             d eps       ncg     rms          rms(c)
DAV:   1    -0.704522003840E+02   -0.10018E-02   -0.30758E-03   560   0.371E-01    0.884E-03
DAV:   2    -0.704522049937E+02   -0.46097E-05   -0.58689E-05   672   0.402E-02    0.612E-03
DAV:   3    -0.704522046275E+02    0.36614E-06   -0.40002E-06   680   0.119E-02
  20 F= -.70452205E+02 E0= -.70452205E+02  d E =-.100599E-02
 BRION: g(F)=  0.808E-03 g(S)=  0.000E+00 retain N=  1 mean eig= 1.57
 eig:   1.567
 bond charge predicted
       N       E                     dE             d eps       ncg     rms          rms(c)
DAV:   1    -0.704525223464E+02   -0.31735E-03   -0.25380E-04   568   0.106E-01    0.314E-03
DAV:   2    -0.704525227776E+02   -0.43120E-06   -0.46800E-06   648   0.110E-02
  21 F= -.70452523E+02 E0= -.70452523E+02  d E =-.318150E-03
 BRION: g(F)=  0.808E-03 g(S)=  0.000E+00 retain N=  2 mean eig= 3.38
 eig:   1.259  5.503
 bond charge predicted
       N       E                     dE             d eps       ncg     rms          rms(c)
DAV:   1    -0.704525355923E+02   -0.13246E-04   -0.67445E-05   520   0.553E-02    0.123E-03
DAV:   2    -0.704525356935E+02   -0.10113E-06   -0.16883E-06   464   0.762E-03
  22 F= -.70452536E+02 E0= -.70452536E+02  d E =-.129158E-04
 BRION: g(F)=  0.818E-03 g(S)=  0.000E+00 retain N=  3 mean eig= 2.58
 eig:   6.457  1.130  0.162
 bond charge predicted
       N       E                     dE             d eps       ncg     rms          rms(c)
DAV:   1    -0.704523237098E+02    0.21188E-03   -0.10913E-04   576   0.680E-02    0.162E-03
DAV:   2    -0.704523238279E+02   -0.11806E-06   -0.17398E-06   448   0.727E-03
  23 F= -.70452324E+02 E0= -.70452324E+02  d E =0.211866E-03
 BRION: g(F)=  0.823E-03 g(S)=  0.000E+00 retain N=  4 mean eig= 3.77
 eig:   6.187  7.081  1.015  0.786
 bond charge predicted
       N       E                     dE             d eps       ncg     rms          rms(c)
DAV:   1    -0.704561276457E+02   -0.38039E-02   -0.32369E-02   568   0.117E+00    0.297E-02
DAV:   2    -0.704561722972E+02   -0.44652E-04   -0.56223E-04   640   0.123E-01    0.199E-02
DAV:   3    -0.704561706075E+02    0.16897E-05   -0.45488E-05   832   0.373E-02    0.837E-03
DAV:   4    -0.704561711437E+02   -0.53622E-06   -0.62083E-06   640   0.128E-02
  24 F= -.70456171E+02 E0= -.70456171E+02  d E =-.384732E-02
 BRION: g(F)=  0.909E-03 g(S)=  0.000E+00 retain N=  4 mean eig= 2.17
 eig:   5.513  1.776  1.030  0.372
 bond charge predicted
       N       E                     dE             d eps       ncg     rms          rms(c)
DAV:   1    -0.704619578442E+02   -0.57872E-02   -0.88156E-02   568   0.195E+00    0.493E-02
DAV:   2    -0.704620884219E+02   -0.13058E-03   -0.16127E-03   664   0.206E-01    0.336E-02
DAV:   3    -0.704620810718E+02    0.73500E-05   -0.11492E-04   832   0.611E-02    0.141E-02
DAV:   4    -0.704620824178E+02   -0.13460E-05   -0.17952E-05   656   0.215E-02    0.525E-03
DAV:   5    -0.704620823726E+02    0.45263E-07   -0.49583E-06   640   0.131E-02
  25 F= -.70462082E+02 E0= -.70462082E+02  d E =-.591123E-02
 BRION: g(F)=  0.950E-03 g(S)=  0.000E+00 BRIONS problems: POTIM should be increased
 retain N=  1 mean eig=12.20
 eig:  12.200
 bond charge predicted
       N       E                     dE             d eps       ncg     rms          rms(c)
DAV:   1    -0.704520545576E+02    0.10028E-01   -0.23593E-01   568   0.320E+00    0.797E-02
DAV:   2    -0.704523859862E+02   -0.33143E-03   -0.42216E-03   648   0.338E-01    0.539E-02
DAV:   3    -0.704523654584E+02    0.20528E-04   -0.30539E-04   832   0.994E-02    0.217E-02
DAV:   4    -0.704523686485E+02   -0.31901E-05   -0.46188E-05   648   0.343E-02    0.830E-03
DAV:   5    -0.704523682009E+02    0.44756E-06   -0.13364E-05   736   0.207E-02    0.313E-03
DAV:   6    -0.704523682113E+02   -0.10379E-07   -0.15202E-06   456   0.762E-03
  26 F= -.70452368E+02 E0= -.70452368E+02  d E =0.971416E-02
 BRION: g(F)=  0.859E-03 g(S)=  0.000E+00 retain N=  1 mean eig= 2.56
 eig:   2.560
 bond charge predicted
       N       E                     dE             d eps       ncg     rms          rms(c)
DAV:   1    -0.704562623830E+02   -0.38942E-02   -0.40723E-02   568   0.134E+00    0.327E-02
DAV:   2    -0.704563200797E+02   -0.57697E-04   -0.74132E-04   640   0.142E-01    0.223E-02
DAV:   3    -0.704563159895E+02    0.40902E-05   -0.55513E-05   832   0.425E-02    0.934E-03
DAV:   4    -0.704563167743E+02   -0.78482E-06   -0.87846E-06   648   0.150E-02
  27 F= -.70456317E+02 E0= -.70456317E+02  d E =-.394856E-02
 BRION: g(F)=  0.834E-03 g(S)=  0.000E+00 retain N=  1 mean eig= 0.95
 eig:   0.954
 bond charge predicted
       N       E                     dE             d eps       ncg     rms          rms(c)
DAV:   1    -0.704559732932E+02    0.34270E-03   -0.24491E-04   584   0.103E-01    0.266E-03
DAV:   2    -0.704559734590E+02   -0.16574E-06   -0.40541E-06   608   0.110E-02
  28 F= -.70455973E+02 E0= -.70455973E+02  d E =0.343315E-03
 BRION: g(F)=  0.846E-03 g(S)=  0.000E+00 retain N=  1 mean eig= 1.65
 eig:   1.649
 bond charge predicted
       N       E                     dE             d eps       ncg     rms          rms(c)
DAV:   1    -0.704576858422E+02   -0.17125E-02   -0.69390E-03   568   0.544E-01    0.134E-02
DAV:   2    -0.704576957847E+02   -0.99425E-05   -0.12285E-04   648   0.574E-02    0.895E-03
DAV:   3    -0.704576954811E+02    0.30363E-06   -0.88233E-06   800   0.166E-02
  29 F= -.70457695E+02 E0= -.70457695E+02  d E =-.172202E-02
 BRION: g(F)=  0.851E-03 g(S)=  0.000E+00 retain N=  2 mean eig= 1.29
 eig:   1.291  1.291
 bond charge predicted
       N       E                     dE             d eps       ncg     rms          rms(c)
DAV:   1    -0.704670968583E+02   -0.94011E-02   -0.20417E-01   568   0.293E+00    0.763E-02
DAV:   2    -0.704673854162E+02   -0.28856E-03   -0.35644E-03   640   0.307E-01    0.509E-02
DAV:   3    -0.704673782304E+02    0.71858E-05   -0.28426E-04   832   0.925E-02    0.212E-02
DAV:   4    -0.704673806923E+02   -0.24619E-05   -0.35982E-05   656   0.310E-02    0.725E-03
DAV:   5    -0.704673805878E+02    0.10444E-06   -0.10869E-05   712   0.183E-02    0.290E-03
DAV:   6    -0.704673806222E+02   -0.34306E-07   -0.11197E-06   448   0.662E-03
  30 F= -.70467381E+02 E0= -.70467381E+02  d E =-.968514E-02
 BRION: g(F)=  0.105E-02 g(S)=  0.000E+00 retain N=  2 mean eig= 3.53
 eig:   1.475  5.592
 bond charge predicted
       N       E                     dE             d eps       ncg     rms          rms(c)
DAV:   1    -0.704532273110E+02    0.14153E-01   -0.39614E-01   568   0.407E+00    0.106E-01
DAV:   2    -0.704537720689E+02   -0.54476E-03   -0.68570E-03   624   0.430E-01    0.698E-02
DAV:   3    -0.704537627499E+02    0.93190E-05   -0.58047E-04   832   0.131E-01    0.280E-02
DAV:   4    -0.704537652804E+02   -0.25305E-05   -0.61751E-05   656   0.426E-02    0.103E-02
DAV:   5    -0.704537653845E+02   -0.10412E-06   -0.24263E-05   728   0.258E-02    0.417E-03
DAV:   6    -0.704537652661E+02    0.11841E-06   -0.25465E-06   592   0.993E-03
  31 F= -.70453765E+02 E0= -.70453765E+02  d E =0.136154E-01
 BRION: g(F)=  0.826E-03 g(S)=  0.000E+00 retain N=  1 mean eig= 6.54
 eig:   6.540
 bond charge predicted
       N       E                     dE             d eps       ncg     rms          rms(c)
DAV:   1    -0.704510643373E+02    0.27010E-02   -0.13425E-02   568   0.742E-01    0.199E-02
DAV:   2    -0.704510838254E+02   -0.19488E-04   -0.23906E-04   672   0.785E-02    0.133E-02
DAV:   3    -0.704510831449E+02    0.68053E-06   -0.15230E-05   832   0.219E-02    0.526E-03
DAV:   4    -0.704510833036E+02   -0.15875E-06   -0.20304E-06   560   0.740E-03
  32 F= -.70451083E+02 E0= -.70451083E+02  d E =0.268196E-02
 BRION: g(F)=  0.825E-03 g(S)=  0.000E+00 retain N=  2 mean eig= 7.44
 eig:   7.440  7.440
 bond charge predicted
       N       E                     dE             d eps       ncg     rms          rms(c)
DAV:   1    -0.704499186443E+02    0.11645E-02   -0.26498E-03   568   0.331E-01    0.883E-03
DAV:   2    -0.704499225753E+02   -0.39310E-05   -0.48431E-05   680   0.355E-02    0.592E-03
DAV:   3    -0.704499225007E+02    0.74580E-07   -0.32951E-06   640   0.107E-02
  33 F= -.70449923E+02 E0= -.70449923E+02  d E =0.116080E-02
 BRION: g(F)=  0.813E-03 g(S)=  0.000E+00 BRIONS problems: POTIM should be increased
 retain N=  1 mean eig= 8.56
 eig:   8.562
 bond charge predicted
       N       E                     dE             d eps       ncg     rms          rms(c)
DAV:   1    -0.704470545626E+02    0.28680E-02   -0.15403E-02   568   0.794E-01    0.216E-02
DAV:   2    -0.704470768098E+02   -0.22247E-04   -0.27260E-04   656   0.835E-02    0.145E-02
DAV:   3    -0.704470761028E+02    0.70696E-06   -0.19531E-05   824   0.250E-02    0.561E-03
DAV:   4    -0.704470762677E+02   -0.16492E-06   -0.24557E-06   560   0.843E-03
  34 F= -.70447076E+02 E0= -.70447076E+02  d E =0.284623E-02
 BRION: g(F)=  0.818E-03 g(S)=  0.000E+00 retain N=  2 mean eig= 4.85
 eig:   4.848  4.848
 bond charge predicted
       N       E                     dE             d eps       ncg     rms          rms(c)
DAV:   1    -0.704419836616E+02    0.50924E-02   -0.47759E-02   568   0.140E+00    0.375E-02
DAV:   2    -0.704420534314E+02   -0.69770E-04   -0.85489E-04   656   0.148E-01    0.252E-02
DAV:   3    -0.704420511783E+02    0.22531E-05   -0.63751E-05   832   0.448E-02    0.100E-02
DAV:   4    -0.704420514929E+02   -0.31462E-06   -0.76607E-06   648   0.149E-02
  35 F= -.70442051E+02 E0= -.70442051E+02  d E =0.502477E-02
 BRION: g(F)=  0.809E-03 g(S)=  0.000E+00 BRIONS problems: POTIM should be increased
 retain N=  1 mean eig=21.34
 eig:  21.338
 bond charge predicted
       N       E                     dE             d eps       ncg     rms          rms(c)
DAV:   1    -0.704415983476E+02    0.45283E-03   -0.97378E-04   624   0.204E-01    0.501E-03
DAV:   2    -0.704415999295E+02   -0.15819E-05   -0.18445E-05   688   0.227E-02    0.357E-03
DAV:   3    -0.704415998603E+02    0.69155E-07   -0.72835E-07   424   0.620E-03
  36 F= -.70441600E+02 E0= -.70441600E+02  d E =0.451633E-03
 BRION: g(F)=  0.799E-03 g(S)=  0.000E+00 retain N=  1 mean eig= 0.69
 eig:   0.691
 bond charge predicted
       N       E                     dE             d eps       ncg     rms          rms(c)
DAV:   1    -0.704428550898E+02   -0.12552E-02   -0.32377E-03   568   0.374E-01    0.923E-03
DAV:   2    -0.704428595222E+02   -0.44323E-05   -0.55555E-05   664   0.392E-02    0.620E-03
DAV:   3    -0.704428594642E+02    0.57930E-07   -0.44270E-06   664   0.121E-02
  37 F= -.70442859E+02 E0= -.70442859E+02  d E =-.125960E-02
 BRION: g(F)=  0.790E-03 g(S)=  0.000E+00 retain N=  2 mean eig= 1.31
 eig:   1.309  1.309
 bond charge predicted
       N       E                     dE             d eps       ncg     rms          rms(c)
DAV:   1    -0.704458130801E+02   -0.29536E-02   -0.22829E-02   552   0.102E+00    0.235E-02
DAV:   2    -0.704458472509E+02   -0.34171E-04   -0.42534E-04   688   0.112E-01    0.161E-02
DAV:   3    -0.704458452710E+02    0.19798E-05   -0.27223E-05   824   0.304E-02    0.699E-03
DAV:   4    -0.704458459851E+02   -0.71403E-06   -0.58314E-06   616   0.117E-02
  38 F= -.70445846E+02 E0= -.70445846E+02  d E =-.298652E-02
 BRION: g(F)=  0.795E-03 g(S)=  0.000E+00 retain N=  3 mean eig= 1.57
 eig:   1.834  1.834  1.030
 bond charge predicted
       N       E                     dE             d eps       ncg     rms          rms(c)
DAV:   1    -0.704453622737E+02    0.48300E-03   -0.64116E-04   560   0.171E-01    0.370E-03
DAV:   2    -0.704453630228E+02   -0.74908E-06   -0.11463E-05   664   0.185E-02    0.256E-03
DAV:   3    -0.704453629174E+02    0.10543E-06   -0.51168E-07   360   0.494E-03
  39 F= -.70445363E+02 E0= -.70445363E+02  d E =0.483068E-03
 BRION: g(F)=  0.806E-03 g(S)=  0.000E+00 retain N=  4 mean eig= 3.49
 eig:   6.630  5.600  0.869  0.869
 bond charge predicted
       N       E                     dE             d eps       ncg     rms          rms(c)
DAV:   1    -0.704483248666E+02   -0.29618E-02   -0.22194E-02   568   0.980E-01    0.241E-02
DAV:   2    -0.704483577846E+02   -0.32918E-04   -0.41060E-04   656   0.106E-01    0.162E-02
DAV:   3    -0.704483564976E+02    0.12870E-05   -0.28914E-05   832   0.300E-02    0.698E-03
DAV:   4    -0.704483569836E+02   -0.48604E-06   -0.43175E-06   584   0.106E-02
  40 F= -.70448357E+02 E0= -.70448357E+02  d E =-.299407E-02
 BRION: g(F)=  0.840E-03 g(S)=  0.000E+00 retain N=  2 mean eig= 4.07
 eig:   5.967  2.173
 bond charge predicted
       N       E                     dE             d eps       ncg     rms          rms(c)
DAV:   1    -0.704541511892E+02   -0.57947E-02   -0.97370E-02   560   0.209E+00    0.490E-02
DAV:   2    -0.704542964804E+02   -0.14529E-03   -0.18128E-03   680   0.225E-01    0.336E-02
DAV:   3    -0.704542871296E+02    0.93508E-05   -0.11971E-04   824   0.629E-02    0.145E-02
DAV:   4    -0.704542890395E+02   -0.19100E-05   -0.22736E-05   656   0.233E-02    0.539E-03
DAV:   5    -0.704542890223E+02    0.17267E-07   -0.51115E-06   632   0.135E-02
  41 F= -.70454289E+02 E0= -.70454289E+02  d E =-.593204E-02
 BRION: g(F)=  0.912E-03 g(S)=  0.000E+00 BRIONS problems: POTIM should be increased
 retain N=  1 mean eig= 8.46
 eig:   8.463
 bond charge predicted
       N       E                     dE             d eps       ncg     rms          rms(c)
DAV:   1    -0.704415805185E+02    0.12709E-01   -0.40176E-01   560   0.424E+00    0.989E-02
DAV:   2    -0.704421621414E+02   -0.58162E-03   -0.74132E-03   680   0.458E-01    0.674E-02
DAV:   3    -0.704421234416E+02    0.38700E-04   -0.49696E-04   824   0.128E-01    0.281E-02
DAV:   4    -0.704421295988E+02   -0.61572E-05   -0.88217E-05   656   0.460E-02    0.106E-02
DAV:   5    -0.704421292196E+02    0.37918E-06   -0.21177E-05   744   0.262E-02    0.421E-03
DAV:   6    -0.704421292251E+02   -0.54904E-08   -0.23246E-06   528   0.930E-03
  42 F= -.70442129E+02 E0= -.70442129E+02  d E =0.121598E-01
 BRION: g(F)=  0.810E-03 g(S)=  0.000E+00 retain N=  1 mean eig= 5.65
 eig:   5.648
 bond charge predicted
       N       E                     dE             d eps       ncg     rms          rms(c)
DAV:   1    -0.704445790766E+02   -0.24499E-02   -0.15288E-02   560   0.829E-01    0.194E-02
DAV:   2    -0.704446002506E+02   -0.21174E-04   -0.27505E-04   664   0.885E-02    0.134E-02
DAV:   3    -0.704445987887E+02    0.14620E-05   -0.22915E-05   832   0.273E-02    0.549E-03
DAV:   4    -0.704445991545E+02   -0.36583E-06   -0.33035E-06   544   0.958E-03
  43 F= -.70444599E+02 E0= -.70444599E+02  d E =-.246993E-02
 BRION: g(F)=  0.796E-03 g(S)=  0.000E+00 retain N=  1 mean eig= 0.08
 eig:   0.080
 bond charge predicted
       N       E                     dE             d eps       ncg     rms          rms(c)
DAV:   1    -0.704448012397E+02   -0.20245E-03   -0.74207E-05   576   0.554E-02    0.183E-03
DAV:   2    -0.704448013980E+02   -0.15838E-06   -0.15430E-06   456   0.694E-03
  44 F= -.70444801E+02 E0= -.70444801E+02  d E =-.202244E-03
 BRION: g(F)=  0.792E-03 g(S)=  0.000E+00 retain N=  2 mean eig= 2.17
 eig:   0.681  3.660
 bond charge predicted
       N       E                     dE             d eps       ncg     rms          rms(c)
DAV:   1    -0.704439388211E+02    0.86242E-03   -0.17384E-03   560   0.277E-01    0.628E-03
DAV:   2    -0.704439412108E+02   -0.23897E-05   -0.31127E-05   632   0.295E-02    0.431E-03
DAV:   3    -0.704439410315E+02    0.17928E-06   -0.15931E-06   464   0.852E-03
  45 F= -.70443941E+02 E0= -.70443941E+02  d E =0.860367E-03
 BRION: g(F)=  0.798E-03 g(S)=  0.000E+00 retain N=  3 mean eig= 4.21
 eig:   6.585  5.360  0.678
 bond charge predicted
       N       E                     dE             d eps       ncg     rms          rms(c)
DAV:   1    -0.704471840105E+02   -0.32428E-02   -0.26135E-02   560   0.107E+00    0.258E-02
DAV:   2    -0.704472218759E+02   -0.37865E-04   -0.47978E-04   648   0.115E-01    0.177E-02
DAV:   3    -0.704472193960E+02    0.24799E-05   -0.35570E-05   832   0.341E-02    0.734E-03
DAV:   4    -0.704472198826E+02   -0.48654E-06   -0.53970E-06   600   0.120E-02
  46 F= -.70447220E+02 E0= -.70447220E+02  d E =-.327885E-02
 BRION: g(F)=  0.805E-03 g(S)=  0.000E+00 retain N=  3 mean eig= 4.24
 eig:   6.939  0.379  5.395
 bond charge predicted
       N       E                     dE             d eps       ncg     rms          rms(c)
DAV:   1    -0.704484014050E+02   -0.11820E-02   -0.33389E-03   560   0.383E-01    0.957E-03
DAV:   2    -0.704484067013E+02   -0.52963E-05   -0.62750E-05   664   0.416E-02    0.655E-03
DAV:   3    -0.704484065147E+02    0.18652E-06   -0.46770E-06   704   0.128E-02
  47 F= -.70448407E+02 E0= -.70448407E+02  d E =-.118663E-02
 BRION: g(F)=  0.827E-03 g(S)=  0.000E+00 retain N=  2 mean eig= 7.79
 eig:   7.786  7.786
 bond charge predicted
       N       E                     dE             d eps       ncg     rms          rms(c)
DAV:   1    -0.704458341680E+02    0.25725E-02   -0.15786E-02   560   0.834E-01    0.199E-02
DAV:   2    -0.704458560711E+02   -0.21903E-04   -0.28839E-04   648   0.900E-02    0.137E-02
DAV:   3    -0.704458545747E+02    0.14964E-05   -0.23319E-05   832   0.275E-02    0.562E-03
DAV:   4    -0.704458547264E+02   -0.15168E-06   -0.32044E-06   552   0.958E-03
  48 F= -.70445855E+02 E0= -.70445855E+02  d E =0.255179E-02
 BRION: g(F)=  0.827E-03 g(S)=  0.000E+00 retain N=  2 mean eig= 2.54
 eig:   4.071  1.006
 bond charge predicted
       N       E                     dE             d eps       ncg     rms          rms(c)
DAV:   1    -0.704449277019E+02    0.92687E-03   -0.20721E-03   560   0.304E-01    0.739E-03
DAV:   2    -0.704449308464E+02   -0.31445E-05   -0.39570E-05   688   0.331E-02    0.510E-03
DAV:   3    -0.704449306297E+02    0.21672E-06   -0.21954E-06   528   0.987E-03
  49 F= -.70444931E+02 E0= -.70444931E+02  d E =0.924097E-03
 BRION: g(F)=  0.807E-03 g(S)=  0.000E+00 retain N=  1 mean eig= 6.19
 eig:   6.190
 bond charge predicted
       N       E                     dE             d eps       ncg     rms          rms(c)
DAV:   1    -0.704409238568E+02    0.40070E-02   -0.41751E-02   560   0.137E+00    0.320E-02
DAV:   2    -0.704409826456E+02   -0.58789E-04   -0.75357E-04   672   0.145E-01    0.219E-02
DAV:   3    -0.704409786073E+02    0.40383E-05   -0.50864E-05   832   0.412E-02    0.911E-03
DAV:   4    -0.704409793910E+02   -0.78372E-06   -0.98230E-06   640   0.153E-02
  50 F= -.70440979E+02 E0= -.70440979E+02  d E =0.395124E-02
 BRION: g(F)=  0.823E-03 g(S)=  0.000E+00 retain N=  2 mean eig= 3.41
 eig:   3.408  3.408
 bond charge predicted
       N       E                     dE             d eps       ncg     rms          rms(c)
DAV:   1    -0.704382372772E+02    0.27413E-02   -0.19550E-02   560   0.932E-01    0.223E-02
DAV:   2    -0.704382664306E+02   -0.29153E-04   -0.36503E-04   688   0.101E-01    0.153E-02
DAV:   3    -0.704382646354E+02    0.17952E-05   -0.24848E-05   824   0.289E-02    0.658E-03
DAV:   4    -0.704382649964E+02   -0.36099E-06   -0.47297E-06   584   0.109E-02
  51 F= -.70438265E+02 E0= -.70438265E+02  d E =0.271439E-02
 BRION: g(F)=  0.813E-03 g(S)=  0.000E+00 retain N=  2 mean eig= 3.76
 eig:   1.803  5.713
 bond charge predicted
       N       E                     dE             d eps       ncg     rms          rms(c)
DAV:   1    -0.704425164245E+02   -0.42518E-02   -0.46304E-02   560   0.144E+00    0.336E-02
DAV:   2    -0.704425813361E+02   -0.64912E-04   -0.83494E-04   664   0.153E-01    0.231E-02
DAV:   3    -0.704425762785E+02    0.50577E-05   -0.59581E-05   832   0.445E-02    0.949E-03
DAV:   4    -0.704425772934E+02   -0.10150E-05   -0.10659E-05   640   0.162E-02    0.379E-03
DAV:   5    -0.704425773162E+02   -0.22776E-07   -0.23654E-06   560   0.957E-03
  52 F= -.70442577E+02 E0= -.70442577E+02  d E =-.431232E-02
 BRION: g(F)=  0.781E-03 g(S)=  0.000E+00 retain N=  2 mean eig= 3.51
 eig:   6.087  0.929
 bond charge predicted
       N       E                     dE             d eps       ncg     rms          rms(c)
DAV:   1    -0.704416237093E+02    0.95358E-03   -0.36929E-03   560   0.407E-01    0.925E-03
DAV:   2    -0.704416284361E+02   -0.47268E-05   -0.66751E-05   632   0.432E-02    0.638E-03
DAV:   3    -0.704416279449E+02    0.49115E-06   -0.41707E-06   704   0.120E-02
  53 F= -.70441628E+02 E0= -.70441628E+02  d E =0.949371E-03
 BRION: g(F)=  0.793E-03 g(S)=  0.000E+00 retain N=  3 mean eig= 4.52
 eig:   5.901  5.901  1.744
 bond charge predicted
       N       E                     dE             d eps       ncg     rms          rms(c)
DAV:   1    -0.704416393015E+02   -0.10865E-04   -0.42286E-05   560   0.412E-02    0.107E-03
DAV:   2    -0.704416393428E+02   -0.41254E-07   -0.10804E-06   320   0.579E-03
  54 F= -.70441639E+02 E0= -.70441639E+02  d E =-.113978E-04
 BRION: g(F)=  0.792E-03 g(S)=  0.000E+00 retain N=  3 mean eig= 3.94
 eig:   4.278  6.756  0.800
 bond charge predicted
       N       E                     dE             d eps       ncg     rms          rms(c)
DAV:   1    -0.704453117992E+02   -0.36725E-02   -0.65280E-02   560   0.170E+00    0.394E-02
DAV:   2    -0.704454084053E+02   -0.96606E-04   -0.12262E-03   648   0.183E-01    0.273E-02
DAV:   3    -0.704454005053E+02    0.79000E-05   -0.74900E-05   816   0.498E-02    0.116E-02
DAV:   4    -0.704454019768E+02   -0.14714E-05   -0.17723E-05   672   0.197E-02    0.416E-03
DAV:   5    -0.704454019298E+02    0.46915E-07   -0.28874E-06   560   0.105E-02
  55 F= -.70445402E+02 E0= -.70445402E+02  d E =-.376259E-02
 BRION: g(F)=  0.809E-03 g(S)=  0.000E+00 retain N=  1 mean eig= 2.91
 eig:   2.907
 bond charge predicted
       N       E                     dE             d eps       ncg     rms          rms(c)
DAV:   1    -0.704435335243E+02    0.18685E-02   -0.22412E-02   560   0.993E-01    0.228E-02
DAV:   2    -0.704435660630E+02   -0.32539E-04   -0.42684E-04   624   0.108E-01    0.159E-02
DAV:   3    -0.704435632771E+02    0.27859E-05   -0.25141E-05   816   0.287E-02    0.681E-03
DAV:   4    -0.704435637930E+02   -0.51593E-06   -0.65541E-06   616   0.117E-02
  56 F= -.70443564E+02 E0= -.70443564E+02  d E =0.183814E-02
 BRION: g(F)=  0.808E-03 g(S)=  0.000E+00 retain N=  1 mean eig= 1.29
 eig:   1.289
 bond charge predicted
       N       E                     dE             d eps       ncg     rms          rms(c)
DAV:   1    -0.704455782190E+02   -0.20149E-02   -0.16093E-02   560   0.848E-01    0.193E-02
DAV:   2    -0.704456014269E+02   -0.23208E-04   -0.29795E-04   640   0.909E-02    0.133E-02
DAV:   3    -0.704455995643E+02    0.18626E-05   -0.18559E-05   816   0.247E-02    0.560E-03
DAV:   4    -0.704455999585E+02   -0.39422E-06   -0.39146E-06   584   0.956E-03
  57 F= -.70445600E+02 E0= -.70445600E+02  d E =-.203617E-02
 BRION: g(F)=  0.786E-03 g(S)=  0.000E+00 retain N=  2 mean eig= 1.86
 eig:   1.135  2.584
 bond charge predicted
       N       E                     dE             d eps       ncg     rms          rms(c)
DAV:   1    -0.704492363609E+02   -0.36368E-02   -0.51608E-02   560   0.151E+00    0.360E-02
DAV:   2    -0.704493164500E+02   -0.80089E-04   -0.99039E-04   672   0.164E-01    0.247E-02
DAV:   3    -0.704493115681E+02    0.48819E-05   -0.61342E-05   832   0.449E-02    0.108E-02
DAV:   4    -0.704493126727E+02   -0.11046E-05   -0.12369E-05   648   0.169E-02    0.370E-03
DAV:   5    -0.704493126577E+02    0.14921E-07   -0.20413E-06   488   0.936E-03
  58 F= -.70449313E+02 E0= -.70449313E+02  d E =-.371270E-02
 BRION: g(F)=  0.810E-03 g(S)=  0.000E+00 retain N=  1 mean eig= 4.71
 eig:   4.707
 bond charge predicted
       N       E                     dE             d eps       ncg     rms          rms(c)
DAV:   1    -0.704465637629E+02    0.27489E-02   -0.32756E-02   560   0.120E+00    0.283E-02
DAV:   2    -0.704466124150E+02   -0.48652E-04   -0.62283E-04   656   0.130E-01    0.195E-02
DAV:   3    -0.704466091084E+02    0.33066E-05   -0.37645E-05   824   0.352E-02    0.824E-03
DAV:   4    -0.704466097952E+02   -0.68681E-06   -0.81299E-06   624   0.134E-02
  59 F= -.70446610E+02 E0= -.70446610E+02  d E =0.270286E-02
 BRION: g(F)=  0.823E-03 g(S)=  0.000E+00 retain N=  1 mean eig= 1.40
 eig:   1.400
 bond charge predicted
       N       E                     dE             d eps       ncg     rms          rms(c)
DAV:   1    -0.704510847837E+02   -0.44757E-02   -0.81737E-02   560   0.190E+00    0.446E-02
DAV:   2    -0.704512084523E+02   -0.12367E-03   -0.15549E-03   648   0.206E-01    0.307E-02
DAV:   3    -0.704511995389E+02    0.89134E-05   -0.95496E-05   824   0.561E-02    0.132E-02
DAV:   4    -0.704512010777E+02   -0.15388E-05   -0.20345E-05   664   0.214E-02    0.454E-03
DAV:   5    -0.704512010601E+02    0.17563E-07   -0.34850E-06   600   0.113E-02
  60 F= -.70451201E+02 E0= -.70451201E+02  d E =-.459126E-02
 BRION: g(F)=  0.814E-03 g(S)=  0.000E+00 retain N=  2 mean eig= 3.24
 eig:   2.042  4.440
 bond charge predicted
       N       E                     dE             d eps       ncg     rms          rms(c)
DAV:   1    -0.704566731750E+02   -0.54721E-02   -0.12703E-01   560   0.236E+00    0.564E-02
DAV:   2    -0.704568721754E+02   -0.19900E-03   -0.24529E-03   672   0.257E-01    0.387E-02
DAV:   3    -0.704568596832E+02    0.12492E-04   -0.14993E-04   832   0.701E-02    0.170E-02
DAV:   4    -0.704568618118E+02   -0.21286E-05   -0.30648E-05   648   0.264E-02    0.570E-03
DAV:   5    -0.704568618197E+02   -0.79176E-08   -0.58051E-06   632   0.143E-02
  61 F= -.70456862E+02 E0= -.70456862E+02  d E =-.566076E-02
 BRION: g(F)=  0.838E-03 g(S)=  0.000E+00 BRIONS problems: POTIM should be increased
 retain N=  1 mean eig=14.46
 eig:  14.455
 bond charge predicted
       N       E                     dE             d eps       ncg     rms          rms(c)
DAV:   1    -0.704498293421E+02    0.70325E-02   -0.19278E-01   560   0.291E+00    0.694E-02
DAV:   2    -0.704501244788E+02   -0.29514E-03   -0.37146E-03   648   0.318E-01    0.475E-02
DAV:   3    -0.704501047695E+02    0.19709E-04   -0.23131E-04   832   0.870E-02    0.202E-02
DAV:   4    -0.704501081420E+02   -0.33725E-05   -0.46424E-05   640   0.322E-02    0.700E-03
DAV:   5    -0.704501077234E+02    0.41865E-06   -0.88452E-06   688   0.174E-02
  62 F= -.70450108E+02 E0= -.70450108E+02  d E =0.675410E-02
 BRION: g(F)=  0.835E-03 g(S)=  0.000E+00 retain N=  1 mean eig= 7.86
 eig:   7.865
 bond charge predicted
       N       E                     dE             d eps       ncg     rms          rms(c)
DAV:   1    -0.704541132150E+02   -0.40051E-02   -0.62274E-02   560   0.166E+00    0.394E-02
DAV:   2    -0.704542079927E+02   -0.94778E-04   -0.11971E-03   640   0.180E-01    0.272E-02
DAV:   3    -0.704542009305E+02    0.70622E-05   -0.74636E-05   832   0.498E-02    0.117E-02
DAV:   4    -0.704542022507E+02   -0.13202E-05   -0.16160E-05   656   0.190E-02    0.411E-03
DAV:   5    -0.704542021862E+02    0.64494E-07   -0.27906E-06   584   0.105E-02
  63 F= -.70454202E+02 E0= -.70454202E+02  d E =-.409446E-02
 BRION: g(F)=  0.826E-03 g(S)=  0.000E+00 retain N=  1 mean eig= 3.73
 eig:   3.730
 bond charge predicted
       N       E                     dE             d eps       ncg     rms          rms(c)
DAV:   1    -0.704541975221E+02    0.47286E-05   -0.15426E-04   592   0.813E-02    0.200E-03
DAV:   2    -0.704541976760E+02   -0.15389E-06   -0.30514E-06   536   0.927E-03
  64 F= -.70454198E+02 E0= -.70454198E+02  d E =0.451023E-05
 BRION: g(F)=  0.842E-03 g(S)=  0.000E+00 retain N=  1 mean eig= 1.91
 eig:   1.905
 bond charge predicted
       N       E                     dE             d eps       ncg     rms          rms(c)
DAV:   1    -0.704553379199E+02   -0.11404E-02   -0.10414E-02   568   0.673E-01    0.155E-02
DAV:   2    -0.704553543418E+02   -0.16422E-04   -0.20385E-04   664   0.742E-02    0.108E-02
DAV:   3    -0.704553531524E+02    0.11894E-05   -0.11143E-05   808   0.193E-02    0.490E-03
DAV:   4    -0.704553533834E+02   -0.23100E-06   -0.28312E-06   560   0.810E-03
  65 F= -.70455353E+02 E0= -.70455353E+02  d E =-.115571E-02
 BRION: g(F)=  0.839E-03 g(S)=  0.000E+00 retain N=  2 mean eig= 3.59
 eig:   3.594  3.594
 bond charge predicted
       N       E                     dE             d eps       ncg     rms          rms(c)
DAV:   1    -0.704612399823E+02   -0.58868E-02   -0.44057E-01   568   0.437E+00    0.103E-01
DAV:   2    -0.704619622097E+02   -0.72223E-03   -0.89406E-03   664   0.489E-01    0.723E-02
DAV:   3    -0.704619061941E+02    0.56016E-04   -0.48503E-04   808   0.127E-01    0.335E-02
DAV:   4    -0.704619127221E+02   -0.65280E-05   -0.14601E-04   696   0.553E-02    0.106E-02
DAV:   5    -0.704619118173E+02    0.90477E-06   -0.24210E-05   688   0.279E-02    0.451E-03
DAV:   6    -0.704619123091E+02   -0.49182E-06   -0.30409E-06   536   0.950E-03
  66 F= -.70461912E+02 E0= -.70461912E+02  d E =-.655893E-02
 BRION: g(F)=  0.939E-03 g(S)=  0.000E+00 retain N=  3 mean eig= 5.82
 eig:   7.694  7.694  2.077
 bond charge predicted
       N       E                     dE             d eps       ncg     rms          rms(c)
DAV:   1    -0.704613677727E+02    0.54404E-03   -0.26383E-03   568   0.339E-01    0.787E-03
DAV:   2    -0.704613719620E+02   -0.41893E-05   -0.52052E-05   656   0.375E-02    0.554E-03
DAV:   3    -0.704613720251E+02   -0.63081E-07   -0.29453E-06   576   0.107E-02
  67 F= -.70461372E+02 E0= -.70461372E+02  d E =0.540284E-03
 BRION: g(F)=  0.943E-03 g(S)=  0.000E+00 retain N=  3 mean eig= 4.92
 eig:   5.859  5.859  3.051
 bond charge predicted
       N       E                     dE             d eps       ncg     rms          rms(c)
DAV:   1    -0.704575910793E+02    0.37809E-02   -0.18020E-01   568   0.279E+00    0.658E-02
DAV:   2    -0.704578795580E+02   -0.28848E-03   -0.35983E-03   656   0.312E-01    0.457E-02
DAV:   3    -0.704578587521E+02    0.20806E-04   -0.19983E-04   808   0.809E-02    0.202E-02
DAV:   4    -0.704578626450E+02   -0.38929E-05   -0.55954E-05   672   0.338E-02    0.659E-03
DAV:   5    -0.704578620371E+02    0.60793E-06   -0.86721E-06   624   0.167E-02
  68 F= -.70457862E+02 E0= -.70457862E+02  d E =0.350999E-02
 BRION: g(F)=  0.844E-03 g(S)=  0.000E+00 retain N=  2 mean eig= 4.17
 eig:   4.173  4.173
 bond charge predicted
       N       E                     dE             d eps       ncg     rms          rms(c)
DAV:   1    -0.704605742249E+02   -0.27116E-02   -0.47790E-02   568   0.144E+00    0.343E-02
DAV:   2    -0.704606498220E+02   -0.75597E-04   -0.94844E-04   656   0.160E-01    0.239E-02
DAV:   3    -0.704606441772E+02    0.56447E-05   -0.54536E-05   824   0.426E-02    0.107E-02
DAV:   4    -0.704606453133E+02   -0.11361E-05   -0.14267E-05   664   0.175E-02    0.350E-03
DAV:   5    -0.704606452594E+02    0.53985E-07   -0.21738E-06   504   0.934E-03
  69 F= -.70460645E+02 E0= -.70460645E+02  d E =-.278322E-02
 BRION: g(F)=  0.826E-03 g(S)=  0.000E+00 retain N=  2 mean eig= 5.88
 eig:   5.880  5.880
 bond charge predicted
       N       E                     dE             d eps       ncg     rms          rms(c)
DAV:   1    -0.704648222361E+02   -0.41769E-02   -0.10214E-01   568   0.211E+00    0.503E-02
DAV:   2    -0.704649845212E+02   -0.16229E-03   -0.20147E-03   656   0.233E-01    0.348E-02
DAV:   3    -0.704649731500E+02    0.11371E-04   -0.12010E-04   832   0.630E-02    0.156E-02
DAV:   4    -0.704649749889E+02   -0.18389E-05   -0.27888E-05   656   0.247E-02    0.510E-03
DAV:   5    -0.704649749635E+02    0.25346E-07   -0.48574E-06   608   0.131E-02
  70 F= -.70464975E+02 E0= -.70464975E+02  d E =-.432970E-02
 BRION: g(F)=  0.842E-03 g(S)=  0.000E+00 retain N=  1 mean eig= 5.75
 eig:   5.751
 bond charge predicted
       N       E                     dE             d eps       ncg     rms          rms(c)
DAV:   1    -0.704614238407E+02    0.35511E-02   -0.80746E-02   568   0.188E+00    0.445E-02
DAV:   2    -0.704615501784E+02   -0.12634E-03   -0.15998E-03   640   0.208E-01    0.309E-02
DAV:   3    -0.704615408620E+02    0.93164E-05   -0.94302E-05   824   0.558E-02    0.135E-02
DAV:   4    -0.704615424807E+02   -0.16187E-05   -0.22603E-05   640   0.220E-02    0.448E-03
DAV:   5    -0.704615421898E+02    0.29092E-06   -0.36088E-06   576   0.116E-02
  71 F= -.70461542E+02 E0= -.70461542E+02  d E =0.343277E-02
 BRION: g(F)=  0.858E-03 g(S)=  0.000E+00 BRIONS problems: POTIM should be increased
 retain N=  1 mean eig=15.52
 eig:  15.516
 bond charge predicted
       N       E                     dE             d eps       ncg     rms          rms(c)
DAV:   1    -0.704688774151E+02   -0.73349E-02   -0.36844E-01   568   0.401E+00    0.953E-02
DAV:   2    -0.704694710327E+02   -0.59362E-03   -0.73741E-03   656   0.445E-01    0.665E-02
DAV:   3    -0.704694269365E+02    0.44096E-04   -0.42243E-04   832   0.119E-01    0.304E-02
DAV:   4    -0.704694325699E+02   -0.56334E-05   -0.10862E-04   656   0.483E-02    0.965E-03
DAV:   5    -0.704694319190E+02    0.65083E-06   -0.19677E-05   712   0.257E-02    0.415E-03
DAV:   6    -0.704694321445E+02   -0.22543E-06   -0.22574E-06   520   0.848E-03
  72 F= -.70469432E+02 E0= -.70469432E+02  d E =-.788995E-02
 BRION: g(F)=  0.868E-03 g(S)=  0.000E+00 retain N=  1 mean eig= 4.76
 eig:   4.764
 bond charge predicted
       N       E                     dE             d eps       ncg     rms          rms(c)
DAV:   1    -0.704646529192E+02    0.47790E-02   -0.14768E-01   568   0.253E+00    0.602E-02
DAV:   2    -0.704648879542E+02   -0.23504E-03   -0.29465E-03   648   0.282E-01    0.417E-02
DAV:   3    -0.704648718533E+02    0.16101E-04   -0.17498E-04   816   0.761E-02    0.184E-02
DAV:   4    -0.704648745620E+02   -0.27087E-05   -0.40505E-05   648   0.299E-02    0.609E-03
DAV:   5    -0.704648742393E+02    0.32276E-06   -0.69911E-06   624   0.156E-02
  73 F= -.70464874E+02 E0= -.70464874E+02  d E =0.455791E-02
 BRION: g(F)=  0.864E-03 g(S)=  0.000E+00 retain N=  1 mean eig= 3.52
 eig:   3.523
 bond charge predicted
       N       E                     dE             d eps       ncg     rms          rms(c)
DAV:   1    -0.704677623100E+02   -0.28877E-02   -0.42284E-02   568   0.136E+00    0.325E-02
DAV:   2    -0.704678282581E+02   -0.65948E-04   -0.83081E-04   640   0.150E-01    0.226E-02
DAV:   3    -0.704678233291E+02    0.49290E-05   -0.49667E-05   824   0.406E-02    0.991E-03
DAV:   4    -0.704678243095E+02   -0.98038E-06   -0.11932E-05   664   0.161E-02    0.332E-03
DAV:   5    -0.704678242536E+02    0.55912E-07   -0.17947E-06   464   0.875E-03
  74 F= -.70467824E+02 E0= -.70467824E+02  d E =-.295001E-02
 BRION: g(F)=  0.849E-03 g(S)=  0.000E+00 retain N=  2 mean eig= 5.17
 eig:   5.169  5.169
 bond charge predicted
       N       E                     dE             d eps       ncg     rms          rms(c)
DAV:   1    -0.704723893673E+02   -0.45651E-02   -0.95388E-02   568   0.204E+00    0.492E-02
DAV:   2    -0.704725401894E+02   -0.15082E-03   -0.18691E-03   648   0.225E-01    0.339E-02
DAV:   3    -0.704725305703E+02    0.96190E-05   -0.11636E-04   840   0.620E-02    0.151E-02
DAV:   4    -0.704725322134E+02   -0.16431E-05   -0.24280E-05   648   0.234E-02    0.494E-03
DAV:   5    -0.704725322164E+02   -0.29952E-08   -0.43921E-06   608   0.125E-02
  75 F= -.70472532E+02 E0= -.70472532E+02  d E =-.470796E-02
 BRION: g(F)=  0.873E-03 g(S)=  0.000E+00 BRIONS problems: POTIM should be increased
 retain N=  1 mean eig=13.09
 eig:  13.090
 bond charge predicted
       N       E                     dE             d eps       ncg     rms          rms(c)
DAV:   1    -0.704645389569E+02    0.79933E-02   -0.26555E-01   568   0.340E+00    0.818E-02
DAV:   2    -0.704649539541E+02   -0.41500E-03   -0.52049E-03   640   0.376E-01    0.562E-02
DAV:   3    -0.704649273097E+02    0.26644E-04   -0.32437E-04   840   0.103E-01    0.243E-02
DAV:   4    -0.704649314723E+02   -0.41626E-05   -0.66181E-05   640   0.384E-02    0.810E-03
DAV:   5    -0.704649308663E+02    0.60597E-06   -0.12589E-05   728   0.206E-02    0.340E-03
DAV:   6    -0.704649309169E+02   -0.50583E-07   -0.13592E-06   440   0.712E-03
  76 F= -.70464931E+02 E0= -.70464931E+02  d E =0.760130E-02
 BRION: g(F)=  0.864E-03 g(S)=  0.000E+00 BRIONS problems: POTIM should be increased
 retain N=  1 mean eig=31.66
 eig:  31.658
 bond charge predicted
       N       E                     dE             d eps       ncg     rms          rms(c)
DAV:   1    -0.704626861873E+02    0.22447E-02   -0.27419E-02   568   0.109E+00    0.263E-02
DAV:   2    -0.704627305934E+02   -0.44406E-04   -0.55270E-04   672   0.122E-01    0.182E-02
DAV:   3    -0.704627277383E+02    0.28552E-05   -0.31486E-05   824   0.322E-02    0.816E-03
DAV:   4    -0.704627281956E+02   -0.45728E-06   -0.77749E-06   640   0.130E-02
  77 F= -.70462728E+02 E0= -.70462728E+02  d E =0.220272E-02
 BRION: g(F)=  0.873E-03 g(S)=  0.000E+00 retain N=  1 mean eig= 1.58
 eig:   1.583
 bond charge predicted
       N       E                     dE             d eps       ncg     rms          rms(c)
DAV:   1    -0.704654980328E+02   -0.27703E-02   -0.33671E-02   568   0.121E+00    0.288E-02
DAV:   2    -0.704655502820E+02   -0.52249E-04   -0.65423E-04   640   0.133E-01    0.199E-02
DAV:   3    -0.704655469283E+02    0.33537E-05   -0.40119E-05   840   0.364E-02    0.874E-03
DAV:   4    -0.704655477527E+02   -0.82437E-06   -0.84578E-06   632   0.137E-02
  78 F= -.70465548E+02 E0= -.70465548E+02  d E =-.281956E-02
 BRION: g(F)=  0.848E-03 g(S)=  0.000E+00 retain N=  1 mean eig= 7.44
 eig:   7.438
 bond charge predicted
       N       E                     dE             d eps       ncg     rms          rms(c)
DAV:   1    -0.704746895372E+02   -0.91426E-02   -0.37295E-01   568   0.401E+00    0.990E-02
DAV:   2    -0.704753054458E+02   -0.61591E-03   -0.74976E-03   656   0.446E-01    0.684E-02
DAV:   3    -0.704752713352E+02    0.34111E-04   -0.44990E-04   840   0.122E-01    0.313E-02
DAV:   4    -0.704752769874E+02   -0.56522E-05   -0.95930E-05   648   0.463E-02    0.965E-03
DAV:   5    -0.704752765677E+02    0.41977E-06   -0.18449E-05   720   0.250E-02    0.419E-03
DAV:   6    -0.704752767450E+02   -0.17739E-06   -0.20277E-06   520   0.829E-03
  79 F= -.70475277E+02 E0= -.70475277E+02  d E =-.972899E-02
 BRION: g(F)=  0.923E-03 g(S)=  0.000E+00 BRIONS problems: POTIM should be increased
 retain N=  1 mean eig=14.41
 eig:  14.413
 bond charge predicted
       N       E                     dE             d eps       ncg     rms          rms(c)
DAV:   1    -0.704579906298E+02    0.17286E-01   -0.10061E+00   568   0.659E+00    0.161E-01
DAV:   2    -0.704595992239E+02   -0.16086E-02   -0.19901E-02   648   0.734E-01    0.110E-01
DAV:   3    -0.704595141733E+02    0.85051E-04   -0.12632E-03   840   0.203E-01    0.474E-02
DAV:   4    -0.704595278666E+02   -0.13693E-04   -0.22560E-04   648   0.724E-02    0.156E-02
DAV:   5    -0.704595268162E+02    0.10504E-05   -0.46485E-05   736   0.391E-02    0.664E-03
DAV:   6    -0.704595269175E+02   -0.10134E-06   -0.52944E-06   624   0.137E-02
  80 F= -.70459527E+02 E0= -.70459527E+02  d E =0.157498E-01
 BRION: g(F)=  0.859E-03 g(S)=  0.000E+00 BRIONS problems: POTIM should be increased
 retain N=  1 mean eig=42.27
 eig:  42.275
 bond charge predicted
       N       E                     dE             d eps       ncg     rms          rms(c)
DAV:   1    -0.704448659675E+02    0.14661E-01   -0.72056E-01   568   0.558E+00    0.136E-01
DAV:   2    -0.704460296443E+02   -0.11637E-02   -0.14322E-02   656   0.621E-01    0.931E-02
DAV:   3    -0.704459655050E+02    0.64139E-04   -0.87716E-04   832   0.170E-01    0.405E-02
DAV:   4    -0.704459756897E+02   -0.10185E-04   -0.17318E-04   664   0.629E-02    0.132E-02
DAV:   5    -0.704459746210E+02    0.10686E-05   -0.34220E-05   744   0.338E-02    0.556E-03
DAV:   6    -0.704459751688E+02   -0.54782E-06   -0.40414E-06   584   0.117E-02
  81 F= -.70445975E+02 E0= -.70445975E+02  d E =0.135517E-01
 BRION: g(F)=  0.854E-03 g(S)=  0.000E+00 BRIONS problems: POTIM should be increased
 retain N=  1 mean eig=19.73
 eig:  19.728
 bond charge predicted
       N       E                     dE             d eps       ncg     rms          rms(c)
DAV:   1    -0.704533105649E+02   -0.73359E-02   -0.20833E-01   568   0.301E+00    0.731E-02
DAV:   2    -0.704536473993E+02   -0.33683E-03   -0.41420E-03   648   0.333E-01    0.505E-02
DAV:   3    -0.704536284967E+02    0.18903E-04   -0.25829E-04   840   0.925E-02    0.228E-02
DAV:   4    -0.704536326563E+02   -0.41595E-05   -0.51726E-05   656   0.345E-02    0.735E-03
DAV:   5    -0.704536330788E+02   -0.42251E-06   -0.10145E-05   720   0.185E-02    0.312E-03
DAV:   6    -0.704536333934E+02   -0.31467E-06   -0.10723E-06   448   0.639E-03
  82 F= -.70453633E+02 E0= -.70453633E+02  d E =-.765822E-02
 BRION: g(F)=  0.835E-03 g(S)=  0.000E+00 BRIONS problems: POTIM should be increased
 retain N=  1 mean eig=13.19
 eig:  13.187
 bond charge predicted
       N       E                     dE             d eps       ncg     rms          rms(c)
DAV:   1    -0.704524993985E+02    0.11337E-02   -0.71829E-03   568   0.559E-01    0.134E-02
DAV:   2    -0.704525106678E+02   -0.11269E-04   -0.14440E-04   624   0.622E-02    0.921E-03
DAV:   3    -0.704525100019E+02    0.66591E-06   -0.88433E-06   792   0.172E-02
  83 F= -.70452510E+02 E0= -.70452510E+02  d E =0.112339E-02
 BRION: g(F)=  0.841E-03 g(S)=  0.000E+00 retain N=  1 mean eig= 1.09
 eig:   1.085
 bond charge predicted
       N       E                     dE             d eps       ncg     rms          rms(c)
DAV:   1    -0.704556083957E+02   -0.30977E-02   -0.41346E-02   568   0.134E+00    0.321E-02
DAV:   2    -0.704556751643E+02   -0.66769E-04   -0.82905E-04   640   0.149E-01    0.223E-02
DAV:   3    -0.704556706905E+02    0.44738E-05   -0.50688E-05   840   0.409E-02    0.100E-02
DAV:   4    -0.704556713638E+02   -0.67328E-06   -0.10487E-05   656   0.154E-02    0.317E-03
DAV:   5    -0.704556714168E+02   -0.52964E-07   -0.15188E-06   440   0.798E-03
  84 F= -.70455671E+02 E0= -.70455671E+02  d E =-.316141E-02
 BRION: g(F)=  0.831E-03 g(S)=  0.000E+00 retain N=  2 mean eig= 3.87
 eig:   1.718  6.021
 bond charge predicted
       N       E                     dE             d eps       ncg     rms          rms(c)
DAV:   1    -0.704652711086E+02   -0.95997E-02   -0.46008E-01   568   0.446E+00    0.109E-01
DAV:   2    -0.704660248877E+02   -0.75378E-03   -0.92247E-03   648   0.495E-01    0.755E-02
DAV:   3    -0.704659775083E+02    0.47379E-04   -0.54897E-04   840   0.135E-01    0.344E-02
DAV:   4    -0.704659834706E+02   -0.59623E-05   -0.12292E-04   648   0.521E-02    0.107E-02
DAV:   5    -0.704659829075E+02    0.56301E-06   -0.22986E-05   728   0.278E-02    0.469E-03
DAV:   6    -0.704659832856E+02   -0.37803E-06   -0.25649E-06   528   0.921E-03
  85 F= -.70465983E+02 E0= -.70465983E+02  d E =-.103119E-01
 BRION: g(F)=  0.881E-03 g(S)=  0.000E+00 BRIONS problems: POTIM should be increased
 retain N=  1 mean eig=31.50
 eig:  31.503
 bond charge predicted
       N       E                     dE             d eps       ncg     rms          rms(c)
DAV:   1    -0.704405710912E+02    0.25412E-01   -0.21144E+00   568   0.955E+00    0.234E-01
DAV:   2    -0.704439867635E+02   -0.34157E-02   -0.42193E-02   640   0.107E+00    0.159E-01
DAV:   3    -0.704438039583E+02    0.18281E-03   -0.26512E-03   840   0.296E-01    0.684E-02
DAV:   4    -0.704438325611E+02   -0.28603E-04   -0.48978E-04   664   0.106E-01    0.227E-02
DAV:   5    -0.704438297734E+02    0.27877E-05   -0.10045E-04   744   0.573E-02    0.951E-03
DAV:   6    -0.704438300945E+02   -0.32107E-06   -0.11694E-05   640   0.201E-02    0.511E-03
DAV:   7    -0.704438308616E+02   -0.76711E-06   -0.89207E-06   720   0.147E-02
  86 F= -.70443831E+02 E0= -.70443831E+02  d E =0.221524E-01
 BRION: g(F)=  0.829E-03 g(S)=  0.000E+00 BRIONS problems: POTIM should be increased
 retain N=  1 mean eig=66.58
 eig:  66.582
 bond charge predicted
       N       E                     dE             d eps       ncg     rms          rms(c)
DAV:   1    -0.704350052115E+02    0.88249E-02   -0.30436E-01   568   0.363E+00    0.879E-02
DAV:   2    -0.704354958163E+02   -0.49060E-03   -0.60559E-03   648   0.403E-01    0.604E-02
DAV:   3    -0.704354648457E+02    0.30971E-04   -0.36446E-04   840   0.110E-01    0.265E-02
DAV:   4    -0.704354696716E+02   -0.48259E-05   -0.80762E-05   664   0.422E-02    0.881E-03
DAV:   5    -0.704354691116E+02    0.55998E-06   -0.15957E-05   752   0.234E-02    0.359E-03
DAV:   6    -0.704354696606E+02   -0.54903E-06   -0.20151E-06   512   0.819E-03
  87 F= -.70435470E+02 E0= -.70435470E+02  d E =0.836120E-02
 BRION: g(F)=  0.836E-03 g(S)=  0.000E+00 BRIONS problems: POTIM should be increased
 retain N=  1 mean eig=11.10
 eig:  11.102
 bond charge predicted
       N       E                     dE             d eps       ncg     rms          rms(c)
DAV:   1    -0.704420414707E+02   -0.65724E-02   -0.18366E-01   568   0.282E+00    0.684E-02
DAV:   2    -0.704423408598E+02   -0.29939E-03   -0.36791E-03   640   0.313E-01    0.473E-02
DAV:   3    -0.704423234108E+02    0.17449E-04   -0.22293E-04   848   0.859E-02    0.214E-02
DAV:   4    -0.704423270807E+02   -0.36699E-05   -0.47695E-05   640   0.326E-02    0.680E-03
DAV:   5    -0.704423273046E+02   -0.22395E-06   -0.87641E-06   648   0.175E-02
  88 F= -.70442327E+02 E0= -.70442327E+02  d E =-.685764E-02
 BRION: g(F)=  0.827E-03 g(S)=  0.000E+00 BRIONS problems: POTIM should be increased
 retain N=  1 mean eig=21.36
 eig:  21.358
 bond charge predicted
       N       E                     dE             d eps       ncg     rms          rms(c)
DAV:   1    -0.704426165279E+02   -0.28945E-03   -0.13920E-04   584   0.814E-02    0.220E-03
DAV:   2    -0.704426167869E+02   -0.25894E-06   -0.25095E-06   544   0.100E-02
  89 F= -.70442617E+02 E0= -.70442617E+02  d E =-.289482E-03
 BRION: g(F)=  0.824E-03 g(S)=  0.000E+00 retain N=  1 mean eig= 2.20
 eig:   2.200
 bond charge predicted
       N       E                     dE             d eps       ncg     rms          rms(c)
DAV:   1    -0.704436792220E+02   -0.10627E-02   -0.33051E-03   560   0.380E-01    0.942E-03
DAV:   2    -0.704436844094E+02   -0.51875E-05   -0.63076E-05   680   0.413E-02    0.640E-03
DAV:   3    -0.704436841884E+02    0.22106E-06   -0.37725E-06   672   0.115E-02
  90 F= -.70443684E+02 E0= -.70443684E+02  d E =-.106740E-02
 BRION: g(F)=  0.832E-03 g(S)=  0.000E+00 retain N=  1 mean eig= 7.61
 eig:   7.611
 bond charge predicted
       N       E                     dE             d eps       ncg     rms          rms(c)
DAV:   1    -0.704409203149E+02    0.27641E-02   -0.23760E-02   560   0.102E+00    0.244E-02
DAV:   2    -0.704409554971E+02   -0.35182E-04   -0.45079E-04   648   0.111E-01    0.167E-02
DAV:   3    -0.704409531817E+02    0.23154E-05   -0.29919E-05   832   0.314E-02    0.702E-03
DAV:   4    -0.704409534916E+02   -0.30995E-06   -0.51817E-06   592   0.114E-02
  91 F= -.70440953E+02 E0= -.70440953E+02  d E =0.273070E-02
 BRION: g(F)=  0.846E-03 g(S)=  0.000E+00 retain N=  2 mean eig= 6.03
 eig:   6.033  6.033
 bond charge predicted
       N       E                     dE             d eps       ncg     rms          rms(c)
DAV:   1    -0.704389724974E+02    0.19807E-02   -0.12143E-02   560   0.727E-01    0.179E-02
DAV:   2    -0.704389914509E+02   -0.18954E-04   -0.23383E-04   664   0.794E-02    0.122E-02
DAV:   3    -0.704389906118E+02    0.83911E-06   -0.15138E-05   840   0.224E-02    0.531E-03
DAV:   4    -0.704389908077E+02   -0.19593E-06   -0.26238E-06   560   0.811E-03
  92 F= -.70438991E+02 E0= -.70438991E+02  d E =0.196268E-02
 BRION: g(F)=  0.838E-03 g(S)=  0.000E+00 BRIONS problems: POTIM should be increased
 retain N=  1 mean eig=20.41
 eig:  20.414
 bond charge predicted
       N       E                     dE             d eps       ncg     rms          rms(c)
DAV:   1    -0.704329032429E+02    0.60874E-02   -0.11850E-01   560   0.227E+00    0.555E-02
DAV:   2    -0.704330880441E+02   -0.18480E-03   -0.22759E-03   656   0.247E-01    0.376E-02
DAV:   3    -0.704330784688E+02    0.95753E-05   -0.14551E-04   840   0.690E-02    0.161E-02
DAV:   4    -0.704330802273E+02   -0.17585E-05   -0.25677E-05   656   0.247E-02    0.553E-03
DAV:   5    -0.704330798816E+02    0.34567E-06   -0.55011E-06   632   0.140E-02
  93 F= -.70433080E+02 E0= -.70433080E+02  d E =0.591093E-02
 BRION: g(F)=  0.825E-03 g(S)=  0.000E+00 BRIONS problems: POTIM should be increased
 retain N=  1 mean eig=10.22
 eig:  10.219
 bond charge predicted
       N       E                     dE             d eps       ncg     rms          rms(c)
DAV:   1    -0.704352981619E+02   -0.22179E-02   -0.12777E-02   560   0.746E-01    0.182E-02
DAV:   2    -0.704353170432E+02   -0.18881E-04   -0.23728E-04   648   0.804E-02    0.124E-02
DAV:   3    -0.704353160523E+02    0.99083E-06   -0.16012E-05   848   0.229E-02    0.509E-03
DAV:   4    -0.704353165131E+02   -0.46081E-06   -0.27343E-06   536   0.816E-03
  94 F= -.70435317E+02 E0= -.70435317E+02  d E =-.223663E-02
 BRION: g(F)=  0.801E-03 g(S)=  0.000E+00 retain N=  1 mean eig= 0.54
 eig:   0.535
 bond charge predicted
       N       E                     dE             d eps       ncg     rms          rms(c)
DAV:   1    -0.704374106670E+02   -0.20946E-02   -0.11381E-02   560   0.704E-01    0.173E-02
DAV:   2    -0.704374281979E+02   -0.17531E-04   -0.21213E-04   672   0.763E-02    0.117E-02
DAV:   3    -0.704374275595E+02    0.63837E-06   -0.14147E-05   840   0.215E-02    0.499E-03
DAV:   4    -0.704374279118E+02   -0.35224E-06   -0.22870E-06   536   0.772E-03
  95 F= -.70437428E+02 E0= -.70437428E+02  d E =-.211140E-02
 BRION: g(F)=  0.807E-03 g(S)=  0.000E+00 retain N=  2 mean eig= 3.89
 eig:   0.781  7.007
 bond charge predicted
       N       E                     dE             d eps       ncg     rms          rms(c)
DAV:   1    -0.704394368851E+02   -0.20093E-02   -0.11802E-02   560   0.718E-01    0.175E-02
DAV:   2    -0.704394550916E+02   -0.18206E-04   -0.22091E-04   664   0.776E-02    0.118E-02
DAV:   3    -0.704394542773E+02    0.81434E-06   -0.14462E-05   832   0.219E-02    0.509E-03
DAV:   4    -0.704394546011E+02   -0.32379E-06   -0.25046E-06   560   0.799E-03
  96 F= -.70439455E+02 E0= -.70439455E+02  d E =-.202669E-02
 BRION: g(F)=  0.817E-03 g(S)=  0.000E+00 BRIONS problems: POTIM should be increased
 retain N=  1 mean eig=14.33
 eig:  14.329
 bond charge predicted
       N       E                     dE             d eps       ncg     rms          rms(c)
DAV:   1    -0.704317300639E+02    0.77242E-02   -0.16950E-01   560   0.272E+00    0.656E-02
DAV:   2    -0.704319814682E+02   -0.25140E-03   -0.31485E-03   648   0.294E-01    0.444E-02
DAV:   3    -0.704319668998E+02    0.14568E-04   -0.20806E-04   840   0.823E-02    0.182E-02
DAV:   4    -0.704319693703E+02   -0.24705E-05   -0.34818E-05   664   0.289E-02    0.655E-03
DAV:   5    -0.704319690142E+02    0.35613E-06   -0.78943E-06   688   0.162E-02
  97 F= -.70431969E+02 E0= -.70431969E+02  d E =0.748559E-02
 BRION: g(F)=  0.817E-03 g(S)=  0.000E+00 BRIONS problems: POTIM should be increased
 retain N=  1 mean eig=12.81
 eig:  12.806
 bond charge predicted
       N       E                     dE             d eps       ncg     rms          rms(c)
DAV:   1    -0.704367911427E+02   -0.48218E-02   -0.70889E-02   560   0.176E+00    0.423E-02
DAV:   2    -0.704368959585E+02   -0.10482E-03   -0.13151E-03   648   0.189E-01    0.289E-02
DAV:   3    -0.704368890468E+02    0.69117E-05   -0.86900E-05   832   0.536E-02    0.120E-02
DAV:   4    -0.704368905657E+02   -0.15189E-05   -0.16260E-05   656   0.196E-02    0.442E-03
DAV:   5    -0.704368905073E+02    0.58411E-07   -0.32771E-06   600   0.112E-02
  98 F= -.70436891E+02 E0= -.70436891E+02  d E =-.492149E-02
 BRION: g(F)=  0.810E-03 g(S)=  0.000E+00 retain N=  1 mean eig= 5.66
 eig:   5.658
 bond charge predicted
       N       E                     dE             d eps       ncg     rms          rms(c)
DAV:   1    -0.704372069062E+02   -0.31634E-03   -0.24207E-04   512   0.103E-01    0.271E-03
DAV:   2    -0.704372074376E+02   -0.53142E-06   -0.56683E-06   656   0.135E-02
  99 F= -.70437207E+02 E0= -.70437207E+02  d E =-.316930E-03
 BRION: g(F)=  0.811E-03 g(S)=  0.000E+00 retain N=  1 mean eig= 0.61
 eig:   0.615
 bond charge predicted
       N       E                     dE             d eps       ncg     rms          rms(c)
DAV:   1    -0.704380166026E+02   -0.80970E-03   -0.20539E-03   560   0.300E-01    0.790E-03
DAV:   2    -0.704380196793E+02   -0.30767E-05   -0.38397E-05   680   0.322E-02    0.531E-03
DAV:   3    -0.704380195078E+02    0.17155E-06   -0.21888E-06   528   0.935E-03
 100 F= -.70438020E+02 E0= -.70438020E+02  d E =-.812070E-03
 BRION: g(F)=  0.822E-03 g(S)=  0.000E+00 BRIONS problems: POTIM should be increased
 retain N=  1 mean eig=13.75
 eig:  13.747
 bond charge predicted
       N       E                     dE             d eps       ncg     rms          rms(c)
DAV:   1    -0.704276194865E+02    0.10400E-01   -0.33907E-01   560   0.387E+00    0.915E-02
DAV:   2    -0.704281273571E+02   -0.50787E-03   -0.63912E-03   648   0.419E-01    0.620E-02
DAV:   3    -0.704280944880E+02    0.32869E-04   -0.41289E-04   832   0.117E-01    0.261E-02
DAV:   4    -0.704280991887E+02   -0.47007E-05   -0.75126E-05   656   0.423E-02    0.931E-03
DAV:   5    -0.704280986489E+02    0.53978E-06   -0.16306E-05   752   0.233E-02    0.382E-03
DAV:   6    -0.704280986819E+02   -0.33046E-07   -0.17873E-06   512   0.804E-03
 101 F= -.70428099E+02 E0= -.70428099E+02  d E =0.992083E-02
 BRION: g(F)=  0.846E-03 g(S)=  0.000E+00 BRIONS problems: POTIM should be increased
 retain N=  1 mean eig= 9.40
 eig:   9.400
 bond charge predicted
       N       E                     dE             d eps       ncg     rms          rms(c)
DAV:   1    -0.704365840966E+02   -0.84854E-02   -0.26547E-01   560   0.343E+00    0.807E-02
DAV:   2    -0.704369867120E+02   -0.40262E-03   -0.50163E-03   648   0.370E-01    0.552E-02
DAV:   3    -0.704369593983E+02    0.27314E-04   -0.32048E-04   832   0.103E-01    0.240E-02
DAV:   4    -0.704369639849E+02   -0.45867E-05   -0.63564E-05   656   0.387E-02    0.845E-03
DAV:   5    -0.704369638766E+02    0.10831E-06   -0.13375E-05   760   0.214E-02    0.344E-03
DAV:   6    -0.704369639853E+02   -0.10866E-06   -0.14758E-06   488   0.726E-03
 102 F= -.70436964E+02 E0= -.70436964E+02  d E =-.886530E-02
 BRION: g(F)=  0.823E-03 g(S)=  0.000E+00 retain N=  1 mean eig= 6.39
 eig:   6.388
 bond charge predicted
       N       E                     dE             d eps       ncg     rms          rms(c)
DAV:   1    -0.704354380353E+02    0.15258E-02   -0.88027E-03   560   0.623E-01    0.148E-02
DAV:   2    -0.704354507749E+02   -0.12740E-04   -0.16529E-04   640   0.669E-02    0.101E-02
DAV:   3    -0.704354500565E+02    0.71841E-06   -0.11688E-05   824   0.196E-02    0.424E-03
DAV:   4    -0.704354502061E+02   -0.14963E-06   -0.17638E-06   464   0.700E-03
 103 F= -.70435450E+02 E0= -.70435450E+02  d E =0.151378E-02
 BRION: g(F)=  0.830E-03 g(S)=  0.000E+00 retain N=  1 mean eig= 0.34
 eig:   0.337
 bond charge predicted
       N       E                     dE             d eps       ncg     rms          rms(c)
DAV:   1    -0.704399712803E+02   -0.45212E-02   -0.77965E-02   560   0.185E+00    0.444E-02
DAV:   2    -0.704400905966E+02   -0.11932E-03   -0.14798E-03   648   0.199E-01    0.303E-02
DAV:   3    -0.704400832804E+02    0.73162E-05   -0.92664E-05   832   0.552E-02    0.130E-02
DAV:   4    -0.704400846689E+02   -0.13885E-05   -0.17689E-05   656   0.203E-02    0.441E-03
DAV:   5    -0.704400846418E+02    0.27163E-07   -0.33240E-06   592   0.111E-02
 104 F= -.70440085E+02 E0= -.70440085E+02  d E =-.463444E-02
 BRION: g(F)=  0.827E-03 g(S)=  0.000E+00 retain N=  2 mean eig= 3.02
 eig:   1.055  4.978
 bond charge predicted
       N       E                     dE             d eps       ncg     rms          rms(c)
DAV:   1    -0.704455458861E+02   -0.54612E-02   -0.12153E-01   560   0.231E+00    0.555E-02
DAV:   2    -0.704457359598E+02   -0.19007E-03   -0.23322E-03   664   0.250E-01    0.379E-02
DAV:   3    -0.704457246177E+02    0.11342E-04   -0.14350E-04   832   0.686E-02    0.165E-02
DAV:   4    -0.704457265211E+02   -0.19033E-05   -0.28019E-05   648   0.255E-02    0.557E-03
DAV:   5    -0.704457265185E+02    0.25993E-08   -0.56110E-06   632   0.141E-02
 105 F= -.70445727E+02 E0= -.70445727E+02  d E =-.564188E-02
 BRION: g(F)=  0.850E-03 g(S)=  0.000E+00 BRIONS problems: POTIM should be increased
 retain N=  1 mean eig=16.14
 eig:  16.139
 bond charge predicted
       N       E                     dE             d eps       ncg     rms          rms(c)
DAV:   1    -0.704339541798E+02    0.11772E-01   -0.46389E-01   560   0.450E+00    0.109E-01
DAV:   2    -0.704346668324E+02   -0.71265E-03   -0.88703E-03   656   0.489E-01    0.738E-02
DAV:   3    -0.704346255558E+02    0.41277E-04   -0.56217E-04   832   0.135E-01    0.309E-02
DAV:   4    -0.704346323182E+02   -0.67623E-05   -0.10054E-04   640   0.487E-02    0.108E-02
DAV:   5    -0.704346314188E+02    0.89941E-06   -0.22259E-05   752   0.273E-02    0.436E-03
DAV:   6    -0.704346314881E+02   -0.69384E-07   -0.25903E-06   520   0.958E-03
 106 F= -.70434631E+02 E0= -.70434631E+02  d E =0.110950E-01
 BRION: g(F)=  0.827E-03 g(S)=  0.000E+00 BRIONS problems: POTIM should be increased
 retain N=  1 mean eig=16.90
 eig:  16.895
 bond charge predicted
       N       E                     dE             d eps       ncg     rms          rms(c)
DAV:   1    -0.704365996156E+02   -0.19682E-02   -0.13420E-02   560   0.769E-01    0.184E-02
DAV:   2    -0.704366196676E+02   -0.20052E-04   -0.25256E-04   648   0.827E-02    0.125E-02
DAV:   3    -0.704366186168E+02    0.10507E-05   -0.18460E-05   824   0.245E-02    0.527E-03
DAV:   4    -0.704366189667E+02   -0.34982E-06   -0.26971E-06   536   0.864E-03
 107 F= -.70436619E+02 E0= -.70436619E+02  d E =-.198748E-02
 BRION: g(F)=  0.816E-03 g(S)=  0.000E+00 retain N=  1 mean eig= 0.56
 eig:   0.558
 bond charge predicted
       N       E                     dE             d eps       ncg     rms          rms(c)
DAV:   1    -0.704377437959E+02   -0.11252E-02   -0.41491E-03   560   0.426E-01    0.105E-02
DAV:   2    -0.704377504893E+02   -0.66934E-05   -0.79306E-05   680   0.461E-02    0.709E-03
DAV:   3    -0.704377502860E+02    0.20328E-06   -0.49104E-06   736   0.130E-02
 108 F= -.70437750E+02 E0= -.70437750E+02  d E =-.113132E-02
 BRION: g(F)=  0.831E-03 g(S)=  0.000E+00 retain N=  1 mean eig= 2.89
 eig:   2.891
 bond charge predicted
       N       E                     dE             d eps       ncg     rms          rms(c)
DAV:   1    -0.704360774072E+02    0.16731E-02   -0.97481E-03   560   0.654E-01    0.153E-02
DAV:   2    -0.704360915862E+02   -0.14179E-04   -0.18443E-04   648   0.710E-02    0.105E-02
DAV:   3    -0.704360905403E+02    0.10459E-05   -0.12640E-05   824   0.203E-02    0.441E-03
DAV:   4    -0.704360906238E+02   -0.83582E-07   -0.19331E-06   488   0.727E-03
 109 F= -.70436091E+02 E0= -.70436091E+02  d E =0.165966E-02
 BRION: g(F)=  0.844E-03 g(S)=  0.000E+00 retain N=  2 mean eig= 2.55
 eig:   1.840  3.263
 bond charge predicted
       N       E                     dE             d eps       ncg     rms          rms(c)
DAV:   1    -0.704355945567E+02    0.49598E-03   -0.87185E-04   560   0.196E-01    0.483E-03
DAV:   2    -0.704355958975E+02   -0.13408E-05   -0.16899E-05   688   0.213E-02    0.326E-03
DAV:   3    -0.704355958182E+02    0.79342E-07   -0.72556E-07   400   0.607E-03
 110 F= -.70435596E+02 E0= -.70435596E+02  d E =0.494806E-03
 BRION: g(F)=  0.830E-03 g(S)=  0.000E+00 retain N=  1 mean eig= 6.09
 eig:   6.089
 bond charge predicted
       N       E                     dE             d eps       ncg     rms          rms(c)
DAV:   1    -0.704320367228E+02    0.35592E-02   -0.48303E-02   560   0.146E+00    0.344E-02
DAV:   2    -0.704321097460E+02   -0.73023E-04   -0.91787E-04   656   0.158E-01    0.236E-02
DAV:   3    -0.704321048050E+02    0.49409E-05   -0.56934E-05   816   0.435E-02    0.101E-02
DAV:   4    -0.704321056897E+02   -0.88469E-06   -0.12464E-05   664   0.170E-02    0.367E-03
DAV:   5    -0.704321054027E+02    0.28697E-06   -0.21431E-06   496   0.969E-03
 111 F= -.70432105E+02 E0= -.70432105E+02  d E =0.349042E-02
 BRION: g(F)=  0.863E-03 g(S)=  0.000E+00 retain N=  2 mean eig= 3.60
 eig:   3.603  3.603
 bond charge predicted
       N       E                     dE             d eps       ncg     rms          rms(c)
DAV:   1    -0.704264043235E+02    0.57014E-02   -0.11700E-01   560   0.227E+00    0.537E-02
DAV:   2    -0.704265804942E+02   -0.17617E-03   -0.22068E-03   664   0.245E-01    0.366E-02
DAV:   3    -0.704265687703E+02    0.11724E-04   -0.14252E-04   832   0.684E-02    0.154E-02
DAV:   4    -0.704265705726E+02   -0.18023E-05   -0.26771E-05   656   0.251E-02    0.566E-03
DAV:   5    -0.704265702664E+02    0.30620E-06   -0.57049E-06   632   0.142E-02
 112 F= -.70426570E+02 E0= -.70426570E+02  d E =0.553514E-02
 BRION: g(F)=  0.864E-03 g(S)=  0.000E+00 retain N=  2 mean eig= 4.87
 eig:   1.877  7.864
 bond charge predicted
       N       E                     dE             d eps       ncg     rms          rms(c)
DAV:   1    -0.704345024351E+02   -0.79319E-02   -0.25853E-01   560   0.338E+00    0.796E-02
DAV:   2    -0.704348933063E+02   -0.39087E-03   -0.48905E-03   640   0.364E-01    0.549E-02
DAV:   3    -0.704348638713E+02    0.29435E-04   -0.30910E-04   832   0.102E-01    0.237E-02
DAV:   4    -0.704348687362E+02   -0.48649E-05   -0.67179E-05   656   0.393E-02    0.857E-03
DAV:   5    -0.704348682682E+02    0.46808E-06   -0.13926E-05   760   0.222E-02    0.339E-03
DAV:   6    -0.704348684390E+02   -0.17081E-06   -0.18117E-06   512   0.775E-03
 113 F= -.70434868E+02 E0= -.70434868E+02  d E =-.829817E-02
 BRION: g(F)=  0.826E-03 g(S)=  0.000E+00 retain N=  1 mean eig= 3.80
 eig:   3.799
 bond charge predicted
       N       E                     dE             d eps       ncg     rms          rms(c)
DAV:   1    -0.704344912048E+02    0.37706E-03   -0.87457E-04   560   0.197E-01    0.451E-03
DAV:   2    -0.704344923215E+02   -0.11167E-05   -0.16244E-05   640   0.212E-02    0.314E-03
DAV:   3    -0.704344922306E+02    0.90964E-07   -0.97617E-07   416   0.683E-03
 114 F= -.70434492E+02 E0= -.70434492E+02  d E =0.376208E-03
 BRION: g(F)=  0.827E-03 g(S)=  0.000E+00 retain N=  2 mean eig= 2.34
 eig:   3.898  0.781
 bond charge predicted
       N       E                     dE             d eps       ncg     rms          rms(c)
DAV:   1    -0.704344557938E+02    0.36528E-04   -0.16959E-05   600   0.278E-02    0.107E-03
DAV:   2    -0.704344558066E+02   -0.12814E-07   -0.32751E-07   256   0.341E-03
 115 F= -.70434456E+02 E0= -.70434456E+02  d E =0.364239E-04
 BRION: g(F)=  0.831E-03 g(S)=  0.000E+00 retain N=  2 mean eig= 0.96
 eig:   0.965  0.965
 bond charge predicted
       N       E                     dE             d eps       ncg     rms          rms(c)
DAV:   1    -0.704368525562E+02   -0.23968E-02   -0.29742E-02   560   0.114E+00    0.272E-02
DAV:   2    -0.704368989219E+02   -0.46366E-04   -0.57389E-04   648   0.124E-01    0.187E-02
DAV:   3    -0.704368958796E+02    0.30423E-05   -0.33548E-05   816   0.332E-02    0.818E-03
DAV:   4    -0.704368965374E+02   -0.65780E-06   -0.75193E-06   640   0.130E-02
 116 F= -.70436897E+02 E0= -.70436897E+02  d E =-.244073E-02
 BRION: g(F)=  0.838E-03 g(S)=  0.000E+00 retain N=  3 mean eig= 1.90
 eig:   2.387  2.387  0.940
 bond charge predicted
       N       E                     dE             d eps       ncg     rms          rms(c)
DAV:   1    -0.704438052497E+02   -0.69094E-02   -0.28649E-01   560   0.353E+00    0.853E-02
DAV:   2    -0.704442682918E+02   -0.46304E-03   -0.56943E-03   656   0.388E-01    0.588E-02
DAV:   3    -0.704442375502E+02    0.30742E-04   -0.32983E-04   824   0.105E-01    0.267E-02
DAV:   4    -0.704442420338E+02   -0.44835E-05   -0.78518E-05   648   0.417E-02    0.858E-03
DAV:   5    -0.704442416336E+02    0.40012E-06   -0.14805E-05   736   0.224E-02    0.357E-03
DAV:   6    -0.704442419177E+02   -0.28402E-06   -0.17289E-06   488   0.758E-03
 117 F= -.70444242E+02 E0= -.70444242E+02  d E =-.734538E-02
 BRION: g(F)=  0.901E-03 g(S)=  0.000E+00 retain N=  3 mean eig= 3.66
 eig:   7.168  0.920  2.885
 bond charge predicted
       N       E                     dE             d eps       ncg     rms          rms(c)
DAV:   1    -0.704312844253E+02    0.12957E-01   -0.74909E-01   560   0.571E+00    0.137E-01
DAV:   2    -0.704324614681E+02   -0.11770E-02   -0.14682E-02   648   0.628E-01    0.936E-02
DAV:   3    -0.704323881971E+02    0.73271E-04   -0.89989E-04   824   0.172E-01    0.403E-02
DAV:   4    -0.704323995820E+02   -0.11385E-04   -0.18107E-04   648   0.641E-02    0.136E-02
DAV:   5    -0.704323982375E+02    0.13445E-05   -0.35415E-05   744   0.343E-02    0.559E-03
DAV:   6    -0.704323984201E+02   -0.18256E-06   -0.42105E-06   584   0.120E-02
 118 F= -.70432398E+02 E0= -.70432398E+02  d E =0.118435E-01
 BRION: g(F)=  0.834E-03 g(S)=  0.000E+00 retain N=  1 mean eig= 4.64
 eig:   4.639
 bond charge predicted
       N       E                     dE             d eps       ncg     rms          rms(c)
DAV:   1    -0.704344726883E+02   -0.20745E-02   -0.20540E-02   560   0.955E-01    0.222E-02
DAV:   2    -0.704345035077E+02   -0.30819E-04   -0.39229E-04   648   0.103E-01    0.153E-02
DAV:   3    -0.704345013247E+02    0.21830E-05   -0.26602E-05   824   0.298E-02    0.657E-03
DAV:   4    -0.704345019253E+02   -0.60061E-06   -0.48907E-06   560   0.110E-02
 119 F= -.70434502E+02 E0= -.70434502E+02  d E =-.210351E-02
 BRION: g(F)=  0.820E-03 g(S)=  0.000E+00 retain N=  2 mean eig= 2.50
 eig:   3.732  1.274
 bond charge predicted
       N       E                     dE             d eps       ncg     rms          rms(c)
DAV:   1    -0.704355000779E+02   -0.99875E-03   -0.33500E-03   560   0.381E-01    0.959E-03
DAV:   2    -0.704355056645E+02   -0.55866E-05   -0.64712E-05   672   0.413E-02    0.652E-03
DAV:   3    -0.704355055792E+02    0.85288E-07   -0.39178E-06   712   0.118E-02
 120 F= -.70435506E+02 E0= -.70435506E+02  d E =-.100365E-02
 BRION: g(F)=  0.837E-03 g(S)=  0.000E+00 retain N=  1 mean eig= 1.74
 eig:   1.740
 bond charge predicted
       N       E                     dE             d eps       ncg     rms          rms(c)
DAV:   1    -0.704345868825E+02    0.91878E-03   -0.29952E-03   552   0.363E-01    0.841E-03
DAV:   2    -0.704345913605E+02   -0.44780E-05   -0.59392E-05   656   0.407E-02    0.581E-03
DAV:   3    -0.704345910216E+02    0.33893E-06   -0.40858E-06   688   0.118E-02
 121 F= -.70434591E+02 E0= -.70434591E+02  d E =0.914558E-03
 BRION: g(F)=  0.842E-03 g(S)=  0.000E+00 retain N=  2 mean eig= 0.62
 eig:   0.616  0.616
 bond charge predicted
       N       E                     dE             d eps       ncg     rms          rms(c)
DAV:   1    -0.704305776584E+02    0.40137E-02   -0.54490E-02   560   0.155E+00    0.375E-02
DAV:   2    -0.704306589291E+02   -0.81271E-04   -0.10151E-03   672   0.165E-01    0.253E-02
DAV:   3    -0.704306542157E+02    0.47134E-05   -0.65274E-05   824   0.462E-02    0.104E-02
DAV:   4    -0.704306551481E+02   -0.93237E-06   -0.12020E-05   656   0.169E-02    0.386E-03
DAV:   5    -0.704306548565E+02    0.29152E-06   -0.22380E-06   504   0.980E-03
 122 F= -.70430655E+02 E0= -.70430655E+02  d E =0.393617E-02
 BRION: g(F)=  0.840E-03 g(S)=  0.000E+00 retain N=  3 mean eig= 3.12
 eig:   4.546  4.546  0.276
 bond charge predicted
       N       E                     dE             d eps       ncg     rms          rms(c)
DAV:   1    -0.704294045609E+02    0.12506E-02   -0.55847E-03   560   0.496E-01    0.119E-02
DAV:   2    -0.704294129608E+02   -0.83999E-05   -0.10537E-04   680   0.532E-02    0.801E-03
DAV:   3    -0.704294125516E+02    0.40921E-06   -0.68585E-06   752   0.151E-02
 123 F= -.70429413E+02 E0= -.70429413E+02  d E =0.124230E-02
 BRION: g(F)=  0.833E-03 g(S)=  0.000E+00 retain N=  3 mean eig= 4.77
 eig:   0.230  7.033  7.033
 bond charge predicted
       N       E                     dE             d eps       ncg     rms          rms(c)
DAV:   1    -0.704311856861E+02   -0.17727E-02   -0.92301E-03   512   0.642E-01    0.145E-02
DAV:   2    -0.704312032943E+02   -0.17608E-04   -0.21449E-04   648   0.816E-02    0.101E-02
DAV:   3    -0.704312025306E+02    0.76366E-06   -0.13827E-05   832   0.217E-02    0.496E-03
DAV:   4    -0.704312026089E+02   -0.78228E-07   -0.23161E-06   496   0.794E-03
 124 F= -.70431203E+02 E0= -.70431203E+02  d E =-.179006E-02
 BRION: g(F)=  0.819E-03 g(S)=  0.000E+00 retain N=  2 mean eig= 4.19
 eig:   6.998  1.389
 bond charge predicted
       N       E                     dE             d eps       ncg     rms          rms(c)
DAV:   1    -0.704278492851E+02    0.33532E-02   -0.44463E-02   560   0.140E+00    0.331E-02
DAV:   2    -0.704279165262E+02   -0.67241E-04   -0.84722E-04   656   0.150E-01    0.225E-02
DAV:   3    -0.704279122260E+02    0.43002E-05   -0.52283E-05   816   0.414E-02    0.948E-03
DAV:   4    -0.704279128607E+02   -0.63471E-06   -0.10060E-05   656   0.154E-02    0.332E-03
DAV:   5    -0.704279126639E+02    0.19685E-06   -0.15358E-06   432   0.825E-03
 125 F= -.70427913E+02 E0= -.70427913E+02  d E =0.328994E-02
 BRION: g(F)=  0.847E-03 g(S)=  0.000E+00 retain N=  2 mean eig= 1.17
 eig:   1.577  0.757
 bond charge predicted
       N       E                     dE             d eps       ncg     rms          rms(c)
DAV:   1    -0.704347319487E+02   -0.68191E-02   -0.22447E-01   560   0.314E+00    0.748E-02
DAV:   2    -0.704350830195E+02   -0.35107E-03   -0.43264E-03   648   0.337E-01    0.510E-02
DAV:   3    -0.704350604198E+02    0.22600E-04   -0.25486E-04   816   0.918E-02    0.223E-02
DAV:   4    -0.704350643109E+02   -0.38911E-05   -0.55363E-05   672   0.356E-02    0.755E-03
DAV:   5    -0.704350640163E+02    0.29458E-06   -0.11032E-05   744   0.195E-02    0.304E-03
DAV:   6    -0.704350641259E+02   -0.10962E-06   -0.12826E-06   448   0.677E-03
 126 F= -.70435064E+02 E0= -.70435064E+02  d E =-.715146E-02
 BRION: g(F)=  0.834E-03 g(S)=  0.000E+00 retain N=  3 mean eig= 2.14
 eig:   1.001  1.001  4.412
 bond charge predicted
       N       E                     dE             d eps       ncg     rms          rms(c)
DAV:   1    -0.704379111769E+02   -0.28472E-02   -0.36647E-02   560   0.127E+00    0.304E-02
DAV:   2    -0.704379687133E+02   -0.57536E-04   -0.70466E-04   672   0.136E-01    0.207E-02
DAV:   3    -0.704379652004E+02    0.35129E-05   -0.41007E-05   816   0.367E-02    0.895E-03
DAV:   4    -0.704379659892E+02   -0.78883E-06   -0.88503E-06   648   0.142E-02
 127 F= -.70437966E+02 E0= -.70437966E+02  d E =-.290186E-02
 BRION: g(F)=  0.822E-03 g(S)=  0.000E+00 retain N=  4 mean eig= 2.89
 eig:   1.508  1.508  4.690  3.862
 bond charge predicted
       N       E                     dE             d eps       ncg     rms          rms(c)
DAV:   1    -0.704375808246E+02    0.38438E-03   -0.57300E-04   568   0.160E-01    0.361E-03
DAV:   2    -0.704375815800E+02   -0.75547E-06   -0.10370E-05   680   0.167E-02    0.248E-03
DAV:   3    -0.704375815936E+02   -0.13546E-07   -0.44911E-07   408   0.463E-03
 128 F= -.70437582E+02 E0= -.70437582E+02  d E =0.384396E-03
 BRION: g(F)=  0.836E-03 g(S)=  0.000E+00 retain N=  2 mean eig= 4.85
 eig:   2.979  6.719
 bond charge predicted
       N       E                     dE             d eps       ncg     rms          rms(c)
DAV:   1    -0.704439258419E+02   -0.63443E-02   -0.15928E-01   568   0.262E+00    0.646E-02
DAV:   2    -0.704441785498E+02   -0.25271E-03   -0.30830E-03   664   0.282E-01    0.440E-02
DAV:   3    -0.704441655587E+02    0.12991E-04   -0.18253E-04   824   0.771E-02    0.195E-02
DAV:   4    -0.704441681041E+02   -0.25454E-05   -0.34541E-05   656   0.283E-02    0.608E-03
DAV:   5    -0.704441680985E+02    0.55891E-08   -0.66291E-06   640   0.152E-02
 129 F= -.70444168E+02 E0= -.70444168E+02  d E =-.658650E-02
 BRION: g(F)=  0.951E-03 g(S)=  0.000E+00 retain N=  2 mean eig= 5.36
 eig:   5.194  5.523
 bond charge predicted
       N       E                     dE             d eps       ncg     rms          rms(c)
DAV:   1    -0.704493172465E+02   -0.51491E-02   -0.10708E-01   560   0.215E+00    0.532E-02
DAV:   2    -0.704494931902E+02   -0.17594E-03   -0.21188E-03   664   0.234E-01    0.360E-02
DAV:   3    -0.704494854444E+02    0.77458E-05   -0.12752E-04   832   0.645E-02    0.161E-02
DAV:   4    -0.704494869353E+02   -0.14909E-05   -0.22861E-05   656   0.234E-02    0.500E-03
DAV:   5    -0.704494871362E+02   -0.20093E-06   -0.45467E-06   632   0.126E-02
 130 F= -.70449487E+02 E0= -.70449487E+02  d E =-.531904E-02
 BRION: g(F)=  0.987E-03 g(S)=  0.000E+00 retain N=  2 mean eig= 4.59
 eig:   4.589  4.589
 bond charge predicted
       N       E                     dE             d eps       ncg     rms          rms(c)
DAV:   1    -0.704342698264E+02    0.15217E-01   -0.73819E-01   560   0.564E+00    0.140E-01
DAV:   2    -0.704354524162E+02   -0.11826E-02   -0.14477E-02   648   0.616E-01    0.939E-02
DAV:   3    -0.704354029754E+02    0.49441E-04   -0.90074E-04   832   0.171E-01    0.401E-02
DAV:   4    -0.704354123956E+02   -0.94202E-05   -0.14468E-04   648   0.593E-02    0.130E-02
DAV:   5    -0.704354116393E+02    0.75625E-06   -0.31945E-05   744   0.323E-02    0.542E-03
DAV:   6    -0.704354117068E+02   -0.67462E-07   -0.35806E-06   576   0.112E-02
 131 F= -.70435412E+02 E0= -.70435412E+02  d E =0.140754E-01
 BRION: g(F)=  0.832E-03 g(S)=  0.000E+00 retain N=  1 mean eig= 4.43
 eig:   4.433
 bond charge predicted
       N       E                     dE             d eps       ncg     rms          rms(c)
DAV:   1    -0.704361615769E+02   -0.74994E-03   -0.17844E-03   560   0.284E-01    0.659E-03
DAV:   2    -0.704361639938E+02   -0.24169E-05   -0.32288E-05   672   0.305E-02    0.456E-03
DAV:   3    -0.704361639196E+02    0.74232E-07   -0.30245E-06   536   0.108E-02
 132 F= -.70436164E+02 E0= -.70436164E+02  d E =-.752213E-03
 BRION: g(F)=  0.834E-03 g(S)=  0.000E+00 retain N=  2 mean eig= 2.05
 eig:   3.446  0.653
 bond charge predicted
       N       E                     dE             d eps       ncg     rms          rms(c)
DAV:   1    -0.704358614435E+02    0.30255E-03   -0.44239E-04   568   0.138E-01    0.313E-03
DAV:   2    -0.704358621758E+02   -0.73228E-06   -0.92283E-06   672   0.158E-02
 133 F= -.70435862E+02 E0= -.70435862E+02  d E =0.301744E-03
 BRION: g(F)=  0.842E-03 g(S)=  0.000E+00 retain N=  3 mean eig= 3.98
 eig:   6.033  2.955  2.955
 bond charge predicted
       N       E                     dE             d eps       ncg     rms          rms(c)
DAV:   1    -0.704394506528E+02   -0.35892E-02   -0.60879E-02   560   0.160E+00    0.406E-02
DAV:   2    -0.704395564606E+02   -0.10581E-03   -0.12639E-03   632   0.176E-01    0.276E-02
DAV:   3    -0.704395521105E+02    0.43501E-05   -0.72309E-05   832   0.483E-02    0.129E-02
DAV:   4    -0.704395529020E+02   -0.79148E-06   -0.13414E-05   648   0.178E-02    0.363E-03
DAV:   5    -0.704395529976E+02   -0.95582E-07   -0.22494E-06   536   0.939E-03
 134 F= -.70439553E+02 E0= -.70439553E+02  d E =-.369082E-02
 BRION: g(F)=  0.856E-03 g(S)=  0.000E+00 retain N=  2 mean eig= 2.24
 eig:   2.237  2.237
 bond charge predicted
       N       E                     dE             d eps       ncg     rms          rms(c)
DAV:   1    -0.704385656472E+02    0.98725E-03   -0.68478E-03   568   0.531E-01    0.142E-02
DAV:   2    -0.704385767750E+02   -0.11128E-04   -0.14162E-04   608   0.571E-02    0.965E-03
DAV:   3    -0.704385761786E+02    0.59642E-06   -0.77821E-06   760   0.160E-02
 135 F= -.70438576E+02 E0= -.70438576E+02  d E =0.976819E-03
 BRION: g(F)=  0.848E-03 g(S)=  0.000E+00 retain N=  2 mean eig= 3.79
 eig:   1.428  6.154
 bond charge predicted
       N       E                     dE             d eps       ncg     rms          rms(c)
DAV:   1    -0.704392237188E+02   -0.64694E-03   -0.17375E-03   560   0.274E-01    0.636E-03
DAV:   2    -0.704392263856E+02   -0.26668E-05   -0.34909E-05   624   0.308E-02    0.445E-03
DAV:   3    -0.704392260343E+02    0.35130E-06   -0.16445E-06   440   0.868E-03
 136 F= -.70439226E+02 E0= -.70439226E+02  d E =-.649856E-03
 BRION: g(F)=  0.844E-03 g(S)=  0.000E+00 retain N=  2 mean eig= 0.78
 eig:   1.331  0.233
 bond charge predicted
       N       E                     dE             d eps       ncg     rms          rms(c)
DAV:   1    -0.704404597280E+02   -0.12333E-02   -0.61223E-03   560   0.514E-01    0.131E-02
DAV:   2    -0.704404698557E+02   -0.10128E-04   -0.12110E-04   656   0.553E-02    0.881E-03
DAV:   3    -0.704404695287E+02    0.32697E-06   -0.70346E-06   768   0.153E-02
 137 F= -.70440470E+02 E0= -.70440470E+02  d E =-.124349E-02
 BRION: g(F)=  0.839E-03 g(S)=  0.000E+00 retain N=  3 mean eig= 2.53
 eig:   4.669  2.459  0.464
 bond charge predicted
       N       E                     dE             d eps       ncg     rms          rms(c)
DAV:   1    -0.704445171650E+02   -0.40473E-02   -0.66965E-02   560   0.169E+00    0.428E-02
DAV:   2    -0.704446263558E+02   -0.10919E-03   -0.13151E-03   640   0.183E-01    0.290E-02
DAV:   3    -0.704446215699E+02    0.47859E-05   -0.78911E-05   840   0.509E-02    0.127E-02
DAV:   4    -0.704446227263E+02   -0.11564E-05   -0.14511E-05   648   0.184E-02    0.399E-03
DAV:   5    -0.704446226578E+02    0.68445E-07   -0.27482E-06   576   0.104E-02
 138 F= -.70444623E+02 E0= -.70444623E+02  d E =-.415313E-02
 BRION: g(F)=  0.843E-03 g(S)=  0.000E+00 retain N=  2 mean eig= 7.69
 eig:   7.690  7.690
 bond charge predicted
       N       E                     dE             d eps       ncg     rms          rms(c)
DAV:   1    -0.704449678295E+02   -0.34510E-03   -0.40911E-04   528   0.136E-01    0.314E-03
DAV:   2    -0.704449687108E+02   -0.88125E-06   -0.95539E-06   688   0.175E-02
 139 F= -.70444969E+02 E0= -.70444969E+02  d E =-.346053E-03
 BRION: g(F)=  0.852E-03 g(S)=  0.000E+00 retain N=  3 mean eig= 4.46
 eig:   6.657  6.657  0.067
 bond charge predicted
       N       E                     dE             d eps       ncg     rms          rms(c)
DAV:   1    -0.704450220785E+02   -0.54249E-04   -0.14173E-04   648   0.766E-02    0.260E-03
DAV:   2    -0.704450223631E+02   -0.28469E-06   -0.29274E-06   600   0.854E-03
 140 F= -.70445022E+02 E0= -.70445022E+02  d E =-.536524E-04
 BRION: g(F)=  0.853E-03 g(S)=  0.000E+00 retain N=  2 mean eig= 4.22
 eig:   1.284  7.165
 bond charge predicted
       N       E                     dE             d eps       ncg     rms          rms(c)
DAV:   1    -0.704421941005E+02    0.28280E-02   -0.37798E-02   512   0.128E+00    0.240E-02
DAV:   2    -0.704422417474E+02   -0.47647E-04   -0.68854E-04   672   0.154E-01    0.181E-02
DAV:   3    -0.704422332820E+02    0.84654E-05   -0.37966E-05   760   0.378E-02    0.832E-03
DAV:   4    -0.704422336744E+02   -0.39246E-06   -0.17658E-05   672   0.183E-02    0.327E-03
DAV:   5    -0.704422336438E+02    0.30620E-07   -0.17354E-06   488   0.849E-03
 141 F= -.70442234E+02 E0= -.70442234E+02  d E =0.278872E-02
 BRION: g(F)=  0.850E-03 g(S)=  0.000E+00 retain N=  3 mean eig= 3.42
 eig:   7.640  1.864  0.759
 bond charge predicted
       N       E                     dE             d eps       ncg     rms          rms(c)
DAV:   1    -0.704411500267E+02    0.10836E-02   -0.69018E-03   512   0.548E-01    0.102E-02
DAV:   2    -0.704411588897E+02   -0.88630E-05   -0.12741E-04   696   0.675E-02    0.765E-03
DAV:   3    -0.704411573950E+02    0.14947E-05   -0.66574E-06   680   0.162E-02    0.352E-03
DAV:   4    -0.704411574947E+02   -0.99796E-07   -0.31444E-06   544   0.817E-03
 142 F= -.70441157E+02 E0= -.70441157E+02  d E =0.107615E-02
 BRION: g(F)=  0.845E-03 g(S)=  0.000E+00 retain N=  3 mean eig= 1.83
 eig:   0.927  1.673  2.883
 bond charge predicted
       N       E                     dE             d eps       ncg     rms          rms(c)
DAV:   1    -0.704433551760E+02   -0.21978E-02   -0.13576E-02   512   0.780E-01    0.155E-02
DAV:   2    -0.704433734339E+02   -0.18258E-04   -0.25297E-04   688   0.943E-02    0.116E-02
DAV:   3    -0.704433705976E+02    0.28363E-05   -0.16331E-05   824   0.253E-02    0.527E-03
DAV:   4    -0.704433709023E+02   -0.30469E-06   -0.57585E-06   688   0.110E-02
 143 F= -.70443371E+02 E0= -.70443371E+02  d E =-.221341E-02
 BRION: g(F)=  0.787E-03 g(S)=  0.000E+00 retain N=  4 mean eig= 3.03
 eig:   4.808  4.808  1.735  0.788
 bond charge predicted
       N       E                     dE             d eps       ncg     rms          rms(c)
DAV:   1    -0.704427527030E+02    0.61789E-03   -0.27267E-02   512   0.106E+00    0.195E-02
DAV:   2    -0.704427841137E+02   -0.31411E-04   -0.48955E-04   648   0.125E-01    0.153E-02
DAV:   3    -0.704427771311E+02    0.69826E-05   -0.25130E-05   720   0.302E-02    0.717E-03
DAV:   4    -0.704427769034E+02    0.22775E-06   -0.14227E-05   728   0.162E-02    0.232E-03
DAV:   5    -0.704427769778E+02   -0.74475E-07   -0.11240E-06   448   0.658E-03
 144 F= -.70442777E+02 E0= -.70442777E+02  d E =0.593924E-03
 BRION: g(F)=  0.785E-03 g(S)=  0.000E+00 retain N=  1 mean eig= 6.79
 eig:   6.790
 bond charge predicted
       N       E                     dE             d eps       ncg     rms          rms(c)
DAV:   1    -0.704442015927E+02   -0.14247E-02   -0.13074E-02   512   0.756E-01    0.139E-02
DAV:   2    -0.704442181176E+02   -0.16525E-04   -0.23796E-04   672   0.922E-02    0.105E-02
DAV:   3    -0.704442153618E+02    0.27558E-05   -0.12166E-05   728   0.215E-02    0.485E-03
DAV:   4    -0.704442156381E+02   -0.27630E-06   -0.60700E-06   656   0.108E-02
 145 F= -.70444216E+02 E0= -.70444216E+02  d E =-.143866E-02
 BRION: g(F)=  0.772E-03 g(S)=  0.000E+00 retain N=  1 mean eig= 2.78
 eig:   2.779
 bond charge predicted
       N       E                     dE             d eps       ncg     rms          rms(c)
DAV:   1    -0.704449363695E+02   -0.72101E-03   -0.11535E-03   576   0.215E-01    0.625E-03
DAV:   2    -0.704449381812E+02   -0.18117E-05   -0.21120E-05   656   0.228E-02    0.424E-03
DAV:   3    -0.704449380675E+02    0.11374E-06   -0.10504E-06   448   0.718E-03
 146 F= -.70444938E+02 E0= -.70444938E+02  d E =-.722429E-03
 BRION: g(F)=  0.782E-03 g(S)=  0.000E+00 retain N=  2 mean eig= 4.41
 eig:   4.412  4.412
 bond charge predicted
       N       E                     dE             d eps       ncg     rms          rms(c)
DAV:   1    -0.704398918894E+02    0.50463E-02   -0.57070E-02   560   0.156E+00    0.394E-02
DAV:   2    -0.704399741585E+02   -0.82269E-04   -0.10318E-03   640   0.166E-01    0.263E-02
DAV:   3    -0.704399698105E+02    0.43480E-05   -0.74844E-05   824   0.492E-02    0.105E-02
DAV:   4    -0.704399703732E+02   -0.56268E-06   -0.10695E-05   648   0.171E-02    0.405E-03
DAV:   5    -0.704399701745E+02    0.19871E-06   -0.32358E-06   616   0.103E-02
 147 F= -.70439970E+02 E0= -.70439970E+02  d E =0.496789E-02
 BRION: g(F)=  0.805E-03 g(S)=  0.000E+00 retain N=  1 mean eig= 6.95
 eig:   6.948
 bond charge predicted
       N       E                     dE             d eps       ncg     rms          rms(c)
DAV:   1    -0.704459288180E+02   -0.59584E-02   -0.86235E-02   560   0.193E+00    0.480E-02
DAV:   2    -0.704460539713E+02   -0.12515E-03   -0.15528E-03   640   0.204E-01    0.323E-02
DAV:   3    -0.704460465910E+02    0.73803E-05   -0.10825E-04   824   0.595E-02    0.131E-02
DAV:   4    -0.704460480928E+02   -0.15018E-05   -0.17698E-05   656   0.213E-02    0.492E-03
DAV:   5    -0.704460479694E+02    0.12333E-06   -0.44647E-06   640   0.126E-02
 148 F= -.70446048E+02 E0= -.70446048E+02  d E =-.607779E-02
 BRION: g(F)=  0.780E-03 g(S)=  0.000E+00 retain N=  1 mean eig= 5.53
 eig:   5.526
 bond charge predicted
       N       E                     dE             d eps       ncg     rms          rms(c)
DAV:   1    -0.704460951384E+02   -0.47046E-04   -0.10164E-04   544   0.646E-02    0.155E-03
DAV:   2    -0.704460952769E+02   -0.13848E-06   -0.19036E-06   528   0.838E-03
 149 F= -.70446095E+02 E0= -.70446095E+02  d E =-.473074E-04
 BRION: g(F)=  0.786E-03 g(S)=  0.000E+00 retain N=  1 mean eig= 0.91
 eig:   0.906
 bond charge predicted
       N       E                     dE             d eps       ncg     rms          rms(c)
DAV:   1    -0.704470696998E+02   -0.97456E-03   -0.22574E-03   560   0.306E-01    0.812E-03
DAV:   2    -0.704470732345E+02   -0.35347E-05   -0.41991E-05   656   0.327E-02    0.540E-03
DAV:   3    -0.704470730953E+02    0.13927E-06   -0.22343E-06   544   0.944E-03
 150 F= -.70447073E+02 E0= -.70447073E+02  d E =-.977818E-03
 BRION: g(F)=  0.798E-03 g(S)=  0.000E+00 retain N=  1 mean eig= 4.58
 eig:   4.576
 bond charge predicted
       N       E                     dE             d eps       ncg     rms          rms(c)
DAV:   1    -0.704441206523E+02    0.29526E-02   -0.21542E-02   568   0.942E-01    0.248E-02
DAV:   2    -0.704441515833E+02   -0.30931E-04   -0.38964E-04   640   0.992E-02    0.166E-02
DAV:   3    -0.704441500102E+02    0.15731E-05   -0.27609E-05   832   0.296E-02    0.666E-03
DAV:   4    -0.704441501851E+02   -0.17491E-06   -0.35794E-06   576   0.101E-02
 151 F= -.70444150E+02 E0= -.70444150E+02  d E =0.292291E-02
 BRION: g(F)=  0.814E-03 g(S)=  0.000E+00 retain N=  2 mean eig= 4.89
 eig:   4.892  4.892
 bond charge predicted
       N       E                     dE             d eps       ncg     rms          rms(c)
DAV:   1    -0.704430457389E+02    0.11043E-02   -0.30099E-03   568   0.351E-01    0.959E-03
DAV:   2    -0.704430504201E+02   -0.46812E-05   -0.56835E-05   664   0.373E-02    0.640E-03
DAV:   3    -0.704430502968E+02    0.12333E-06   -0.37609E-06   704   0.114E-02
 152 F= -.70443050E+02 E0= -.70443050E+02  d E =0.109989E-02
 BRION: g(F)=  0.793E-03 g(S)=  0.000E+00 BRIONS problems: POTIM should be increased
 retain N=  1 mean eig=13.44
 eig:  13.442
 bond charge predicted
       N       E                     dE             d eps       ncg     rms          rms(c)
DAV:   1    -0.704341900204E+02    0.88604E-02   -0.18837E-01   568   0.277E+00    0.752E-02
DAV:   2    -0.704344788312E+02   -0.28881E-03   -0.35007E-03   640   0.292E-01    0.500E-02
DAV:   3    -0.704344670423E+02    0.11789E-04   -0.23435E-04   832   0.864E-02    0.202E-02
DAV:   4    -0.704344686524E+02   -0.16101E-05   -0.31815E-05   656   0.292E-02    0.688E-03
DAV:   5    -0.704344681943E+02    0.45810E-06   -0.95768E-06   736   0.173E-02
 153 F= -.70434468E+02 E0= -.70434468E+02  d E =0.858210E-02
 BRION: g(F)=  0.825E-03 g(S)=  0.000E+00 retain N=  1 mean eig= 3.92
 eig:   3.923
 bond charge predicted
       N       E                     dE             d eps       ncg     rms          rms(c)
DAV:   1    -0.704424848006E+02   -0.80161E-02   -0.17205E-01   568   0.267E+00    0.706E-02
DAV:   2    -0.704427442939E+02   -0.25949E-03   -0.31692E-03   632   0.279E-01    0.475E-02
DAV:   3    -0.704427303638E+02    0.13930E-04   -0.21217E-04   832   0.826E-02    0.196E-02
DAV:   4    -0.704427327723E+02   -0.24085E-05   -0.32666E-05   656   0.289E-02    0.676E-03
DAV:   5    -0.704427326334E+02    0.13887E-06   -0.84209E-06   720   0.168E-02
 154 F= -.70442733E+02 E0= -.70442733E+02  d E =-.826444E-02
 BRION: g(F)=  0.785E-03 g(S)=  0.000E+00 retain N=  1 mean eig= 2.85
 eig:   2.850
 bond charge predicted
       N       E                     dE             d eps       ncg     rms          rms(c)
DAV:   1    -0.704418524438E+02    0.88033E-03   -0.26192E-03   576   0.329E-01    0.876E-03
DAV:   2    -0.704418562882E+02   -0.38445E-05   -0.51004E-05   624   0.353E-02    0.610E-03
DAV:   3    -0.704418559224E+02    0.36583E-06   -0.27277E-06   600   0.104E-02
 155 F= -.70441856E+02 E0= -.70441856E+02  d E =0.876711E-03
 BRION: g(F)=  0.790E-03 g(S)=  0.000E+00 retain N=  2 mean eig= 4.08
 eig:   6.252  1.907
 bond charge predicted
       N       E                     dE             d eps       ncg     rms          rms(c)
DAV:   1    -0.704418778753E+02   -0.21587E-04   -0.30227E-06   440   0.989E-03    0.878E-04
DAV:   2    -0.704418778507E+02    0.24558E-07   -0.25683E-07   264   0.425E-03
 156 F= -.70441878E+02 E0= -.70441878E+02  d E =-.219283E-04
 BRION: g(F)=  0.786E-03 g(S)=  0.000E+00 retain N=  3 mean eig= 3.32
 eig:   5.852  2.049  2.049
 bond charge predicted
       N       E                     dE             d eps       ncg     rms          rms(c)
DAV:   1    -0.704452099918E+02   -0.33321E-02   -0.32236E-02   576   0.115E+00    0.309E-02
DAV:   2    -0.704452599006E+02   -0.49909E-04   -0.61876E-04   632   0.123E-01    0.211E-02
DAV:   3    -0.704452562071E+02    0.36935E-05   -0.41089E-05   832   0.368E-02    0.906E-03
DAV:   4    -0.704452566339E+02   -0.42684E-06   -0.73638E-06   640   0.137E-02
 157 F= -.70445257E+02 E0= -.70445257E+02  d E =-.337878E-02
 BRION: g(F)=  0.861E-03 g(S)=  0.000E+00 retain N=  1 mean eig= 0.32
 eig:   0.316
 bond charge predicted
       N       E                     dE             d eps       ncg     rms          rms(c)
DAV:   1    -0.704431602723E+02    0.20959E-02   -0.15131E-02   576   0.800E-01    0.207E-02
DAV:   2    -0.704431829395E+02   -0.22667E-04   -0.30138E-04   616   0.874E-02    0.145E-02
DAV:   3    -0.704431805966E+02    0.23429E-05   -0.19794E-05   824   0.261E-02    0.630E-03
DAV:   4    -0.704431806954E+02   -0.98765E-07   -0.40794E-06   576   0.104E-02
 158 F= -.70443181E+02 E0= -.70443181E+02  d E =0.207594E-02
 BRION: g(F)=  0.800E-03 g(S)=  0.000E+00 retain N=  1 mean eig= 0.86
 eig:   0.861
 bond charge predicted
       N       E                     dE             d eps       ncg     rms          rms(c)
DAV:   1    -0.704443409764E+02   -0.11604E-02   -0.37889E-03   544   0.407E-01    0.967E-03
DAV:   2    -0.704443470249E+02   -0.60486E-05   -0.74014E-05   640   0.456E-02    0.649E-03
DAV:   3    -0.704443467662E+02    0.25871E-06   -0.45528E-06   736   0.124E-02
 159 F= -.70444347E+02 E0= -.70444347E+02  d E =-.116607E-02
 BRION: g(F)=  0.801E-03 g(S)=  0.000E+00 retain N=  2 mean eig= 0.74
 eig:   1.456  0.026
 bond charge predicted
       N       E                     dE             d eps       ncg     rms          rms(c)
DAV:   1    -0.704450380995E+02   -0.69107E-03   -0.12928E-03   560   0.236E-01    0.635E-03
DAV:   2    -0.704450401889E+02   -0.20894E-05   -0.23939E-05   672   0.248E-02    0.419E-03
DAV:   3    -0.704450401640E+02    0.24872E-07   -0.10074E-06   448   0.692E-03
 160 F= -.70445040E+02 E0= -.70445040E+02  d E =-.693398E-03
 BRION: g(F)=  0.805E-03 g(S)=  0.000E+00 retain N=  1 mean eig= 4.92
 eig:   4.918
 bond charge predicted
       N       E                     dE             d eps       ncg     rms          rms(c)
DAV:   1    -0.704429733868E+02    0.20668E-02   -0.12193E-02   568   0.718E-01    0.184E-02
DAV:   2    -0.704429904535E+02   -0.17067E-04   -0.22102E-04   640   0.759E-02    0.123E-02
DAV:   3    -0.704429893907E+02    0.10628E-05   -0.15716E-05   832   0.225E-02    0.497E-03
DAV:   4    -0.704429894960E+02   -0.10534E-06   -0.21729E-06   544   0.778E-03
 161 F= -.70442989E+02 E0= -.70442989E+02  d E =0.205067E-02
 BRION: g(F)=  0.815E-03 g(S)=  0.000E+00 retain N=  2 mean eig= 2.86
 eig:   2.857  2.857
 bond charge predicted
       N       E                     dE             d eps       ncg     rms          rms(c)
DAV:   1    -0.704385480844E+02    0.44413E-02   -0.54239E-02   568   0.152E+00    0.387E-02
DAV:   2    -0.704386278193E+02   -0.79735E-04   -0.98689E-04   640   0.159E-01    0.259E-02
DAV:   3    -0.704386240956E+02    0.37238E-05   -0.67094E-05   832   0.463E-02    0.107E-02
DAV:   4    -0.704386247252E+02   -0.62958E-06   -0.98663E-06   648   0.160E-02
 162 F= -.70438625E+02 E0= -.70438625E+02  d E =0.436477E-02
 BRION: g(F)=  0.804E-03 g(S)=  0.000E+00 BRIONS problems: POTIM should be increased
 retain N=  1 mean eig=21.26
 eig:  21.259
 bond charge predicted
       N       E                     dE             d eps       ncg     rms          rms(c)
DAV:   1    -0.704372174372E+02    0.14067E-02   -0.56572E-03   568   0.472E-01    0.136E-02
DAV:   2    -0.704372269531E+02   -0.95159E-05   -0.11409E-04   656   0.512E-02    0.916E-03
DAV:   3    -0.704372269345E+02    0.18573E-07   -0.79771E-06   792   0.158E-02
 163 F= -.70437227E+02 E0= -.70437227E+02  d E =0.139779E-02
 BRION: g(F)=  0.784E-03 g(S)=  0.000E+00 retain N=  1 mean eig= 0.42
 eig:   0.420
 bond charge predicted
       N       E                     dE             d eps       ncg     rms          rms(c)
DAV:   1    -0.704381240686E+02   -0.89712E-03   -0.19917E-03   512   0.296E-01    0.656E-03
DAV:   2    -0.704381276184E+02   -0.35498E-05   -0.43778E-05   632   0.376E-02    0.445E-03
DAV:   3    -0.704381275827E+02    0.35697E-07   -0.27215E-06   576   0.101E-02
 164 F= -.70438128E+02 E0= -.70438128E+02  d E =-.900648E-03
 BRION: g(F)=  0.782E-03 g(S)=  0.000E+00 retain N=  2 mean eig= 1.08
 eig:   1.084  1.084
 bond charge predicted
       N       E                     dE             d eps       ncg     rms          rms(c)
DAV:   1    -0.704381635123E+02   -0.35894E-04   -0.95666E-04   584   0.202E-01    0.420E-03
DAV:   2    -0.704381650183E+02   -0.15060E-05   -0.20621E-05   672   0.235E-02    0.331E-03
DAV:   3    -0.704381648590E+02    0.15931E-06   -0.70321E-07   432   0.616E-03
 165 F= -.70438165E+02 E0= -.70438165E+02  d E =-.372763E-04
 BRION: g(F)=  0.794E-03 g(S)=  0.000E+00 retain N=  3 mean eig= 3.56
 eig:   6.911  1.882  1.882
 bond charge predicted
       N       E                     dE             d eps       ncg     rms          rms(c)
DAV:   1    -0.704379359263E+02    0.22909E-03   -0.96376E-03   528   0.633E-01    0.126E-02
DAV:   2    -0.704379508834E+02   -0.14957E-04   -0.21032E-04   640   0.775E-02    0.104E-02
DAV:   3    -0.704379485629E+02    0.23204E-05   -0.87786E-06   776   0.187E-02    0.613E-03
DAV:   4    -0.704379478861E+02    0.67678E-06   -0.65883E-06   696   0.116E-02
 166 F= -.70437948E+02 E0= -.70437948E+02  d E =0.216973E-03
 BRION: g(F)=  0.782E-03 g(S)=  0.000E+00 BRIONS problems: POTIM should be increased
 retain N=  1 mean eig=10.95
 eig:  10.948
 bond charge predicted
       N       E                     dE             d eps       ncg     rms          rms(c)
DAV:   1    -0.704389904817E+02   -0.10419E-02   -0.30447E-03   568   0.357E-01    0.956E-03
DAV:   2    -0.704389950935E+02   -0.46118E-05   -0.58342E-05   632   0.382E-02    0.639E-03
DAV:   3    -0.704389948030E+02    0.29053E-06   -0.35377E-06   664   0.111E-02
 167 F= -.70438995E+02 E0= -.70438995E+02  d E =-.104692E-02
 BRION: g(F)=  0.776E-03 g(S)=  0.000E+00 retain N=  1 mean eig= 0.11
 eig:   0.109
 bond charge predicted
       N       E                     dE             d eps       ncg     rms          rms(c)
DAV:   1    -0.704401875070E+02   -0.11924E-02   -0.34145E-03   512   0.390E-01    0.955E-03
DAV:   2    -0.704401938920E+02   -0.63850E-05   -0.74092E-05   672   0.480E-02    0.638E-03
DAV:   3    -0.704401938955E+02   -0.35270E-08   -0.42732E-06   728   0.124E-02
 168 F= -.70440194E+02 E0= -.70440194E+02  d E =-.119909E-02
 BRION: g(F)=  0.779E-03 g(S)=  0.000E+00 retain N=  2 mean eig= 2.98
 eig:   0.265  5.692
 bond charge predicted
       N       E                     dE             d eps       ncg     rms          rms(c)
DAV:   1    -0.704400472512E+02    0.14664E-03   -0.58729E-05   560   0.488E-02    0.140E-03
DAV:   2    -0.704400472874E+02   -0.36186E-07   -0.11385E-06   392   0.629E-03
 169 F= -.70440047E+02 E0= -.70440047E+02  d E =0.146608E-03
 BRION: g(F)=  0.786E-03 g(S)=  0.000E+00 retain N=  2 mean eig= 4.31
 eig:   3.602  5.013
 bond charge predicted
       N       E                     dE             d eps       ncg     rms          rms(c)
DAV:   1    -0.704418803552E+02   -0.18331E-02   -0.90188E-03   552   0.628E-01    0.149E-02
DAV:   2    -0.704418933619E+02   -0.13007E-04   -0.16286E-04   632   0.685E-02    0.101E-02
DAV:   3    -0.704418926325E+02    0.72941E-06   -0.11541E-05   832   0.195E-02    0.431E-03
DAV:   4    -0.704418928309E+02   -0.19842E-06   -0.19282E-06   504   0.715E-03
 170 F= -.70441893E+02 E0= -.70441893E+02  d E =-.184554E-02
 BRION: g(F)=  0.799E-03 g(S)=  0.000E+00 retain N=  2 mean eig= 2.46
 eig:   2.457  2.457
 bond charge predicted
       N       E                     dE             d eps       ncg     rms          rms(c)
DAV:   1    -0.704469241030E+02   -0.50315E-02   -0.70843E-02   560   0.176E+00    0.427E-02
DAV:   2    -0.704470251280E+02   -0.10103E-03   -0.12551E-03   648   0.186E-01    0.289E-02
DAV:   3    -0.704470189989E+02    0.61291E-05   -0.86623E-05   832   0.532E-02    0.118E-02
DAV:   4    -0.704470202856E+02   -0.12867E-05   -0.14726E-05   648   0.190E-02    0.447E-03
DAV:   5    -0.704470201878E+02    0.97810E-07   -0.36405E-06   632   0.116E-02
 171 F= -.70447020E+02 E0= -.70447020E+02  d E =-.512736E-02
 BRION: g(F)=  0.855E-03 g(S)=  0.000E+00 BRIONS problems: POTIM should be increased
 retain N=  1 mean eig= 8.06
 eig:   8.060
 bond charge predicted
       N       E                     dE             d eps       ncg     rms          rms(c)
DAV:   1    -0.704377885130E+02    0.92318E-02   -0.21562E-01   560   0.306E+00    0.744E-02
DAV:   2    -0.704380887581E+02   -0.30025E-03   -0.38000E-03   640   0.324E-01    0.502E-02
DAV:   3    -0.704380700276E+02    0.18730E-04   -0.26783E-04   832   0.933E-02    0.198E-02
DAV:   4    -0.704380732715E+02   -0.32439E-05   -0.42835E-05   656   0.326E-02    0.767E-03
DAV:   5    -0.704380726417E+02    0.62977E-06   -0.11813E-05   752   0.198E-02    0.291E-03
DAV:   6    -0.704380726559E+02   -0.14174E-07   -0.14040E-06   456   0.717E-03
 172 F= -.70438073E+02 E0= -.70438073E+02  d E =0.894753E-02
 BRION: g(F)=  0.791E-03 g(S)=  0.000E+00 retain N=  1 mean eig= 4.33
 eig:   4.330
 bond charge predicted
       N       E                     dE             d eps       ncg     rms          rms(c)
DAV:   1    -0.704406033485E+02   -0.25307E-02   -0.17143E-02   560   0.868E-01    0.208E-02
DAV:   2    -0.704406268442E+02   -0.23496E-04   -0.30046E-04   640   0.913E-02    0.141E-02
DAV:   3    -0.704406254955E+02    0.13487E-05   -0.23810E-05   840   0.276E-02    0.564E-03
DAV:   4    -0.704406258446E+02   -0.34907E-06   -0.32821E-06   552   0.957E-03
 173 F= -.70440626E+02 E0= -.70440626E+02  d E =-.255319E-02
 BRION: g(F)=  0.777E-03 g(S)=  0.000E+00 retain N=  2 mean eig= 4.37
 eig:   4.375  4.375
 bond charge predicted
       N       E                     dE             d eps       ncg     rms          rms(c)
DAV:   1    -0.704393554602E+02    0.12700E-02   -0.44293E-03   568   0.436E-01    0.108E-02
DAV:   2    -0.704393611556E+02   -0.56954E-05   -0.77211E-05   640   0.455E-02    0.728E-03
DAV:   3    -0.704393607016E+02    0.45401E-06   -0.51421E-06   728   0.131E-02
 174 F= -.70439361E+02 E0= -.70439361E+02  d E =0.126514E-02
 BRION: g(F)=  0.786E-03 g(S)=  0.000E+00 retain N=  1 mean eig= 1.32
 eig:   1.321
 bond charge predicted
       N       E                     dE             d eps       ncg     rms          rms(c)
DAV:   1    -0.704421576884E+02   -0.27965E-02   -0.21690E-02   568   0.967E-01    0.235E-02
DAV:   2    -0.704421874832E+02   -0.29795E-04   -0.37918E-04   640   0.101E-01    0.160E-02
DAV:   3    -0.704421854421E+02    0.20411E-05   -0.27124E-05   832   0.294E-02    0.641E-03
DAV:   4    -0.704421858354E+02   -0.39332E-06   -0.39783E-06   576   0.103E-02
 175 F= -.70442186E+02 E0= -.70442186E+02  d E =-.282513E-02
 BRION: g(F)=  0.784E-03 g(S)=  0.000E+00 retain N=  2 mean eig= 3.31
 eig:   2.089  4.527
 bond charge predicted
       N       E                     dE             d eps       ncg     rms          rms(c)
DAV:   1    -0.704459062468E+02   -0.37208E-02   -0.39359E-02   568   0.130E+00    0.326E-02
DAV:   2    -0.704459635140E+02   -0.57267E-04   -0.70332E-04   656   0.136E-01    0.220E-02
DAV:   3    -0.704459605287E+02    0.29854E-05   -0.48399E-05   832   0.395E-02    0.911E-03
DAV:   4    -0.704459613091E+02   -0.78041E-06   -0.75786E-06   640   0.139E-02
 176 F= -.70445961E+02 E0= -.70445961E+02  d E =-.377547E-02
 BRION: g(F)=  0.802E-03 g(S)=  0.000E+00 BRIONS problems: POTIM should be increased
 retain N=  1 mean eig=11.71
 eig:  11.705
 bond charge predicted
       N       E                     dE             d eps       ncg     rms          rms(c)
DAV:   1    -0.704416810656E+02    0.42795E-02   -0.48605E-02   568   0.144E+00    0.361E-02
DAV:   2    -0.704417481153E+02   -0.67050E-04   -0.85732E-04   640   0.151E-01    0.243E-02
DAV:   3    -0.704417444302E+02    0.36851E-05   -0.58845E-05   832   0.432E-02    0.953E-03
DAV:   4    -0.704417450741E+02   -0.64394E-06   -0.84826E-06   640   0.148E-02
 177 F= -.70441745E+02 E0= -.70441745E+02  d E =0.421623E-02
 BRION: g(F)=  0.818E-03 g(S)=  0.000E+00 retain N=  1 mean eig= 3.79
 eig:   3.790
 bond charge predicted
       N       E                     dE             d eps       ncg     rms          rms(c)
DAV:   1    -0.704486237694E+02   -0.68793E-02   -0.13939E-01   568   0.244E+00    0.611E-02
DAV:   2    -0.704488227234E+02   -0.19895E-03   -0.24885E-03   640   0.256E-01    0.414E-02
DAV:   3    -0.704488106527E+02    0.12071E-04   -0.16703E-04   832   0.730E-02    0.168E-02
DAV:   4    -0.704488127520E+02   -0.20993E-05   -0.26440E-05   656   0.256E-02    0.581E-03
DAV:   5    -0.704488127539E+02   -0.19049E-08   -0.60071E-06   640   0.141E-02
 178 F= -.70448813E+02 E0= -.70448813E+02  d E =-.706768E-02
 BRION: g(F)=  0.821E-03 g(S)=  0.000E+00 BRIONS problems: POTIM should be increased
 retain N=  1 mean eig=16.79
 eig:  16.787
 bond charge predicted
       N       E                     dE             d eps       ncg     rms          rms(c)
DAV:   1    -0.704455047729E+02    0.33080E-02   -0.28556E-02   568   0.110E+00    0.282E-02
DAV:   2    -0.704455445337E+02   -0.39761E-04   -0.50898E-04   624   0.116E-01    0.189E-02
DAV:   3    -0.704455429918E+02    0.15419E-05   -0.37909E-05   832   0.344E-02    0.760E-03
DAV:   4    -0.704455434032E+02   -0.41137E-06   -0.51854E-06   608   0.116E-02
 179 F= -.70445543E+02 E0= -.70445543E+02  d E =0.326935E-02
 BRION: g(F)=  0.830E-03 g(S)=  0.000E+00 retain N=  1 mean eig= 2.49
 eig:   2.486
 bond charge predicted
       N       E                     dE             d eps       ncg     rms          rms(c)
DAV:   1    -0.704503508151E+02   -0.48078E-02   -0.68149E-02   568   0.171E+00    0.428E-02
DAV:   2    -0.704504486631E+02   -0.97848E-04   -0.12216E-03   640   0.179E-01    0.290E-02
DAV:   3    -0.704504428876E+02    0.57755E-05   -0.81923E-05   832   0.511E-02    0.118E-02
DAV:   4    -0.704504439996E+02   -0.11120E-05   -0.12673E-05   656   0.178E-02    0.404E-03
DAV:   5    -0.704504440363E+02   -0.36732E-07   -0.27411E-06   584   0.976E-03
 180 F= -.70450444E+02 E0= -.70450444E+02  d E =-.490063E-02
 BRION: g(F)=  0.828E-03 g(S)=  0.000E+00 BRIONS problems: POTIM should be increased
 retain N=  1 mean eig=15.58
 eig:  15.584
 bond charge predicted
       N       E                     dE             d eps       ncg     rms          rms(c)
DAV:   1    -0.704498383255E+02    0.60567E-03   -0.82598E-04   600   0.183E-01    0.498E-03
DAV:   2    -0.704498392444E+02   -0.91893E-06   -0.13468E-05   632   0.184E-02    0.337E-03
DAV:   3    -0.704498391984E+02    0.46038E-07   -0.71934E-07   392   0.581E-03
 181 F= -.70449839E+02 E0= -.70449839E+02  d E =0.604838E-03
 BRION: g(F)=  0.839E-03 g(S)=  0.000E+00 retain N=  1 mean eig= 3.11
 eig:   3.110
 bond charge predicted
       N       E                     dE             d eps       ncg     rms          rms(c)
DAV:   1    -0.704519707861E+02   -0.21315E-02   -0.12242E-02   568   0.714E-01    0.186E-02
DAV:   2    -0.704519885730E+02   -0.17787E-04   -0.22212E-04   632   0.762E-02    0.125E-02
DAV:   3    -0.704519877129E+02    0.86010E-06   -0.16205E-05   832   0.227E-02    0.515E-03
DAV:   4    -0.704519879233E+02   -0.21039E-06   -0.21228E-06   560   0.774E-03
 182 F= -.70451988E+02 E0= -.70451988E+02  d E =-.214872E-02
 BRION: g(F)=  0.843E-03 g(S)=  0.000E+00 retain N=  2 mean eig= 2.57
 eig:   2.142  2.990
 bond charge predicted
       N       E                     dE             d eps       ncg     rms          rms(c)
DAV:   1    -0.704564985373E+02   -0.45108E-02   -0.54982E-02   576   0.151E+00    0.399E-02
DAV:   2    -0.704565794745E+02   -0.80937E-04   -0.99322E-04   640   0.159E-01    0.269E-02
DAV:   3    -0.704565758941E+02    0.35804E-05   -0.71133E-05   832   0.473E-02    0.113E-02
DAV:   4    -0.704565766861E+02   -0.79201E-06   -0.10134E-05   648   0.162E-02    0.375E-03
DAV:   5    -0.704565766928E+02   -0.67184E-08   -0.23042E-06   504   0.930E-03
 183 F= -.70456577E+02 E0= -.70456577E+02  d E =-.458877E-02
 BRION: g(F)=  0.859E-03 g(S)=  0.000E+00 BRIONS problems: POTIM should be increased
 retain N=  1 mean eig=15.39
 eig:  15.395
 bond charge predicted
       N       E                     dE             d eps       ncg     rms          rms(c)
DAV:   1    -0.704505843117E+02    0.59924E-02   -0.85531E-02   576   0.187E+00    0.500E-02
DAV:   2    -0.704507048727E+02   -0.12056E-03   -0.15148E-03   624   0.197E-01    0.335E-02
DAV:   3    -0.704507008717E+02    0.40011E-05   -0.11651E-04   832   0.600E-02    0.134E-02
DAV:   4    -0.704507017469E+02   -0.87518E-06   -0.14559E-05   640   0.200E-02    0.454E-03
DAV:   5    -0.704507016175E+02    0.12937E-06   -0.41489E-06   616   0.114E-02
 184 F= -.70450702E+02 E0= -.70450702E+02  d E =0.587508E-02
 BRION: g(F)=  0.866E-03 g(S)=  0.000E+00 retain N=  1 mean eig= 3.68
 eig:   3.675
 bond charge predicted
       N       E                     dE             d eps       ncg     rms          rms(c)
DAV:   1    -0.704556760977E+02   -0.49744E-02   -0.68525E-02   568   0.169E+00    0.440E-02
DAV:   2    -0.704557778064E+02   -0.10171E-03   -0.12611E-03   632   0.180E-01    0.299E-02
DAV:   3    -0.704557720775E+02    0.57289E-05   -0.85209E-05   832   0.525E-02    0.124E-02
DAV:   4    -0.704557731698E+02   -0.10923E-05   -0.13268E-05   656   0.183E-02    0.417E-03
DAV:   5    -0.704557731608E+02    0.89458E-08   -0.30230E-06   608   0.104E-02
 185 F= -.70455773E+02 E0= -.70455773E+02  d E =-.507154E-02
 BRION: g(F)=  0.859E-03 g(S)=  0.000E+00 retain N=  1 mean eig= 5.39
 eig:   5.388
 bond charge predicted
       N       E                     dE             d eps       ncg     rms          rms(c)
DAV:   1    -0.704554094383E+02    0.36373E-03   -0.21863E-04   656   0.956E-02    0.268E-03
DAV:   2    -0.704554096946E+02   -0.25625E-06   -0.39515E-06   624   0.984E-03
 186 F= -.70455410E+02 E0= -.70455410E+02  d E =0.363466E-03
 BRION: g(F)=  0.874E-03 g(S)=  0.000E+00 retain N=  1 mean eig= 2.73
 eig:   2.735
 bond charge predicted
       N       E                     dE             d eps       ncg     rms          rms(c)
DAV:   1    -0.704573383497E+02   -0.19289E-02   -0.78770E-03   608   0.557E-01    0.150E-02
DAV:   2    -0.704573488080E+02   -0.10458E-04   -0.13018E-04   632   0.568E-02    0.101E-02
DAV:   3    -0.704573483879E+02    0.42013E-06   -0.99872E-06   816   0.175E-02
 187 F= -.70457348E+02 E0= -.70457348E+02  d E =-.193869E-02
 BRION: g(F)=  0.884E-03 g(S)=  0.000E+00 retain N=  2 mean eig= 3.33
 eig:   3.328  3.328
 bond charge predicted
       N       E                     dE             d eps       ncg     rms          rms(c)
DAV:   1    -0.704649803435E+02   -0.76315E-02   -0.11600E-01   616   0.212E+00    0.613E-02
DAV:   2    -0.704651306968E+02   -0.15035E-03   -0.18891E-03   640   0.217E-01    0.414E-02
DAV:   3    -0.704651219585E+02    0.87383E-05   -0.13291E-04   816   0.648E-02    0.161E-02
DAV:   4    -0.704651230559E+02   -0.10973E-05   -0.17459E-05   656   0.222E-02    0.532E-03
DAV:   5    -0.704651230397E+02    0.16192E-07   -0.61762E-06   672   0.133E-02
 188 F= -.70465123E+02 E0= -.70465123E+02  d E =-.777465E-02
 BRION: g(F)=  0.930E-03 g(S)=  0.000E+00 retain N=  3 mean eig= 4.81
 eig:   6.185  6.185  2.047
 bond charge predicted
       N       E                     dE             d eps       ncg     rms          rms(c)
DAV:   1    -0.704619785716E+02    0.31445E-02   -0.19166E-02   616   0.865E-01    0.244E-02
DAV:   2    -0.704620024186E+02   -0.23847E-04   -0.31303E-04   624   0.890E-02    0.166E-02
DAV:   3    -0.704620011506E+02    0.12680E-05   -0.22691E-05   816   0.271E-02    0.625E-03
DAV:   4    -0.704620015750E+02   -0.42447E-06   -0.29448E-06   544   0.932E-03
 189 F= -.70462002E+02 E0= -.70462002E+02  d E =0.312146E-02
 BRION: g(F)=  0.942E-03 g(S)=  0.000E+00 BRIONS problems: POTIM should be increased
 retain N=  1 mean eig= 8.29
 eig:   8.286
 bond charge predicted
       N       E                     dE             d eps       ncg     rms          rms(c)
DAV:   1    -0.704671857615E+02   -0.51846E-02   -0.60558E-02   608   0.155E+00    0.427E-02
DAV:   2    -0.704672675080E+02   -0.81747E-04   -0.10299E-03   640   0.159E-01    0.288E-02
DAV:   3    -0.704672629013E+02    0.46067E-05   -0.72385E-05   816   0.479E-02    0.115E-02
DAV:   4    -0.704672637368E+02   -0.83546E-06   -0.10102E-05   664   0.166E-02    0.369E-03
DAV:   5    -0.704672637979E+02   -0.61141E-07   -0.23651E-06   528   0.888E-03
 190 F= -.70467264E+02 E0= -.70467264E+02  d E =-.526222E-02
 BRION: g(F)=  0.910E-03 g(S)=  0.000E+00 retain N=  1 mean eig= 0.86
 eig:   0.858
 bond charge predicted
       N       E                     dE             d eps       ncg     rms          rms(c)
DAV:   1    -0.704664817192E+02    0.78202E-03   -0.10033E-03   656   0.208E-01    0.539E-03
DAV:   2    -0.704664831096E+02   -0.13904E-05   -0.18905E-05   648   0.214E-02    0.379E-03
DAV:   3    -0.704664830694E+02    0.40213E-07   -0.87438E-07   424   0.649E-03
 191 F= -.70466483E+02 E0= -.70466483E+02  d E =0.780729E-03
 BRION: g(F)=  0.908E-03 g(S)=  0.000E+00 retain N=  2 mean eig= 1.43
 eig:   1.482  1.386
 bond charge predicted
       N       E                     dE             d eps       ncg     rms          rms(c)
DAV:   1    -0.704663674613E+02    0.11565E-03   -0.50542E-05   584   0.471E-02    0.136E-03
DAV:   2    -0.704663675484E+02   -0.87129E-07   -0.86649E-07   432   0.522E-03
 192 F= -.70466368E+02 E0= -.70466368E+02  d E =0.115521E-03
 BRION: g(F)=  0.912E-03 g(S)=  0.000E+00 retain N=  3 mean eig= 2.52
 eig:   3.041  1.535  2.972
 bond charge predicted
       N       E                     dE             d eps       ncg     rms          rms(c)
DAV:   1    -0.704666143315E+02   -0.24687E-03   -0.82901E-04   512   0.193E-01    0.383E-03
DAV:   2    -0.704666158448E+02   -0.15133E-05   -0.18322E-05   656   0.250E-02    0.265E-03
DAV:   3    -0.704666157622E+02    0.82623E-07   -0.59101E-07   400   0.579E-03
 193 F= -.70466616E+02 E0= -.70466616E+02  d E =-.248214E-03
 BRION: g(F)=  0.917E-03 g(S)=  0.000E+00 retain N=  4 mean eig= 3.47
 eig:   5.048  1.308  3.757  3.757
 bond charge predicted
       N       E                     dE             d eps       ncg     rms          rms(c)
DAV:   1    -0.704675489286E+02   -0.93308E-03   -0.87099E-03   512   0.627E-01    0.133E-02
DAV:   2    -0.704675646578E+02   -0.15729E-04   -0.19204E-04   664   0.794E-02    0.918E-03
DAV:   3    -0.704675639272E+02    0.73054E-06   -0.98724E-06   832   0.188E-02
 194 F= -.70467564E+02 E0= -.70467564E+02  d E =-.948165E-03
 BRION: g(F)=  0.937E-03 g(S)=  0.000E+00 retain N=  5 mean eig= 3.38
 eig:   5.616  1.522  3.356  3.215  3.215
 bond charge predicted
       N       E                     dE             d eps       ncg     rms          rms(c)
DAV:   1    -0.704692650306E+02   -0.17004E-02   -0.21964E-02   512   0.995E-01    0.221E-02
DAV:   2    -0.704693062127E+02   -0.41182E-04   -0.49277E-04   664   0.126E-01    0.151E-02
DAV:   3    -0.704693048167E+02    0.13960E-05   -0.25715E-05   840   0.300E-02    0.745E-03
DAV:   4    -0.704693052931E+02   -0.47642E-06   -0.74851E-06   680   0.125E-02
 195 F= -.70469305E+02 E0= -.70469305E+02  d E =-.174137E-02
 BRION: g(F)=  0.102E-02 g(S)=  0.000E+00 retain N=  4 mean eig= 4.26
 eig:   4.787  4.787  1.535  5.941
 bond charge predicted
       N       E                     dE             d eps       ncg     rms          rms(c)
DAV:   1    -0.704700139592E+02   -0.70914E-03   -0.12461E-03   624   0.231E-01    0.640E-03
DAV:   2    -0.704700160047E+02   -0.20454E-05   -0.25375E-05   680   0.258E-02    0.451E-03
DAV:   3    -0.704700157956E+02    0.20906E-06   -0.12325E-06   440   0.771E-03
 196 F= -.70470016E+02 E0= -.70470016E+02  d E =-.710502E-03
 BRION: g(F)=  0.102E-02 g(S)=  0.000E+00 retain N=  4 mean eig= 4.35
 eig:   5.733  5.733  2.976  2.976
 bond charge predicted
       N       E                     dE             d eps       ncg     rms          rms(c)
DAV:   1    -0.704641691203E+02    0.58469E-02   -0.14906E-01   560   0.255E+00    0.605E-02
DAV:   2    -0.704643924765E+02   -0.22336E-03   -0.27884E-03   648   0.274E-01    0.410E-02
DAV:   3    -0.704643786214E+02    0.13855E-04   -0.17145E-04   816   0.744E-02    0.170E-02
DAV:   4    -0.704643811431E+02   -0.25217E-05   -0.33033E-05   664   0.274E-02    0.595E-03
DAV:   5    -0.704643807357E+02    0.40743E-06   -0.62764E-06   640   0.148E-02
 197 F= -.70464381E+02 E0= -.70464381E+02  d E =0.563506E-02
 BRION: g(F)=  0.919E-03 g(S)=  0.000E+00 retain N=  2 mean eig= 4.39
 eig:   4.394  4.394
 bond charge predicted
       N       E                     dE             d eps       ncg     rms          rms(c)
DAV:   1    -0.704604520708E+02    0.39291E-02   -0.35881E-02   576   0.121E+00    0.328E-02
DAV:   2    -0.704605081349E+02   -0.56064E-04   -0.68941E-04   640   0.131E-01    0.221E-02
DAV:   3    -0.704605059670E+02    0.21679E-05   -0.49836E-05   832   0.393E-02    0.958E-03
DAV:   4    -0.704605061126E+02   -0.14558E-06   -0.72524E-06   656   0.137E-02
 198 F= -.70460506E+02 E0= -.70460506E+02  d E =0.387462E-02
 BRION: g(F)=  0.906E-03 g(S)=  0.000E+00 retain N=  2 mean eig= 3.82
 eig:   3.821  3.821
 bond charge predicted
       N       E                     dE             d eps       ncg     rms          rms(c)
DAV:   1    -0.704620814410E+02   -0.15755E-02   -0.79219E-03   560   0.585E-01    0.144E-02
DAV:   2    -0.704620934433E+02   -0.12002E-04   -0.15231E-04   648   0.628E-02    0.975E-03
DAV:   3    -0.704620926378E+02    0.80545E-06   -0.98418E-06   816   0.180E-02
 199 F= -.70462093E+02 E0= -.70462093E+02  d E =-.158653E-02
 BRION: g(F)=  0.880E-03 g(S)=  0.000E+00 retain N=  3 mean eig= 3.55
 eig:   4.644  4.644  1.374
 bond charge predicted
       N       E                     dE             d eps       ncg     rms          rms(c)
DAV:   1    -0.704617889524E+02    0.30449E-03   -0.26619E-04   600   0.104E-01    0.261E-03
DAV:   2    -0.704617893603E+02   -0.40792E-06   -0.58842E-06   608   0.126E-02
 200 F= -.70461789E+02 E0= -.70461789E+02  d E =0.303277E-03
 BRION: g(F)=  0.890E-03 g(S)=  0.000E+00 retain N=  4 mean eig= 3.55
 eig:   4.690  4.690  2.583  2.232
 bond charge predicted
       N       E                     dE             d eps       ncg     rms          rms(c)
DAV:   1    -0.704611263931E+02    0.66256E-03   -0.10072E-03   576   0.200E-01    0.622E-03
DAV:   2    -0.704611278560E+02   -0.14629E-05   -0.19656E-05   648   0.215E-02    0.420E-03
DAV:   3    -0.704611277402E+02    0.11578E-06   -0.96804E-07   432   0.669E-03
 201 F= -.70461128E+02 E0= -.70461128E+02  d E =0.661620E-03
 BRION: g(F)=  0.884E-03 g(S)=  0.000E+00 BRIONS problems: POTIM should be increased
 retain N=  1 mean eig=11.57
 eig:  11.570
 bond charge predicted
       N       E                     dE             d eps       ncg     rms          rms(c)
DAV:   1    -0.704586209083E+02    0.25069E-02   -0.14175E-02   624   0.756E-01    0.210E-02
DAV:   2    -0.704586410520E+02   -0.20144E-04   -0.25715E-04   608   0.795E-02    0.145E-02
DAV:   3    -0.704586396373E+02    0.14147E-05   -0.15516E-05   800   0.227E-02    0.628E-03
DAV:   4    -0.704586397083E+02   -0.70927E-07   -0.29259E-06   576   0.884E-03
 202 F= -.70458640E+02 E0= -.70458640E+02  d E =0.248803E-02
 BRION: g(F)=  0.909E-03 g(S)=  0.000E+00 retain N=  1 mean eig= 1.28
 eig:   1.278
 bond charge predicted
       N       E                     dE             d eps       ncg     rms          rms(c)
DAV:   1    -0.704614401406E+02   -0.28005E-02   -0.19165E-02   576   0.873E-01    0.243E-02
DAV:   2    -0.704614702861E+02   -0.30146E-04   -0.37019E-04   600   0.939E-02    0.164E-02
DAV:   3    -0.704614691389E+02    0.11473E-05   -0.25613E-05   832   0.280E-02    0.708E-03
DAV:   4    -0.704614693775E+02   -0.23862E-06   -0.35109E-06   608   0.962E-03
 203 F= -.70461469E+02 E0= -.70461469E+02  d E =-.282967E-02
 BRION: g(F)=  0.877E-03 g(S)=  0.000E+00 retain N=  2 mean eig= 4.17
 eig:   1.139  7.199
 bond charge predicted
       N       E                     dE             d eps       ncg     rms          rms(c)
DAV:   1    -0.704623741968E+02   -0.90506E-03   -0.37030E-03   560   0.404E-01    0.979E-03
DAV:   2    -0.704623802798E+02   -0.60830E-05   -0.73650E-05   672   0.442E-02    0.665E-03
DAV:   3    -0.704623800153E+02    0.26457E-06   -0.42497E-06   720   0.121E-02
 204 F= -.70462380E+02 E0= -.70462380E+02  d E =-.910638E-03
 BRION: g(F)=  0.894E-03 g(S)=  0.000E+00 retain N=  1 mean eig= 3.74
 eig:   3.745
 bond charge predicted
       N       E                     dE             d eps       ncg     rms          rms(c)
DAV:   1    -0.704611782589E+02    0.12020E-02   -0.73950E-03   520   0.575E-01    0.128E-02
DAV:   2    -0.704611922245E+02   -0.13966E-04   -0.17395E-04   648   0.726E-02    0.892E-03
DAV:   3    -0.704611914932E+02    0.73134E-06   -0.97097E-06   808   0.184E-02
 205 F= -.70461191E+02 E0= -.70461191E+02  d E =0.118852E-02
 BRION: g(F)=  0.905E-03 g(S)=  0.000E+00 retain N=  2 mean eig= 2.63
 eig:   2.756  2.513
 bond charge predicted
       N       E                     dE             d eps       ncg     rms          rms(c)
DAV:   1    -0.704588367399E+02    0.23555E-02   -0.25870E-02   536   0.108E+00    0.254E-02
DAV:   2    -0.704588822348E+02   -0.45495E-04   -0.55472E-04   672   0.126E-01    0.172E-02
DAV:   3    -0.704588805214E+02    0.17134E-05   -0.31317E-05   840   0.327E-02    0.794E-03
DAV:   4    -0.704588810116E+02   -0.49025E-06   -0.72486E-06   640   0.126E-02
 206 F= -.70458881E+02 E0= -.70458881E+02  d E =0.231048E-02
 BRION: g(F)=  0.896E-03 g(S)=  0.000E+00 retain N=  2 mean eig= 4.19
 eig:   1.621  6.757
 bond charge predicted
       N       E                     dE             d eps       ncg     rms          rms(c)
DAV:   1    -0.704608101986E+02   -0.19297E-02   -0.17386E-02   528   0.884E-01    0.198E-02
DAV:   2    -0.704608413787E+02   -0.31180E-04   -0.38186E-04   640   0.106E-01    0.136E-02
DAV:   3    -0.704608398502E+02    0.15285E-05   -0.21774E-05   856   0.274E-02    0.653E-03
DAV:   4    -0.704608400865E+02   -0.23630E-06   -0.50962E-06   616   0.106E-02
 207 F= -.70460840E+02 E0= -.70460840E+02  d E =-.195907E-02
 BRION: g(F)=  0.867E-03 g(S)=  0.000E+00 retain N=  1 mean eig= 1.70
 eig:   1.703
 bond charge predicted
       N       E                     dE             d eps       ncg     rms          rms(c)
DAV:   1    -0.704624465684E+02   -0.16067E-02   -0.94343E-03   560   0.633E-01    0.165E-02
DAV:   2    -0.704624624165E+02   -0.15848E-04   -0.18894E-04   632   0.697E-02    0.110E-02
DAV:   3    -0.704624622504E+02    0.16616E-06   -0.13132E-05   832   0.201E-02    0.491E-03
DAV:   4    -0.704624624829E+02   -0.23258E-06   -0.17817E-06   480   0.708E-03
 208 F= -.70462462E+02 E0= -.70462462E+02  d E =-.162240E-02
 BRION: g(F)=  0.880E-03 g(S)=  0.000E+00 retain N=  2 mean eig= 2.55
 eig:   1.839  3.263
 bond charge predicted
       N       E                     dE             d eps       ncg     rms          rms(c)
DAV:   1    -0.704624114046E+02    0.50846E-04   -0.10594E-05   616   0.217E-02    0.745E-04
DAV:   2    -0.704624114218E+02   -0.17211E-07   -0.21032E-07   304   0.284E-03
 209 F= -.70462411E+02 E0= -.70462411E+02  d E =0.510611E-04
 BRION: g(F)=  0.895E-03 g(S)=  0.000E+00 retain N=  2 mean eig= 2.04
 eig:   1.929  2.150
 bond charge predicted
       N       E                     dE             d eps       ncg     rms          rms(c)
DAV:   1    -0.704623788713E+02    0.32533E-04   -0.17836E-04   520   0.901E-02    0.185E-03
DAV:   2    -0.704623793352E+02   -0.46392E-06   -0.56710E-06   624   0.130E-02
 210 F= -.70462379E+02 E0= -.70462379E+02  d E =0.320866E-04
 BRION: g(F)=  0.932E-03 g(S)=  0.000E+00 retain N=  3 mean eig= 2.80
 eig:   5.391  2.274  0.741
 bond charge predicted
       N       E                     dE             d eps       ncg     rms          rms(c)
DAV:   1    -0.704619228677E+02    0.45600E-03   -0.19516E-03   512   0.299E-01    0.674E-03
DAV:   2    -0.704619258312E+02   -0.29635E-05   -0.42137E-05   680   0.364E-02    0.482E-03
DAV:   3    -0.704619253704E+02    0.46083E-06   -0.28367E-06   600   0.114E-02
 211 F= -.70461925E+02 E0= -.70461925E+02  d E =0.453965E-03
 BRION: g(F)=  0.100E-02 g(S)=  0.000E+00 retain N=  2 mean eig= 1.20
 eig:   1.080  1.312
 bond charge predicted
       N       E                     dE             d eps       ncg     rms          rms(c)
DAV:   1    -0.704633157562E+02   -0.13899E-02   -0.11873E-02   512   0.735E-01    0.160E-02
DAV:   2    -0.704633377356E+02   -0.21979E-04   -0.27371E-04   656   0.925E-02    0.114E-02
DAV:   3    -0.704633358523E+02    0.18833E-05   -0.17210E-05   832   0.260E-02    0.552E-03
DAV:   4    -0.704633359182E+02   -0.65958E-07   -0.45687E-06   592   0.108E-02
 212 F= -.70463336E+02 E0= -.70463336E+02  d E =-.141055E-02
 BRION: g(F)=  0.889E-03 g(S)=  0.000E+00 retain N=  2 mean eig= 2.38
 eig:   1.219  3.533
 bond charge predicted
       N       E                     dE             d eps       ncg     rms          rms(c)
DAV:   1    -0.704642052528E+02   -0.86940E-03   -0.26650E-03   568   0.334E-01    0.911E-03
DAV:   2    -0.704642096592E+02   -0.44064E-05   -0.51998E-05   640   0.361E-02    0.610E-03
DAV:   3    -0.704642095251E+02    0.13413E-06   -0.30665E-06   640   0.105E-02
 213 F= -.70464210E+02 E0= -.70464210E+02  d E =-.873607E-03
 BRION: g(F)=  0.903E-03 g(S)=  0.000E+00 retain N=  3 mean eig= 3.60
 eig:   5.984  1.240  3.577
 bond charge predicted
       N       E                     dE             d eps       ncg     rms          rms(c)
DAV:   1    -0.704603791898E+02    0.38305E-02   -0.53514E-02   560   0.152E+00    0.379E-02
DAV:   2    -0.704604648438E+02   -0.85654E-04   -0.10677E-03   632   0.166E-01    0.257E-02
DAV:   3    -0.704604600348E+02    0.48090E-05   -0.68291E-05   824   0.472E-02    0.111E-02
DAV:   4    -0.704604606113E+02   -0.57649E-06   -0.11774E-05   664   0.171E-02    0.372E-03
DAV:   5    -0.704604604234E+02    0.18789E-06   -0.20331E-06   456   0.914E-03
 214 F= -.70460460E+02 E0= -.70460460E+02  d E =0.374910E-02
 BRION: g(F)=  0.908E-03 g(S)=  0.000E+00 retain N=  2 mean eig= 7.78
 eig:   7.777  7.777
 bond charge predicted
       N       E                     dE             d eps       ncg     rms          rms(c)
DAV:   1    -0.704530188215E+02    0.74418E-02   -0.18219E-01   568   0.278E+00    0.711E-02
DAV:   2    -0.704533043986E+02   -0.28558E-03   -0.35022E-03   632   0.298E-01    0.478E-02
DAV:   3    -0.704532905070E+02    0.13892E-04   -0.22445E-04   824   0.847E-02    0.202E-02
DAV:   4    -0.704532926225E+02   -0.21155E-05   -0.35578E-05   664   0.299E-02    0.667E-03
DAV:   5    -0.704532922994E+02    0.32314E-06   -0.81407E-06   728   0.163E-02
 215 F= -.70453292E+02 E0= -.70453292E+02  d E =0.716812E-02
 BRION: g(F)=  0.868E-03 g(S)=  0.000E+00 BRIONS problems: POTIM should be increased
 retain N=  1 mean eig=22.85
 eig:  22.845
 bond charge predicted
       N       E                     dE             d eps       ncg     rms          rms(c)
DAV:   1    -0.704497442098E+02    0.35484E-02   -0.43291E-02   568   0.135E+00    0.350E-02
DAV:   2    -0.704498141733E+02   -0.69964E-04   -0.84380E-04   648   0.145E-01    0.234E-02
DAV:   3    -0.704498118114E+02    0.23620E-05   -0.50525E-05   824   0.400E-02    0.102E-02
DAV:   4    -0.704498123720E+02   -0.56062E-06   -0.80736E-06   640   0.141E-02
 216 F= -.70449812E+02 E0= -.70449812E+02  d E =0.347993E-02
 BRION: g(F)=  0.861E-03 g(S)=  0.000E+00 retain N=  1 mean eig= 0.00
 eig:   0.003
 bond charge predicted
       N       E                     dE             d eps       ncg     rms          rms(c)
DAV:   1    -0.704519973226E+02   -0.21855E-02   -0.16336E-02   560   0.839E-01    0.208E-02
DAV:   2    -0.704520230798E+02   -0.25757E-04   -0.31832E-04   640   0.907E-02    0.141E-02
DAV:   3    -0.704520218603E+02    0.12195E-05   -0.19695E-05   824   0.253E-02    0.597E-03
DAV:   4    -0.704520223978E+02   -0.53757E-06   -0.33354E-06   544   0.914E-03
 217 F= -.70452022E+02 E0= -.70452022E+02  d E =-.221003E-02
 BRION: g(F)=  0.835E-03 g(S)=  0.000E+00 retain N=  2 mean eig= 1.18
 eig:   0.271  2.090
 bond charge predicted
       N       E                     dE             d eps       ncg     rms          rms(c)
DAV:   1    -0.704547426156E+02   -0.27208E-02   -0.24550E-02   560   0.102E+00    0.261E-02
DAV:   2    -0.704547833886E+02   -0.40773E-04   -0.48817E-04   624   0.112E-01    0.175E-02
DAV:   3    -0.704547824511E+02    0.93748E-06   -0.32444E-05   832   0.320E-02    0.790E-03
DAV:   4    -0.704547830076E+02   -0.55656E-06   -0.52724E-06   624   0.114E-02
 218 F= -.70454783E+02 E0= -.70454783E+02  d E =-.276061E-02
 BRION: g(F)=  0.857E-03 g(S)=  0.000E+00 retain N=  1 mean eig= 3.49
 eig:   3.490
 bond charge predicted
       N       E                     dE             d eps       ncg     rms          rms(c)
DAV:   1    -0.704525603283E+02    0.22221E-02   -0.16119E-02   560   0.831E-01    0.207E-02
DAV:   2    -0.704525856658E+02   -0.25337E-04   -0.31664E-04   648   0.901E-02    0.139E-02
DAV:   3    -0.704525845423E+02    0.11235E-05   -0.19362E-05   824   0.249E-02    0.597E-03
DAV:   4    -0.704525847093E+02   -0.16706E-06   -0.30247E-06   568   0.879E-03
 219 F= -.70452585E+02 E0= -.70452585E+02  d E =0.219830E-02
 BRION: g(F)=  0.870E-03 g(S)=  0.000E+00 retain N=  1 mean eig= 1.94
 eig:   1.943
 bond charge predicted
       N       E                     dE             d eps       ncg     rms          rms(c)
DAV:   1    -0.704585076460E+02   -0.59231E-02   -0.13155E-01   560   0.238E+00    0.595E-02
DAV:   2    -0.704587231419E+02   -0.21550E-03   -0.26227E-03   640   0.259E-01    0.403E-02
DAV:   3    -0.704587123321E+02    0.10810E-04   -0.15657E-04   824   0.714E-02    0.179E-02
DAV:   4    -0.704587141188E+02   -0.17867E-05   -0.29175E-05   664   0.263E-02    0.550E-03
DAV:   5    -0.704587141094E+02    0.94437E-08   -0.55150E-06   640   0.138E-02
 220 F= -.70458714E+02 E0= -.70458714E+02  d E =-.612940E-02
 BRION: g(F)=  0.889E-03 g(S)=  0.000E+00 retain N=  1 mean eig= 7.94
 eig:   7.938
 bond charge predicted
       N       E                     dE             d eps       ncg     rms          rms(c)
DAV:   1    -0.704543267767E+02    0.43873E-02   -0.64201E-02   568   0.165E+00    0.420E-02
DAV:   2    -0.704544252427E+02   -0.98466E-04   -0.12260E-03   632   0.177E-01    0.283E-02
DAV:   3    -0.704544203623E+02    0.48804E-05   -0.77127E-05   824   0.498E-02    0.118E-02
DAV:   4    -0.704544213554E+02   -0.99316E-06   -0.12837E-05   656   0.176E-02    0.389E-03
DAV:   5    -0.704544211292E+02    0.22621E-06   -0.22236E-06   496   0.948E-03
 221 F= -.70454421E+02 E0= -.70454421E+02  d E =0.429298E-02
 BRION: g(F)=  0.878E-03 g(S)=  0.000E+00 retain N=  1 mean eig= 5.24
 eig:   5.237
 bond charge predicted
       N       E                     dE             d eps       ncg     rms          rms(c)
DAV:   1    -0.704556995436E+02   -0.12782E-02   -0.61632E-03   560   0.518E-01    0.127E-02
DAV:   2    -0.704557093586E+02   -0.98150E-05   -0.12141E-04   624   0.561E-02    0.862E-03
DAV:   3    -0.704557088245E+02    0.53415E-06   -0.70395E-06   760   0.154E-02
 222 F= -.70455709E+02 E0= -.70455709E+02  d E =-.128770E-02
 BRION: g(F)=  0.866E-03 g(S)=  0.000E+00 retain N=  2 mean eig= 3.80
 eig:   6.050  1.541
 bond charge predicted
       N       E                     dE             d eps       ncg     rms          rms(c)
DAV:   1    -0.704582694488E+02   -0.25601E-02   -0.25155E-02   560   0.104E+00    0.264E-02
DAV:   2    -0.704583104509E+02   -0.41002E-04   -0.49182E-04   640   0.112E-01    0.177E-02
DAV:   3    -0.704583089138E+02    0.15371E-05   -0.29087E-05   824   0.308E-02    0.770E-03
DAV:   4    -0.704583095120E+02   -0.59813E-06   -0.53719E-06   624   0.113E-02
 223 F= -.70458310E+02 E0= -.70458310E+02  d E =-.260069E-02
 BRION: g(F)=  0.882E-03 g(S)=  0.000E+00 retain N=  1 mean eig= 6.07
 eig:   6.071
 bond charge predicted
       N       E                     dE             d eps       ncg     rms          rms(c)
DAV:   1    -0.704549585032E+02    0.33504E-02   -0.40517E-02   560   0.132E+00    0.327E-02
DAV:   2    -0.704550223073E+02   -0.63804E-04   -0.79267E-04   640   0.143E-01    0.220E-02
DAV:   3    -0.704550193302E+02    0.29771E-05   -0.48405E-05   824   0.395E-02    0.942E-03
DAV:   4    -0.704550198535E+02   -0.52328E-06   -0.82186E-06   632   0.141E-02
 224 F= -.70455020E+02 E0= -.70455020E+02  d E =0.328966E-02
 BRION: g(F)=  0.886E-03 g(S)=  0.000E+00 retain N=  1 mean eig= 4.76
 eig:   4.757
 bond charge predicted
       N       E                     dE             d eps       ncg     rms          rms(c)
DAV:   1    -0.704602181327E+02   -0.51988E-02   -0.10982E-01   560   0.218E+00    0.539E-02
DAV:   2    -0.704603959474E+02   -0.17781E-03   -0.21739E-03   632   0.236E-01    0.365E-02
DAV:   3    -0.704603868741E+02    0.90733E-05   -0.12960E-04   824   0.649E-02    0.161E-02
DAV:   4    -0.704603884358E+02   -0.15617E-05   -0.24176E-05   664   0.238E-02    0.499E-03
DAV:   5    -0.704603884373E+02   -0.15386E-08   -0.44425E-06   624   0.125E-02
 225 F= -.70460388E+02 E0= -.70460388E+02  d E =-.536858E-02
 BRION: g(F)=  0.901E-03 g(S)=  0.000E+00 BRIONS problems: POTIM should be increased
 retain N=  1 mean eig=11.60
 eig:  11.597
 bond charge predicted
       N       E                     dE             d eps       ncg     rms          rms(c)
DAV:   1    -0.704556494810E+02    0.47390E-02   -0.80575E-02   560   0.186E+00    0.467E-02
DAV:   2    -0.704557795753E+02   -0.13009E-03   -0.16018E-03   632   0.203E-01    0.315E-02
DAV:   3    -0.704557737272E+02    0.58481E-05   -0.97807E-05   832   0.562E-02    0.136E-02
DAV:   4    -0.704557748185E+02   -0.10913E-05   -0.16653E-05   648   0.199E-02    0.429E-03
DAV:   5    -0.704557745695E+02    0.24896E-06   -0.31128E-06   584   0.108E-02
 226 F= -.70455775E+02 E0= -.70455775E+02  d E =0.461387E-02
 BRION: g(F)=  0.889E-03 g(S)=  0.000E+00 BRIONS problems: POTIM should be increased
 retain N=  1 mean eig=15.11
 eig:  15.106
 bond charge predicted
       N       E                     dE             d eps       ncg     rms          rms(c)
DAV:   1    -0.704537347368E+02    0.20401E-02   -0.15430E-02   568   0.812E-01    0.206E-02
DAV:   2    -0.704537585054E+02   -0.23769E-04   -0.29353E-04   656   0.865E-02    0.138E-02
DAV:   3    -0.704537574737E+02    0.10317E-05   -0.18791E-05   824   0.245E-02    0.589E-03
DAV:   4    -0.704537576457E+02   -0.17202E-06   -0.28367E-06   576   0.869E-03
 227 F= -.70453758E+02 E0= -.70453758E+02  d E =0.201692E-02
 BRION: g(F)=  0.882E-03 g(S)=  0.000E+00 retain N=  1 mean eig= 3.43
 eig:   3.428
 bond charge predicted
       N       E                     dE             d eps       ncg     rms          rms(c)
DAV:   1    -0.704547751674E+02   -0.10177E-02   -0.39571E-03   560   0.415E-01    0.101E-02
DAV:   2    -0.704547810345E+02   -0.58671E-05   -0.74345E-05   640   0.442E-02    0.679E-03
DAV:   3    -0.704547806900E+02    0.34450E-06   -0.45283E-06   728   0.123E-02
 228 F= -.70454781E+02 E0= -.70454781E+02  d E =-.102304E-02
 BRION: g(F)=  0.871E-03 g(S)=  0.000E+00 retain N=  1 mean eig= 1.88
 eig:   1.879
 bond charge predicted
       N       E                     dE             d eps       ncg     rms          rms(c)
DAV:   1    -0.704562010954E+02   -0.14201E-02   -0.77926E-03   560   0.582E-01    0.148E-02
DAV:   2    -0.704562140524E+02   -0.12957E-04   -0.15460E-04   656   0.631E-02    0.987E-03
DAV:   3    -0.704562136981E+02    0.35428E-06   -0.89579E-06   784   0.172E-02
 229 F= -.70456214E+02 E0= -.70456214E+02  d E =-.143301E-02
 BRION: g(F)=  0.875E-03 g(S)=  0.000E+00 retain N=  2 mean eig= 5.00
 eig:   2.202  7.799
 bond charge predicted
       N       E                     dE             d eps       ncg     rms          rms(c)
DAV:   1    -0.704574411765E+02   -0.12271E-02   -0.59668E-03   560   0.510E-01    0.130E-02
DAV:   2    -0.704574510406E+02   -0.98641E-05   -0.11623E-04   664   0.545E-02    0.864E-03
DAV:   3    -0.704574508397E+02    0.20093E-06   -0.65349E-06   760   0.148E-02
 230 F= -.70457451E+02 E0= -.70457451E+02  d E =-.123714E-02
 BRION: g(F)=  0.887E-03 g(S)=  0.000E+00 BRIONS problems: POTIM should be increased
 retain N=  1 mean eig=12.80
 eig:  12.795
 bond charge predicted
       N       E                     dE             d eps       ncg     rms          rms(c)
DAV:   1    -0.704492024176E+02    0.82486E-02   -0.24708E-01   560   0.327E+00    0.804E-02
DAV:   2    -0.704495980991E+02   -0.39568E-03   -0.48911E-03   632   0.358E-01    0.542E-02
DAV:   3    -0.704495770963E+02    0.21003E-04   -0.30480E-04   832   0.996E-02    0.235E-02
DAV:   4    -0.704495798197E+02   -0.27234E-05   -0.52615E-05   656   0.355E-02    0.769E-03
DAV:   5    -0.704495794213E+02    0.39840E-06   -0.11062E-05   744   0.192E-02    0.325E-03
DAV:   6    -0.704495794374E+02   -0.16167E-07   -0.11455E-06   448   0.667E-03
 231 F= -.70449579E+02 E0= -.70449579E+02  d E =0.787140E-02
 BRION: g(F)=  0.862E-03 g(S)=  0.000E+00 BRIONS problems: POTIM should be increased
 retain N=  1 mean eig=16.13
 eig:  16.130
 bond charge predicted
       N       E                     dE             d eps       ncg     rms          rms(c)
DAV:   1    -0.704503501055E+02   -0.77068E-03   -0.20437E-03   568   0.301E-01    0.714E-03
DAV:   2    -0.704503529370E+02   -0.28314E-05   -0.37044E-05   656   0.318E-02    0.482E-03
DAV:   3    -0.704503527791E+02    0.15785E-06   -0.24469E-06   552   0.980E-03
 232 F= -.70450353E+02 E0= -.70450353E+02  d E =-.773342E-03
 BRION: g(F)=  0.852E-03 g(S)=  0.000E+00 retain N=  1 mean eig= 0.66
 eig:   0.657
 bond charge predicted
       N       E                     dE             d eps       ncg     rms          rms(c)
DAV:   1    -0.704510806442E+02   -0.72771E-03   -0.18885E-03   560   0.287E-01    0.749E-03
DAV:   2    -0.704510838016E+02   -0.31574E-05   -0.36810E-05   648   0.306E-02    0.497E-03
DAV:   3    -0.704510837682E+02    0.33437E-07   -0.17266E-06   528   0.840E-03
 233 F= -.70451084E+02 E0= -.70451084E+02  d E =-.730989E-03
 BRION: g(F)=  0.852E-03 g(S)=  0.000E+00 retain N=  2 mean eig= 1.18
 eig:   0.649  1.721
 bond charge predicted
       N       E                     dE             d eps       ncg     rms          rms(c)
DAV:   1    -0.704508139637E+02    0.26984E-03   -0.27964E-04   560   0.109E-01    0.277E-03
DAV:   2    -0.704508143276E+02   -0.36386E-06   -0.55680E-06   632   0.125E-02
 234 F= -.70450814E+02 E0= -.70450814E+02  d E =0.269441E-03
 BRION: g(F)=  0.860E-03 g(S)=  0.000E+00 retain N=  3 mean eig= 4.16
 eig:   7.522  0.625  4.342
 bond charge predicted
       N       E                     dE             d eps       ncg     rms          rms(c)
DAV:   1    -0.704537966339E+02   -0.29827E-02   -0.36819E-02   568   0.127E+00    0.301E-02
DAV:   2    -0.704538512039E+02   -0.54570E-04   -0.68594E-04   624   0.135E-01    0.207E-02
DAV:   3    -0.704538468772E+02    0.43267E-05   -0.43937E-05   824   0.383E-02    0.913E-03
DAV:   4    -0.704538476123E+02   -0.73502E-06   -0.94480E-06   632   0.150E-02
 235 F= -.70453848E+02 E0= -.70453848E+02  d E =-.303328E-02
 BRION: g(F)=  0.900E-03 g(S)=  0.000E+00 retain N=  4 mean eig= 4.17
 eig:   7.648  7.869  0.627  0.538
 bond charge predicted
       N       E                     dE             d eps       ncg     rms          rms(c)
DAV:   1    -0.704576858100E+02   -0.38389E-02   -0.61083E-02   568   0.163E+00    0.401E-02
DAV:   2    -0.704577785554E+02   -0.92745E-04   -0.11468E-03   640   0.174E-01    0.275E-02
DAV:   3    -0.704577722883E+02    0.62671E-05   -0.73547E-05   832   0.494E-02    0.119E-02
DAV:   4    -0.704577734872E+02   -0.11989E-05   -0.14910E-05   648   0.187E-02    0.419E-03
DAV:   5    -0.704577733926E+02    0.94552E-07   -0.29043E-06   576   0.108E-02
 236 F= -.70457773E+02 E0= -.70457773E+02  d E =-.392578E-02
 BRION: g(F)=  0.957E-03 g(S)=  0.000E+00 BRIONS problems: POTIM should be increased
 retain N=  1 mean eig=11.76
 eig:  11.759
 bond charge predicted
       N       E                     dE             d eps       ncg     rms          rms(c)
DAV:   1    -0.704436696694E+02    0.14104E-01   -0.68923E-01   568   0.548E+00    0.133E-01
DAV:   2    -0.704446644278E+02   -0.99476E-03   -0.12635E-02   632   0.584E-01    0.902E-02
DAV:   3    -0.704445923633E+02    0.72064E-04   -0.84284E-04   824   0.167E-01    0.369E-02
DAV:   4    -0.704446025720E+02   -0.10209E-04   -0.15409E-04   656   0.610E-02    0.136E-02
DAV:   5    -0.704446010782E+02    0.14938E-05   -0.34552E-05   752   0.341E-02    0.540E-03
DAV:   6    -0.704446011619E+02   -0.83749E-07   -0.45027E-06   608   0.122E-02
 237 F= -.70444601E+02 E0= -.70444601E+02  d E =0.131722E-01
 BRION: g(F)=  0.852E-03 g(S)=  0.000E+00 BRIONS problems: POTIM should be increased
 retain N=  1 mean eig= 9.64
 eig:   9.636
 bond charge predicted
       N       E                     dE             d eps       ncg     rms          rms(c)
DAV:   1    -0.704471525236E+02   -0.25514E-02   -0.24455E-02   568   0.104E+00    0.247E-02
DAV:   2    -0.704471863163E+02   -0.33793E-04   -0.43880E-04   648   0.109E-01    0.169E-02
DAV:   3    -0.704471835976E+02    0.27187E-05   -0.32944E-05   832   0.331E-02    0.693E-03
DAV:   4    -0.704471842588E+02   -0.66124E-06   -0.54850E-06   576   0.119E-02
 238 F= -.70447184E+02 E0= -.70447184E+02  d E =-.258310E-02
 BRION: g(F)=  0.831E-03 g(S)=  0.000E+00 retain N=  1 mean eig= 0.03
 eig:   0.030
 bond charge predicted
       N       E                     dE             d eps       ncg     rms          rms(c)
DAV:   1    -0.704472709237E+02   -0.87326E-04   -0.18709E-05   624   0.291E-02    0.141E-03
DAV:   2    -0.704472710438E+02   -0.12005E-06   -0.83771E-07   400   0.527E-03
 239 F= -.70447271E+02 E0= -.70447271E+02  d E =-.867850E-04
 BRION: g(F)=  0.827E-03 g(S)=  0.000E+00 retain N=  1 mean eig= 0.62
 eig:   0.616
 bond charge predicted
       N       E                     dE             d eps       ncg     rms          rms(c)
DAV:   1    -0.704482167135E+02   -0.94579E-03   -0.31655E-03   560   0.371E-01    0.933E-03
DAV:   2    -0.704482217670E+02   -0.50535E-05   -0.61281E-05   656   0.402E-02    0.628E-03
DAV:   3    -0.704482215641E+02    0.20293E-06   -0.37028E-06   672   0.114E-02
 240 F= -.70448222E+02 E0= -.70448222E+02  d E =-.950520E-03
 BRION: g(F)=  0.837E-03 g(S)=  0.000E+00 retain N=  1 mean eig= 4.21
 eig:   4.206
 bond charge predicted
       N       E                     dE             d eps       ncg     rms          rms(c)
DAV:   1    -0.704472572041E+02    0.96456E-03   -0.36376E-03   568   0.397E-01    0.942E-03
DAV:   2    -0.704472623297E+02   -0.51256E-05   -0.68685E-05   640   0.429E-02    0.647E-03
DAV:   3    -0.704472619067E+02    0.42305E-06   -0.44773E-06   712   0.123E-02
 241 F= -.70447262E+02 E0= -.70447262E+02  d E =0.959657E-03
 BRION: g(F)=  0.842E-03 g(S)=  0.000E+00 retain N=  2 mean eig= 4.94
 eig:   4.939  4.939
 bond charge predicted
       N       E                     dE             d eps       ncg     rms          rms(c)
DAV:   1    -0.704437145884E+02    0.35477E-02   -0.46724E-02   560   0.143E+00    0.353E-02
DAV:   2    -0.704437876729E+02   -0.73085E-04   -0.90761E-04   640   0.155E-01    0.238E-02
DAV:   3    -0.704437839469E+02    0.37260E-05   -0.56037E-05   832   0.429E-02    0.102E-02
DAV:   4    -0.704437846686E+02   -0.72171E-06   -0.10466E-05   648   0.157E-02    0.339E-03
DAV:   5    -0.704437844205E+02    0.24819E-06   -0.16510E-06   448   0.876E-03
 242 F= -.70443784E+02 E0= -.70443784E+02  d E =0.347749E-02
 BRION: g(F)=  0.840E-03 g(S)=  0.000E+00 retain N=  2 mean eig= 5.83
 eig:   5.831  5.831
 bond charge predicted
       N       E                     dE             d eps       ncg     rms          rms(c)
DAV:   1    -0.704476969023E+02   -0.39122E-02   -0.60432E-02   568   0.163E+00    0.394E-02
DAV:   2    -0.704477869985E+02   -0.90096E-04   -0.11274E-03   632   0.172E-01    0.268E-02
DAV:   3    -0.704477808751E+02    0.61234E-05   -0.70230E-05   832   0.480E-02    0.114E-02
DAV:   4    -0.704477821067E+02   -0.12316E-05   -0.13771E-05   648   0.179E-02    0.388E-03
DAV:   5    -0.704477820750E+02    0.31650E-07   -0.22060E-06   520   0.976E-03
 243 F= -.70447782E+02 E0= -.70447782E+02  d E =-.399765E-02
 BRION: g(F)=  0.825E-03 g(S)=  0.000E+00 retain N=  1 mean eig= 2.29
 eig:   2.288
 bond charge predicted
       N       E                     dE             d eps       ncg     rms          rms(c)
DAV:   1    -0.704481616718E+02   -0.37957E-03   -0.47346E-04   544   0.143E-01    0.368E-03
DAV:   2    -0.704481625077E+02   -0.83587E-06   -0.97255E-06   672   0.165E-02
 244 F= -.70448163E+02 E0= -.70448163E+02  d E =-.380433E-03
 BRION: g(F)=  0.833E-03 g(S)=  0.000E+00 retain N=  1 mean eig= 0.06
 eig:   0.063
 bond charge predicted
       N       E                     dE             d eps       ncg     rms          rms(c)
DAV:   1    -0.704484738581E+02   -0.31219E-03   -0.40177E-04   560   0.132E-01    0.415E-03
DAV:   2    -0.704484744877E+02   -0.62958E-06   -0.78541E-06   688   0.142E-02
 245 F= -.70448474E+02 E0= -.70448474E+02  d E =-.311980E-03
 BRION: g(F)=  0.839E-03 g(S)=  0.000E+00 retain N=  2 mean eig= 3.25
 eig:   0.119  6.383
 bond charge predicted
       N       E                     dE             d eps       ncg     rms          rms(c)
DAV:   1    -0.704486437403E+02   -0.16988E-03   -0.16406E-04   584   0.851E-02    0.278E-03
DAV:   2    -0.704486440023E+02   -0.26204E-06   -0.30355E-06   576   0.876E-03
 246 F= -.70448644E+02 E0= -.70448644E+02  d E =-.169515E-03
 BRION: g(F)=  0.832E-03 g(S)=  0.000E+00 retain N=  3 mean eig= 3.93
 eig:   4.514  0.512  6.750
 bond charge predicted
       N       E                     dE             d eps       ncg     rms          rms(c)
DAV:   1    -0.704511372459E+02   -0.24935E-02   -0.33790E-02   576   0.120E+00    0.305E-02
DAV:   2    -0.704511915503E+02   -0.54304E-04   -0.66495E-04   656   0.130E-01    0.208E-02
DAV:   3    -0.704511884428E+02    0.31075E-05   -0.38736E-05   816   0.353E-02    0.905E-03
DAV:   4    -0.704511891957E+02   -0.75295E-06   -0.78439E-06   640   0.134E-02
 247 F= -.70451189E+02 E0= -.70451189E+02  d E =-.254519E-02
 BRION: g(F)=  0.830E-03 g(S)=  0.000E+00 retain N=  4 mean eig= 4.09
 eig:   7.741  0.801  3.905  3.905
 bond charge predicted
       N       E                     dE             d eps       ncg     rms          rms(c)
DAV:   1    -0.704528700039E+02   -0.16816E-02   -0.14597E-02   576   0.786E-01    0.202E-02
DAV:   2    -0.704528946021E+02   -0.24598E-04   -0.29475E-04   664   0.862E-02    0.138E-02
DAV:   3    -0.704528934531E+02    0.11490E-05   -0.17379E-05   832   0.238E-02    0.623E-03
DAV:   4    -0.704528937918E+02   -0.33874E-06   -0.32949E-06   576   0.888E-03
 248 F= -.70452894E+02 E0= -.70452894E+02  d E =-.170460E-02
 BRION: g(F)=  0.841E-03 g(S)=  0.000E+00 retain N=  4 mean eig= 4.96
 eig:   7.284  1.234  7.764  3.575
 bond charge predicted
       N       E                     dE             d eps       ncg     rms          rms(c)
DAV:   1    -0.704441835215E+02    0.87099E-02   -0.33873E-01   576   0.380E+00    0.953E-02
DAV:   2    -0.704447218785E+02   -0.53836E-03   -0.66654E-03   640   0.413E-01    0.648E-02
DAV:   3    -0.704446909843E+02    0.30894E-04   -0.40479E-04   832   0.115E-01    0.278E-02
DAV:   4    -0.704446954475E+02   -0.44632E-05   -0.75958E-05   656   0.420E-02    0.877E-03
DAV:   5    -0.704446948102E+02    0.63733E-06   -0.14041E-05   712   0.214E-02    0.377E-03
DAV:   6    -0.704446948182E+02   -0.80136E-08   -0.14849E-06   456   0.752E-03
 249 F= -.70444695E+02 E0= -.70444695E+02  d E =0.819897E-02
 BRION: g(F)=  0.865E-03 g(S)=  0.000E+00 retain N=  3 mean eig= 5.95
 eig:   3.569  7.138  7.138
 bond charge predicted
       N       E                     dE             d eps       ncg     rms          rms(c)
DAV:   1    -0.704490284635E+02   -0.43337E-02   -0.93404E-02   576   0.200E+00    0.501E-02
DAV:   2    -0.704491783788E+02   -0.14992E-03   -0.18454E-03   624   0.217E-01    0.343E-02
DAV:   3    -0.704491694154E+02    0.89634E-05   -0.11312E-04   832   0.609E-02    0.152E-02
DAV:   4    -0.704491710560E+02   -0.16405E-05   -0.22332E-05   656   0.229E-02    0.485E-03
DAV:   5    -0.704491711169E+02   -0.60912E-07   -0.40343E-06   608   0.121E-02
 250 F= -.70449171E+02 E0= -.70449171E+02  d E =-.447630E-02
 BRION: g(F)=  0.840E-03 g(S)=  0.000E+00 retain N=  2 mean eig= 6.10
 eig:   6.100  6.100
 bond charge predicted
       N       E                     dE             d eps       ncg     rms          rms(c)
DAV:   1    -0.704543794438E+02   -0.52084E-02   -0.14095E-01   576   0.245E+00    0.616E-02
DAV:   2    -0.704546072575E+02   -0.22781E-03   -0.27793E-03   648   0.266E-01    0.421E-02
DAV:   3    -0.704545940660E+02    0.13192E-04   -0.16504E-04   832   0.733E-02    0.188E-02
DAV:   4    -0.704545961527E+02   -0.20868E-05   -0.33635E-05   664   0.278E-02    0.580E-03
DAV:   5    -0.704545960944E+02    0.58356E-07   -0.61991E-06   624   0.145E-02
 251 F= -.70454596E+02 E0= -.70454596E+02  d E =-.542498E-02
 BRION: g(F)=  0.846E-03 g(S)=  0.000E+00 retain N=  2 mean eig= 7.44
 eig:   7.443  7.443
 bond charge predicted
       N       E                     dE             d eps       ncg     rms          rms(c)
DAV:   1    -0.704531817138E+02    0.14144E-02   -0.11096E-02   576   0.685E-01    0.175E-02
DAV:   2    -0.704531989675E+02   -0.17254E-04   -0.22025E-04   616   0.746E-02    0.120E-02
DAV:   3    -0.704531980813E+02    0.88616E-06   -0.13308E-05   832   0.208E-02    0.510E-03
DAV:   4    -0.704531984584E+02   -0.37707E-06   -0.25729E-06   528   0.776E-03
 252 F= -.70453198E+02 E0= -.70453198E+02  d E =0.139764E-02
 BRION: g(F)=  0.863E-03 g(S)=  0.000E+00 BRIONS problems: POTIM should be increased
 retain N=  1 mean eig=12.87
 eig:  12.869
 bond charge predicted
       N       E                     dE             d eps       ncg     rms          rms(c)
DAV:   1    -0.704606636883E+02   -0.74656E-02   -0.32850E-01   576   0.373E+00    0.948E-02
DAV:   2    -0.704612055146E+02   -0.54183E-03   -0.66072E-03   648   0.407E-01    0.653E-02
DAV:   3    -0.704611726932E+02    0.32821E-04   -0.38194E-04   832   0.112E-01    0.295E-02
DAV:   4    -0.704611767334E+02   -0.40402E-05   -0.82493E-05   656   0.430E-02    0.872E-03
DAV:   5    -0.704611763502E+02    0.38319E-06   -0.15004E-05   688   0.222E-02    0.389E-03
DAV:   6    -0.704611765617E+02   -0.21153E-06   -0.16634E-06   480   0.755E-03
 253 F= -.70461177E+02 E0= -.70461177E+02  d E =-.797810E-02
 BRION: g(F)=  0.889E-03 g(S)=  0.000E+00 retain N=  1 mean eig= 1.18
 eig:   1.184
 bond charge predicted
       N       E                     dE             d eps       ncg     rms          rms(c)
DAV:   1    -0.704552407260E+02    0.59356E-02   -0.17552E-01   576   0.272E+00    0.697E-02
DAV:   2    -0.704555293620E+02   -0.28864E-03   -0.35371E-03   632   0.299E-01    0.476E-02
DAV:   3    -0.704555154512E+02    0.13911E-04   -0.21380E-04   840   0.831E-02    0.208E-02
DAV:   4    -0.704555181258E+02   -0.26747E-05   -0.38891E-05   640   0.299E-02    0.627E-03
DAV:   5    -0.704555179241E+02    0.20175E-06   -0.70810E-06   616   0.155E-02
 254 F= -.70455518E+02 E0= -.70455518E+02  d E =0.565864E-02
 BRION: g(F)=  0.878E-03 g(S)=  0.000E+00 retain N=  2 mean eig= 3.56
 eig:   0.529  6.599
 bond charge predicted
       N       E                     dE             d eps       ncg     rms          rms(c)
DAV:   1    -0.704542106875E+02    0.13074E-02   -0.65443E-03   560   0.533E-01    0.131E-02
DAV:   2    -0.704542215766E+02   -0.10889E-04   -0.13218E-04   672   0.588E-02    0.877E-03
DAV:   3    -0.704542212186E+02    0.35796E-06   -0.77002E-06   776   0.159E-02
 255 F= -.70454221E+02 E0= -.70454221E+02  d E =0.129671E-02
 BRION: g(F)=  0.874E-03 g(S)=  0.000E+00 retain N=  1 mean eig= 5.41
 eig:   5.411
 bond charge predicted
       N       E                     dE             d eps       ncg     rms          rms(c)
DAV:   1    -0.704553216241E+02   -0.11000E-02   -0.47812E-03   560   0.455E-01    0.107E-02
DAV:   2    -0.704553291980E+02   -0.75739E-05   -0.97195E-05   624   0.510E-02    0.737E-03
DAV:   3    -0.704553286446E+02    0.55343E-06   -0.59647E-06   752   0.141E-02
 256 F= -.70455329E+02 E0= -.70455329E+02  d E =-.110743E-02
 BRION: g(F)=  0.859E-03 g(S)=  0.000E+00 retain N=  1 mean eig= 0.62
 eig:   0.623
 bond charge predicted
       N       E                     dE             d eps       ncg     rms          rms(c)
DAV:   1    -0.704560899185E+02   -0.76072E-03   -0.21493E-03   560   0.306E-01    0.820E-03
DAV:   2    -0.704560933362E+02   -0.34177E-05   -0.40827E-05   656   0.324E-02    0.542E-03
DAV:   3    -0.704560932992E+02    0.36959E-07   -0.21673E-06   560   0.925E-03
 257 F= -.70456093E+02 E0= -.70456093E+02  d E =-.764655E-03
 BRION: g(F)=  0.869E-03 g(S)=  0.000E+00 retain N=  1 mean eig= 1.73
 eig:   1.735
 bond charge predicted
       N       E                     dE             d eps       ncg     rms          rms(c)
DAV:   1    -0.704559379566E+02    0.15538E-03   -0.10934E-04   560   0.678E-02    0.181E-03
DAV:   2    -0.704559380578E+02   -0.10116E-06   -0.21360E-06   464   0.820E-03
 258 F= -.70455938E+02 E0= -.70455938E+02  d E =0.155241E-03
 BRION: g(F)=  0.879E-03 g(S)=  0.000E+00 retain N=  2 mean eig= 4.29
 eig:   1.054  7.530
 bond charge predicted
       N       E                     dE             d eps       ncg     rms          rms(c)
DAV:   1    -0.704572808142E+02   -0.13429E-02   -0.73070E-03   560   0.564E-01    0.135E-02
DAV:   2    -0.704572922583E+02   -0.11444E-04   -0.14125E-04   624   0.613E-02    0.920E-03
DAV:   3    -0.704572915626E+02    0.69569E-06   -0.87578E-06   792   0.172E-02
 259 F= -.70457292E+02 E0= -.70457292E+02  d E =-.135350E-02
 BRION: g(F)=  0.877E-03 g(S)=  0.000E+00 retain N=  3 mean eig= 4.44
 eig:   2.156  5.579  5.579
 bond charge predicted
       N       E                     dE             d eps       ncg     rms          rms(c)
DAV:   1    -0.704620509081E+02   -0.47586E-02   -0.96568E-02   560   0.205E+00    0.506E-02
DAV:   2    -0.704622024376E+02   -0.15153E-03   -0.18577E-03   632   0.221E-01    0.343E-02
DAV:   3    -0.704621939913E+02    0.84463E-05   -0.11339E-04   824   0.613E-02    0.149E-02
DAV:   4    -0.704621958216E+02   -0.18302E-05   -0.23375E-05   664   0.233E-02    0.500E-03
DAV:   5    -0.704621956409E+02    0.18067E-06   -0.47024E-06   624   0.132E-02
 260 F= -.70462196E+02 E0= -.70462196E+02  d E =-.490408E-02
 BRION: g(F)=  0.920E-03 g(S)=  0.000E+00 BRIONS problems: POTIM should be increased
 retain N=  1 mean eig=11.71
 eig:  11.711
 bond charge predicted
       N       E                     dE             d eps       ncg     rms          rms(c)
DAV:   1    -0.704525773227E+02    0.96185E-02   -0.33234E-01   560   0.380E+00    0.929E-02
DAV:   2    -0.704530903918E+02   -0.51307E-03   -0.63950E-03   632   0.413E-01    0.629E-02
DAV:   3    -0.704530606517E+02    0.29740E-04   -0.40511E-04   824   0.115E-01    0.266E-02
DAV:   4    -0.704530654461E+02   -0.47944E-05   -0.74657E-05   656   0.421E-02    0.913E-03
DAV:   5    -0.704530646285E+02    0.81762E-06   -0.16177E-05   752   0.234E-02    0.368E-03
DAV:   6    -0.704530646901E+02   -0.61624E-07   -0.19238E-06   504   0.821E-03
 261 F= -.70453065E+02 E0= -.70453065E+02  d E =0.913095E-02
 BRION: g(F)=  0.870E-03 g(S)=  0.000E+00 BRIONS problems: POTIM should be increased
 retain N=  1 mean eig=14.53
 eig:  14.526
 bond charge predicted
       N       E                     dE             d eps       ncg     rms          rms(c)
DAV:   1    -0.704537191147E+02   -0.65449E-03   -0.15021E-03   568   0.255E-01    0.622E-03
DAV:   2    -0.704537211241E+02   -0.20093E-05   -0.26328E-05   624   0.267E-02    0.422E-03
DAV:   3    -0.704537210467E+02    0.77333E-07   -0.21518E-06   504   0.941E-03
 262 F= -.70453721E+02 E0= -.70453721E+02  d E =-.656357E-03
 BRION: g(F)=  0.870E-03 g(S)=  0.000E+00 retain N=  1 mean eig= 0.48
 eig:   0.485
 bond charge predicted
       N       E                     dE             d eps       ncg     rms          rms(c)
DAV:   1    -0.704543543778E+02   -0.63325E-03   -0.15048E-03   560   0.256E-01    0.668E-03
DAV:   2    -0.704543569176E+02   -0.25398E-05   -0.29643E-05   648   0.275E-02    0.445E-03
DAV:   3    -0.704543568728E+02    0.44827E-07   -0.12768E-06   496   0.747E-03
 263 F= -.70454357E+02 E0= -.70454357E+02  d E =-.635826E-03
 BRION: g(F)=  0.861E-03 g(S)=  0.000E+00 retain N=  2 mean eig= 4.19
 eig:   0.602  7.777
 bond charge predicted
       N       E                     dE             d eps       ncg     rms          rms(c)
DAV:   1    -0.704512592049E+02    0.30977E-02   -0.35879E-02   560   0.125E+00    0.305E-02
DAV:   2    -0.704513141975E+02   -0.54993E-04   -0.69616E-04   632   0.136E-01    0.207E-02
DAV:   3    -0.704513106644E+02    0.35332E-05   -0.44800E-05   832   0.384E-02    0.884E-03
DAV:   4    -0.704513110780E+02   -0.41364E-06   -0.79830E-06   640   0.139E-02
 264 F= -.70451311E+02 E0= -.70451311E+02  d E =0.304579E-02
 BRION: g(F)=  0.863E-03 g(S)=  0.000E+00 retain N=  2 mean eig= 4.00
 eig:   1.517  6.484
 bond charge predicted
       N       E                     dE             d eps       ncg     rms          rms(c)
DAV:   1    -0.704540048409E+02   -0.26942E-02   -0.28664E-02   560   0.112E+00    0.269E-02
DAV:   2    -0.704540483574E+02   -0.43516E-04   -0.54771E-04   640   0.121E-01    0.183E-02
DAV:   3    -0.704540454640E+02    0.28934E-05   -0.34540E-05   832   0.336E-02    0.775E-03
DAV:   4    -0.704540460249E+02   -0.56083E-06   -0.62596E-06   608   0.122E-02
 265 F= -.70454046E+02 E0= -.70454046E+02  d E =-.273495E-02
 BRION: g(F)=  0.847E-03 g(S)=  0.000E+00 retain N=  1 mean eig= 0.42
 eig:   0.424
 bond charge predicted
       N       E                     dE             d eps       ncg     rms          rms(c)
DAV:   1    -0.704547095655E+02   -0.66410E-03   -0.15448E-03   576   0.255E-01    0.689E-03
DAV:   2    -0.704547121046E+02   -0.25392E-05   -0.29314E-05   656   0.273E-02    0.456E-03
DAV:   3    -0.704547120571E+02    0.47517E-07   -0.16514E-06   512   0.831E-03
 266 F= -.70454712E+02 E0= -.70454712E+02  d E =-.666032E-03
 BRION: g(F)=  0.862E-03 g(S)=  0.000E+00 retain N=  1 mean eig= 2.38
 eig:   2.375
 bond charge predicted
       N       E                     dE             d eps       ncg     rms          rms(c)
DAV:   1    -0.704535442243E+02    0.11679E-02   -0.56254E-03   560   0.497E-01    0.119E-02
DAV:   2    -0.704535522997E+02   -0.80754E-05   -0.10763E-04   640   0.541E-02    0.813E-03
DAV:   3    -0.704535516283E+02    0.67138E-06   -0.74075E-06   784   0.158E-02
 267 F= -.70453552E+02 E0= -.70453552E+02  d E =0.116043E-02
 BRION: g(F)=  0.871E-03 g(S)=  0.000E+00 retain N=  2 mean eig= 2.66
 eig:   2.655  2.655
 bond charge predicted
       N       E                     dE             d eps       ncg     rms          rms(c)
DAV:   1    -0.704461636260E+02    0.73887E-02   -0.19540E-01   560   0.292E+00    0.719E-02
DAV:   2    -0.704464700254E+02   -0.30640E-03   -0.37881E-03   632   0.316E-01    0.484E-02
DAV:   3    -0.704464532053E+02    0.16820E-04   -0.23766E-04   824   0.885E-02    0.206E-02
DAV:   4    -0.704464560614E+02   -0.28562E-05   -0.44089E-05   664   0.324E-02    0.708E-03
DAV:   5    -0.704464554498E+02    0.61168E-06   -0.95387E-06   736   0.182E-02
 268 F= -.70446455E+02 E0= -.70446455E+02  d E =0.709618E-02
 BRION: g(F)=  0.842E-03 g(S)=  0.000E+00 BRIONS problems: POTIM should be increased
 retain N=  1 mean eig=14.31
 eig:  14.310
 bond charge predicted
       N       E                     dE             d eps       ncg     rms          rms(c)
DAV:   1    -0.704476045221E+02   -0.11485E-02   -0.47077E-03   560   0.459E-01    0.109E-02
DAV:   2    -0.704476107425E+02   -0.62204E-05   -0.86974E-05   632   0.492E-02    0.756E-03
DAV:   3    -0.704476099240E+02    0.81852E-06   -0.59968E-06   728   0.148E-02
 269 F= -.70447610E+02 E0= -.70447610E+02  d E =-.115447E-02
 BRION: g(F)=  0.825E-03 g(S)=  0.000E+00 retain N=  1 mean eig= 0.56
 eig:   0.561
 bond charge predicted
       N       E                     dE             d eps       ncg     rms          rms(c)
DAV:   1    -0.704483227148E+02   -0.71197E-03   -0.14981E-03   560   0.255E-01    0.687E-03
DAV:   2    -0.704483251435E+02   -0.24287E-05   -0.27718E-05   624   0.269E-02    0.448E-03
DAV:   3    -0.704483252197E+02   -0.76210E-07   -0.12809E-06   472   0.755E-03
 270 F= -.70448325E+02 E0= -.70448325E+02  d E =-.715296E-03
 BRION: g(F)=  0.829E-03 g(S)=  0.000E+00 retain N=  2 mean eig= 1.51
 eig:   0.505  2.520
 bond charge predicted
       N       E                     dE             d eps       ncg     rms          rms(c)
DAV:   1    -0.704477107295E+02    0.61441E-03   -0.12719E-03   560   0.234E-01    0.581E-03
DAV:   2    -0.704477124280E+02   -0.16984E-05   -0.23814E-05   632   0.257E-02    0.393E-03
DAV:   3    -0.704477122534E+02    0.17454E-06   -0.12924E-06   400   0.779E-03
 271 F= -.70447712E+02 E0= -.70447712E+02  d E =0.612966E-03
 BRION: g(F)=  0.830E-03 g(S)=  0.000E+00 retain N=  3 mean eig= 1.88
 eig:   0.483  2.579  2.579
 bond charge predicted
       N       E                     dE             d eps       ncg     rms          rms(c)
DAV:   1    -0.704469115234E+02    0.80090E-03   -0.22549E-03   560   0.315E-01    0.781E-03
DAV:   2    -0.704469149574E+02   -0.34339E-05   -0.43263E-05   648   0.336E-02    0.522E-03
DAV:   3    -0.704469148042E+02    0.15313E-06   -0.21557E-06   576   0.914E-03
 272 F= -.70446915E+02 E0= -.70446915E+02  d E =0.797449E-03
 BRION: g(F)=  0.828E-03 g(S)=  0.000E+00 retain N=  3 mean eig= 3.69
 eig:   5.085  5.085  0.892
 bond charge predicted
       N       E                     dE             d eps       ncg     rms          rms(c)
DAV:   1    -0.704469521021E+02   -0.37145E-04   -0.17162E-05   592   0.280E-02    0.912E-04
DAV:   2    -0.704469520982E+02    0.39258E-08   -0.30044E-07   304   0.373E-03
 273 F= -.70446952E+02 E0= -.70446952E+02  d E =-.372940E-04
 BRION: g(F)=  0.830E-03 g(S)=  0.000E+00 retain N=  4 mean eig= 3.36
 eig:   5.755  5.755  0.887  1.026
 bond charge predicted
       N       E                     dE             d eps       ncg     rms          rms(c)
DAV:   1    -0.704467431597E+02    0.20894E-03   -0.18165E-04   576   0.888E-02    0.225E-03
DAV:   2    -0.704467434132E+02   -0.25347E-06   -0.35748E-06   608   0.975E-03
 274 F= -.70446743E+02 E0= -.70446743E+02  d E =0.208685E-03
 BRION: g(F)=  0.835E-03 g(S)=  0.000E+00 retain N=  2 mean eig= 3.41
 eig:   0.789  6.022
 bond charge predicted
       N       E                     dE             d eps       ncg     rms          rms(c)
DAV:   1    -0.704515861378E+02   -0.48430E-02   -0.10916E-01   560   0.219E+00    0.519E-02
DAV:   2    -0.704517547311E+02   -0.16859E-03   -0.21020E-03   624   0.238E-01    0.356E-02
DAV:   3    -0.704517427921E+02    0.11939E-04   -0.12928E-04   832   0.656E-02    0.159E-02
DAV:   4    -0.704517444425E+02   -0.16505E-05   -0.28008E-05   648   0.254E-02    0.535E-03
DAV:   5    -0.704517443524E+02    0.90169E-07   -0.52278E-06   624   0.140E-02
 275 F= -.70451744E+02 E0= -.70451744E+02  d E =-.500094E-02
 BRION: g(F)=  0.879E-03 g(S)=  0.000E+00 retain N=  2 mean eig= 4.89
 eig:   5.320  4.467
 bond charge predicted
       N       E                     dE             d eps       ncg     rms          rms(c)
DAV:   1    -0.704543875363E+02   -0.26431E-02   -0.28613E-02   560   0.112E+00    0.270E-02
DAV:   2    -0.704544321146E+02   -0.44578E-04   -0.54946E-04   648   0.122E-01    0.183E-02
DAV:   3    -0.704544293335E+02    0.27810E-05   -0.34854E-05   824   0.340E-02    0.806E-03
DAV:   4    -0.704544298591E+02   -0.52557E-06   -0.67139E-06   616   0.128E-02
 276 F= -.70454430E+02 E0= -.70454430E+02  d E =-.268551E-02
 BRION: g(F)=  0.887E-03 g(S)=  0.000E+00 retain N=  2 mean eig= 4.51
 eig:   4.507  4.507
 bond charge predicted
       N       E                     dE             d eps       ncg     rms          rms(c)
DAV:   1    -0.704468271508E+02    0.76022E-02   -0.22962E-01   560   0.317E+00    0.759E-02
DAV:   2    -0.704471733849E+02   -0.34623E-03   -0.43793E-03   632   0.344E-01    0.516E-02
DAV:   3    -0.704471495742E+02    0.23811E-04   -0.27893E-04   824   0.961E-02    0.219E-02
DAV:   4    -0.704471529196E+02   -0.33454E-05   -0.54355E-05   656   0.358E-02    0.764E-03
DAV:   5    -0.704471524088E+02    0.51082E-06   -0.11192E-05   736   0.194E-02    0.313E-03
DAV:   6    -0.704471524515E+02   -0.42755E-07   -0.12526E-06   432   0.681E-03
 277 F= -.70447152E+02 E0= -.70447152E+02  d E =0.727741E-02
 BRION: g(F)=  0.830E-03 g(S)=  0.000E+00 retain N=  1 mean eig= 4.86
 eig:   4.856
 bond charge predicted
       N       E                     dE             d eps       ncg     rms          rms(c)
DAV:   1    -0.704470582623E+02    0.94147E-04   -0.21025E-04   616   0.949E-02    0.237E-03
DAV:   2    -0.704470586509E+02   -0.38860E-06   -0.49903E-06   664   0.118E-02
 278 F= -.70447059E+02 E0= -.70447059E+02  d E =0.938007E-04
 BRION: g(F)=  0.835E-03 g(S)=  0.000E+00 retain N=  2 mean eig= 3.54
 eig:   5.130  1.954
 bond charge predicted
       N       E                     dE             d eps       ncg     rms          rms(c)
DAV:   1    -0.704470185359E+02    0.39726E-04   -0.10211E-05   640   0.215E-02    0.126E-03
DAV:   2    -0.704470185470E+02   -0.11171E-07   -0.20744E-07   336   0.263E-03
 279 F= -.70447019E+02 E0= -.70447019E+02  d E =0.401038E-04
 BRION: g(F)=  0.830E-03 g(S)=  0.000E+00 retain N=  3 mean eig= 3.26
 eig:   6.178  1.800  1.804
 bond charge predicted
       N       E                     dE             d eps       ncg     rms          rms(c)
DAV:   1    -0.704447235445E+02    0.22950E-02   -0.23699E-02   560   0.102E+00    0.243E-02
DAV:   2    -0.704447605334E+02   -0.36989E-04   -0.46553E-04   664   0.112E-01    0.167E-02
DAV:   3    -0.704447581679E+02    0.23655E-05   -0.28101E-05   816   0.306E-02    0.734E-03
DAV:   4    -0.704447585427E+02   -0.37479E-06   -0.60810E-06   640   0.119E-02
 280 F= -.70444759E+02 E0= -.70444759E+02  d E =0.226000E-02
 BRION: g(F)=  0.891E-03 g(S)=  0.000E+00 retain N=  3 mean eig= 2.11
 eig:   2.527  1.895  1.895
 bond charge predicted
       N       E                     dE             d eps       ncg     rms          rms(c)
DAV:   1    -0.704434823833E+02    0.12758E-02   -0.14080E-02   592   0.788E-01    0.181E-02
DAV:   2    -0.704435060201E+02   -0.23637E-04   -0.29750E-04   680   0.897E-02    0.128E-02
DAV:   3    -0.704435042464E+02    0.17736E-05   -0.16205E-05   824   0.234E-02    0.614E-03
DAV:   4    -0.704435044841E+02   -0.23768E-06   -0.50356E-06   624   0.104E-02
 281 F= -.70443504E+02 E0= -.70443504E+02  d E =0.125406E-02
 BRION: g(F)=  0.985E-03 g(S)=  0.000E+00 retain N=  4 mean eig= 2.44
 eig:   2.612  1.876  1.876  3.388
 bond charge predicted
       N       E                     dE             d eps       ncg     rms          rms(c)
DAV:   1    -0.704414343712E+02    0.20699E-02   -0.39367E-02   592   0.132E+00    0.300E-02
DAV:   2    -0.704414988937E+02   -0.64523E-04   -0.82036E-04   680   0.150E-01    0.213E-02
DAV:   3    -0.704414934823E+02    0.54115E-05   -0.44727E-05   816   0.386E-02    0.100E-02
DAV:   4    -0.704414941099E+02   -0.62762E-06   -0.14094E-05   696   0.171E-02    0.322E-03
DAV:   5    -0.704414939425E+02    0.16741E-06   -0.18904E-06   464   0.869E-03
 282 F= -.70441494E+02 E0= -.70441494E+02  d E =0.201054E-02
 BRION: g(F)=  0.113E-02 g(S)=  0.000E+00 retain N=  3 mean eig= 3.59
 eig:   2.022  5.254  3.509
 bond charge predicted
       N       E                     dE             d eps       ncg     rms          rms(c)
DAV:   1    -0.704478806441E+02   -0.63865E-02   -0.30768E-01   568   0.369E+00    0.852E-02
DAV:   2    -0.704483785695E+02   -0.49793E-03   -0.62470E-03   664   0.411E-01    0.601E-02
DAV:   3    -0.704483374526E+02    0.41117E-04   -0.34602E-04   816   0.108E-01    0.280E-02
DAV:   4    -0.704483421111E+02   -0.46584E-05   -0.10163E-04   688   0.466E-02    0.894E-03
DAV:   5    -0.704483417014E+02    0.40966E-06   -0.17309E-05   696   0.240E-02    0.383E-03
DAV:   6    -0.704483420171E+02   -0.31568E-06   -0.21923E-06   512   0.831E-03
 283 F= -.70448342E+02 E0= -.70448342E+02  d E =-.684807E-02
 BRION: g(F)=  0.830E-03 g(S)=  0.000E+00 retain N=  1 mean eig= 0.06
 eig:   0.058
 bond charge predicted
       N       E                     dE             d eps       ncg     rms          rms(c)
DAV:   1    -0.704495116449E+02   -0.11699E-02   -0.54202E-03   560   0.486E-01    0.120E-02
DAV:   2    -0.704495204922E+02   -0.88473E-05   -0.10710E-04   680   0.531E-02    0.810E-03
DAV:   3    -0.704495200759E+02    0.41629E-06   -0.60854E-06   760   0.142E-02
 284 F= -.70449520E+02 E0= -.70449520E+02  d E =-.117806E-02
 BRION: g(F)=  0.833E-03 g(S)=  0.000E+00 retain N=  2 mean eig= 1.00
 eig:   0.412  1.594
 bond charge predicted
       N       E                     dE             d eps       ncg     rms          rms(c)
DAV:   1    -0.704499827577E+02   -0.46227E-03   -0.91126E-04   568   0.201E-01    0.524E-03
DAV:   2    -0.704499843100E+02   -0.15523E-05   -0.17156E-05   680   0.211E-02    0.343E-03
DAV:   3    -0.704499843404E+02   -0.30431E-07   -0.65721E-07   432   0.568E-03
 285 F= -.70449984E+02 E0= -.70449984E+02  d E =-.464265E-03
 BRION: g(F)=  0.841E-03 g(S)=  0.000E+00 retain N=  3 mean eig= 4.68
 eig:   6.959  6.959  0.108
 bond charge predicted
       N       E                     dE             d eps       ncg     rms          rms(c)
DAV:   1    -0.704416403587E+02    0.83440E-02   -0.26705E-01   560   0.342E+00    0.820E-02
DAV:   2    -0.704420497227E+02   -0.40936E-03   -0.51502E-03   632   0.373E-01    0.556E-02
DAV:   3    -0.704420230814E+02    0.26641E-04   -0.32269E-04   824   0.103E-01    0.239E-02
DAV:   4    -0.704420267898E+02   -0.37084E-05   -0.63110E-05   656   0.385E-02    0.815E-03
DAV:   5    -0.704420262628E+02    0.52699E-06   -0.12800E-05   744   0.207E-02    0.337E-03
DAV:   6    -0.704420263146E+02   -0.51843E-07   -0.13875E-06   448   0.718E-03
 286 F= -.70442026E+02 E0= -.70442026E+02  d E =0.795803E-02
 BRION: g(F)=  0.850E-03 g(S)=  0.000E+00 BRIONS problems: POTIM should be increased
 retain N=  1 mean eig= 9.57
 eig:   9.565
 bond charge predicted
       N       E                     dE             d eps       ncg     rms          rms(c)
DAV:   1    -0.704477024721E+02   -0.56762E-02   -0.13958E-01   560   0.248E+00    0.591E-02
DAV:   2    -0.704479178426E+02   -0.21537E-03   -0.26891E-03   640   0.268E-01    0.404E-02
DAV:   3    -0.704479035333E+02    0.14309E-04   -0.16805E-04   824   0.747E-02    0.178E-02
DAV:   4    -0.704479058771E+02   -0.23438E-05   -0.34692E-05   664   0.285E-02    0.604E-03
DAV:   5    -0.704479058450E+02    0.32136E-07   -0.67609E-06   648   0.155E-02
 287 F= -.70447906E+02 E0= -.70447906E+02  d E =-.587953E-02
 BRION: g(F)=  0.832E-03 g(S)=  0.000E+00 retain N=  1 mean eig= 3.99
 eig:   3.988
 bond charge predicted
       N       E                     dE             d eps       ncg     rms          rms(c)
DAV:   1    -0.704468831778E+02    0.10227E-02   -0.49898E-03   560   0.468E-01    0.112E-02
DAV:   2    -0.704468903834E+02   -0.72055E-05   -0.97054E-05   608   0.511E-02    0.776E-03
DAV:   3    -0.704468897730E+02    0.61036E-06   -0.58909E-06   760   0.143E-02
 288 F= -.70446890E+02 E0= -.70446890E+02  d E =0.101607E-02
 BRION: g(F)=  0.831E-03 g(S)=  0.000E+00 retain N=  1 mean eig= 2.64
 eig:   2.643
 bond charge predicted
       N       E                     dE             d eps       ncg     rms          rms(c)
DAV:   1    -0.704481703678E+02   -0.12800E-02   -0.66996E-03   560   0.540E-01    0.127E-02
DAV:   2    -0.704481806715E+02   -0.10304E-04   -0.13124E-04   632   0.592E-02    0.875E-03
DAV:   3    -0.704481798574E+02    0.81404E-06   -0.84007E-06   784   0.167E-02
 289 F= -.70448180E+02 E0= -.70448180E+02  d E =-.129008E-02
 BRION: g(F)=  0.824E-03 g(S)=  0.000E+00 retain N=  2 mean eig= 2.08
 eig:   2.080  2.080
 bond charge predicted
       N       E                     dE             d eps       ncg     rms          rms(c)
DAV:   1    -0.704509789951E+02   -0.27983E-02   -0.34164E-02   560   0.122E+00    0.303E-02
DAV:   2    -0.704510331966E+02   -0.54202E-04   -0.66398E-04   640   0.132E-01    0.205E-02
DAV:   3    -0.704510303144E+02    0.28823E-05   -0.40006E-05   824   0.364E-02    0.891E-03
DAV:   4    -0.704510311258E+02   -0.81148E-06   -0.82724E-06   640   0.138E-02
 290 F= -.70451031E+02 E0= -.70451031E+02  d E =-.285127E-02
 BRION: g(F)=  0.839E-03 g(S)=  0.000E+00 BRIONS problems: POTIM should be increased
 retain N=  1 mean eig= 9.16
 eig:   9.157
 bond charge predicted
       N       E                     dE             d eps       ncg     rms          rms(c)
DAV:   1    -0.704471670311E+02    0.38633E-02   -0.60951E-02   560   0.163E+00    0.393E-02
DAV:   2    -0.704472611790E+02   -0.94148E-04   -0.11855E-03   632   0.177E-01    0.267E-02
DAV:   3    -0.704472557354E+02    0.54437E-05   -0.72527E-05   824   0.487E-02    0.115E-02
DAV:   4    -0.704472566671E+02   -0.93171E-06   -0.13838E-05   640   0.179E-02    0.372E-03
DAV:   5    -0.704472564813E+02    0.18575E-06   -0.21335E-06   504   0.927E-03
 291 F= -.70447256E+02 E0= -.70447256E+02  d E =0.377464E-02
 BRION: g(F)=  0.847E-03 g(S)=  0.000E+00 BRIONS problems: POTIM should be increased
 retain N=  1 mean eig= 8.13
 eig:   8.127
 bond charge predicted
       N       E                     dE             d eps       ncg     rms          rms(c)
DAV:   1    -0.704535957825E+02   -0.63391E-02   -0.18510E-01   560   0.284E+00    0.692E-02
DAV:   2    -0.704538931946E+02   -0.29741E-03   -0.36554E-03   624   0.309E-01    0.472E-02
DAV:   3    -0.704538755816E+02    0.17613E-04   -0.21662E-04   824   0.846E-02    0.211E-02
DAV:   4    -0.704538784686E+02   -0.28870E-05   -0.45794E-05   656   0.324E-02    0.672E-03
DAV:   5    -0.704538782704E+02    0.19815E-06   -0.86711E-06   680   0.174E-02
 292 F= -.70453878E+02 E0= -.70453878E+02  d E =-.662179E-02
 BRION: g(F)=  0.867E-03 g(S)=  0.000E+00 BRIONS problems: POTIM should be increased
 retain N=  1 mean eig=18.05
 eig:  18.053
 bond charge predicted
       N       E                     dE             d eps       ncg     rms          rms(c)
DAV:   1    -0.704456403207E+02    0.82381E-02   -0.26322E-01   560   0.338E+00    0.826E-02
DAV:   2    -0.704460544764E+02   -0.41416E-03   -0.51551E-03   632   0.369E-01    0.560E-02
DAV:   3    -0.704460307098E+02    0.23767E-04   -0.31842E-04   824   0.102E-01    0.240E-02
DAV:   4    -0.704460344714E+02   -0.37616E-05   -0.60640E-05   648   0.376E-02    0.800E-03
DAV:   5    -0.704460338308E+02    0.64064E-06   -0.12220E-05   752   0.203E-02    0.328E-03
DAV:   6    -0.704460338754E+02   -0.44640E-07   -0.13647E-06   440   0.707E-03
 293 F= -.70446034E+02 E0= -.70446034E+02  d E =0.784440E-02
 BRION: g(F)=  0.837E-03 g(S)=  0.000E+00 BRIONS problems: POTIM should be increased
 retain N=  1 mean eig=24.39
 eig:  24.388
 bond charge predicted
       N       E                     dE             d eps       ncg     rms          rms(c)
DAV:   1    -0.704422728135E+02    0.37610E-02   -0.58659E-02   560   0.160E+00    0.390E-02
DAV:   2    -0.704423678550E+02   -0.95042E-04   -0.11742E-03   648   0.176E-01    0.266E-02
DAV:   3    -0.704423625914E+02    0.52636E-05   -0.68916E-05   824   0.477E-02    0.118E-02
DAV:   4    -0.704423634411E+02   -0.84972E-06   -0.14563E-05   664   0.182E-02    0.372E-03
DAV:   5    -0.704423632242E+02    0.21693E-06   -0.23071E-06   512   0.968E-03
 294 F= -.70442363E+02 E0= -.70442363E+02  d E =0.367065E-02
 BRION: g(F)=  0.841E-03 g(S)=  0.000E+00 retain N=  1 mean eig= 4.60
 eig:   4.601
 bond charge predicted
       N       E                     dE             d eps       ncg     rms          rms(c)
DAV:   1    -0.704453521217E+02   -0.29887E-02   -0.37792E-02   560   0.128E+00    0.313E-02
DAV:   2    -0.704454125495E+02   -0.60428E-04   -0.74415E-04   624   0.140E-01    0.213E-02
DAV:   3    -0.704454092230E+02    0.33264E-05   -0.44258E-05   824   0.382E-02    0.942E-03
DAV:   4    -0.704454101314E+02   -0.90840E-06   -0.91861E-06   624   0.146E-02
 295 F= -.70445410E+02 E0= -.70445410E+02  d E =-.304691E-02
 BRION: g(F)=  0.817E-03 g(S)=  0.000E+00 retain N=  1 mean eig= 2.10
 eig:   2.099
 bond charge predicted
       N       E                     dE             d eps       ncg     rms          rms(c)
DAV:   1    -0.704483537104E+02   -0.29445E-02   -0.36116E-02   560   0.125E+00    0.312E-02
DAV:   2    -0.704484137441E+02   -0.60034E-04   -0.72282E-04   656   0.137E-01    0.211E-02
DAV:   3    -0.704484109825E+02    0.27616E-05   -0.43498E-05   832   0.379E-02    0.950E-03
DAV:   4    -0.704484117629E+02   -0.78041E-06   -0.84477E-06   640   0.141E-02
 296 F= -.70448412E+02 E0= -.70448412E+02  d E =-.300163E-02
 BRION: g(F)=  0.834E-03 g(S)=  0.000E+00 retain N=  2 mean eig= 7.15
 eig:   7.149  7.149
 bond charge predicted
       N       E                     dE             d eps       ncg     rms          rms(c)
DAV:   1    -0.704451159246E+02    0.32951E-02   -0.43654E-02   560   0.138E+00    0.334E-02
DAV:   2    -0.704451835240E+02   -0.67599E-04   -0.85134E-04   632   0.150E-01    0.226E-02
DAV:   3    -0.704451797498E+02    0.37742E-05   -0.52214E-05   832   0.412E-02    0.969E-03
DAV:   4    -0.704451803303E+02   -0.58052E-06   -0.93899E-06   632   0.148E-02
 297 F= -.70445180E+02 E0= -.70445180E+02  d E =0.323143E-02
 BRION: g(F)=  0.854E-03 g(S)=  0.000E+00 retain N=  1 mean eig= 1.76
 eig:   1.764
 bond charge predicted
       N       E                     dE             d eps       ncg     rms          rms(c)
DAV:   1    -0.704532872370E+02   -0.81075E-02   -0.30976E-01   560   0.367E+00    0.897E-02
DAV:   2    -0.704537905383E+02   -0.50330E-03   -0.61689E-03   632   0.400E-01    0.611E-02
DAV:   3    -0.704537612569E+02    0.29281E-04   -0.36483E-04   832   0.109E-01    0.275E-02
DAV:   4    -0.704537651473E+02   -0.38904E-05   -0.73484E-05   656   0.410E-02    0.852E-03
DAV:   5    -0.704537649207E+02    0.22669E-06   -0.14060E-05   736   0.217E-02    0.372E-03
DAV:   6    -0.704537650241E+02   -0.10344E-06   -0.14708E-06   456   0.722E-03
 298 F= -.70453765E+02 E0= -.70453765E+02  d E =-.858469E-02
 BRION: g(F)=  0.882E-03 g(S)=  0.000E+00 BRIONS problems: POTIM should be increased
 retain N=  1 mean eig=20.92
 eig:  20.916
 bond charge predicted
       N       E                     dE             d eps       ncg     rms          rms(c)
DAV:   1    -0.704419611427E+02    0.11804E-01   -0.50653E-01   560   0.468E+00    0.116E-01
DAV:   2    -0.704427792928E+02   -0.81815E-03   -0.10055E-02   632   0.512E-01    0.777E-02
DAV:   3    -0.704427411756E+02    0.38117E-04   -0.62529E-04   832   0.142E-01    0.337E-02
DAV:   4    -0.704427469940E+02   -0.58184E-05   -0.10527E-04   640   0.502E-02    0.109E-02
DAV:   5    -0.704427464066E+02    0.58742E-06   -0.22396E-05   752   0.272E-02    0.461E-03
DAV:   6    -0.704427464519E+02   -0.45290E-07   -0.24136E-06   520   0.938E-03
 299 F= -.70442746E+02 E0= -.70442746E+02  d E =0.110186E-01
 BRION: g(F)=  0.837E-03 g(S)=  0.000E+00 BRIONS problems: POTIM should be increased
 retain N=  1 mean eig=18.48
 eig:  18.476
 bond charge predicted
       N       E                     dE             d eps       ncg     rms          rms(c)
DAV:   1    -0.704439592201E+02   -0.12128E-02   -0.53623E-03   568   0.482E-01    0.119E-02
DAV:   2    -0.704439671561E+02   -0.79360E-05   -0.10018E-04   624   0.511E-02    0.798E-03
DAV:   3    -0.704439670523E+02    0.10385E-06   -0.84055E-06   816   0.163E-02
 300 F= -.70443967E+02 E0= -.70443967E+02  d E =-.122060E-02
 BRION: g(F)=  0.831E-03 g(S)=  0.000E+00 retain N=  1 mean eig= 0.05
 eig:   0.048
 bond charge predicted
       N       E                     dE             d eps       ncg     rms          rms(c)
DAV:   1    -0.704443981052E+02   -0.43095E-03   -0.69141E-04   568   0.175E-01    0.514E-03
DAV:   2    -0.704443992773E+02   -0.11722E-05   -0.12941E-05   680   0.182E-02    0.334E-03
DAV:   3    -0.704443993483E+02   -0.70970E-07   -0.51462E-07   408   0.511E-03
 301 F= -.70444399E+02 E0= -.70444399E+02  d E =-.432296E-03
 BRION: g(F)=  0.834E-03 g(S)=  0.000E+00 retain N=  2 mean eig= 3.76
 eig:   0.330  7.186
 bond charge predicted
       N       E                     dE             d eps       ncg     rms          rms(c)
DAV:   1    -0.704396126524E+02    0.47866E-02   -0.88896E-02   568   0.198E+00    0.475E-02
DAV:   2    -0.704397452096E+02   -0.13256E-03   -0.16774E-03   640   0.210E-01    0.321E-02
DAV:   3    -0.704397362469E+02    0.89627E-05   -0.10843E-04   832   0.598E-02    0.136E-02
DAV:   4    -0.704397374107E+02   -0.11638E-05   -0.19388E-05   656   0.216E-02    0.484E-03
DAV:   5    -0.704397371441E+02    0.26656E-06   -0.40443E-06   624   0.122E-02
 302 F= -.70439737E+02 E0= -.70439737E+02  d E =0.466220E-02
 BRION: g(F)=  0.849E-03 g(S)=  0.000E+00 retain N=  1 mean eig= 5.42
 eig:   5.423
 bond charge predicted
       N       E                     dE             d eps       ncg     rms          rms(c)
DAV:   1    -0.704442545828E+02   -0.45172E-02   -0.87154E-02   568   0.196E+00    0.469E-02
DAV:   2    -0.704443858663E+02   -0.13128E-03   -0.16462E-03   640   0.207E-01    0.319E-02
DAV:   3    -0.704443766498E+02    0.92165E-05   -0.10290E-04   832   0.585E-02    0.137E-02
DAV:   4    -0.704443782365E+02   -0.15868E-05   -0.20791E-05   648   0.220E-02    0.481E-03
DAV:   5    -0.704443781568E+02    0.79738E-07   -0.39803E-06   608   0.124E-02
 303 F= -.70444378E+02 E0= -.70444378E+02  d E =-.464101E-02
 BRION: g(F)=  0.829E-03 g(S)=  0.000E+00 retain N=  1 mean eig= 2.40
 eig:   2.404
 bond charge predicted
       N       E                     dE             d eps       ncg     rms          rms(c)
DAV:   1    -0.704439462793E+02    0.43196E-03   -0.88554E-04   568   0.198E-01    0.472E-03
DAV:   2    -0.704439474262E+02   -0.11469E-05   -0.16653E-05   624   0.209E-02    0.324E-03
DAV:   3    -0.704439472952E+02    0.13104E-06   -0.70951E-07   376   0.586E-03
 304 F= -.70443947E+02 E0= -.70443947E+02  d E =0.430862E-03
 BRION: g(F)=  0.832E-03 g(S)=  0.000E+00 retain N=  1 mean eig= 1.50
 eig:   1.497
 bond charge predicted
       N       E                     dE             d eps       ncg     rms          rms(c)
DAV:   1    -0.704453406267E+02   -0.13932E-02   -0.84285E-03   568   0.606E-01    0.146E-02
DAV:   2    -0.704453533271E+02   -0.12700E-04   -0.16027E-04   632   0.649E-02    0.993E-03
DAV:   3    -0.704453524131E+02    0.91394E-06   -0.10103E-05   808   0.184E-02    0.425E-03
DAV:   4    -0.704453525951E+02   -0.18193E-06   -0.17555E-06   480   0.697E-03
 305 F= -.70445353E+02 E0= -.70445353E+02  d E =-.140530E-02
 BRION: g(F)=  0.829E-03 g(S)=  0.000E+00 retain N=  2 mean eig= 1.43
 eig:   1.444  1.416
 bond charge predicted
       N       E                     dE             d eps       ncg     rms          rms(c)
DAV:   1    -0.704500272543E+02   -0.46748E-02   -0.10583E-01   568   0.216E+00    0.519E-02
DAV:   2    -0.704501920766E+02   -0.16482E-03   -0.20372E-03   640   0.230E-01    0.353E-02
DAV:   3    -0.704501816048E+02    0.10472E-04   -0.12203E-04   824   0.634E-02    0.156E-02
DAV:   4    -0.704501832943E+02   -0.16896E-05   -0.25203E-05   656   0.241E-02    0.517E-03
DAV:   5    -0.704501832095E+02    0.84826E-07   -0.47919E-06   616   0.134E-02
 306 F= -.70450183E+02 E0= -.70450183E+02  d E =-.483061E-02
 BRION: g(F)=  0.866E-03 g(S)=  0.000E+00 BRIONS problems: POTIM should be increased
 retain N=  1 mean eig=11.11
 eig:  11.115
 bond charge predicted
       N       E                     dE             d eps       ncg     rms          rms(c)
DAV:   1    -0.704406786408E+02    0.95047E-02   -0.36325E-01   568   0.399E+00    0.961E-02
DAV:   2    -0.704412300575E+02   -0.55142E-03   -0.69196E-03   640   0.426E-01    0.649E-02
DAV:   3    -0.704411953900E+02    0.34668E-04   -0.43008E-04   824   0.118E-01    0.276E-02
DAV:   4    -0.704412003703E+02   -0.49804E-05   -0.79620E-05   656   0.431E-02    0.944E-03
DAV:   5    -0.704411996234E+02    0.74691E-06   -0.16675E-05   752   0.237E-02    0.381E-03
DAV:   6    -0.704411996820E+02   -0.58591E-07   -0.19575E-06   504   0.827E-03
 307 F= -.70441200E+02 E0= -.70441200E+02  d E =0.898353E-02
 BRION: g(F)=  0.830E-03 g(S)=  0.000E+00 BRIONS problems: POTIM should be increased
 retain N=  1 mean eig=14.35
 eig:  14.349
 bond charge predicted
       N       E                     dE             d eps       ncg     rms          rms(c)
DAV:   1    -0.704415373852E+02   -0.33776E-03   -0.33923E-04   544   0.123E-01    0.303E-03
DAV:   2    -0.704415378917E+02   -0.50648E-06   -0.69168E-06   640   0.145E-02
 308 F= -.70441538E+02 E0= -.70441538E+02  d E =-.338210E-03
 BRION: g(F)=  0.829E-03 g(S)=  0.000E+00 retain N=  1 mean eig= 0.58
 eig:   0.575
 bond charge predicted
       N       E                     dE             d eps       ncg     rms          rms(c)
DAV:   1    -0.704423115758E+02   -0.77419E-03   -0.24110E-03   568   0.325E-01    0.854E-03
DAV:   2    -0.704423152944E+02   -0.37186E-05   -0.45948E-05   656   0.343E-02    0.568E-03
DAV:   3    -0.704423151769E+02    0.11752E-06   -0.25135E-06   568   0.962E-03
 309 F= -.70442315E+02 E0= -.70442315E+02  d E =-.777285E-03
 BRION: g(F)=  0.830E-03 g(S)=  0.000E+00 retain N=  2 mean eig= 2.51
 eig:   0.563  4.461
 bond charge predicted
       N       E                     dE             d eps       ncg     rms          rms(c)
DAV:   1    -0.704405867398E+02    0.17286E-02   -0.12467E-02   568   0.740E-01    0.176E-02
DAV:   2    -0.704406049905E+02   -0.18251E-04   -0.23736E-04   640   0.791E-02    0.120E-02
DAV:   3    -0.704406036347E+02    0.13558E-05   -0.15286E-05   832   0.225E-02    0.508E-03
DAV:   4    -0.704406037709E+02   -0.13617E-06   -0.26431E-06   544   0.814E-03
 310 F= -.70440604E+02 E0= -.70440604E+02  d E =0.171141E-02
 BRION: g(F)=  0.843E-03 g(S)=  0.000E+00 retain N=  3 mean eig= 2.54
 eig:   0.047  1.692  5.881
 bond charge predicted
       N       E                     dE             d eps       ncg     rms          rms(c)
DAV:   1    -0.704441094543E+02   -0.35058E-02   -0.55323E-02   568   0.156E+00    0.374E-02
DAV:   2    -0.704441938180E+02   -0.84364E-04   -0.10518E-03   640   0.165E-01    0.254E-02
DAV:   3    -0.704441884455E+02    0.53725E-05   -0.64366E-05   832   0.459E-02    0.110E-02
DAV:   4    -0.704441894324E+02   -0.98694E-06   -0.12339E-05   648   0.169E-02    0.361E-03
DAV:   5    -0.704441894524E+02   -0.19952E-07   -0.19597E-06   512   0.906E-03
 311 F= -.70444189E+02 E0= -.70444189E+02  d E =-.358568E-02
 BRION: g(F)=  0.833E-03 g(S)=  0.000E+00 retain N=  3 mean eig= 3.15
 eig:   1.502  2.100  5.842
 bond charge predicted
       N       E                     dE             d eps       ncg     rms          rms(c)
DAV:   1    -0.704480682861E+02   -0.38789E-02   -0.69212E-02   568   0.174E+00    0.421E-02
DAV:   2    -0.704481751391E+02   -0.10685E-03   -0.13215E-03   640   0.185E-01    0.285E-02
DAV:   3    -0.704481686964E+02    0.64427E-05   -0.82319E-05   832   0.520E-02    0.124E-02
DAV:   4    -0.704481697905E+02   -0.10941E-05   -0.15289E-05   656   0.190E-02    0.417E-03
DAV:   5    -0.704481698106E+02   -0.20050E-07   -0.27647E-06   560   0.104E-02
 312 F= -.70448170E+02 E0= -.70448170E+02  d E =-.398036E-02
 BRION: g(F)=  0.858E-03 g(S)=  0.000E+00 BRIONS problems: POTIM should be increased
 retain N=  1 mean eig= 8.06
 eig:   8.062
 bond charge predicted
       N       E                     dE             d eps       ncg     rms          rms(c)
DAV:   1    -0.704424612319E+02    0.57086E-02   -0.13319E-01   568   0.242E+00    0.583E-02
DAV:   2    -0.704426628409E+02   -0.20161E-03   -0.25305E-03   648   0.257E-01    0.394E-02
DAV:   3    -0.704426503793E+02    0.12462E-04   -0.15635E-04   824   0.714E-02    0.168E-02
DAV:   4    -0.704426523952E+02   -0.20159E-05   -0.29102E-05   648   0.260E-02    0.569E-03
DAV:   5    -0.704426520679E+02    0.32731E-06   -0.57533E-06   632   0.143E-02
 313 F= -.70442652E+02 E0= -.70442652E+02  d E =0.551774E-02
 BRION: g(F)=  0.848E-03 g(S)=  0.000E+00 retain N=  1 mean eig= 5.45
 eig:   5.450
 bond charge predicted
       N       E                     dE             d eps       ncg     rms          rms(c)
DAV:   1    -0.704450628534E+02   -0.24105E-02   -0.26089E-02   568   0.107E+00    0.257E-02
DAV:   2    -0.704451023843E+02   -0.39531E-04   -0.49953E-04   640   0.114E-01    0.175E-02
DAV:   3    -0.704450994619E+02    0.29224E-05   -0.30510E-05   824   0.318E-02    0.755E-03
DAV:   4    -0.704451000380E+02   -0.57608E-06   -0.63545E-06   624   0.121E-02
 314 F= -.70445100E+02 E0= -.70445100E+02  d E =-.244797E-02
 BRION: g(F)=  0.832E-03 g(S)=  0.000E+00 retain N=  1 mean eig= 0.00
 eig:   0.001
 bond charge predicted
       N       E                     dE             d eps       ncg     rms          rms(c)
DAV:   1    -0.704458420801E+02   -0.74262E-03   -0.23906E-03   568   0.321E-01    0.828E-03
DAV:   2    -0.704458461095E+02   -0.40293E-05   -0.48071E-05   656   0.350E-02    0.555E-03
DAV:   3    -0.704458459756E+02    0.13386E-06   -0.27723E-06   600   0.103E-02
 315 F= -.70445846E+02 E0= -.70445846E+02  d E =-.745938E-03
 BRION: g(F)=  0.846E-03 g(S)=  0.000E+00 retain N=  1 mean eig= 1.18
 eig:   1.182
 bond charge predicted
       N       E                     dE             d eps       ncg     rms          rms(c)
DAV:   1    -0.704454462813E+02    0.39983E-03   -0.81874E-04   560   0.189E-01    0.445E-03
DAV:   2    -0.704454474103E+02   -0.11290E-05   -0.16564E-05   624   0.214E-02    0.311E-03
DAV:   3    -0.704454472616E+02    0.14871E-06   -0.94395E-07   312   0.657E-03
 316 F= -.70445447E+02 E0= -.70445447E+02  d E =0.398714E-03
 BRION: g(F)=  0.850E-03 g(S)=  0.000E+00 retain N=  2 mean eig= 1.18
 eig:   1.420  0.933
 bond charge predicted
       N       E                     dE             d eps       ncg     rms          rms(c)
DAV:   1    -0.704425558093E+02    0.28916E-02   -0.38183E-02   568   0.130E+00    0.312E-02
DAV:   2    -0.704426135755E+02   -0.57766E-04   -0.73080E-04   640   0.138E-01    0.211E-02
DAV:   3    -0.704426098005E+02    0.37750E-05   -0.44500E-05   816   0.383E-02    0.913E-03
DAV:   4    -0.704426104534E+02   -0.65286E-06   -0.93349E-06   640   0.148E-02
 317 F= -.70442610E+02 E0= -.70442610E+02  d E =0.283681E-02
 BRION: g(F)=  0.867E-03 g(S)=  0.000E+00 retain N=  3 mean eig= 2.10
 eig:   2.768  2.768  0.763
 bond charge predicted
       N       E                     dE             d eps       ncg     rms          rms(c)
DAV:   1    -0.704422507588E+02    0.35904E-03   -0.60776E-04   568   0.162E-01    0.441E-03
DAV:   2    -0.704422518555E+02   -0.10967E-05   -0.13383E-05   680   0.185E-02    0.301E-03
DAV:   3    -0.704422517856E+02    0.69871E-07   -0.56952E-07   424   0.558E-03
 318 F= -.70442252E+02 E0= -.70442252E+02  d E =0.358668E-03
 BRION: g(F)=  0.848E-03 g(S)=  0.000E+00 retain N=  1 mean eig= 5.58
 eig:   5.585
 bond charge predicted
       N       E                     dE             d eps       ncg     rms          rms(c)
DAV:   1    -0.704392724540E+02    0.29794E-02   -0.52723E-02   560   0.154E+00    0.345E-02
DAV:   2    -0.704393457305E+02   -0.73276E-04   -0.96884E-04   656   0.164E-01    0.239E-02
DAV:   3    -0.704393380038E+02    0.77267E-05   -0.59983E-05   824   0.451E-02    0.101E-02
DAV:   4    -0.704393389228E+02   -0.91901E-06   -0.15256E-05   648   0.184E-02    0.383E-03
DAV:   5    -0.704393386571E+02    0.26570E-06   -0.26304E-06   576   0.104E-02
 319 F= -.70439339E+02 E0= -.70439339E+02  d E =0.291313E-02
 BRION: g(F)=  0.928E-03 g(S)=  0.000E+00 retain N=  2 mean eig= 2.65
 eig:   4.478  0.830
 bond charge predicted
       N       E                     dE             d eps       ncg     rms          rms(c)
DAV:   1    -0.704342966112E+02    0.50423E-02   -0.13131E-01   560   0.242E+00    0.554E-02
DAV:   2    -0.704344917830E+02   -0.19517E-03   -0.24977E-03   656   0.261E-01    0.382E-02
DAV:   3    -0.704344748806E+02    0.16902E-04   -0.15351E-04   816   0.718E-02    0.165E-02
DAV:   4    -0.704344768375E+02   -0.19568E-05   -0.35861E-05   656   0.286E-02    0.597E-03
DAV:   5    -0.704344764819E+02    0.35554E-06   -0.67950E-06   648   0.157E-02
 320 F= -.70434476E+02 E0= -.70434476E+02  d E =0.486218E-02
 BRION: g(F)=  0.954E-03 g(S)=  0.000E+00 retain N=  2 mean eig= 3.66
 eig:   0.671  6.646
 bond charge predicted
       N       E                     dE             d eps       ncg     rms          rms(c)
DAV:   1    -0.704432509145E+02   -0.87741E-02   -0.50697E-01   560   0.477E+00    0.108E-01
DAV:   2    -0.704440054943E+02   -0.75458E-03   -0.96606E-03   640   0.514E-01    0.755E-02
DAV:   3    -0.704439307403E+02    0.74754E-04   -0.57277E-04   824   0.140E-01    0.336E-02
DAV:   4    -0.704439379633E+02   -0.72230E-05   -0.15638E-04   648   0.589E-02    0.120E-02
DAV:   5    -0.704439366809E+02    0.12824E-05   -0.30763E-05   752   0.329E-02    0.487E-03
DAV:   6    -0.704439371150E+02   -0.43415E-06   -0.42656E-06   584   0.114E-02
 321 F= -.70443937E+02 E0= -.70443937E+02  d E =-.946063E-02
 BRION: g(F)=  0.842E-03 g(S)=  0.000E+00 retain N=  1 mean eig= 2.86
 eig:   2.864
 bond charge predicted
       N       E                     dE             d eps       ncg     rms          rms(c)
DAV:   1    -0.704443411391E+02   -0.40446E-03   -0.54707E-04   560   0.152E-01    0.436E-03
DAV:   2    -0.704443421797E+02   -0.10406E-05   -0.11916E-05   664   0.175E-02    0.282E-03
DAV:   3    -0.704443422047E+02   -0.24969E-07   -0.54907E-07   440   0.511E-03
 322 F= -.70444342E+02 E0= -.70444342E+02  d E =-.405090E-03
 BRION: g(F)=  0.845E-03 g(S)=  0.000E+00 retain N=  2 mean eig= 1.46
 eig:   2.638  0.292
 bond charge predicted
       N       E                     dE             d eps       ncg     rms          rms(c)
DAV:   1    -0.704444432359E+02   -0.10106E-03   -0.38076E-05   632   0.413E-02    0.116E-03
DAV:   2    -0.704444433426E+02   -0.10673E-06   -0.59977E-07   400   0.444E-03
 323 F= -.70444443E+02 E0= -.70444443E+02  d E =-.101138E-03
 BRION: g(F)=  0.839E-03 g(S)=  0.000E+00 retain N=  3 mean eig= 2.70
 eig:   5.442  1.772  0.900
 bond charge predicted
       N       E                     dE             d eps       ncg     rms          rms(c)
DAV:   1    -0.704446854553E+02   -0.24222E-03   -0.17833E-03   512   0.260E-01    0.478E-03
DAV:   2    -0.704446872067E+02   -0.17514E-05   -0.29219E-05   688   0.304E-02    0.387E-03
DAV:   3    -0.704446866603E+02    0.54636E-06   -0.12871E-06   456   0.702E-03
 324 F= -.70444687E+02 E0= -.70444687E+02  d E =-.243318E-03
 BRION: g(F)=  0.868E-03 g(S)=  0.000E+00 retain N=  4 mean eig= 2.79
 eig:   5.882  2.326  2.326  0.619
 bond charge predicted
       N       E                     dE             d eps       ncg     rms          rms(c)
DAV:   1    -0.704452695530E+02   -0.58235E-03   -0.27064E-03   512   0.334E-01    0.635E-03
DAV:   2    -0.704452724685E+02   -0.29155E-05   -0.43408E-05   688   0.380E-02    0.464E-03
DAV:   3    -0.704452718904E+02    0.57812E-06   -0.21529E-06   536   0.926E-03
 325 F= -.70445272E+02 E0= -.70445272E+02  d E =-.585230E-03
 BRION: g(F)=  0.897E-03 g(S)=  0.000E+00 retain N=  5 mean eig= 3.63
 eig:   6.221  5.033  5.033  0.925  0.925
 bond charge predicted
       N       E                     dE             d eps       ncg     rms          rms(c)
DAV:   1    -0.704445780422E+02    0.69443E-03   -0.15208E-03   536   0.261E-01    0.595E-03
DAV:   2    -0.704445806488E+02   -0.26066E-05   -0.33979E-05   616   0.309E-02    0.417E-03
DAV:   3    -0.704445804347E+02    0.21402E-06   -0.15320E-06   472   0.864E-03
 326 F= -.70444580E+02 E0= -.70444580E+02  d E =0.691456E-03
 BRION: g(F)=  0.891E-03 g(S)=  0.000E+00 retain N=  6 mean eig= 4.08
 eig:   5.928  7.443  7.443  0.869  0.869  1.935
 bond charge predicted
       N       E                     dE             d eps       ncg     rms          rms(c)
DAV:   1    -0.704432593691E+02    0.13213E-02   -0.82627E-03   520   0.606E-01    0.127E-02
DAV:   2    -0.704432719148E+02   -0.12546E-04   -0.16711E-04   664   0.715E-02    0.903E-03
DAV:   3    -0.704432705933E+02    0.13214E-05   -0.88247E-06   808   0.179E-02    0.427E-03
DAV:   4    -0.704432707133E+02   -0.11998E-06   -0.30638E-06   528   0.815E-03
 327 F= -.70443271E+02 E0= -.70443271E+02  d E =0.130972E-02
 BRION: g(F)=  0.896E-03 g(S)=  0.000E+00 retain N=  4 mean eig= 4.69
 eig:   7.312  7.312  1.269  2.857
 bond charge predicted
       N       E                     dE             d eps       ncg     rms          rms(c)
DAV:   1    -0.704426485504E+02    0.62204E-03   -0.16214E-02   512   0.781E-01    0.142E-02
DAV:   2    -0.704426641036E+02   -0.15553E-04   -0.25520E-04   688   0.912E-02    0.113E-02
DAV:   3    -0.704426594236E+02    0.46800E-05   -0.13010E-05   664   0.206E-02    0.467E-03
DAV:   4    -0.704426596677E+02   -0.24416E-06   -0.82029E-06   656   0.115E-02
 328 F= -.70442660E+02 E0= -.70442660E+02  d E =0.611046E-03
 BRION: g(F)=  0.834E-03 g(S)=  0.000E+00 retain N=  3 mean eig= 3.77
 eig:   4.675  4.675  1.947
 bond charge predicted
       N       E                     dE             d eps       ncg     rms          rms(c)
DAV:   1    -0.704431384178E+02   -0.47899E-03   -0.13929E-03   584   0.248E-01    0.566E-03
DAV:   2    -0.704431407419E+02   -0.23241E-05   -0.28426E-05   680   0.283E-02    0.389E-03
DAV:   3    -0.704431405854E+02    0.15648E-06   -0.11285E-06   448   0.737E-03
 329 F= -.70443141E+02 E0= -.70443141E+02  d E =-.480918E-03
 BRION: g(F)=  0.836E-03 g(S)=  0.000E+00 retain N=  4 mean eig= 3.21
 eig:   4.237  4.237  2.186  2.168
 bond charge predicted
       N       E                     dE             d eps       ncg     rms          rms(c)
DAV:   1    -0.704430487583E+02    0.91984E-04   -0.25540E-04   512   0.103E-01    0.211E-03
DAV:   2    -0.704430490978E+02   -0.33952E-06   -0.56940E-06   576   0.141E-02
 330 F= -.70443049E+02 E0= -.70443049E+02  d E =0.914876E-04
 BRION: g(F)=  0.843E-03 g(S)=  0.000E+00 retain N=  3 mean eig= 3.85
 eig:   1.774  1.949  7.814
 bond charge predicted
       N       E                     dE             d eps       ncg     rms          rms(c)
DAV:   1    -0.704446276466E+02   -0.15789E-02   -0.23727E-02   568   0.103E+00    0.208E-02
DAV:   2    -0.704446624942E+02   -0.34848E-04   -0.45890E-04   688   0.118E-01    0.152E-02
DAV:   3    -0.704446583801E+02    0.41141E-05   -0.24324E-05   800   0.292E-02    0.730E-03
DAV:   4    -0.704446587926E+02   -0.41249E-06   -0.10141E-05   712   0.143E-02    0.246E-03
DAV:   5    -0.704446588231E+02   -0.30538E-07   -0.12556E-06   408   0.714E-03
 331 F= -.70444659E+02 E0= -.70444659E+02  d E =-.160973E-02
 BRION: g(F)=  0.838E-03 g(S)=  0.000E+00 retain N=  4 mean eig= 3.31
 eig:   2.807  3.306  3.306  3.821
 bond charge predicted
       N       E                     dE             d eps       ncg     rms          rms(c)
DAV:   1    -0.704468210901E+02   -0.21623E-02   -0.40006E-02   576   0.133E+00    0.283E-02
DAV:   2    -0.704468797390E+02   -0.58649E-04   -0.77736E-04   680   0.153E-01    0.203E-02
DAV:   3    -0.704468728965E+02    0.68425E-05   -0.44691E-05   808   0.392E-02    0.922E-03
DAV:   4    -0.704468737988E+02   -0.90231E-06   -0.15422E-05   720   0.176E-02    0.331E-03
DAV:   5    -0.704468738447E+02   -0.45932E-07   -0.19197E-06   512   0.859E-03
 332 F= -.70446874E+02 E0= -.70446874E+02  d E =-.221502E-02
 BRION: g(F)=  0.856E-03 g(S)=  0.000E+00 retain N=  2 mean eig= 4.70
 eig:   2.761  6.638
 bond charge predicted
       N       E                     dE             d eps       ncg     rms          rms(c)
DAV:   1    -0.704430757489E+02    0.37980E-02   -0.13621E-01   552   0.246E+00    0.503E-02
DAV:   2    -0.704432825311E+02   -0.20678E-03   -0.27620E-03   680   0.298E-01    0.368E-02
DAV:   3    -0.704432581910E+02    0.24340E-04   -0.14571E-04   800   0.721E-02    0.176E-02
DAV:   4    -0.704432598849E+02   -0.16939E-05   -0.62483E-05   712   0.350E-02    0.592E-03
DAV:   5    -0.704432595576E+02    0.32734E-06   -0.84122E-06   632   0.167E-02
 333 F= -.70443260E+02 E0= -.70443260E+02  d E =0.361429E-02
 BRION: g(F)=  0.841E-03 g(S)=  0.000E+00 retain N=  1 mean eig= 0.14
 eig:   0.140
 bond charge predicted
       N       E                     dE             d eps       ncg     rms          rms(c)
DAV:   1    -0.704450022198E+02   -0.17423E-02   -0.18046E-02   568   0.898E-01    0.199E-02
DAV:   2    -0.704450290320E+02   -0.26812E-04   -0.34805E-04   648   0.993E-02    0.140E-02
DAV:   3    -0.704450265389E+02    0.24931E-05   -0.19965E-05   824   0.260E-02    0.628E-03
DAV:   4    -0.704450270601E+02   -0.52114E-06   -0.60347E-06   664   0.111E-02
 334 F= -.70445027E+02 E0= -.70445027E+02  d E =-.176750E-02
 BRION: g(F)=  0.828E-03 g(S)=  0.000E+00 retain N=  2 mean eig= 2.23
 eig:   2.228  2.228
 bond charge predicted
       N       E                     dE             d eps       ncg     rms          rms(c)
DAV:   1    -0.704460883892E+02   -0.10619E-02   -0.41267E-03   568   0.419E-01    0.111E-02
DAV:   2    -0.704460954196E+02   -0.70304E-05   -0.83392E-05   664   0.453E-02    0.734E-03
DAV:   3    -0.704460952485E+02    0.17105E-06   -0.53858E-06   760   0.132E-02
 335 F= -.70446095E+02 E0= -.70446095E+02  d E =-.106819E-02
 BRION: g(F)=  0.844E-03 g(S)=  0.000E+00 retain N=  3 mean eig= 5.21
 eig:   7.579  7.579  0.466
 bond charge predicted
       N       E                     dE             d eps       ncg     rms          rms(c)
DAV:   1    -0.704438556020E+02    0.22398E-02   -0.18706E-02   568   0.897E-01    0.221E-02
DAV:   2    -0.704438850711E+02   -0.29469E-04   -0.36954E-04   640   0.964E-02    0.148E-02
DAV:   3    -0.704438836314E+02    0.14396E-05   -0.23803E-05   832   0.276E-02    0.647E-03
DAV:   4    -0.704438837637E+02   -0.13228E-06   -0.34234E-06   576   0.948E-03
 336 F= -.70443884E+02 E0= -.70443884E+02  d E =0.221148E-02
 BRION: g(F)=  0.853E-03 g(S)=  0.000E+00 retain N=  2 mean eig= 1.57
 eig:   3.147  0.002
 bond charge predicted
       N       E                     dE             d eps       ncg     rms          rms(c)
DAV:   1    -0.704477082559E+02   -0.38246E-02   -0.59674E-02   568   0.160E+00    0.398E-02
DAV:   2    -0.704478039440E+02   -0.95688E-04   -0.11702E-03   640   0.171E-01    0.267E-02
DAV:   3    -0.704477990934E+02    0.48506E-05   -0.71008E-05   832   0.478E-02    0.117E-02
DAV:   4    -0.704477999932E+02   -0.89979E-06   -0.12050E-05   648   0.169E-02    0.371E-03
DAV:   5    -0.704478000211E+02   -0.27882E-07   -0.20434E-06   520   0.916E-03
 337 F= -.70447800E+02 E0= -.70447800E+02  d E =-.391626E-02
 BRION: g(F)=  0.846E-03 g(S)=  0.000E+00 retain N=  1 mean eig= 2.30
 eig:   2.301
 bond charge predicted
       N       E                     dE             d eps       ncg     rms          rms(c)
DAV:   1    -0.704488623151E+02   -0.10623E-02   -0.50012E-03   568   0.467E-01    0.114E-02
DAV:   2    -0.704488701926E+02   -0.78775E-05   -0.96687E-05   664   0.501E-02    0.769E-03
DAV:   3    -0.704488697507E+02    0.44185E-06   -0.61926E-06   752   0.145E-02
 338 F= -.70448870E+02 E0= -.70448870E+02  d E =-.106973E-02
 BRION: g(F)=  0.859E-03 g(S)=  0.000E+00 retain N=  2 mean eig= 2.44
 eig:   2.437  2.437
 bond charge predicted
       N       E                     dE             d eps       ncg     rms          rms(c)
DAV:   1    -0.704494041082E+02   -0.53392E-03   -0.11750E-03   568   0.227E-01    0.619E-03
DAV:   2    -0.704494060631E+02   -0.19549E-05   -0.22478E-05   680   0.236E-02    0.405E-03
DAV:   3    -0.704494060388E+02    0.24317E-07   -0.85532E-07   440   0.649E-03
 339 F= -.70449406E+02 E0= -.70449406E+02  d E =-.536288E-03
 BRION: g(F)=  0.862E-03 g(S)=  0.000E+00 retain N=  2 mean eig= 3.63
 eig:   2.410  4.847
 bond charge predicted
       N       E                     dE             d eps       ncg     rms          rms(c)
DAV:   1    -0.704437505833E+02    0.56555E-02   -0.12765E-01   568   0.236E+00    0.577E-02
DAV:   2    -0.704439485311E+02   -0.19795E-03   -0.24729E-03   632   0.253E-01    0.389E-02
DAV:   3    -0.704439367392E+02    0.11792E-04   -0.15658E-04   832   0.716E-02    0.167E-02
DAV:   4    -0.704439383496E+02   -0.16105E-05   -0.27382E-05   648   0.256E-02    0.571E-03
DAV:   5    -0.704439380654E+02    0.28427E-06   -0.57969E-06   632   0.143E-02
 340 F= -.70443938E+02 E0= -.70443938E+02  d E =0.546797E-02
 BRION: g(F)=  0.895E-03 g(S)=  0.000E+00 retain N=  2 mean eig= 7.85
 eig:   7.853  7.853
 bond charge predicted
       N       E                     dE             d eps       ncg     rms          rms(c)
DAV:   1    -0.704477199409E+02   -0.37816E-02   -0.63831E-02   568   0.167E+00    0.407E-02
DAV:   2    -0.704478197140E+02   -0.99773E-04   -0.12388E-03   640   0.178E-01    0.277E-02
DAV:   3    -0.704478133743E+02    0.63398E-05   -0.75928E-05   832   0.501E-02    0.121E-02
DAV:   4    -0.704478145379E+02   -0.11636E-05   -0.15038E-05   656   0.186E-02    0.406E-03
DAV:   5    -0.704478144886E+02    0.49354E-07   -0.27391E-06   584   0.105E-02
 341 F= -.70447814E+02 E0= -.70447814E+02  d E =-.387642E-02
 BRION: g(F)=  0.847E-03 g(S)=  0.000E+00 retain N=  1 mean eig= 1.83
 eig:   1.830
 bond charge predicted
       N       E                     dE             d eps       ncg     rms          rms(c)
DAV:   1    -0.704491892490E+02   -0.13747E-02   -0.86302E-03   568   0.615E-01    0.150E-02
DAV:   2    -0.704492028678E+02   -0.13619E-04   -0.16874E-04   656   0.664E-02    0.101E-02
DAV:   3    -0.704492020841E+02    0.78366E-06   -0.10766E-05   816   0.189E-02    0.450E-03
DAV:   4    -0.704492022769E+02   -0.19279E-06   -0.18434E-06   520   0.705E-03
 342 F= -.70449202E+02 E0= -.70449202E+02  d E =-.138779E-02
 BRION: g(F)=  0.850E-03 g(S)=  0.000E+00 retain N=  2 mean eig= 1.74
 eig:   1.742  1.742
 bond charge predicted
       N       E                     dE             d eps       ncg     rms          rms(c)
DAV:   1    -0.704495146697E+02   -0.31259E-03   -0.42329E-04   568   0.136E-01    0.350E-03
DAV:   2    -0.704495154397E+02   -0.77006E-06   -0.86278E-06   672   0.147E-02
 343 F= -.70449515E+02 E0= -.70449515E+02  d E =-.313163E-03
 BRION: g(F)=  0.857E-03 g(S)=  0.000E+00 retain N=  3 mean eig= 3.82
 eig:   5.688  5.688  0.092
 bond charge predicted
       N       E                     dE             d eps       ncg     rms          rms(c)
DAV:   1    -0.704454680261E+02    0.40466E-02   -0.66556E-02   560   0.170E+00    0.407E-02
DAV:   2    -0.704455746181E+02   -0.10659E-03   -0.13141E-03   632   0.185E-01    0.277E-02
DAV:   3    -0.704455688032E+02    0.58149E-05   -0.80588E-05   832   0.516E-02    0.124E-02
DAV:   4    -0.704455696182E+02   -0.81495E-06   -0.15396E-05   640   0.191E-02    0.414E-03
DAV:   5    -0.704455693663E+02    0.25190E-06   -0.28371E-06   576   0.107E-02
 344 F= -.70445569E+02 E0= -.70445569E+02  d E =0.394607E-02
 BRION: g(F)=  0.870E-03 g(S)=  0.000E+00 retain N=  3 mean eig= 4.16
 eig:   6.240  6.240  0.014
 bond charge predicted
       N       E                     dE             d eps       ncg     rms          rms(c)
DAV:   1    -0.704389481919E+02    0.66214E-02   -0.16963E-01   560   0.272E+00    0.664E-02
DAV:   2    -0.704392212847E+02   -0.27309E-03   -0.33530E-03   640   0.295E-01    0.448E-02
DAV:   3    -0.704392071225E+02    0.14162E-04   -0.20866E-04   832   0.826E-02    0.195E-02
DAV:   4    -0.704392091193E+02   -0.19967E-05   -0.37003E-05   656   0.298E-02    0.652E-03
DAV:   5    -0.704392087687E+02    0.35058E-06   -0.79068E-06   704   0.165E-02
 345 F= -.70439209E+02 E0= -.70439209E+02  d E =0.636060E-02
 BRION: g(F)=  0.856E-03 g(S)=  0.000E+00 BRIONS problems: POTIM should be increased
 retain N=  1 mean eig=17.00
 eig:  17.000
 bond charge predicted
       N       E                     dE             d eps       ncg     rms          rms(c)
DAV:   1    -0.704409720039E+02   -0.17629E-02   -0.11428E-02   568   0.704E-01    0.175E-02
DAV:   2    -0.704409896276E+02   -0.17624E-04   -0.22272E-04   632   0.753E-02    0.121E-02
DAV:   3    -0.704409883781E+02    0.12495E-05   -0.15353E-05   840   0.227E-02    0.521E-03
DAV:   4    -0.704409888117E+02   -0.43357E-06   -0.30242E-06   536   0.866E-03
 346 F= -.70440989E+02 E0= -.70440989E+02  d E =-.178004E-02
 BRION: g(F)=  0.823E-03 g(S)=  0.000E+00 retain N=  1 mean eig= 0.78
 eig:   0.775
 bond charge predicted
       N       E                     dE             d eps       ncg     rms          rms(c)
DAV:   1    -0.704417787197E+02   -0.79034E-03   -0.21232E-03   568   0.303E-01    0.774E-03
DAV:   2    -0.704417823771E+02   -0.36574E-05   -0.42299E-05   656   0.326E-02    0.522E-03
DAV:   3    -0.704417822844E+02    0.92734E-07   -0.23002E-06   576   0.966E-03
 347 F= -.70441782E+02 E0= -.70441782E+02  d E =-.793473E-03
 BRION: g(F)=  0.831E-03 g(S)=  0.000E+00 retain N=  2 mean eig= 2.75
 eig:   0.976  4.531
 bond charge predicted
       N       E                     dE             d eps       ncg     rms          rms(c)
DAV:   1    -0.704411119112E+02    0.67047E-03   -0.17191E-03   568   0.272E-01    0.665E-03
DAV:   2    -0.704411143346E+02   -0.24234E-05   -0.33271E-05   624   0.297E-02    0.454E-03
DAV:   3    -0.704411141303E+02    0.20428E-06   -0.22953E-06   536   0.941E-03
 348 F= -.70441114E+02 E0= -.70441114E+02  d E =0.668154E-03
 BRION: g(F)=  0.835E-03 g(S)=  0.000E+00 retain N=  3 mean eig= 2.55
 eig:   6.500  1.084  0.063
 bond charge predicted
       N       E                     dE             d eps       ncg     rms          rms(c)
DAV:   1    -0.704418460884E+02   -0.73175E-03   -0.22094E-03   568   0.310E-01    0.725E-03
DAV:   2    -0.704418495063E+02   -0.34178E-05   -0.43072E-05   632   0.335E-02    0.496E-03
DAV:   3    -0.704418492175E+02    0.28881E-06   -0.23882E-06   568   0.969E-03
 349 F= -.70441849E+02 E0= -.70441849E+02  d E =-.735087E-03
 BRION: g(F)=  0.837E-03 g(S)=  0.000E+00 retain N=  3 mean eig= 2.57
 eig:   5.175  0.857  1.674
 bond charge predicted
       N       E                     dE             d eps       ncg     rms          rms(c)
DAV:   1    -0.704439751117E+02   -0.21256E-02   -0.19590E-02   568   0.925E-01    0.229E-02
DAV:   2    -0.704440063111E+02   -0.31199E-04   -0.38103E-04   632   0.985E-02    0.155E-02
DAV:   3    -0.704440047631E+02    0.15479E-05   -0.22759E-05   824   0.273E-02    0.681E-03
DAV:   4    -0.704440052381E+02   -0.47495E-06   -0.44170E-06   592   0.103E-02
 350 F= -.70444005E+02 E0= -.70444005E+02  d E =-.215602E-02
 BRION: g(F)=  0.834E-03 g(S)=  0.000E+00 retain N=  4 mean eig= 2.91
 eig:   5.698  1.459  2.241  2.241
 bond charge predicted
       N       E                     dE             d eps       ncg     rms          rms(c)
DAV:   1    -0.704445710463E+02   -0.56628E-03   -0.14037E-03   568   0.246E-01    0.633E-03
DAV:   2    -0.704445735318E+02   -0.24855E-05   -0.28747E-05   680   0.270E-02    0.428E-03
DAV:   3    -0.704445733970E+02    0.13487E-06   -0.12243E-06   456   0.767E-03
 351 F= -.70444573E+02 E0= -.70444573E+02  d E =-.568159E-03
 BRION: g(F)=  0.851E-03 g(S)=  0.000E+00 retain N=  3 mean eig= 5.91
 eig:   7.876  7.876  1.971
 bond charge predicted
       N       E                     dE             d eps       ncg     rms          rms(c)
DAV:   1    -0.704376835882E+02    0.68899E-02   -0.20291E-01   560   0.299E+00    0.714E-02
DAV:   2    -0.704380003949E+02   -0.31681E-03   -0.39888E-03   632   0.325E-01    0.485E-02
DAV:   3    -0.704379784023E+02    0.21993E-04   -0.24777E-04   824   0.909E-02    0.211E-02
DAV:   4    -0.704379809010E+02   -0.24987E-05   -0.49824E-05   656   0.343E-02    0.726E-03
DAV:   5    -0.704379804274E+02    0.47359E-06   -0.10042E-05   736   0.185E-02    0.299E-03
DAV:   6    -0.704379804731E+02   -0.45662E-07   -0.11319E-06   440   0.645E-03
 352 F= -.70437980E+02 E0= -.70437980E+02  d E =0.659292E-02
 BRION: g(F)=  0.874E-03 g(S)=  0.000E+00 retain N=  1 mean eig= 4.56
 eig:   4.559
 bond charge predicted
       N       E                     dE             d eps       ncg     rms          rms(c)
DAV:   1    -0.704432581916E+02   -0.52778E-02   -0.13737E-01   560   0.247E+00    0.586E-02
DAV:   2    -0.704434738231E+02   -0.21563E-03   -0.26938E-03   632   0.266E-01    0.401E-02
DAV:   3    -0.704434584216E+02    0.15402E-04   -0.16634E-04   832   0.746E-02    0.178E-02
DAV:   4    -0.704434604215E+02   -0.20000E-05   -0.35263E-05   648   0.286E-02    0.609E-03
DAV:   5    -0.704434603406E+02    0.80912E-07   -0.67729E-06   648   0.157E-02
 353 F= -.70443460E+02 E0= -.70443460E+02  d E =-.547987E-02
 BRION: g(F)=  0.842E-03 g(S)=  0.000E+00 retain N=  1 mean eig= 2.43
 eig:   2.428
 bond charge predicted
       N       E                     dE             d eps       ncg     rms          rms(c)
DAV:   1    -0.704428745174E+02    0.58590E-03   -0.18542E-03   560   0.286E-01    0.679E-03
DAV:   2    -0.704428769964E+02   -0.24790E-05   -0.35609E-05   616   0.310E-02    0.475E-03
DAV:   3    -0.704428767010E+02    0.29545E-06   -0.17820E-06   512   0.871E-03
 354 F= -.70442877E+02 E0= -.70442877E+02  d E =0.583640E-03
 BRION: g(F)=  0.837E-03 g(S)=  0.000E+00 retain N=  2 mean eig= 2.99
 eig:   2.985  2.985
 bond charge predicted
       N       E                     dE             d eps       ncg     rms          rms(c)
DAV:   1    -0.704426676944E+02    0.20930E-03   -0.42063E-04   608   0.138E-01    0.312E-03
DAV:   2    -0.704426682267E+02   -0.53233E-06   -0.73077E-06   672   0.143E-02
 355 F= -.70442668E+02 E0= -.70442668E+02  d E =0.208474E-03
 BRION: g(F)=  0.841E-03 g(S)=  0.000E+00 retain N=  2 mean eig= 2.01
 eig:   0.914  3.101
 bond charge predicted
       N       E                     dE             d eps       ncg     rms          rms(c)
DAV:   1    -0.704433658334E+02   -0.69814E-03   -0.23987E-03   560   0.324E-01    0.696E-03
DAV:   2    -0.704433697955E+02   -0.39621E-05   -0.47241E-05   632   0.355E-02    0.486E-03
DAV:   3    -0.704433695023E+02    0.29321E-06   -0.19589E-06   536   0.899E-03
 356 F= -.70443370E+02 E0= -.70443370E+02  d E =-.701276E-03
 BRION: g(F)=  0.841E-03 g(S)=  0.000E+00 retain N=  3 mean eig= 3.17
 eig:   2.166  4.992  2.363
 bond charge predicted
       N       E                     dE             d eps       ncg     rms          rms(c)
DAV:   1    -0.704469071204E+02   -0.35373E-02   -0.73386E-02   560   0.180E+00    0.421E-02
DAV:   2    -0.704470205256E+02   -0.11341E-03   -0.14222E-03   640   0.196E-01    0.291E-02
DAV:   3    -0.704470119383E+02    0.85872E-05   -0.82210E-05   824   0.524E-02    0.130E-02
DAV:   4    -0.704470132902E+02   -0.13519E-05   -0.20982E-05   664   0.214E-02    0.430E-03
DAV:   5    -0.704470132188E+02    0.71424E-07   -0.35953E-06   592   0.115E-02
 357 F= -.70447013E+02 E0= -.70447013E+02  d E =-.364372E-02
 BRION: g(F)=  0.851E-03 g(S)=  0.000E+00 retain N=  1 mean eig= 5.14
 eig:   5.143
 bond charge predicted
       N       E                     dE             d eps       ncg     rms          rms(c)
DAV:   1    -0.704442655372E+02    0.27478E-02   -0.43557E-02   568   0.139E+00    0.319E-02
DAV:   2    -0.704443296358E+02   -0.64099E-04   -0.83457E-04   632   0.152E-01    0.223E-02
DAV:   3    -0.704443240361E+02    0.55997E-05   -0.48955E-05   816   0.406E-02    0.972E-03
DAV:   4    -0.704443249241E+02   -0.88801E-06   -0.12799E-05   640   0.166E-02    0.329E-03
DAV:   5    -0.704443247296E+02    0.19448E-06   -0.17834E-06   424   0.872E-03
 358 F= -.70444325E+02 E0= -.70444325E+02  d E =0.268849E-02
 BRION: g(F)=  0.860E-03 g(S)=  0.000E+00 retain N=  1 mean eig= 2.06
 eig:   2.057
 bond charge predicted
       N       E                     dE             d eps       ncg     rms          rms(c)
DAV:   1    -0.704481098192E+02   -0.37849E-02   -0.83989E-02   568   0.193E+00    0.449E-02
DAV:   2    -0.704482396665E+02   -0.12985E-03   -0.16370E-03   640   0.210E-01    0.312E-02
DAV:   3    -0.704482293201E+02    0.10346E-04   -0.93735E-05   816   0.561E-02    0.140E-02
DAV:   4    -0.704482307868E+02   -0.14667E-05   -0.24255E-05   664   0.230E-02    0.456E-03
DAV:   5    -0.704482307081E+02    0.78718E-07   -0.40387E-06   600   0.121E-02
 359 F= -.70448231E+02 E0= -.70448231E+02  d E =-.390598E-02
 BRION: g(F)=  0.853E-03 g(S)=  0.000E+00 retain N=  2 mean eig= 4.90
 eig:   4.178  5.629
 bond charge predicted
       N       E                     dE             d eps       ncg     rms          rms(c)
DAV:   1    -0.704498196827E+02   -0.15889E-02   -0.13579E-02   568   0.773E-01    0.184E-02
DAV:   2    -0.704498415139E+02   -0.21831E-04   -0.26917E-04   680   0.849E-02    0.126E-02
DAV:   3    -0.704498401435E+02    0.13704E-05   -0.16133E-05   824   0.230E-02    0.567E-03
DAV:   4    -0.704498404408E+02   -0.29736E-06   -0.32797E-06   576   0.892E-03
 360 F= -.70449840E+02 E0= -.70449840E+02  d E =-.160973E-02
 BRION: g(F)=  0.859E-03 g(S)=  0.000E+00 retain N=  1 mean eig= 6.76
 eig:   6.760
 bond charge predicted
       N       E                     dE             d eps       ncg     rms          rms(c)
DAV:   1    -0.704476110427E+02    0.22291E-02   -0.27369E-02   568   0.110E+00    0.254E-02
DAV:   2    -0.704476521089E+02   -0.41066E-04   -0.53260E-04   632   0.121E-01    0.177E-02
DAV:   3    -0.704476488458E+02    0.32630E-05   -0.31494E-05   824   0.324E-02    0.773E-03
DAV:   4    -0.704476493664E+02   -0.52058E-06   -0.75373E-06   624   0.128E-02
 361 F= -.70447649E+02 E0= -.70447649E+02  d E =0.219107E-02
 BRION: g(F)=  0.877E-03 g(S)=  0.000E+00 retain N=  1 mean eig= 4.19
 eig:   4.192
 bond charge predicted
       N       E                     dE             d eps       ncg     rms          rms(c)
DAV:   1    -0.704527592718E+02   -0.51104E-02   -0.14952E-01   568   0.257E+00    0.603E-02
DAV:   2    -0.704529975479E+02   -0.23828E-03   -0.29763E-03   640   0.282E-01    0.419E-02
DAV:   3    -0.704529801276E+02    0.17420E-04   -0.17076E-04   824   0.753E-02    0.190E-02
DAV:   4    -0.704529824002E+02   -0.22726E-05   -0.41758E-05   664   0.302E-02    0.600E-03
DAV:   5    -0.704529823296E+02    0.70570E-07   -0.70574E-06   640   0.155E-02
 362 F= -.70452982E+02 E0= -.70452982E+02  d E =-.533296E-02
 BRION: g(F)=  0.884E-03 g(S)=  0.000E+00 BRIONS problems: POTIM should be increased
 retain N=  1 mean eig=11.50
 eig:  11.496
 bond charge predicted
       N       E                     dE             d eps       ncg     rms          rms(c)
DAV:   1    -0.704485801383E+02    0.44023E-02   -0.98239E-02   568   0.208E+00    0.491E-02
DAV:   2    -0.704487335442E+02   -0.15341E-03   -0.19478E-03   632   0.229E-01    0.341E-02
DAV:   3    -0.704487223452E+02    0.11199E-04   -0.11400E-04   816   0.616E-02    0.150E-02
DAV:   4    -0.704487241422E+02   -0.17969E-05   -0.27656E-05   656   0.246E-02    0.494E-03
DAV:   5    -0.704487238234E+02    0.31873E-06   -0.46645E-06   632   0.128E-02
 363 F= -.70448724E+02 E0= -.70448724E+02  d E =0.425851E-02
 BRION: g(F)=  0.877E-03 g(S)=  0.000E+00 retain N=  1 mean eig= 6.28
 eig:   6.279
 bond charge predicted
       N       E                     dE             d eps       ncg     rms          rms(c)
DAV:   1    -0.704504903254E+02   -0.17662E-02   -0.15316E-02   560   0.819E-01    0.197E-02
DAV:   2    -0.704505147872E+02   -0.24462E-04   -0.30512E-04   640   0.895E-02    0.136E-02
DAV:   3    -0.704505131827E+02    0.16045E-05   -0.17626E-05   816   0.242E-02    0.600E-03
DAV:   4    -0.704505135625E+02   -0.37985E-06   -0.39259E-06   576   0.958E-03
 364 F= -.70450514E+02 E0= -.70450514E+02  d E =-.178974E-02
 BRION: g(F)=  0.859E-03 g(S)=  0.000E+00 retain N=  1 mean eig= 5.26
 eig:   5.257
 bond charge predicted
       N       E                     dE             d eps       ncg     rms          rms(c)
DAV:   1    -0.704567755640E+02   -0.62624E-02   -0.20645E-01   560   0.300E+00    0.731E-02
DAV:   2    -0.704571174729E+02   -0.34191E-03   -0.41677E-03   656   0.329E-01    0.501E-02
DAV:   3    -0.704570973240E+02    0.20149E-04   -0.24090E-04   824   0.891E-02    0.228E-02
DAV:   4    -0.704571004614E+02   -0.31374E-05   -0.52983E-05   656   0.346E-02    0.717E-03
DAV:   5    -0.704571002472E+02    0.21425E-06   -0.10029E-05   704   0.187E-02    0.306E-03
DAV:   6    -0.704571003691E+02   -0.12194E-06   -0.11937E-06   448   0.653E-03
 365 F= -.70457100E+02 E0= -.70457100E+02  d E =-.658681E-02
 BRION: g(F)=  0.918E-03 g(S)=  0.000E+00 BRIONS problems: POTIM should be increased
 retain N=  1 mean eig=14.64
 eig:  14.640
 bond charge predicted
       N       E                     dE             d eps       ncg     rms          rms(c)
DAV:   1    -0.704394299704E+02    0.17670E-01   -0.11764E+00   560   0.717E+00    0.173E-01
DAV:   2    -0.704413230064E+02   -0.18930E-02   -0.23394E-02   648   0.789E-01    0.117E-01
DAV:   3    -0.704412165610E+02    0.10645E-03   -0.14265E-03   816   0.216E-01    0.507E-02
DAV:   4    -0.704412320688E+02   -0.15508E-04   -0.27011E-04   664   0.798E-02    0.169E-02
DAV:   5    -0.704412303671E+02    0.17017E-05   -0.55104E-05   752   0.428E-02    0.704E-03
DAV:   6    -0.704412306130E+02   -0.24599E-06   -0.66728E-06   640   0.150E-02
 366 F= -.70441231E+02 E0= -.70441231E+02  d E =0.158698E-01
 BRION: g(F)=  0.852E-03 g(S)=  0.000E+00 BRIONS problems: POTIM should be increased
 retain N=  1 mean eig=27.15
 eig:  27.151
 bond charge predicted
       N       E                     dE             d eps       ncg     rms          rms(c)
DAV:   1    -0.704368034432E+02    0.44269E-02   -0.86756E-02   560   0.194E+00    0.471E-02
DAV:   2    -0.704369454042E+02   -0.14196E-03   -0.17404E-03   680   0.214E-01    0.321E-02
DAV:   3    -0.704369371864E+02    0.82178E-05   -0.98002E-05   824   0.567E-02    0.143E-02
DAV:   4    -0.704369387195E+02   -0.15331E-05   -0.22702E-05   664   0.224E-02    0.451E-03
DAV:   5    -0.704369386390E+02    0.80581E-07   -0.38900E-06   576   0.120E-02
 367 F= -.70436939E+02 E0= -.70436939E+02  d E =0.429197E-02
 BRION: g(F)=  0.857E-03 g(S)=  0.000E+00 retain N=  1 mean eig= 5.32
 eig:   5.323
 bond charge predicted
       N       E                     dE             d eps       ncg     rms          rms(c)
DAV:   1    -0.704406843402E+02   -0.37456E-02   -0.64142E-02   560   0.168E+00    0.404E-02
DAV:   2    -0.704407888241E+02   -0.10448E-03   -0.12820E-03   648   0.183E-01    0.277E-02
DAV:   3    -0.704407828612E+02    0.59629E-05   -0.74039E-05   816   0.495E-02    0.124E-02
DAV:   4    -0.704407845188E+02   -0.16575E-05   -0.16716E-05   648   0.195E-02    0.401E-03
DAV:   5    -0.704407846495E+02   -0.13076E-06   -0.28522E-06   576   0.105E-02
 368 F= -.70440785E+02 E0= -.70440785E+02  d E =-.384601E-02
 BRION: g(F)=  0.834E-03 g(S)=  0.000E+00 retain N=  1 mean eig= 6.23
 eig:   6.228
 bond charge predicted
       N       E                     dE             d eps       ncg     rms          rms(c)
DAV:   1    -0.704473013429E+02   -0.65168E-02   -0.20870E-01   560   0.302E+00    0.733E-02
DAV:   2    -0.704476422509E+02   -0.34091E-03   -0.41537E-03   656   0.329E-01    0.501E-02
DAV:   3    -0.704476224289E+02    0.19822E-04   -0.24387E-04   824   0.895E-02    0.225E-02
DAV:   4    -0.704476256701E+02   -0.32412E-05   -0.51226E-05   656   0.343E-02    0.723E-03
DAV:   5    -0.704476255629E+02    0.10725E-06   -0.10179E-05   728   0.187E-02    0.305E-03
DAV:   6    -0.704476256622E+02   -0.99297E-07   -0.11259E-06   432   0.632E-03
 369 F= -.70447626E+02 E0= -.70447626E+02  d E =-.684101E-02
 BRION: g(F)=  0.871E-03 g(S)=  0.000E+00 BRIONS problems: POTIM should be increased
 retain N=  1 mean eig=14.11
 eig:  14.113
 bond charge predicted
       N       E                     dE             d eps       ncg     rms          rms(c)
DAV:   1    -0.704375288989E+02    0.10097E-01   -0.41058E-01   560   0.423E+00    0.102E-01
DAV:   2    -0.704381842794E+02   -0.65538E-03   -0.80990E-03   640   0.462E-01    0.695E-02
DAV:   3    -0.704381476891E+02    0.36590E-04   -0.49412E-04   824   0.127E-01    0.300E-02
DAV:   4    -0.704381532093E+02   -0.55202E-05   -0.92962E-05   640   0.466E-02    0.100E-02
DAV:   5    -0.704381524456E+02    0.76364E-06   -0.19179E-05   760   0.255E-02    0.416E-03
DAV:   6    -0.704381525190E+02   -0.73337E-07   -0.21876E-06   504   0.881E-03
 370 F= -.70438153E+02 E0= -.70438153E+02  d E =0.947314E-02
 BRION: g(F)=  0.841E-03 g(S)=  0.000E+00 BRIONS problems: POTIM should be increased
 retain N=  1 mean eig=25.85
 eig:  25.850
 bond charge predicted
       N       E                     dE             d eps       ncg     rms          rms(c)
DAV:   1    -0.704343506501E+02    0.38018E-02   -0.64495E-02   560   0.167E+00    0.407E-02
DAV:   2    -0.704344552093E+02   -0.10456E-03   -0.12870E-03   664   0.184E-01    0.278E-02
DAV:   3    -0.704344492196E+02    0.59897E-05   -0.73522E-05   824   0.491E-02    0.123E-02
DAV:   4    -0.704344502402E+02   -0.10206E-05   -0.16340E-05   664   0.191E-02    0.390E-03
DAV:   5    -0.704344500095E+02    0.23071E-06   -0.26457E-06   520   0.103E-02
 371 F= -.70434450E+02 E0= -.70434450E+02  d E =0.370251E-02
 BRION: g(F)=  0.857E-03 g(S)=  0.000E+00 retain N=  1 mean eig= 4.51
 eig:   4.505
 bond charge predicted
       N       E                     dE             d eps       ncg     rms          rms(c)
DAV:   1    -0.704398350650E+02   -0.53848E-02   -0.14357E-01   560   0.250E+00    0.605E-02
DAV:   2    -0.704400683044E+02   -0.23324E-03   -0.28612E-03   632   0.273E-01    0.415E-02
DAV:   3    -0.704400541935E+02    0.14111E-04   -0.16419E-04   816   0.737E-02    0.186E-02
DAV:   4    -0.704400568408E+02   -0.26473E-05   -0.37489E-05   656   0.291E-02    0.597E-03
DAV:   5    -0.704400567213E+02    0.11954E-06   -0.69563E-06   640   0.158E-02
 372 F= -.70440057E+02 E0= -.70440057E+02  d E =-.560671E-02
 BRION: g(F)=  0.839E-03 g(S)=  0.000E+00 BRIONS problems: POTIM should be increased
 retain N=  1 mean eig=15.55
 eig:  15.546
 bond charge predicted
       N       E                     dE             d eps       ncg     rms          rms(c)
DAV:   1    -0.704458585880E+02   -0.58017E-02   -0.17092E-01   560   0.273E+00    0.665E-02
DAV:   2    -0.704461391374E+02   -0.28055E-03   -0.34101E-03   656   0.298E-01    0.453E-02
DAV:   3    -0.704461232913E+02    0.15846E-04   -0.19953E-04   824   0.809E-02    0.204E-02
DAV:   4    -0.704461257923E+02   -0.25010E-05   -0.41481E-05   648   0.309E-02    0.649E-03
DAV:   5    -0.704461256806E+02    0.11166E-06   -0.79259E-06   640   0.167E-02
 373 F= -.70446126E+02 E0= -.70446126E+02  d E =-.606896E-02
 BRION: g(F)=  0.870E-03 g(S)=  0.000E+00 BRIONS problems: POTIM should be increased
 retain N=  1 mean eig= 9.13
 eig:   9.130
 bond charge predicted
       N       E                     dE             d eps       ncg     rms          rms(c)
DAV:   1    -0.704412117864E+02    0.49140E-02   -0.10817E-01   560   0.217E+00    0.527E-02
DAV:   2    -0.704413821232E+02   -0.17034E-03   -0.21262E-03   632   0.237E-01    0.359E-02
DAV:   3    -0.704413717708E+02    0.10352E-04   -0.12748E-04   816   0.648E-02    0.154E-02
DAV:   4    -0.704413738071E+02   -0.20362E-05   -0.26423E-05   648   0.246E-02    0.519E-03
DAV:   5    -0.704413734968E+02    0.31029E-06   -0.49660E-06   616   0.134E-02
 374 F= -.70441373E+02 E0= -.70441373E+02  d E =0.475218E-02
 BRION: g(F)=  0.861E-03 g(S)=  0.000E+00 BRIONS problems: POTIM should be increased
 retain N=  1 mean eig=15.05
 eig:  15.045
 bond charge predicted
       N       E                     dE             d eps       ncg     rms          rms(c)
DAV:   1    -0.704407479772E+02    0.62583E-03   -0.20892E-03   568   0.301E-01    0.738E-03
DAV:   2    -0.704407513864E+02   -0.34092E-05   -0.42063E-05   680   0.337E-02    0.499E-03
DAV:   3    -0.704407512600E+02    0.12640E-06   -0.20813E-06   536   0.912E-03
 375 F= -.70440751E+02 E0= -.70440751E+02  d E =0.622237E-03
 BRION: g(F)=  0.850E-03 g(S)=  0.000E+00 retain N=  1 mean eig= 0.29
 eig:   0.294
 bond charge predicted
       N       E                     dE             d eps       ncg     rms          rms(c)
DAV:   1    -0.704417117418E+02   -0.96036E-03   -0.42756E-03   568   0.431E-01    0.103E-02
DAV:   2    -0.704417182421E+02   -0.65003E-05   -0.82342E-05   648   0.464E-02    0.704E-03
DAV:   3    -0.704417177493E+02    0.49285E-06   -0.50386E-06   728   0.131E-02
 376 F= -.70441718E+02 E0= -.70441718E+02  d E =-.966489E-03
 BRION: g(F)=  0.847E-03 g(S)=  0.000E+00 retain N=  2 mean eig= 2.37
 eig:   2.374  2.374
 bond charge predicted
       N       E                     dE             d eps       ncg     rms          rms(c)
DAV:   1    -0.704444708755E+02   -0.27526E-02   -0.35108E-02   568   0.124E+00    0.305E-02
DAV:   2    -0.704445267907E+02   -0.55915E-04   -0.67583E-04   648   0.130E-01    0.203E-02
DAV:   3    -0.704445242448E+02    0.25459E-05   -0.40316E-05   824   0.363E-02    0.883E-03
DAV:   4    -0.704445250282E+02   -0.78337E-06   -0.75548E-06   640   0.134E-02
 377 F= -.70444525E+02 E0= -.70444525E+02  d E =-.280728E-02
 BRION: g(F)=  0.868E-03 g(S)=  0.000E+00 retain N=  3 mean eig= 4.27
 eig:   4.327  4.327  4.166
 bond charge predicted
       N       E                     dE             d eps       ncg     rms          rms(c)
DAV:   1    -0.704437763034E+02    0.74794E-03   -0.25548E-03   568   0.337E-01    0.780E-03
DAV:   2    -0.704437798697E+02   -0.35663E-05   -0.47488E-05   648   0.347E-02    0.520E-03
DAV:   3    -0.704437796393E+02    0.23035E-06   -0.24693E-06   600   0.946E-03
 378 F= -.70443780E+02 E0= -.70443780E+02  d E =0.745389E-03
 BRION: g(F)=  0.877E-03 g(S)=  0.000E+00 retain N=  3 mean eig= 4.52
 eig:   1.322  6.122  6.122
 bond charge predicted
       N       E                     dE             d eps       ncg     rms          rms(c)
DAV:   1    -0.704442277655E+02   -0.44790E-03   -0.11352E-03   592   0.219E-01    0.534E-03
DAV:   2    -0.704442296005E+02   -0.18350E-05   -0.23743E-05   656   0.240E-02    0.373E-03
DAV:   3    -0.704442294270E+02    0.17354E-06   -0.97422E-07   472   0.675E-03
 379 F= -.70444229E+02 E0= -.70444229E+02  d E =-.449788E-03
 BRION: g(F)=  0.895E-03 g(S)=  0.000E+00 retain N=  4 mean eig= 3.66
 eig:   6.163  6.163  1.715  0.592
 bond charge predicted
       N       E                     dE             d eps       ncg     rms          rms(c)
DAV:   1    -0.704454615745E+02   -0.12320E-02   -0.76466E-03   576   0.580E-01    0.143E-02
DAV:   2    -0.704454734211E+02   -0.11847E-04   -0.14450E-04   656   0.595E-02    0.957E-03
DAV:   3    -0.704454728980E+02    0.52307E-06   -0.85738E-06   760   0.166E-02
 380 F= -.70445473E+02 E0= -.70445473E+02  d E =-.124347E-02
 BRION: g(F)=  0.896E-03 g(S)=  0.000E+00 retain N=  3 mean eig= 4.87
 eig:   0.790  6.916  6.916
 bond charge predicted
       N       E                     dE             d eps       ncg     rms          rms(c)
DAV:   1    -0.704484137109E+02   -0.29403E-02   -0.42132E-02   552   0.137E+00    0.328E-02
DAV:   2    -0.704484868905E+02   -0.73180E-04   -0.87219E-04   664   0.152E-01    0.219E-02
DAV:   3    -0.704484841724E+02    0.27181E-05   -0.49697E-05   824   0.410E-02    0.101E-02
DAV:   4    -0.704484849722E+02   -0.79981E-06   -0.10480E-05   648   0.156E-02    0.327E-03
DAV:   5    -0.704484848848E+02    0.87397E-07   -0.18447E-06   512   0.909E-03
 381 F= -.70448485E+02 E0= -.70448485E+02  d E =-.301199E-02
 BRION: g(F)=  0.916E-03 g(S)=  0.000E+00 retain N=  3 mean eig= 2.07
 eig:   5.290  0.849  0.061
 bond charge predicted
       N       E                     dE             d eps       ncg     rms          rms(c)
DAV:   1    -0.704437464476E+02    0.47385E-02   -0.98226E-02   568   0.208E+00    0.500E-02
DAV:   2    -0.704439009563E+02   -0.15451E-03   -0.19074E-03   648   0.219E-01    0.333E-02
DAV:   3    -0.704438934440E+02    0.75123E-05   -0.11300E-04   824   0.603E-02    0.144E-02
DAV:   4    -0.704438947966E+02   -0.13526E-05   -0.19829E-05   648   0.216E-02    0.470E-03
DAV:   5    -0.704438945547E+02    0.24191E-06   -0.36247E-06   592   0.117E-02
 382 F= -.70443895E+02 E0= -.70443895E+02  d E =0.459033E-02
 BRION: g(F)=  0.883E-03 g(S)=  0.000E+00 retain N=  2 mean eig= 2.96
 eig:   2.963  2.963
 bond charge predicted
       N       E                     dE             d eps       ncg     rms          rms(c)
DAV:   1    -0.704419569368E+02    0.19379E-02   -0.15513E-02   528   0.833E-01    0.196E-02
DAV:   2    -0.704419872362E+02   -0.30299E-04   -0.36016E-04   656   0.102E-01    0.129E-02
DAV:   3    -0.704419870045E+02    0.23173E-06   -0.22640E-05   840   0.275E-02    0.646E-03
DAV:   4    -0.704419870689E+02   -0.64411E-07   -0.35487E-06   584   0.960E-03
 383 F= -.70441987E+02 E0= -.70441987E+02  d E =0.190749E-02
 BRION: g(F)=  0.861E-03 g(S)=  0.000E+00 retain N=  3 mean eig= 4.41
 eig:   1.618  5.813  5.813
 bond charge predicted
       N       E                     dE             d eps       ncg     rms          rms(c)
DAV:   1    -0.704414957745E+02    0.49123E-03   -0.12538E-03   536   0.239E-01    0.573E-03
DAV:   2    -0.704414981746E+02   -0.24001E-05   -0.29288E-05   680   0.289E-02    0.376E-03
DAV:   3    -0.704414980876E+02    0.87066E-07   -0.10752E-06   464   0.759E-03
 384 F= -.70441498E+02 E0= -.70441498E+02  d E =0.488981E-03
 BRION: g(F)=  0.845E-03 g(S)=  0.000E+00 retain N=  2 mean eig= 2.20
 eig:   3.736  0.666
 bond charge predicted
       N       E                     dE             d eps       ncg     rms          rms(c)
DAV:   1    -0.704394674770E+02    0.20307E-02   -0.22620E-02   528   0.102E+00    0.226E-02
DAV:   2    -0.704395102970E+02   -0.42820E-04   -0.51522E-04   664   0.123E-01    0.150E-02
DAV:   3    -0.704395091547E+02    0.11423E-05   -0.28990E-05   832   0.318E-02    0.753E-03
DAV:   4    -0.704395093552E+02   -0.20054E-06   -0.66285E-06   640   0.125E-02
 385 F= -.70439509E+02 E0= -.70439509E+02  d E =0.198873E-02
 BRION: g(F)=  0.863E-03 g(S)=  0.000E+00 retain N=  3 mean eig= 3.74
 eig:   5.095  5.095  1.019
 bond charge predicted
       N       E                     dE             d eps       ncg     rms          rms(c)
DAV:   1    -0.704395995838E+02   -0.90429E-04   -0.52783E-05   568   0.504E-02    0.114E-03
DAV:   2    -0.704395996817E+02   -0.97938E-07   -0.10089E-06   408   0.600E-03
 386 F= -.70439600E+02 E0= -.70439600E+02  d E =-.903265E-04
 BRION: g(F)=  0.835E-03 g(S)=  0.000E+00 retain N=  3 mean eig= 3.98
 eig:   0.901  5.522  5.522
 bond charge predicted
       N       E                     dE             d eps       ncg     rms          rms(c)
DAV:   1    -0.704391196080E+02    0.47998E-03   -0.84761E-03   512   0.632E-01    0.116E-02
DAV:   2    -0.704391312216E+02   -0.11614E-04   -0.16594E-04   696   0.747E-02    0.852E-03
DAV:   3    -0.704391291508E+02    0.20708E-05   -0.84934E-06   800   0.187E-02    0.407E-03
DAV:   4    -0.704391290998E+02    0.50986E-07   -0.43451E-06   616   0.101E-02
 387 F= -.70439129E+02 E0= -.70439129E+02  d E =0.470582E-03
 BRION: g(F)=  0.970E-03 g(S)=  0.000E+00 retain N=  4 mean eig= 4.33
 eig:   7.099  7.099  0.906  2.205
 bond charge predicted
       N       E                     dE             d eps       ncg     rms          rms(c)
DAV:   1    -0.704386804458E+02    0.44870E-03   -0.12084E-02   512   0.747E-01    0.134E-02
DAV:   2    -0.704386968024E+02   -0.16357E-04   -0.23062E-04   696   0.878E-02    0.100E-02
DAV:   3    -0.704386941531E+02    0.26493E-05   -0.10965E-05   832   0.214E-02    0.504E-03
DAV:   4    -0.704386941151E+02    0.38027E-07   -0.71226E-06   688   0.126E-02
 388 F= -.70438694E+02 E0= -.70438694E+02  d E =0.434985E-03
 BRION: g(F)=  0.109E-02 g(S)=  0.000E+00 retain N=  2 mean eig= 2.12
 eig:   1.556  2.682
 bond charge predicted
       N       E                     dE             d eps       ncg     rms          rms(c)
DAV:   1    -0.704406345919E+02   -0.19404E-02   -0.75860E-02   512   0.189E+00    0.351E-02
DAV:   2    -0.704407502644E+02   -0.11567E-03   -0.15363E-03   688   0.226E-01    0.255E-02
DAV:   3    -0.704407353292E+02    0.14935E-04   -0.78017E-05   848   0.555E-02    0.126E-02
DAV:   4    -0.704407347497E+02    0.57948E-06   -0.35549E-05   656   0.282E-02    0.459E-03
DAV:   5    -0.704407346223E+02    0.12734E-06   -0.64792E-06   624   0.149E-02
 389 F= -.70440735E+02 E0= -.70440735E+02  d E =-.204051E-02
 BRION: g(F)=  0.838E-03 g(S)=  0.000E+00 retain N=  2 mean eig= 3.86
 eig:   2.224  5.493
 bond charge predicted
       N       E                     dE             d eps       ncg     rms          rms(c)
DAV:   1    -0.704418244148E+02   -0.10897E-02   -0.42628E-03   568   0.430E-01    0.111E-02
DAV:   2    -0.704418311071E+02   -0.66923E-05   -0.82360E-05   664   0.457E-02    0.732E-03
DAV:   3    -0.704418308613E+02    0.24583E-06   -0.59957E-06   760   0.140E-02
 390 F= -.70441831E+02 E0= -.70441831E+02  d E =-.109624E-02
 BRION: g(F)=  0.838E-03 g(S)=  0.000E+00 retain N=  3 mean eig= 2.76
 eig:   0.497  2.255  5.542
 bond charge predicted
       N       E                     dE             d eps       ncg     rms          rms(c)
DAV:   1    -0.704424154452E+02   -0.58434E-03   -0.14066E-03   568   0.249E-01    0.669E-03
DAV:   2    -0.704424177645E+02   -0.23193E-05   -0.27089E-05   688   0.259E-02    0.441E-03
DAV:   3    -0.704424176949E+02    0.69510E-07   -0.11024E-06   464   0.718E-03
 391 F= -.70442418E+02 E0= -.70442418E+02  d E =-.586834E-03
 BRION: g(F)=  0.841E-03 g(S)=  0.000E+00 retain N=  4 mean eig= 3.03
 eig:   3.199  0.750  2.258  5.924
 bond charge predicted
       N       E                     dE             d eps       ncg     rms          rms(c)
DAV:   1    -0.704394230387E+02    0.29947E-02   -0.37530E-02   568   0.128E+00    0.310E-02
DAV:   2    -0.704394798668E+02   -0.56828E-04   -0.72078E-04   640   0.137E-01    0.209E-02
DAV:   3    -0.704394762407E+02    0.36261E-05   -0.46253E-05   832   0.390E-02    0.896E-03
DAV:   4    -0.704394767375E+02   -0.49675E-06   -0.82070E-06   632   0.141E-02
 392 F= -.70439477E+02 E0= -.70439477E+02  d E =0.294096E-02
 BRION: g(F)=  0.856E-03 g(S)=  0.000E+00 retain N=  5 mean eig= 3.80
 eig:   7.808  1.484  1.030  2.432  6.243
 bond charge predicted
       N       E                     dE             d eps       ncg     rms          rms(c)
DAV:   1    -0.704420099448E+02   -0.25337E-02   -0.26620E-02   568   0.107E+00    0.264E-02
DAV:   2    -0.704420516187E+02   -0.41674E-04   -0.51401E-04   640   0.114E-01    0.178E-02
DAV:   3    -0.704420494628E+02    0.21560E-05   -0.30922E-05   824   0.315E-02    0.763E-03
DAV:   4    -0.704420499562E+02   -0.49342E-06   -0.52548E-06   624   0.112E-02
 393 F= -.70442050E+02 E0= -.70442050E+02  d E =-.257322E-02
 BRION: g(F)=  0.837E-03 g(S)=  0.000E+00 retain N=  2 mean eig= 6.25
 eig:   5.448  7.049
 bond charge predicted
       N       E                     dE             d eps       ncg     rms          rms(c)
DAV:   1    -0.704489446193E+02   -0.68952E-02   -0.22749E-01   568   0.314E+00    0.775E-02
DAV:   2    -0.704493109273E+02   -0.36631E-03   -0.44587E-03   640   0.336E-01    0.524E-02
DAV:   3    -0.704492908016E+02    0.20126E-04   -0.26735E-04   832   0.936E-02    0.235E-02
DAV:   4    -0.704492940175E+02   -0.32159E-05   -0.51632E-05   656   0.347E-02    0.753E-03
DAV:   5    -0.704492937900E+02    0.22757E-06   -0.10650E-05   728   0.192E-02    0.311E-03
DAV:   6    -0.704492939162E+02   -0.12623E-06   -0.12386E-06   448   0.659E-03
 394 F= -.70449294E+02 E0= -.70449294E+02  d E =-.724396E-02
 BRION: g(F)=  0.890E-03 g(S)=  0.000E+00 retain N=  1 mean eig= 7.45
 eig:   7.447
 bond charge predicted
       N       E                     dE             d eps       ncg     rms          rms(c)
DAV:   1    -0.704427802310E+02    0.65136E-02   -0.16978E-01   568   0.271E+00    0.669E-02
DAV:   2    -0.704430469491E+02   -0.26672E-03   -0.32848E-03   648   0.289E-01    0.449E-02
DAV:   3    -0.704430342531E+02    0.12696E-04   -0.20457E-04   824   0.811E-02    0.192E-02
DAV:   4    -0.704430365581E+02   -0.23050E-05   -0.33388E-05   640   0.285E-02    0.639E-03
DAV:   5    -0.704430363207E+02    0.23746E-06   -0.73717E-06   680   0.158E-02
 395 F= -.70443036E+02 E0= -.70443036E+02  d E =0.625760E-02
 BRION: g(F)=  0.861E-03 g(S)=  0.000E+00 retain N=  1 mean eig= 6.98
 eig:   6.982
 bond charge predicted
       N       E                     dE             d eps       ncg     rms          rms(c)
DAV:   1    -0.704421241537E+02    0.91240E-03   -0.35739E-03   568   0.392E-01    0.100E-02
DAV:   2    -0.704421301788E+02   -0.60250E-05   -0.72831E-05   680   0.427E-02    0.660E-03
DAV:   3    -0.704421300633E+02    0.11553E-06   -0.40020E-06   696   0.115E-02
 396 F= -.70442130E+02 E0= -.70442130E+02  d E =0.906257E-03
 BRION: g(F)=  0.850E-03 g(S)=  0.000E+00 retain N=  2 mean eig= 3.61
 eig:   6.060  1.170
 bond charge predicted
       N       E                     dE             d eps       ncg     rms          rms(c)
DAV:   1    -0.704419882345E+02    0.14194E-03   -0.90180E-05   632   0.625E-02    0.211E-03
DAV:   2    -0.704419883390E+02   -0.10448E-06   -0.16224E-06   536   0.655E-03
 397 F= -.70441988E+02 E0= -.70441988E+02  d E =0.141724E-03
 BRION: g(F)=  0.852E-03 g(S)=  0.000E+00 retain N=  2 mean eig= 1.62
 eig:   0.431  2.808
 bond charge predicted
       N       E                     dE             d eps       ncg     rms          rms(c)
DAV:   1    -0.704436678969E+02   -0.16797E-02   -0.12448E-02   568   0.733E-01    0.178E-02
DAV:   2    -0.704436874983E+02   -0.19601E-04   -0.23961E-04   624   0.781E-02    0.120E-02
DAV:   3    -0.704436865296E+02    0.96876E-06   -0.14224E-05   832   0.215E-02    0.535E-03
DAV:   4    -0.704436868116E+02   -0.28200E-06   -0.25266E-06   552   0.786E-03
 398 F= -.70443687E+02 E0= -.70443687E+02  d E =-.169847E-02
 BRION: g(F)=  0.835E-03 g(S)=  0.000E+00 retain N=  3 mean eig= 4.11
 eig:   7.984  4.031  0.324
 bond charge predicted
       N       E                     dE             d eps       ncg     rms          rms(c)
DAV:   1    -0.704525472158E+02   -0.88607E-02   -0.39639E-01   568   0.413E+00    0.103E-01
DAV:   2    -0.704531842476E+02   -0.63703E-03   -0.77526E-03   632   0.442E-01    0.699E-02
DAV:   3    -0.704531490158E+02    0.35232E-04   -0.46041E-04   832   0.123E-01    0.314E-02
DAV:   4    -0.704531541692E+02   -0.51534E-05   -0.90260E-05   648   0.456E-02    0.975E-03
DAV:   5    -0.704531536864E+02    0.48281E-06   -0.18261E-05   752   0.249E-02    0.413E-03
DAV:   6    -0.704531538468E+02   -0.16036E-06   -0.20678E-06   528   0.821E-03
 399 F= -.70453154E+02 E0= -.70453154E+02  d E =-.946704E-02
 BRION: g(F)=  0.914E-03 g(S)=  0.000E+00 BRIONS problems: POTIM should be increased
 retain N=  1 mean eig= 8.82
 eig:   8.822
 bond charge predicted
       N       E                     dE             d eps       ncg     rms          rms(c)
DAV:   1    -0.704407243765E+02    0.12429E-01   -0.58440E-01   560   0.501E+00    0.125E-01
DAV:   2    -0.704416692924E+02   -0.94492E-03   -0.11575E-02   632   0.547E-01    0.838E-02
DAV:   3    -0.704416267573E+02    0.42535E-04   -0.72151E-04   832   0.153E-01    0.360E-02
DAV:   4    -0.704416333499E+02   -0.65926E-05   -0.11808E-04   640   0.535E-02    0.117E-02
DAV:   5    -0.704416326985E+02    0.65132E-06   -0.26101E-05   752   0.293E-02    0.492E-03
DAV:   6    -0.704416327629E+02   -0.64363E-07   -0.29052E-06   544   0.102E-02
 400 F= -.70441633E+02 E0= -.70441633E+02  d E =0.115211E-01
 BRION: g(F)=  0.849E-03 g(S)=  0.000E+00 BRIONS problems: POTIM should be increased
 retain N=  1 mean eig=10.47
 eig:  10.474
 bond charge predicted
       N       E                     dE             d eps       ncg     rms          rms(c)
DAV:   1    -0.704401970844E+02    0.14356E-02   -0.84724E-03   560   0.598E-01    0.153E-02
DAV:   2    -0.704402114571E+02   -0.14373E-04   -0.17372E-04   664   0.664E-02    0.104E-02
DAV:   3    -0.704402109054E+02    0.55166E-06   -0.92581E-06   784   0.174E-02
 401 F= -.70440211E+02 E0= -.70440211E+02  d E =0.142186E-02
 BRION: g(F)=  0.854E-03 g(S)=  0.000E+00 retain N=  1 mean eig= 0.11
 eig:   0.108
 bond charge predicted
       N       E                     dE             d eps       ncg     rms          rms(c)
DAV:   1    -0.704422870095E+02   -0.20756E-02   -0.18952E-02   560   0.902E-01    0.221E-02
DAV:   2    -0.704423181648E+02   -0.31155E-04   -0.38470E-04   624   0.995E-02    0.152E-02
DAV:   3    -0.704423163373E+02    0.18275E-05   -0.23559E-05   832   0.277E-02    0.675E-03
DAV:   4    -0.704423167769E+02   -0.43958E-06   -0.42454E-06   560   0.102E-02
 402 F= -.70442317E+02 E0= -.70442317E+02  d E =-.210587E-02
 BRION: g(F)=  0.834E-03 g(S)=  0.000E+00 retain N=  2 mean eig= 2.05
 eig:   0.146  3.954
 bond charge predicted
       N       E                     dE             d eps       ncg     rms          rms(c)
DAV:   1    -0.704504336048E+02   -0.81173E-02   -0.32596E-01   568   0.375E+00    0.934E-02
DAV:   2    -0.704509614736E+02   -0.52787E-03   -0.64159E-03   632   0.402E-01    0.635E-02
DAV:   3    -0.704509329882E+02    0.28485E-04   -0.38126E-04   832   0.112E-01    0.285E-02
DAV:   4    -0.704509374435E+02   -0.44552E-05   -0.73985E-05   648   0.415E-02    0.887E-03
DAV:   5    -0.704509371822E+02    0.26127E-06   -0.14947E-05   760   0.226E-02    0.377E-03
DAV:   6    -0.704509372758E+02   -0.93657E-07   -0.16869E-06   488   0.749E-03
 403 F= -.70450937E+02 E0= -.70450937E+02  d E =-.862050E-02
 BRION: g(F)=  0.898E-03 g(S)=  0.000E+00 BRIONS problems: POTIM should be increased
 retain N=  1 mean eig= 9.74
 eig:   9.738
 bond charge predicted
       N       E                     dE             d eps       ncg     rms          rms(c)
DAV:   1    -0.704410711064E+02    0.98661E-02   -0.37863E-01   560   0.404E+00    0.100E-01
DAV:   2    -0.704416868844E+02   -0.61578E-03   -0.75432E-03   632   0.441E-01    0.676E-02
DAV:   3    -0.704416586412E+02    0.28243E-04   -0.46704E-04   832   0.123E-01    0.293E-02
DAV:   4    -0.704416629641E+02   -0.43228E-05   -0.78089E-05   640   0.435E-02    0.946E-03
DAV:   5    -0.704416624717E+02    0.49236E-06   -0.16978E-05   752   0.237E-02    0.399E-03
DAV:   6    -0.704416625126E+02   -0.40855E-07   -0.18463E-06   496   0.820E-03
 404 F= -.70441663E+02 E0= -.70441663E+02  d E =0.927476E-02
 BRION: g(F)=  0.851E-03 g(S)=  0.000E+00 BRIONS problems: POTIM should be increased
 retain N=  1 mean eig=11.53
 eig:  11.525
 bond charge predicted
       N       E                     dE             d eps       ncg     rms          rms(c)
DAV:   1    -0.704401526562E+02    0.15098E-02   -0.92700E-03   560   0.626E-01    0.160E-02
DAV:   2    -0.704401683646E+02   -0.15708E-04   -0.19052E-04   664   0.693E-02    0.109E-02
DAV:   3    -0.704401677421E+02    0.62241E-06   -0.10374E-05   808   0.184E-02    0.490E-03
DAV:   4    -0.704401678872E+02   -0.14509E-06   -0.21134E-06   512   0.726E-03
 405 F= -.70440168E+02 E0= -.70440168E+02  d E =0.149463E-02
 BRION: g(F)=  0.858E-03 g(S)=  0.000E+00 retain N=  1 mean eig= 0.21
 eig:   0.214
 bond charge predicted
       N       E                     dE             d eps       ncg     rms          rms(c)
DAV:   1    -0.704424660999E+02   -0.22984E-02   -0.23256E-02   560   0.100E+00    0.247E-02
DAV:   2    -0.704425038963E+02   -0.37796E-04   -0.46184E-04   624   0.109E-01    0.168E-02
DAV:   3    -0.704425020049E+02    0.18914E-05   -0.27605E-05   824   0.300E-02    0.738E-03
DAV:   4    -0.704425025492E+02   -0.54425E-06   -0.51607E-06   608   0.111E-02
 406 F= -.70442503E+02 E0= -.70442503E+02  d E =-.233466E-02
 BRION: g(F)=  0.836E-03 g(S)=  0.000E+00 retain N=  2 mean eig= 2.48
 eig:   0.264  4.688
 bond charge predicted
       N       E                     dE             d eps       ncg     rms          rms(c)
DAV:   1    -0.704510326213E+02   -0.85306E-02   -0.36331E-01   560   0.395E+00    0.991E-02
DAV:   2    -0.704516462915E+02   -0.61367E-03   -0.73920E-03   640   0.432E-01    0.675E-02
DAV:   3    -0.704516158741E+02    0.30417E-04   -0.42837E-04   832   0.118E-01    0.309E-02
DAV:   4    -0.704516203489E+02   -0.44748E-05   -0.86311E-05   648   0.446E-02    0.929E-03
DAV:   5    -0.704516199275E+02    0.42138E-06   -0.17072E-05   744   0.241E-02    0.406E-03
DAV:   6    -0.704516200864E+02   -0.15885E-06   -0.19748E-06   528   0.796E-03
 407 F= -.70451620E+02 E0= -.70451620E+02  d E =-.911754E-02
 BRION: g(F)=  0.903E-03 g(S)=  0.000E+00 BRIONS problems: POTIM should be increased
 retain N=  1 mean eig=10.53
 eig:  10.533
 bond charge predicted
       N       E                     dE             d eps       ncg     rms          rms(c)
DAV:   1    -0.704415540347E+02    0.10066E-01   -0.39113E-01   560   0.409E+00    0.102E-01
DAV:   2    -0.704421940276E+02   -0.63999E-03   -0.78193E-03   624   0.448E-01    0.690E-02
DAV:   3    -0.704421661005E+02    0.27927E-04   -0.48190E-04   832   0.125E-01    0.299E-02
DAV:   4    -0.704421706168E+02   -0.45163E-05   -0.79878E-05   640   0.440E-02    0.951E-03
DAV:   5    -0.704421701530E+02    0.46379E-06   -0.17263E-05   752   0.239E-02    0.404E-03
DAV:   6    -0.704421702011E+02   -0.48168E-07   -0.18585E-06   496   0.823E-03
 408 F= -.70442170E+02 E0= -.70442170E+02  d E =0.944989E-02
 BRION: g(F)=  0.854E-03 g(S)=  0.000E+00 BRIONS problems: POTIM should be increased
 retain N=  1 mean eig=12.63
 eig:  12.631
 bond charge predicted
       N       E                     dE             d eps       ncg     rms          rms(c)
DAV:   1    -0.704402295003E+02    0.19407E-02   -0.14841E-02   560   0.791E-01    0.203E-02
DAV:   2    -0.704402546908E+02   -0.25190E-04   -0.30485E-04   664   0.874E-02    0.138E-02
DAV:   3    -0.704402537127E+02    0.97809E-06   -0.16923E-05   832   0.234E-02    0.620E-03
DAV:   4    -0.704402539150E+02   -0.20231E-06   -0.33344E-06   584   0.889E-03
 409 F= -.70440254E+02 E0= -.70440254E+02  d E =0.191629E-02
 BRION: g(F)=  0.865E-03 g(S)=  0.000E+00 retain N=  1 mean eig= 0.21
 eig:   0.209
 bond charge predicted
       N       E                     dE             d eps       ncg     rms          rms(c)
DAV:   1    -0.704431211200E+02   -0.28674E-02   -0.36276E-02   560   0.125E+00    0.310E-02
DAV:   2    -0.704431805264E+02   -0.59406E-04   -0.72438E-04   624   0.136E-01    0.211E-02
DAV:   3    -0.704431775514E+02    0.29750E-05   -0.43025E-05   824   0.375E-02    0.929E-03
DAV:   4    -0.704431783031E+02   -0.75165E-06   -0.81191E-06   632   0.139E-02
 410 F= -.70443178E+02 E0= -.70443178E+02  d E =-.292439E-02
 BRION: g(F)=  0.841E-03 g(S)=  0.000E+00 retain N=  2 mean eig= 2.31
 eig:   0.268  4.354
 bond charge predicted
       N       E                     dE             d eps       ncg     rms          rms(c)
DAV:   1    -0.704530689196E+02   -0.98914E-02   -0.49668E-01   560   0.460E+00    0.116E-01
DAV:   2    -0.704539150704E+02   -0.84615E-03   -0.10170E-02   640   0.505E-01    0.794E-02
DAV:   3    -0.704538733147E+02    0.41756E-04   -0.58303E-04   824   0.138E-01    0.367E-02
DAV:   4    -0.704538790899E+02   -0.57751E-05   -0.12216E-04   656   0.531E-02    0.109E-02
DAV:   5    -0.704538783340E+02    0.75582E-06   -0.24136E-05   744   0.285E-02    0.475E-03
DAV:   6    -0.704538785961E+02   -0.26202E-06   -0.27738E-06   544   0.935E-03
 411 F= -.70453879E+02 E0= -.70453879E+02  d E =-.107003E-01
 BRION: g(F)=  0.912E-03 g(S)=  0.000E+00 BRIONS problems: POTIM should be increased
 retain N=  1 mean eig=11.79
 eig:  11.792
 bond charge predicted
       N       E                     dE             d eps       ncg     rms          rms(c)
DAV:   1    -0.704419034889E+02    0.11975E-01   -0.53654E-01   560   0.478E+00    0.121E-01
DAV:   2    -0.704427867281E+02   -0.88324E-03   -0.10770E-02   624   0.525E-01    0.811E-02
DAV:   3    -0.704427496558E+02    0.37072E-04   -0.66467E-04   832   0.147E-01    0.352E-02
DAV:   4    -0.704427556081E+02   -0.59523E-05   -0.10804E-04   640   0.513E-02    0.111E-02
DAV:   5    -0.704427550866E+02    0.52148E-06   -0.23554E-05   752   0.278E-02    0.474E-03
DAV:   6    -0.704427551396E+02   -0.53074E-07   -0.25215E-06   512   0.958E-03
 412 F= -.70442755E+02 E0= -.70442755E+02  d E =0.111235E-01
 BRION: g(F)=  0.857E-03 g(S)=  0.000E+00 BRIONS problems: POTIM should be increased
 retain N=  1 mean eig=14.85
 eig:  14.845
 bond charge predicted
       N       E                     dE             d eps       ncg     rms          rms(c)
DAV:   1    -0.704407251984E+02    0.20299E-02   -0.15537E-02   568   0.804E-01    0.211E-02
DAV:   2    -0.704407506628E+02   -0.25464E-04   -0.30850E-04   664   0.872E-02    0.142E-02
DAV:   3    -0.704407496294E+02    0.10334E-05   -0.17415E-05   832   0.236E-02    0.624E-03
DAV:   4    -0.704407498654E+02   -0.23604E-06   -0.32317E-06   576   0.879E-03
 413 F= -.70440750E+02 E0= -.70440750E+02  d E =0.200527E-02
 BRION: g(F)=  0.870E-03 g(S)=  0.000E+00 retain N=  1 mean eig= 0.94
 eig:   0.937
 bond charge predicted
       N       E                     dE             d eps       ncg     rms          rms(c)
DAV:   1    -0.704434290480E+02   -0.26794E-02   -0.31110E-02   560   0.115E+00    0.288E-02
DAV:   2    -0.704434801282E+02   -0.51080E-04   -0.62263E-04   624   0.126E-01    0.196E-02
DAV:   3    -0.704434776540E+02    0.24742E-05   -0.37047E-05   824   0.347E-02    0.862E-03
DAV:   4    -0.704434783536E+02   -0.69960E-06   -0.69043E-06   624   0.128E-02
 414 F= -.70443478E+02 E0= -.70443478E+02  d E =-.272849E-02
 BRION: g(F)=  0.845E-03 g(S)=  0.000E+00 retain N=  2 mean eig= 3.27
 eig:   1.139  5.397
 bond charge predicted
       N       E                     dE             d eps       ncg     rms          rms(c)
DAV:   1    -0.704527684023E+02   -0.92907E-02   -0.42220E-01   560   0.424E+00    0.108E-01
DAV:   2    -0.704534908302E+02   -0.72243E-03   -0.86712E-03   632   0.466E-01    0.734E-02
DAV:   3    -0.704534564670E+02    0.34363E-04   -0.49774E-04   824   0.128E-01    0.340E-02
DAV:   4    -0.704534615300E+02   -0.50629E-05   -0.10280E-04   656   0.488E-02    0.999E-03
DAV:   5    -0.704534609680E+02    0.56198E-06   -0.20358E-05   744   0.262E-02    0.437E-03
DAV:   6    -0.704534611526E+02   -0.18457E-06   -0.23223E-06   536   0.858E-03
 415 F= -.70453461E+02 E0= -.70453461E+02  d E =-.998280E-02
 BRION: g(F)=  0.915E-03 g(S)=  0.000E+00 BRIONS problems: POTIM should be increased
 retain N=  1 mean eig=11.09
 eig:  11.087
 bond charge predicted
       N       E                     dE             d eps       ncg     rms          rms(c)
DAV:   1    -0.704425121803E+02    0.10949E-01   -0.44694E-01   568   0.436E+00    0.111E-01
DAV:   2    -0.704432115442E+02   -0.69936E-03   -0.85971E-03   624   0.467E-01    0.744E-02
DAV:   3    -0.704431788316E+02    0.32713E-04   -0.54624E-04   824   0.133E-01    0.313E-02
DAV:   4    -0.704431846009E+02   -0.57693E-05   -0.87195E-05   656   0.465E-02    0.103E-02
DAV:   5    -0.704431840575E+02    0.54337E-06   -0.19806E-05   752   0.253E-02    0.425E-03
DAV:   6    -0.704431840689E+02   -0.11425E-07   -0.21978E-06   520   0.899E-03
 416 F= -.70443184E+02 E0= -.70443184E+02  d E =0.102771E-01
 BRION: g(F)=  0.862E-03 g(S)=  0.000E+00 BRIONS problems: POTIM should be increased
 retain N=  1 mean eig=14.48
 eig:  14.478
 bond charge predicted
       N       E                     dE             d eps       ncg     rms          rms(c)
DAV:   1    -0.704409450563E+02    0.22390E-02   -0.18472E-02   568   0.877E-01    0.230E-02
DAV:   2    -0.704409752999E+02   -0.30244E-04   -0.36664E-04   664   0.950E-02    0.155E-02
DAV:   3    -0.704409740716E+02    0.12283E-05   -0.20821E-05   832   0.257E-02    0.681E-03
DAV:   4    -0.704409743229E+02   -0.25125E-06   -0.37723E-06   576   0.953E-03
 417 F= -.70440974E+02 E0= -.70440974E+02  d E =0.220975E-02
 BRION: g(F)=  0.877E-03 g(S)=  0.000E+00 retain N=  1 mean eig= 0.87
 eig:   0.875
 bond charge predicted
       N       E                     dE             d eps       ncg     rms          rms(c)
DAV:   1    -0.704437911862E+02   -0.28171E-02   -0.33880E-02   560   0.120E+00    0.301E-02
DAV:   2    -0.704438469611E+02   -0.55775E-04   -0.67973E-04   624   0.131E-01    0.205E-02
DAV:   3    -0.704438442508E+02    0.27104E-05   -0.40426E-05   824   0.363E-02    0.903E-03
DAV:   4    -0.704438449722E+02   -0.72148E-06   -0.74894E-06   624   0.134E-02
 418 F= -.70443845E+02 E0= -.70443845E+02  d E =-.287065E-02
 BRION: g(F)=  0.851E-03 g(S)=  0.000E+00 retain N=  2 mean eig= 3.47
 eig:   1.179  5.770
 bond charge predicted
       N       E                     dE             d eps       ncg     rms          rms(c)
DAV:   1    -0.704521903275E+02   -0.83461E-02   -0.32612E-01   568   0.372E+00    0.950E-02
DAV:   2    -0.704527188625E+02   -0.52853E-03   -0.63934E-03   632   0.399E-01    0.647E-02
DAV:   3    -0.704526911616E+02    0.27701E-04   -0.37939E-04   824   0.111E-01    0.289E-02
DAV:   4    -0.704526960222E+02   -0.48605E-05   -0.73912E-05   656   0.416E-02    0.890E-03
DAV:   5    -0.704526956229E+02    0.39929E-06   -0.15153E-05   744   0.226E-02    0.373E-03
DAV:   6    -0.704526957310E+02   -0.10809E-06   -0.17605E-06   520   0.758E-03
 419 F= -.70452696E+02 E0= -.70452696E+02  d E =-.885076E-02
 BRION: g(F)=  0.909E-03 g(S)=  0.000E+00 BRIONS problems: POTIM should be increased
 retain N=  1 mean eig=10.26
 eig:  10.260
 bond charge predicted
       N       E                     dE             d eps       ncg     rms          rms(c)
DAV:   1    -0.704430823816E+02    0.96132E-02   -0.34280E-01   568   0.381E+00    0.971E-02
DAV:   2    -0.704436196547E+02   -0.53727E-03   -0.66011E-03   624   0.409E-01    0.654E-02
DAV:   3    -0.704435947857E+02    0.24869E-04   -0.41880E-04   824   0.116E-01    0.276E-02
DAV:   4    -0.704435992643E+02   -0.44786E-05   -0.66878E-05   656   0.408E-02    0.902E-03
DAV:   5    -0.704435988167E+02    0.44755E-06   -0.15230E-05   752   0.222E-02    0.372E-03
DAV:   6    -0.704435988266E+02   -0.98603E-08   -0.16705E-06   504   0.786E-03
 420 F= -.70443599E+02 E0= -.70443599E+02  d E =0.909690E-02
 BRION: g(F)=  0.869E-03 g(S)=  0.000E+00 BRIONS problems: POTIM should be increased
 retain N=  1 mean eig=13.31
 eig:  13.315
 bond charge predicted
       N       E                     dE             d eps       ncg     rms          rms(c)
DAV:   1    -0.704425995679E+02    0.99925E-03   -0.32655E-03   568   0.361E-01    0.100E-02
DAV:   2    -0.704426051247E+02   -0.55568E-05   -0.66831E-05   656   0.399E-02    0.675E-03
DAV:   3    -0.704426050357E+02    0.89068E-07   -0.37665E-06   704   0.110E-02
 421 F= -.70442605E+02 E0= -.70442605E+02  d E =0.993791E-03
 BRION: g(F)=  0.866E-03 g(S)=  0.000E+00 retain N=  1 mean eig= 0.23
 eig:   0.232
 bond charge predicted
       N       E                     dE             d eps       ncg     rms          rms(c)
DAV:   1    -0.704439252658E+02   -0.13201E-02   -0.75913E-03   560   0.569E-01    0.142E-02
DAV:   2    -0.704439378850E+02   -0.12619E-04   -0.15497E-04   624   0.628E-02    0.977E-03
DAV:   3    -0.704439371898E+02    0.69512E-06   -0.93480E-06   800   0.176E-02
 422 F= -.70443937E+02 E0= -.70443937E+02  d E =-.133215E-02
 BRION: g(F)=  0.858E-03 g(S)=  0.000E+00 retain N=  2 mean eig= 1.45
 eig:   1.455  1.455
 bond charge predicted
       N       E                     dE             d eps       ncg     rms          rms(c)
DAV:   1    -0.704457528262E+02   -0.18149E-02   -0.15552E-02   560   0.824E-01    0.207E-02
DAV:   2    -0.704457784127E+02   -0.25586E-04   -0.30751E-04   656   0.887E-02    0.140E-02
DAV:   3    -0.704457774205E+02    0.99216E-06   -0.17748E-05   816   0.242E-02    0.614E-03
DAV:   4    -0.704457779003E+02   -0.47977E-06   -0.36062E-06   568   0.938E-03
 423 F= -.70445778E+02 E0= -.70445778E+02  d E =-.184071E-02
 BRION: g(F)=  0.862E-03 g(S)=  0.000E+00 retain N=  3 mean eig= 1.92
 eig:   2.520  2.520  0.714
 bond charge predicted
       N       E                     dE             d eps       ncg     rms          rms(c)
DAV:   1    -0.704480867573E+02   -0.23093E-02   -0.26971E-02   568   0.109E+00    0.265E-02
DAV:   2    -0.704481298780E+02   -0.43121E-04   -0.52667E-04   664   0.116E-01    0.180E-02
DAV:   3    -0.704481273838E+02    0.24942E-05   -0.31602E-05   824   0.323E-02    0.801E-03
DAV:   4    -0.704481279826E+02   -0.59878E-06   -0.63904E-06   632   0.123E-02
 424 F= -.70448128E+02 E0= -.70448128E+02  d E =-.235008E-02
 BRION: g(F)=  0.874E-03 g(S)=  0.000E+00 retain N=  3 mean eig= 4.68
 eig:   0.841  6.605  6.605
 bond charge predicted
       N       E                     dE             d eps       ncg     rms          rms(c)
DAV:   1    -0.704409868110E+02    0.71406E-02   -0.22537E-01   560   0.314E+00    0.755E-02
DAV:   2    -0.704413452292E+02   -0.35842E-03   -0.44465E-03   640   0.341E-01    0.511E-02
DAV:   3    -0.704413242972E+02    0.20932E-04   -0.26746E-04   824   0.933E-02    0.221E-02
DAV:   4    -0.704413271687E+02   -0.28715E-05   -0.50829E-05   640   0.344E-02    0.731E-03
DAV:   5    -0.704413267253E+02    0.44339E-06   -0.99129E-06   744   0.183E-02
 425 F= -.70441327E+02 E0= -.70441327E+02  d E =0.680126E-02
 BRION: g(F)=  0.866E-03 g(S)=  0.000E+00 retain N=  1 mean eig= 4.60
 eig:   4.597
 bond charge predicted
       N       E                     dE             d eps       ncg     rms          rms(c)
DAV:   1    -0.704440125015E+02   -0.26853E-02   -0.35257E-02   568   0.124E+00    0.299E-02
DAV:   2    -0.704440666334E+02   -0.54132E-04   -0.68101E-04   632   0.133E-01    0.205E-02
DAV:   3    -0.704440626736E+02    0.39598E-05   -0.41282E-05   816   0.370E-02    0.882E-03
DAV:   4    -0.704440634958E+02   -0.82220E-06   -0.89626E-06   656   0.143E-02
 426 F= -.70444063E+02 E0= -.70444063E+02  d E =-.273677E-02
 BRION: g(F)=  0.853E-03 g(S)=  0.000E+00 retain N=  1 mean eig= 1.40
 eig:   1.395
 bond charge predicted
       N       E                     dE             d eps       ncg     rms          rms(c)
DAV:   1    -0.704452427253E+02   -0.11801E-02   -0.64015E-03   568   0.525E-01    0.134E-02
DAV:   2    -0.704452532867E+02   -0.10561E-04   -0.12602E-04   640   0.568E-02    0.899E-03
DAV:   3    -0.704452529853E+02    0.30146E-06   -0.81817E-06   792   0.164E-02
 427 F= -.70445253E+02 E0= -.70445253E+02  d E =-.118949E-02
 BRION: g(F)=  0.866E-03 g(S)=  0.000E+00 retain N=  2 mean eig= 3.03
 eig:   1.579  4.489
 bond charge predicted
       N       E                     dE             d eps       ncg     rms          rms(c)
DAV:   1    -0.704439370601E+02    0.13162E-02   -0.83985E-03   560   0.605E-01    0.143E-02
DAV:   2    -0.704439501760E+02   -0.13116E-04   -0.16927E-04   616   0.667E-02    0.983E-03
DAV:   3    -0.704439492397E+02    0.93630E-06   -0.10682E-05   808   0.187E-02    0.432E-03
DAV:   4    -0.704439492950E+02   -0.55286E-07   -0.17844E-06   456   0.702E-03
 428 F= -.70443949E+02 E0= -.70443949E+02  d E =0.130369E-02
 BRION: g(F)=  0.882E-03 g(S)=  0.000E+00 retain N=  2 mean eig= 4.64
 eig:   2.904  6.382
 bond charge predicted
       N       E                     dE             d eps       ncg     rms          rms(c)
DAV:   1    -0.704482841607E+02   -0.43349E-02   -0.98529E-02   568   0.208E+00    0.499E-02
DAV:   2    -0.704484373147E+02   -0.15315E-03   -0.19023E-03   640   0.221E-01    0.341E-02
DAV:   3    -0.704484270591E+02    0.10256E-04   -0.11315E-04   824   0.609E-02    0.149E-02
DAV:   4    -0.704484285898E+02   -0.15307E-05   -0.22910E-05   648   0.229E-02    0.487E-03
DAV:   5    -0.704484285742E+02    0.15622E-07   -0.40118E-06   608   0.122E-02
 429 F= -.70448429E+02 E0= -.70448429E+02  d E =-.447928E-02
 BRION: g(F)=  0.889E-03 g(S)=  0.000E+00 retain N=  2 mean eig= 4.40
 eig:   6.594  2.202
 bond charge predicted
       N       E                     dE             d eps       ncg     rms          rms(c)
DAV:   1    -0.704511046507E+02   -0.26761E-02   -0.37920E-02   560   0.129E+00    0.311E-02
DAV:   2    -0.704511668217E+02   -0.62171E-04   -0.75716E-04   664   0.140E-01    0.211E-02
DAV:   3    -0.704511631606E+02    0.36611E-05   -0.44575E-05   824   0.383E-02    0.946E-03
DAV:   4    -0.704511637837E+02   -0.62318E-06   -0.89969E-06   640   0.145E-02
 430 F= -.70451164E+02 E0= -.70451164E+02  d E =-.273521E-02
 BRION: g(F)=  0.894E-03 g(S)=  0.000E+00 retain N=  2 mean eig= 4.66
 eig:   4.658  4.658
 bond charge predicted
       N       E                     dE             d eps       ncg     rms          rms(c)
DAV:   1    -0.704461766858E+02    0.49865E-02   -0.11556E-01   560   0.225E+00    0.540E-02
DAV:   2    -0.704463591250E+02   -0.18244E-03   -0.22761E-03   640   0.243E-01    0.366E-02
DAV:   3    -0.704463482394E+02    0.10886E-04   -0.13528E-04   816   0.665E-02    0.158E-02
DAV:   4    -0.704463499279E+02   -0.16886E-05   -0.26300E-05   648   0.248E-02    0.517E-03
DAV:   5    -0.704463496970E+02    0.23090E-06   -0.47258E-06   624   0.129E-02
 431 F= -.70446350E+02 E0= -.70446350E+02  d E =0.481409E-02
 BRION: g(F)=  0.890E-03 g(S)=  0.000E+00 retain N=  2 mean eig= 2.81
 eig:   4.031  1.592
 bond charge predicted
       N       E                     dE             d eps       ncg     rms          rms(c)
DAV:   1    -0.704466371340E+02   -0.28721E-03   -0.56008E-04   560   0.158E-01    0.376E-03
DAV:   2    -0.704466378065E+02   -0.67257E-06   -0.10072E-05   648   0.166E-02    0.259E-03
DAV:   3    -0.704466376802E+02    0.12636E-06   -0.50875E-07   424   0.493E-03
 432 F= -.70446638E+02 E0= -.70446638E+02  d E =-.287983E-03
 BRION: g(F)=  0.879E-03 g(S)=  0.000E+00 retain N=  3 mean eig= 5.94
 eig:   7.987  7.987  1.860
 bond charge predicted
       N       E                     dE             d eps       ncg     rms          rms(c)
DAV:   1    -0.704438175929E+02    0.28202E-02   -0.32100E-02   560   0.118E+00    0.292E-02
DAV:   2    -0.704438700594E+02   -0.52467E-04   -0.64935E-04   656   0.129E-01    0.198E-02
DAV:   3    -0.704438674821E+02    0.25773E-05   -0.38923E-05   824   0.355E-02    0.869E-03
DAV:   4    -0.704438678004E+02   -0.31832E-06   -0.68294E-06   640   0.128E-02
 433 F= -.70443868E+02 E0= -.70443868E+02  d E =0.276988E-02
 BRION: g(F)=  0.905E-03 g(S)=  0.000E+00 retain N=  4 mean eig= 4.45
 eig:   7.755  7.755  2.169  0.138
 bond charge predicted
       N       E                     dE             d eps       ncg     rms          rms(c)
DAV:   1    -0.704424467825E+02    0.14207E-02   -0.82834E-03   560   0.598E-01    0.152E-02
DAV:   2    -0.704424608971E+02   -0.14115E-04   -0.17126E-04   672   0.659E-02    0.102E-02
DAV:   3    -0.704424603692E+02    0.52793E-06   -0.10139E-05   816   0.184E-02    0.467E-03
DAV:   4    -0.704424604843E+02   -0.11514E-06   -0.17581E-06   472   0.703E-03
 434 F= -.70442460E+02 E0= -.70442460E+02  d E =0.140732E-02
 BRION: g(F)=  0.893E-03 g(S)=  0.000E+00 BRIONS problems: POTIM should be increased
 retain N=  1 mean eig= 9.59
 eig:   9.589
 bond charge predicted
       N       E                     dE             d eps       ncg     rms          rms(c)
DAV:   1    -0.704385845348E+02    0.38758E-02   -0.66183E-02   560   0.170E+00    0.411E-02
DAV:   2    -0.704386898346E+02   -0.10530E-03   -0.13030E-03   648   0.185E-01    0.279E-02
DAV:   3    -0.704386836190E+02    0.62156E-05   -0.78477E-05   832   0.511E-02    0.123E-02
DAV:   4    -0.704386845730E+02   -0.95402E-06   -0.16322E-05   656   0.194E-02    0.412E-03
DAV:   5    -0.704386843018E+02    0.27121E-06   -0.30723E-06   584   0.111E-02
 435 F= -.70438684E+02 E0= -.70438684E+02  d E =0.377618E-02
 BRION: g(F)=  0.887E-03 g(S)=  0.000E+00 retain N=  2 mean eig= 5.32
 eig:   7.067  3.579
 bond charge predicted
       N       E                     dE             d eps       ncg     rms          rms(c)
DAV:   1    -0.704377729042E+02    0.91167E-03   -0.38943E-03   568   0.410E-01    0.102E-02
DAV:   2    -0.704377793298E+02   -0.64256E-05   -0.78866E-05   680   0.451E-02    0.686E-03
DAV:   3    -0.704377791345E+02    0.19533E-06   -0.47291E-06   736   0.125E-02
 436 F= -.70437779E+02 E0= -.70437779E+02  d E =0.905167E-03
 BRION: g(F)=  0.867E-03 g(S)=  0.000E+00 retain N=  2 mean eig= 3.37
 eig:   2.510  4.227
 bond charge predicted
       N       E                     dE             d eps       ncg     rms          rms(c)
DAV:   1    -0.704357715487E+02    0.20078E-02   -0.21088E-02   560   0.955E-01    0.239E-02
DAV:   2    -0.704358064446E+02   -0.34896E-04   -0.42945E-04   648   0.105E-01    0.162E-02
DAV:   3    -0.704358048732E+02    0.15714E-05   -0.24959E-05   832   0.286E-02    0.723E-03
DAV:   4    -0.704358052478E+02   -0.37459E-06   -0.52107E-06   624   0.109E-02
 437 F= -.70435805E+02 E0= -.70435805E+02  d E =0.197389E-02
 BRION: g(F)=  0.886E-03 g(S)=  0.000E+00 retain N=  3 mean eig= 2.90
 eig:   5.352  0.950  2.384
 bond charge predicted
       N       E                     dE             d eps       ncg     rms          rms(c)
DAV:   1    -0.704372379278E+02   -0.14331E-02   -0.99503E-03   560   0.657E-01    0.159E-02
DAV:   2    -0.704372538448E+02   -0.15917E-04   -0.19706E-04   632   0.713E-02    0.108E-02
DAV:   3    -0.704372530287E+02    0.81606E-06   -0.11630E-05   824   0.194E-02    0.473E-03
DAV:   4    -0.704372533327E+02   -0.30401E-06   -0.21632E-06   544   0.725E-03
 438 F= -.70437253E+02 E0= -.70437253E+02  d E =-.144808E-02
 BRION: g(F)=  0.860E-03 g(S)=  0.000E+00 BRIONS problems: POTIM should be increased
 retain N=  1 mean eig= 9.13
 eig:   9.131
 bond charge predicted
       N       E                     dE             d eps       ncg     rms          rms(c)
DAV:   1    -0.704458518438E+02   -0.85988E-02   -0.38788E-01   560   0.408E+00    0.102E-01
DAV:   2    -0.704465171862E+02   -0.66534E-03   -0.80184E-03   640   0.450E-01    0.698E-02
DAV:   3    -0.704464843726E+02    0.32814E-04   -0.45622E-04   824   0.122E-01    0.324E-02
DAV:   4    -0.704464893110E+02   -0.49384E-05   -0.97249E-05   664   0.472E-02    0.952E-03
DAV:   5    -0.704464889406E+02    0.37038E-06   -0.18558E-05   728   0.249E-02    0.421E-03
DAV:   6    -0.704464891059E+02   -0.16535E-06   -0.20984E-06   536   0.816E-03
 439 F= -.70446489E+02 E0= -.70446489E+02  d E =-.923577E-02
 BRION: g(F)=  0.925E-03 g(S)=  0.000E+00 retain N=  1 mean eig= 6.05
 eig:   6.046
 bond charge predicted
       N       E                     dE             d eps       ncg     rms          rms(c)
DAV:   1    -0.704396462206E+02    0.68427E-02   -0.19805E-01   560   0.291E+00    0.731E-02
DAV:   2    -0.704399768414E+02   -0.33062E-03   -0.40368E-03   624   0.321E-01    0.494E-02
DAV:   3    -0.704399631648E+02    0.13677E-04   -0.24323E-04   824   0.887E-02    0.219E-02
DAV:   4    -0.704399659313E+02   -0.27666E-05   -0.43014E-05   648   0.320E-02    0.670E-03
DAV:   5    -0.704399657006E+02    0.23070E-06   -0.84546E-06   688   0.168E-02
 440 F= -.70439966E+02 E0= -.70439966E+02  d E =0.652341E-02
 BRION: g(F)=  0.872E-03 g(S)=  0.000E+00 retain N=  1 mean eig= 3.28
 eig:   3.281
 bond charge predicted
       N       E                     dE             d eps       ncg     rms          rms(c)
DAV:   1    -0.704405811587E+02   -0.61523E-03   -0.16487E-03   568   0.270E-01    0.654E-03
DAV:   2    -0.704405834419E+02   -0.22832E-05   -0.30306E-05   656   0.280E-02    0.447E-03
DAV:   3    -0.704405831804E+02    0.26153E-06   -0.15130E-06   488   0.828E-03
 441 F= -.70440583E+02 E0= -.70440583E+02  d E =-.617480E-03
 BRION: g(F)=  0.862E-03 g(S)=  0.000E+00 retain N=  2 mean eig= 2.38
 eig:   3.663  1.103
 bond charge predicted
       N       E                     dE             d eps       ncg     rms          rms(c)
DAV:   1    -0.704427944673E+02   -0.22110E-02   -0.23616E-02   560   0.101E+00    0.249E-02
DAV:   2    -0.704428336753E+02   -0.39208E-04   -0.47297E-04   632   0.110E-01    0.169E-02
DAV:   3    -0.704428319222E+02    0.17530E-05   -0.27168E-05   824   0.298E-02    0.759E-03
DAV:   4    -0.704428324839E+02   -0.56169E-06   -0.56500E-06   624   0.115E-02
 442 F= -.70442832E+02 E0= -.70442832E+02  d E =-.224930E-02
 BRION: g(F)=  0.852E-03 g(S)=  0.000E+00 retain N=  3 mean eig= 1.25
 eig:   1.814  1.814  0.129
 bond charge predicted
       N       E                     dE             d eps       ncg     rms          rms(c)
DAV:   1    -0.704499470743E+02   -0.71152E-02   -0.26553E-01   568   0.339E+00    0.837E-02
DAV:   2    -0.704503752264E+02   -0.42815E-03   -0.52189E-03   640   0.364E-01    0.571E-02
DAV:   3    -0.704503501843E+02    0.25042E-04   -0.30537E-04   824   0.999E-02    0.256E-02
DAV:   4    -0.704503539997E+02   -0.38154E-05   -0.62884E-05   648   0.380E-02    0.809E-03
DAV:   5    -0.704503536731E+02    0.32657E-06   -0.12595E-05   752   0.209E-02    0.337E-03
DAV:   6    -0.704503538242E+02   -0.15107E-06   -0.14750E-06   488   0.707E-03
 443 F= -.70450354E+02 E0= -.70450354E+02  d E =-.752134E-02
 BRION: g(F)=  0.908E-03 g(S)=  0.000E+00 BRIONS problems: POTIM should be increased
 retain N=  1 mean eig=11.98
 eig:  11.979
 bond charge predicted
       N       E                     dE             d eps       ncg     rms          rms(c)
DAV:   1    -0.704366043343E+02    0.13749E-01   -0.74133E-01   560   0.567E+00    0.139E-01
DAV:   2    -0.704378064180E+02   -0.12021E-02   -0.14763E-02   640   0.619E-01    0.938E-02
DAV:   3    -0.704377452046E+02    0.61213E-04   -0.90189E-04   824   0.171E-01    0.405E-02
DAV:   4    -0.704377540042E+02   -0.87996E-05   -0.15876E-04   640   0.616E-02    0.133E-02
DAV:   5    -0.704377529305E+02    0.10737E-05   -0.33785E-05   752   0.337E-02    0.556E-03
DAV:   6    -0.704377530604E+02   -0.12990E-06   -0.40574E-06   584   0.117E-02
 444 F= -.70437753E+02 E0= -.70437753E+02  d E =0.126008E-01
 BRION: g(F)=  0.866E-03 g(S)=  0.000E+00 BRIONS problems: POTIM should be increased
 retain N=  1 mean eig=16.30
 eig:  16.297
 bond charge predicted
