Al   C    O    H                        
   1.0000000000000000     
     6.0191999999999997    0.0000000000000000    0.0000000000000000
     0.0000000000000000   10.1400000000000006    0.0000000000000000
     0.0000000000000000    0.0000000000000000   15.0000000000000000
   Al   C    O    H 
     8     4     1     2
Selective dynamics
Direct
  0.4502326078380697  0.8179729072912454  0.2931614447318210   T   T   T
  0.9559298997506457  0.8221700036645438  0.2525745536031609   T   T   T
  0.4536301750222971  0.5631905404411532  0.2623715529480864   T   T   T
  0.9544406709075451  0.5637737401455548  0.2383573934884475   T   T   T
  0.4556012071231442  0.3203471155900754  0.2352325518077876   T   T   T
  0.9554468868923164  0.3215441413511070  0.2596863380264291   T   T   T
  0.4576975770574778  0.0600041679447072  0.2472089842104572   T   T   T
  0.9604604243973416  0.0652960742519379  0.2768024050409332   T   T   T
  0.2073819901014868  0.9420072830010622  0.2660405297228108   T   T   T
  0.7082764848842377  0.9442270630080689  0.2760582066745416   T   T   T
  0.2050050903702772  0.4417598196464624  0.2437813055972864   T   T   T
  0.7045801499882964  0.4419715915462561  0.2483743345894957   T   T   T
  0.5462040429361025  0.8357496329394357  0.4232684184398970   T   T   T
  0.6485079535431414  0.9039472874200293  0.3885170124141780   T   T   T
  0.4449753654361578  0.8859746505351933  0.4612036958427080   T   T   T

  0.00000000E+00  0.00000000E+00  0.00000000E+00
  0.00000000E+00  0.00000000E+00  0.00000000E+00
  0.00000000E+00  0.00000000E+00  0.00000000E+00
  0.00000000E+00  0.00000000E+00  0.00000000E+00
  0.00000000E+00  0.00000000E+00  0.00000000E+00
  0.00000000E+00  0.00000000E+00  0.00000000E+00
  0.00000000E+00  0.00000000E+00  0.00000000E+00
  0.00000000E+00  0.00000000E+00  0.00000000E+00
  0.00000000E+00  0.00000000E+00  0.00000000E+00
  0.00000000E+00  0.00000000E+00  0.00000000E+00
  0.00000000E+00  0.00000000E+00  0.00000000E+00
  0.00000000E+00  0.00000000E+00  0.00000000E+00
  0.00000000E+00  0.00000000E+00  0.00000000E+00
  0.00000000E+00  0.00000000E+00  0.00000000E+00
  0.00000000E+00  0.00000000E+00  0.00000000E+00
