V2O5                                    
   1.0000000000000000     
    15.0000000000000000    0.0000000000000000    0.0000000000000000
     0.0000000000000000   15.0000000000000000    0.0000000000000000
     0.0000000000000000    0.0000000000000000   15.0000000000000000
   Se   H 
     1     2
Selective dynamics
Direct
  0.4891146036767042  0.4891146006837313  0.4999999727620492   T   T   T
  0.5878850705549021  0.4890003340470111  0.5000000135493865   T   T   T
  0.4890003257683960  0.5878850652692601  0.5000000136885645   T   T   T

  0.00000000E+00  0.00000000E+00  0.00000000E+00
  0.00000000E+00  0.00000000E+00  0.00000000E+00
  0.00000000E+00  0.00000000E+00  0.00000000E+00
