V2O5                                    
   1.00000000000000     
    15.0000000000000000    0.0000000000000000    0.0000000000000000
     0.0000000000000000   15.0000000000000000    0.0000000000000000
     0.0000000000000000    0.0000000000000000   15.0000000000000000
   Se    H
     1     2
Selective dynamics
Direct
  0.4924206971298875  0.4924206850802784  0.4999999690051893   T   T   T
  0.5823643413835601  0.4912149715979469  0.5000000154377807   T   T   T
  0.4912149614865549  0.5823643433217773  0.5000000155570371   T   T   T
