Al2C                                    
   1.0000000000000000     
     6.0191999999999997    0.0000000000000000    0.0000000000000000
     0.0000000000000000   10.1400000000000006    0.0000000000000000
     0.0000000000000000    0.0000000000000000   15.0000000000000000
   Al   C    S    H 
     8     4     1     2
Selective dynamics
Direct
  0.4354718069025159  0.8775008654346691  0.2527834118905340   T   T   T
  0.9353443278180960  0.8776061397189439  0.2357605759959341   T   T   T
  0.4363878648289388  0.6203769215131313  0.2695509789538195   T   T   T
  0.9351062692689746  0.6184376699864951  0.2404638638773178   T   T   T
  0.4347791738258154  0.3795028569694207  0.2364172541898412   T   T   T
  0.9341573151487266  0.3773139149278584  0.2606343177992738   T   T   T
  0.4352816182152747  0.1193830240762297  0.2339959531772146   T   T   T
  0.9351315578331200  0.1190375421061665  0.2526650740054275   T   T   T
  0.1854752898530740  0.9985037696335032  0.2436523702543343   T   T   T
  0.6850916294764968  0.9985651340999149  0.2426059647537021   T   T   T
  0.1849643787445060  0.4980421204597276  0.2551745276298630   T   T   T
  0.6845936480628333  0.4980396705808686  0.2516912666116876   T   T   T
  0.4273996179637372  0.6139422098130565  0.4594830891277209   T   T   T
  0.2559676887335938  0.6941264515678885  0.4782369161132083   T   T   T
  0.2896186798846374  0.5205152002363739  0.4268844356201031   T   T   T

  0.00000000E+00  0.00000000E+00  0.00000000E+00
  0.00000000E+00  0.00000000E+00  0.00000000E+00
  0.00000000E+00  0.00000000E+00  0.00000000E+00
  0.00000000E+00  0.00000000E+00  0.00000000E+00
  0.00000000E+00  0.00000000E+00  0.00000000E+00
  0.00000000E+00  0.00000000E+00  0.00000000E+00
  0.00000000E+00  0.00000000E+00  0.00000000E+00
  0.00000000E+00  0.00000000E+00  0.00000000E+00
  0.00000000E+00  0.00000000E+00  0.00000000E+00
  0.00000000E+00  0.00000000E+00  0.00000000E+00
  0.00000000E+00  0.00000000E+00  0.00000000E+00
  0.00000000E+00  0.00000000E+00  0.00000000E+00
  0.00000000E+00  0.00000000E+00  0.00000000E+00
  0.00000000E+00  0.00000000E+00  0.00000000E+00
  0.00000000E+00  0.00000000E+00  0.00000000E+00
