Al2C                                    
   1.0000000000000000     
     6.0191999999999997    0.0000000000000000    0.0000000000000000
     0.0000000000000000   10.1400000000000006    0.0000000000000000
     0.0000000000000000    0.0000000000000000   15.0000000000000000
   Al   C    S    H 
     8     4     1     2
Selective dynamics
Direct
  0.4338723206008873  0.8772550479591392  0.2517561711081572   T   T   T
  0.9336698735282556  0.8775689188260336  0.2354445032460812   T   T   T
  0.4347325494642094  0.6200399013466457  0.2698654319645635   T   T   T
  0.9335280895781696  0.6181322037520594  0.2407046883606303   T   T   T
  0.4332617129635234  0.3793471941835411  0.2364790621047287   T   T   T
  0.9329250464533078  0.3771223820211566  0.2603244637544134   T   T   T
  0.4336126958776346  0.1194379565669074  0.2335603937276752   T   T   T
  0.9336287262338798  0.1190897949488370  0.2515737289333118   T   T   T
  0.1837627472285722  0.9985209745107344  0.2427752863323941   T   T   T
  0.6836389363854957  0.9986143482639261  0.2420362438433845   T   T   T
  0.1834989121505177  0.4977937877340495  0.2549302866735535   T   T   T
  0.6831656279483739  0.4978680102519480  0.2521350028561122   T   T   T
  0.4334517416490170  0.6166400762958514  0.4581567056405876   T   T   T
  0.2605813024884520  0.6952750990709725  0.4781747920470494   T   T   T
  0.2974405840100375  0.5181877953924441  0.4320832394073246   T   T   T

  0.00000000E+00  0.00000000E+00  0.00000000E+00
  0.00000000E+00  0.00000000E+00  0.00000000E+00
  0.00000000E+00  0.00000000E+00  0.00000000E+00
  0.00000000E+00  0.00000000E+00  0.00000000E+00
  0.00000000E+00  0.00000000E+00  0.00000000E+00
  0.00000000E+00  0.00000000E+00  0.00000000E+00
  0.00000000E+00  0.00000000E+00  0.00000000E+00
  0.00000000E+00  0.00000000E+00  0.00000000E+00
  0.00000000E+00  0.00000000E+00  0.00000000E+00
  0.00000000E+00  0.00000000E+00  0.00000000E+00
  0.00000000E+00  0.00000000E+00  0.00000000E+00
  0.00000000E+00  0.00000000E+00  0.00000000E+00
  0.00000000E+00  0.00000000E+00  0.00000000E+00
  0.00000000E+00  0.00000000E+00  0.00000000E+00
  0.00000000E+00  0.00000000E+00  0.00000000E+00
