   15   15    1    1
  0.6103469E+02  0.6019200E-09  0.1014000E-08  0.1500000E-08  0.3500000E-15
   1.0000000000000000E-004
  CAR 
 Al2C                                    
     48      8     32

  0.3742002E-15  0.3742002E-15  0.1262379E-14  0.6666667E-01
    1      -23.921900   1.000000
    2      -16.586017   1.000000
    3      -15.525830   1.000000
    4      -14.391930   1.000000
    5      -13.240667   1.000000
    6      -10.886253   1.000000
    7      -10.015284   1.000000
    8       -9.698681   1.000000
    9       -9.537580   1.000000
   10       -8.555843   1.000000
   11       -7.672369   1.000000
   12       -6.898879   1.000000
   13       -6.746680   1.000000
   14       -6.492294   1.000000
   15       -5.986974   1.000000
   16       -5.623639   1.000000
   17       -5.357456   1.000000
   18       -5.052357   1.000000
   19       -4.371377   1.000000
   20       -4.115434   1.000000
   21       -3.687447   1.000000
   22       -3.513351   1.000000
   23       -2.913413   1.000000
   24       -2.595897   1.000000
   25       -1.382547   0.000000
   26       -0.779539   0.000000
   27        0.011594   0.000000
   28        0.314807   0.000000
   29        0.366837   0.000000
   30        0.855177   0.000000
   31        1.184337   0.000000
   32        1.585446   0.000000

  0.2000000E+00  0.3742002E-15  0.1262379E-14  0.1333333E+00
    1      -23.921809   1.000000
    2      -16.505464   1.000000
    3      -15.390848   1.000000
    4      -14.605286   1.000000
    5      -13.639567   1.000000
    6      -10.844166   1.000000
    7       -9.734407   1.000000
    8       -9.410638   1.000000
    9       -9.100860   1.000000
   10       -8.344416   1.000000
   11       -7.577922   1.000000
   12       -7.417873   1.000000
   13       -6.712856   1.000000
   14       -6.470471   1.000000
   15       -6.184715   1.000000
   16       -5.778483   1.000000
   17       -5.211591   1.000000
   18       -4.872972   1.000000
   19       -4.498997   1.000000
   20       -4.272999   1.000000
   21       -4.135977   1.000000
   22       -4.014458   1.000000
   23       -3.095403   1.000000
   24       -2.913906   1.000000
   25       -1.226658   0.000000
   26       -0.053304   0.000000
   27        0.044612   0.000000
   28        0.418823   0.000000
   29        0.648917   0.000000
   30        1.030573   0.000000
   31        1.267307   0.000000
   32        2.023169   0.000000

  0.4000000E+00  0.3742002E-15  0.1262379E-14  0.1333333E+00
    1      -23.921623   1.000000
    2      -16.339473   1.000000
    3      -15.028585   1.000000
    4      -14.925759   1.000000
    5      -14.359453   1.000000
    6      -10.789109   1.000000
    7       -9.348395   1.000000
    8       -9.104465   1.000000
    9       -8.299852   1.000000
   10       -7.743295   1.000000
   11       -7.628208   1.000000
   12       -7.240249   1.000000
   13       -6.776069   1.000000
   14       -6.580099   1.000000
   15       -6.303401   1.000000
   16       -5.984035   1.000000
   17       -5.771615   1.000000
   18       -5.607133   1.000000
   19       -5.171163   1.000000
   20       -4.737943   1.000000
   21       -4.246286   1.000000
   22       -3.922356   1.000000
   23       -3.458665   1.000000
   24       -2.939705   1.000000
   25       -0.822751   0.000000
   26       -0.358066   0.000000
   27        0.279813   0.000000
   28        0.979655   0.000000
   29        1.373520   0.000000
   30        1.548654   0.000000
   31        1.913292   0.000000
   32        2.122440   0.000000

  0.3742002E-15  0.3333333E+00  0.1262379E-14  0.1333333E+00
    1      -23.921955   1.000000
    2      -16.584054   1.000000
    3      -15.529907   1.000000
    4      -14.393944   1.000000
    5      -13.241598   1.000000
    6      -10.859781   1.000000
    7       -9.926831   1.000000
    8       -9.747681   1.000000
    9       -9.399863   1.000000
   10       -8.707622   1.000000
   11       -8.255612   1.000000
   12       -6.792411   1.000000
   13       -6.638973   1.000000
   14       -6.061892   1.000000
   15       -5.711859   1.000000
   16       -5.526268   1.000000
   17       -5.327711   1.000000
   18       -4.851989   1.000000
   19       -4.408179   1.000000
   20       -4.205431   1.000000
   21       -4.078037   1.000000
   22       -3.616186   1.000000
   23       -3.513450   1.000000
   24       -2.593491   1.000000
   25       -1.117094   0.000000
   26       -0.428768   0.000000
   27       -0.125569   0.000000
   28        0.315090   0.000000
   29        0.692886   0.000000
   30        0.968520   0.000000
   31        1.365174   0.000000
   32        1.583760   0.000000

  0.2000000E+00  0.3333333E+00  0.1262379E-14  0.1333333E+00
    1      -23.921725   1.000000
    2      -16.503802   1.000000
    3      -15.393616   1.000000
    4      -14.607437   1.000000
    5      -13.641423   1.000000
    6      -10.824761   1.000000
    7       -9.643998   1.000000
    8       -9.307147   1.000000
    9       -9.125101   1.000000
   10       -8.496524   1.000000
   11       -8.121138   1.000000
   12       -7.208644   1.000000
   13       -6.694296   1.000000
   14       -6.503551   1.000000
   15       -5.885291   1.000000
   16       -5.383649   1.000000
   17       -5.172823   1.000000
   18       -4.896672   1.000000
   19       -4.397437   1.000000
   20       -4.304501   1.000000
   21       -4.169282   1.000000
   22       -4.068934   1.000000
   23       -3.520746   1.000000
   24       -3.088076   1.000000
   25       -0.935014   0.000000
   26       -0.355783   0.000000
   27        0.048520   0.000000
   28        0.402363   0.000000
   29        0.858700   0.000000
   30        1.091563   0.000000
   31        1.384011   0.000000
   32        1.999838   0.000000

  0.4000000E+00  0.3333333E+00  0.1262379E-14  0.1333333E+00
    1      -23.921578   1.000000
    2      -16.338602   1.000000
    3      -15.005690   1.000000
    4      -14.950047   1.000000
    5      -14.364351   1.000000
    6      -10.779192   1.000000
    7       -9.353519   1.000000
    8       -8.887773   1.000000
    9       -8.192357   1.000000
   10       -7.888405   1.000000
   11       -7.668719   1.000000
   12       -7.590325   1.000000
   13       -7.229395   1.000000
   14       -6.660849   1.000000
   15       -6.065885   1.000000
   16       -5.926564   1.000000
   17       -5.782441   1.000000
   18       -4.994347   1.000000
   19       -4.721078   1.000000
   20       -4.585556   1.000000
   21       -4.252890   1.000000
   22       -3.946389   1.000000
   23       -3.816987   1.000000
   24       -3.369426   1.000000
   25       -0.714201   0.000000
   26       -0.364532   0.000000
   27        0.273492   0.000000
   28        1.010386   0.000000
   29        1.146429   0.000000
   30        1.430197   0.000000
   31        1.611744   0.000000
   32        2.102463   0.000000

 -0.4000000E+00  0.3333333E+00  0.1262379E-14  0.1333333E+00
    1      -23.921561   1.000000
    2      -16.338579   1.000000
    3      -15.009245   1.000000
    4      -14.946168   1.000000
    5      -14.364681   1.000000
    6      -10.778377   1.000000
    7       -9.389742   1.000000
    8       -8.810111   1.000000
    9       -8.180898   1.000000
   10       -7.966926   1.000000
   11       -7.677385   1.000000
   12       -7.604399   1.000000
   13       -7.202720   1.000000
   14       -6.622849   1.000000
   15       -6.070813   1.000000
   16       -5.912338   1.000000
   17       -5.797930   1.000000
   18       -5.048709   1.000000
   19       -4.728397   1.000000
   20       -4.523864   1.000000
   21       -4.252767   1.000000
   22       -3.949512   1.000000
   23       -3.799784   1.000000
   24       -3.393918   1.000000
   25       -0.855559   0.000000
   26       -0.126990   0.000000
   27        0.299289   0.000000
   28        0.915114   0.000000
   29        1.114114   0.000000
   30        1.417321   0.000000
   31        1.633086   0.000000
   32        2.453045   0.000000

 -0.2000000E+00  0.3333333E+00  0.1262379E-14  0.1333333E+00
    1      -23.921745   1.000000
    2      -16.503774   1.000000
    3      -15.393796   1.000000
    4      -14.607123   1.000000
    5      -13.641546   1.000000
    6      -10.822559   1.000000
    7       -9.704318   1.000000
    8       -9.221425   1.000000
    9       -9.100107   1.000000
   10       -8.557587   1.000000
   11       -8.115068   1.000000
   12       -7.238620   1.000000
   13       -6.689910   1.000000
   14       -6.454153   1.000000
   15       -5.882566   1.000000
   16       -5.435438   1.000000
   17       -5.179294   1.000000
   18       -4.891604   1.000000
   19       -4.396542   1.000000
   20       -4.285057   1.000000
   21       -4.132184   1.000000
   22       -4.022695   1.000000
   23       -3.592743   1.000000
   24       -3.092484   1.000000
   25       -1.050495   0.000000
   26       -0.127348   0.000000
   27        0.066805   0.000000
   28        0.341431   0.000000
   29        0.801857   0.000000
   30        1.156247   0.000000
   31        1.534611   0.000000
   32        2.156975   0.000000
