--------------------------------------------------------------------------
[[16143,1],1]: A high-performance Open MPI point-to-point messaging module
was unable to find any relevant network interfaces:

Module: OpenFabrics (openib)
  Host: compute-4-0

Another transport will be used instead, although this may result in
lower performance.
--------------------------------------------------------------------------
 running on    4 total cores
 distrk:  each k-point on    4 cores,    1 groups
 distr:  one band on    1 cores,    4 groups
 using from now: INCAR     
 vasp.5.4.4.18Apr17-6-g9f103f2a35 (build Dec  6 2019 17:49:40) complex           
 POSCAR found type information on POSCAR  Al C  O  H 
 POSCAR found :  4 types and      15 ions
 scaLAPACK will be used
 LDA part: xc-table for Pade appr. of Perdew
 POSCAR found type information on POSCAR  Al C  O  H 
 POSCAR found :  4 types and      15 ions
 WARNING: stress and forces are not correct
 POSCAR, INCAR and KPOINTS ok, starting setup
 FFT: planning ...
[compute-4-0.cluster.gsc.inifta.unlp.edu.ar:28985] 3 more processes have sent help message help-mpi-btl-base.txt / btl:no-nics
[compute-4-0.cluster.gsc.inifta.unlp.edu.ar:28985] Set MCA parameter "orte_base_help_aggregate" to 0 to see all help / error messages
 WAVECAR not read
 charge-density read from file: Al2C                                    
 entering main loop

 ----------------------------------------------------------------------------- 
|                                                                             |
|           W    W    AA    RRRRR   N    N  II  N    N   GGGG   !!!           |
|           W    W   A  A   R    R  NN   N  II  NN   N  G    G  !!!           |
|           W    W  A    A  R    R  N N  N  II  N N  N  G       !!!           |
|           W WW W  AAAAAA  RRRRR   N  N N  II  N  N N  G  GGG   !            |
|           WW  WW  A    A  R   R   N   NN  II  N   NN  G    G                |
|           W    W  A    A  R    R  N    N  II  N    N   GGGG   !!!           |
|                                                                             |
|      ALGO=A and IALGO=5X tend to fail with the tetrahedron method           |
|      (e.g. Bloechls method ISMEAR=-5 is not variational)                    |
|      please switch to IMSEAR=0-n, except for DOS calculations               |
|      For DOS calculations use IALGO=53 after preconverging with ISMEAR>=0   |
|          I HOPE YOU KNOW, WHAT YOU ARE  DOING                               |
|                                                                             |
 ----------------------------------------------------------------------------- 

       N       E                     dE             d eps       ncg     rms          ort
DAV:   1     0.474239078076E+03    0.47424E+03   -0.11158E+04   256   0.961E+02
DAV:   2     0.235704423199E+03   -0.23853E+03   -0.22700E+03   256   0.261E+02
DAV:   3     0.132740726133E+03   -0.10296E+03   -0.97135E+02   256   0.173E+02
DAV:   4     0.794660352910E+02   -0.53275E+02   -0.50694E+02   256   0.134E+02
DAV:   5     0.492116187372E+02   -0.30254E+02   -0.28935E+02   256   0.944E+01
DAV:   6     0.305720323985E+02   -0.18640E+02   -0.17859E+02   256   0.763E+01
DAV:   7     0.186639162426E+02   -0.11908E+02   -0.11337E+02   256   0.559E+01
 gam= 0.000 g(H,U,f)=  0.512E+02 0.496E+00 0.117E+00 ort(H,U,f) = 0.000E+00 0.000E+00 0.000E+00
SDA:   8    -0.448065141446E+02   -0.63470E+02   -0.20718E+02   256   0.518E+02 0.000E+00
 gam= 0.382 g(H,U,f)=  0.199E+02 0.180E+01 0.328E+00 ort(H,U,f) = 0.268E+02 0.759E+00 0.217E+00
DMP:   9    -0.609351772264E+02   -0.16129E+02   -0.13043E+02   256   0.220E+02 0.278E+02
 gam= 0.382 g(H,U,f)=  0.804E+01 0.298E+01 0.118E+00 ort(H,U,f) = 0.949E+01 0.232E+01 0.704E-01
DMP:  10    -0.701350497087E+02   -0.91999E+01   -0.62715E+01   256   0.111E+02 0.119E+02
 gam= 0.382 g(H,U,f)=  0.504E+01 0.275E+01 0.172E-01 ort(H,U,f) = 0.427E+01 0.308E+01 0.191E-01
DMP:  11    -0.751774408819E+02   -0.50424E+01   -0.42497E+01   256   0.781E+01 0.737E+01
 gam= 0.382 g(H,U,f)=  0.285E+01 0.204E+01 0.251E+00 ort(H,U,f) = 0.330E+01 0.276E+01 0.285E+00
DMP:  12    -0.788538121701E+02   -0.36764E+01   -0.30268E+01   256   0.514E+01 0.635E+01
 gam= 0.382 g(H,U,f)=  0.154E+01 0.172E+01 0.224E-01 ort(H,U,f) = 0.218E+01 0.261E+01 0.275E-01
DMP:  13    -0.815275987895E+02   -0.26738E+01   -0.20493E+01   256   0.328E+01 0.482E+01
 gam= 0.382 g(H,U,f)=  0.849E+00 0.160E+01 0.870E-05 ort(H,U,f) = 0.135E+01 0.273E+01 0.108E-04
DMP:  14    -0.835049074225E+02   -0.19773E+01   -0.16045E+01   256   0.245E+01 0.408E+01
 gam= 0.382 g(H,U,f)=  0.456E+00 0.133E+01 0.357E-01 ort(H,U,f) = 0.837E+00 0.244E+01 0.586E-01
DMP:  15    -0.851026542796E+02   -0.15977E+01   -0.12364E+01   256   0.182E+01 0.333E+01
 gam= 0.382 g(H,U,f)=  0.233E+00 0.677E+00 0.214E+00 ort(H,U,f) = 0.479E+00 0.139E+01 0.358E+00
DMP:  16    -0.861991654232E+02   -0.10965E+01   -0.78925E+00   256   0.112E+01 0.223E+01
 gam= 0.382 g(H,U,f)=  0.113E+00 0.299E+00 0.435E-01 ort(H,U,f) = 0.250E+00 0.670E+00 0.821E-01
DMP:  17    -0.867085983037E+02   -0.50943E+00   -0.33531E+00   256   0.456E+00 0.100E+01
 gam= 0.382 g(H,U,f)=  0.518E-01 0.160E+00 0.105E-01 ort(H,U,f) = 0.126E+00 0.392E+00 0.221E-01
DMP:  18    -0.870063844233E+02   -0.29779E+00   -0.17122E+00   256   0.222E+00 0.540E+00
 gam= 0.382 g(H,U,f)=  0.286E-01 0.177E+00 0.990E-04 ort(H,U,f) = 0.716E-01 0.350E+00 0.202E-03
DMP:  19    -0.871704180081E+02   -0.16403E+00   -0.14660E+00   256   0.205E+00 0.422E+00
 gam= 0.382 g(H,U,f)=  0.234E-01 0.456E+00 0.143E+00 ort(H,U,f) = 0.516E-01 0.844E+00 0.259E+00
DMP:  20    -0.874418589707E+02   -0.27144E+00   -0.42553E+00   256   0.623E+00 0.115E+01
 gam= 0.382 g(H,U,f)=  0.198E-01 0.102E+00 0.558E-14 ort(H,U,f) = 0.271E-01 0.226E+00 0.115E-13
DMP:  21    -0.876681242889E+02   -0.22627E+00   -0.87385E-01   256   0.122E+00 0.253E+00
 gam= 0.382 g(H,U,f)=  0.118E-01 0.228E-01 0.214E-07 ort(H,U,f) = 0.190E-01 0.601E-01 0.509E-07
DMP:  22    -0.877228753271E+02   -0.54751E-01   -0.25953E-01   256   0.347E-01 0.791E-01
 gam= 0.382 g(H,U,f)=  0.674E-02 0.804E-02 0.453E-02 ort(H,U,f) = 0.134E-01 0.228E-01 0.121E-01
DMP:  23    -0.877428080474E+02   -0.19933E-01   -0.15100E-01   256   0.193E-01 0.483E-01
 gam= 0.382 g(H,U,f)=  0.425E-02 0.351E-02 0.882E-03 ort(H,U,f) = 0.917E-02 0.101E-01 0.249E-02
DMP:  24    -0.877523735023E+02   -0.95655E-02   -0.67812E-02   256   0.864E-02 0.218E-01
 gam= 0.382 g(H,U,f)=  0.284E-02 0.171E-02 0.938E-04 ort(H,U,f) = 0.638E-02 0.488E-02 0.266E-03
DMP:  25    -0.877576552940E+02   -0.52818E-02   -0.36185E-02   256   0.464E-02 0.115E-01
 gam= 0.382 g(H,U,f)=  0.199E-02 0.886E-03 0.140E-04 ort(H,U,f) = 0.453E-02 0.249E-02 0.386E-04
DMP:  26    -0.877608341166E+02   -0.31788E-02   -0.22351E-02   256   0.289E-02 0.706E-02
 gam= 0.382 g(H,U,f)=  0.145E-02 0.481E-03 0.301E-05 ort(H,U,f) = 0.329E-02 0.133E-02 0.802E-05
DMP:  27    -0.877628724856E+02   -0.20384E-02   -0.14826E-02   256   0.194E-02 0.463E-02
 gam= 0.382 g(H,U,f)=  0.110E-02 0.270E-03 0.862E-06 ort(H,U,f) = 0.247E-02 0.729E-03 0.229E-05
DMP:  28    -0.877642530207E+02   -0.13805E-02   -0.10383E-02   256   0.137E-02 0.320E-02
 gam= 0.382 g(H,U,f)=  0.867E-03 0.156E-03 0.305E-06 ort(H,U,f) = 0.190E-02 0.412E-03 0.833E-06
DMP:  29    -0.877652353272E+02   -0.98231E-03   -0.76260E-03   256   0.102E-02 0.231E-02
 gam= 0.382 g(H,U,f)=  0.695E-03 0.920E-04 0.120E-06 ort(H,U,f) = 0.150E-02 0.239E-03 0.346E-06
DMP:  30    -0.877659648309E+02   -0.72950E-03   -0.58069E-03   256   0.788E-03 0.174E-02
 gam= 0.382 g(H,U,f)=  0.568E-03 0.556E-04 0.503E-07 ort(H,U,f) = 0.120E-02 0.142E-03 0.153E-06
DMP:  31    -0.877665246691E+02   -0.55984E-03   -0.45514E-03   256   0.624E-03 0.135E-02
 gam= 0.382 g(H,U,f)=  0.470E-03 0.343E-04 0.214E-07 ort(H,U,f) = 0.982E-03 0.859E-04 0.682E-07
DMP:  32    -0.877669660546E+02   -0.44139E-03   -0.36477E-03   256   0.504E-03 0.107E-02
 gam= 0.382 g(H,U,f)=  0.394E-03 0.217E-04 0.911E-08 ort(H,U,f) = 0.811E-03 0.532E-04 0.304E-07
DMP:  33    -0.877673214422E+02   -0.35539E-03   -0.29811E-03   256   0.415E-03 0.864E-03
 gam= 0.382 g(H,U,f)=  0.332E-03 0.140E-04 0.388E-08 ort(H,U,f) = 0.677E-03 0.337E-04 0.134E-07
DMP:  34    -0.877676129411E+02   -0.29150E-03   -0.24702E-03   256   0.346E-03 0.711E-03
 gam= 0.382 g(H,U,f)=  0.282E-03 0.928E-05 0.164E-08 ort(H,U,f) = 0.571E-03 0.218E-04 0.580E-08
DMP:  35    -0.877678551978E+02   -0.24226E-03   -0.20727E-03   256   0.292E-03 0.593E-03
 gam= 0.382 g(H,U,f)=  0.243E-03 0.628E-05 0.706E-09 ort(H,U,f) = 0.486E-03 0.144E-04 0.253E-08
DMP:  36    -0.877680589576E+02   -0.20376E-03   -0.17598E-03   256   0.249E-03 0.500E-03
 gam= 0.382 g(H,U,f)=  0.210E-03 0.434E-05 0.309E-09 ort(H,U,f) = 0.416E-03 0.978E-05 0.110E-08
DMP:  37    -0.877682322963E+02   -0.17334E-03   -0.15082E-03   256   0.214E-03 0.426E-03
 gam= 0.382 g(H,U,f)=  0.182E-03 0.306E-05 0.142E-09 ort(H,U,f) = 0.360E-03 0.676E-05 0.495E-09
DMP:  38    -0.877683810982E+02   -0.14880E-03   -0.12991E-03   256   0.185E-03 0.367E-03
 gam= 0.382 g(H,U,f)=  0.158E-03 0.220E-05 0.684E-10 ort(H,U,f) = 0.312E-03 0.477E-05 0.230E-09
DMP:  39    -0.877685094497E+02   -0.12835E-03   -0.11230E-03   256   0.160E-03 0.317E-03
 gam= 0.382 g(H,U,f)=  0.137E-03 0.161E-05 0.355E-10 ort(H,U,f) = 0.271E-03 0.343E-05 0.112E-09
DMP:  40    -0.877686205380E+02   -0.11109E-03   -0.97397E-04   256   0.139E-03 0.274E-03
 gam= 0.382 g(H,U,f)=  0.120E-03 0.119E-05 0.200E-10 ort(H,U,f) = 0.236E-03 0.251E-05 0.588E-10
DMP:  41    -0.877687169953E+02   -0.96457E-04   -0.84959E-04   256   0.121E-03 0.239E-03
 gam= 0.382 g(H,U,f)=  0.106E-03 0.898E-06 0.122E-10 ort(H,U,f) = 0.207E-03 0.187E-05 0.332E-10
DMP:  42    -0.877688012160E+02   -0.84221E-04   -0.74458E-04   256   0.107E-03 0.209E-03
 gam= 0.382 g(H,U,f)=  0.928E-04 0.680E-06 0.807E-11 ort(H,U,f) = 0.182E-03 0.140E-05 0.203E-10
DMP:  43    -0.877688750899E+02   -0.73874E-04   -0.65379E-04   256   0.935E-04 0.183E-03
 gam= 0.382 g(H,U,f)=  0.818E-04 0.517E-06 0.564E-11 ort(H,U,f) = 0.160E-03 0.106E-05 0.132E-10
DMP:  44    -0.877689400056E+02   -0.64916E-04   -0.57531E-04   256   0.823E-04 0.161E-03
 gam= 0.382 g(H,U,f)=  0.723E-04 0.394E-06 0.413E-11 ort(H,U,f) = 0.141E-03 0.804E-06 0.914E-11
DMP:  45    -0.877689971682E+02   -0.57163E-04   -0.50746E-04   256   0.727E-04 0.142E-03
 gam= 0.382 g(H,U,f)=  0.638E-04 0.300E-06 0.312E-11 ort(H,U,f) = 0.125E-03 0.612E-06 0.662E-11
DMP:  46    -0.877690476212E+02   -0.50453E-04   -0.44803E-04   256   0.641E-04 0.125E-03
 gam= 0.382 g(H,U,f)=  0.563E-04 0.229E-06 0.240E-11 ort(H,U,f) = 0.110E-03 0.466E-06 0.495E-11
DMP:  47    -0.877690921915E+02   -0.44570E-04   -0.39529E-04   256   0.565E-04 0.111E-03
 gam= 0.382 g(H,U,f)=  0.498E-04 0.175E-06 0.187E-11 ort(H,U,f) = 0.975E-04 0.356E-06 0.379E-11
DMP:  48    -0.877691315363E+02   -0.39345E-04   -0.34955E-04   256   0.500E-04 0.978E-04
 gam= 0.382 g(H,U,f)=  0.443E-04 0.135E-06 0.147E-11 ort(H,U,f) = 0.863E-04 0.273E-06 0.294E-11
DMP:  49    -0.877691663457E+02   -0.34809E-04   -0.31013E-04   256   0.445E-04 0.866E-04
 gam= 0.382 g(H,U,f)=  0.396E-04 0.105E-06 0.116E-11 ort(H,U,f) = 0.767E-04 0.211E-06 0.231E-11
DMP:  50    -0.877691972433E+02   -0.30898E-04   -0.27615E-04   256   0.397E-04 0.769E-04
 gam= 0.382 g(H,U,f)=  0.354E-04 0.821E-07 0.920E-12 ort(H,U,f) = 0.684E-04 0.164E-06 0.182E-11
DMP:  51    -0.877692247666E+02   -0.27523E-04   -0.24682E-04   256   0.355E-04 0.685E-04
 gam= 0.382 g(H,U,f)=  0.318E-04 0.646E-07 0.731E-12 ort(H,U,f) = 0.612E-04 0.128E-06 0.144E-11
DMP:  52    -0.877692493749E+02   -0.24608E-04   -0.22109E-04   256   0.319E-04 0.613E-04
 gam= 0.382 g(H,U,f)=  0.286E-04 0.512E-07 0.582E-12 ort(H,U,f) = 0.548E-04 0.101E-06 0.114E-11
DMP:  53    -0.877692714253E+02   -0.22050E-04   -0.19867E-04   256   0.287E-04 0.549E-04
 gam= 0.382 g(H,U,f)=  0.259E-04 0.409E-07 0.465E-12 ort(H,U,f) = 0.493E-04 0.802E-07 0.910E-12
DMP:  54    -0.877692912447E+02   -0.19819E-04   -0.17917E-04   256   0.259E-04 0.494E-04
 gam= 0.382 g(H,U,f)=  0.235E-04 0.328E-07 0.373E-12 ort(H,U,f) = 0.445E-04 0.640E-07 0.728E-12
DMP:  55    -0.877693091233E+02   -0.17879E-04   -0.16207E-04   256   0.235E-04 0.446E-04
 gam= 0.382 g(H,U,f)=  0.213E-04 0.265E-07 0.301E-12 ort(H,U,f) = 0.403E-04 0.514E-07 0.585E-12
DMP:  56    -0.877693252996E+02   -0.16176E-04   -0.14691E-04   256   0.213E-04 0.403E-04
 gam= 0.382 g(H,U,f)=  0.193E-04 0.215E-07 0.244E-12 ort(H,U,f) = 0.365E-04 0.416E-07 0.472E-12
DMP:  57    -0.877693399659E+02   -0.14666E-04   -0.13319E-04   256   0.193E-04 0.366E-04
 gam= 0.382 g(H,U,f)=  0.175E-04 0.176E-07 0.198E-12 ort(H,U,f) = 0.331E-04 0.338E-07 0.382E-12
DMP:  58    -0.877693532651E+02   -0.13299E-04   -0.12086E-04   256   0.175E-04 0.332E-04
 gam= 0.382 g(H,U,f)=  0.159E-04 0.144E-07 0.161E-12 ort(H,U,f) = 0.301E-04 0.275E-07 0.310E-12
DMP:  59    -0.877693653357E+02   -0.12071E-04   -0.10976E-04   256   0.159E-04 0.301E-04
 gam= 0.382 g(H,U,f)=  0.145E-04 0.118E-07 0.132E-12 ort(H,U,f) = 0.273E-04 0.225E-07 0.253E-12
DMP:  60    -0.877693762992E+02   -0.10963E-04   -0.99674E-05   256   0.145E-04 0.274E-04
 gam= 0.382 g(H,U,f)=  0.131E-04 0.967E-08 0.108E-12 ort(H,U,f) = 0.248E-04 0.185E-07 0.207E-12
DMP:  61    -0.877693862569E+02   -0.99577E-05   -0.90526E-05   256   0.131E-04 0.248E-04
 final diagonalization
   1 F= -.87769386E+02 E0= -.87769386E+02  d E =0.000000E+00
