Al2C                                    
           1
     6.019200    0.000000    0.000000
     0.000000   10.140000    0.000000
     0.000000    0.000000   15.000000
   Al   C    O    H 
   8   4   1   2
Direct configuration=     1
   0.45224472  0.81766748  0.30490364
   0.97277844  0.82186763  0.26998482
   0.47521060  0.57100071  0.25030965
   0.97424517  0.56761247  0.24668356
   0.47388416  0.32551825  0.23601972
   0.97565186  0.32570059  0.23975749
   0.46695928  0.06562423  0.25385514
   0.98235660  0.07262052  0.26165102
   0.21994571  0.94500093  0.25459580
   0.72321736  0.95278939  0.29870191
   0.22504568  0.44681666  0.23592346
   0.72428640  0.44535422  0.24328937
   0.39354664  0.77524821  0.41630028
   0.73717364  0.97205496  0.37179176
   0.35471462  0.84131722  0.46043238
