Al2C                                    
   1.0000000000000000     
     6.0191999999999997    0.0000000000000000    0.0000000000000000
     0.0000000000000000   10.1400000000000006    0.0000000000000000
     0.0000000000000000    0.0000000000000000   15.0000000000000000
   Al   C    Se   H 
     8     4     1     2
Selective dynamics
Direct
  0.4457186381662608  0.8814091765499817  0.2389625493942883   T   T   T
  0.9453918235057136  0.8813903782844982  0.2605638205200286   T   T   T
  0.4467402658170938  0.6211453600064697  0.2410485066045595   T   T   T
  0.9466011563727480  0.6233544322606855  0.2676851707010111   T   T   T
  0.4463679140552572  0.3814050162727812  0.2773015556613918   T   T   T
  0.9468226851516565  0.3824557023125251  0.2438540018445839   T   T   T
  0.4453848424793997  0.1231399753950880  0.2617046932955956   T   T   T
  0.9454180536089126  0.1226767699093411  0.2401931629005096   T   T   T
  0.1953793827525860  0.0019119928044080  0.2495663648105589   T   T   T
  0.6956733666719075  0.0020435261089639  0.2497361542207164   T   T   T
  0.1964296532017220  0.5026692521328283  0.2582326296507161   T   T   T
  0.6968825595161821  0.5028930906047047  0.2581428623754949   T   T   T
  0.5309378395061826  0.4218093952044789  0.4626008592511899   T   T   T
  0.7429400279033175  0.3505115886156363  0.4674260784943720   T   T   T
  0.4340826578514211  0.3330778346618760  0.5306215902749642   T   T   T

  0.00000000E+00  0.00000000E+00  0.00000000E+00
  0.00000000E+00  0.00000000E+00  0.00000000E+00
  0.00000000E+00  0.00000000E+00  0.00000000E+00
  0.00000000E+00  0.00000000E+00  0.00000000E+00
  0.00000000E+00  0.00000000E+00  0.00000000E+00
  0.00000000E+00  0.00000000E+00  0.00000000E+00
  0.00000000E+00  0.00000000E+00  0.00000000E+00
  0.00000000E+00  0.00000000E+00  0.00000000E+00
  0.00000000E+00  0.00000000E+00  0.00000000E+00
  0.00000000E+00  0.00000000E+00  0.00000000E+00
  0.00000000E+00  0.00000000E+00  0.00000000E+00
  0.00000000E+00  0.00000000E+00  0.00000000E+00
  0.00000000E+00  0.00000000E+00  0.00000000E+00
  0.00000000E+00  0.00000000E+00  0.00000000E+00
  0.00000000E+00  0.00000000E+00  0.00000000E+00
