Al2C                                    
   1.0000000000000000     
     6.0191999999999997    0.0000000000000000    0.0000000000000000
     0.0000000000000000   10.1400000000000006    0.0000000000000000
     0.0000000000000000    0.0000000000000000   15.0000000000000000
   Al   C    Se   H 
     8     4     1     2
Selective dynamics
Direct
  0.4458452525654356  0.8816153928336006  0.2391501048875032   T   T   T
  0.9459067231285663  0.8818339214203321  0.2606538052542038   T   T   T
  0.4465321958297788  0.6215061486028852  0.2409835924728124   T   T   T
  0.9469744851815521  0.6233264742822612  0.2677335335084088   T   T   T
  0.4460264329804315  0.3814966438013501  0.2767661238384131   T   T   T
  0.9473534475282914  0.3827134825114537  0.2440423334873545   T   T   T
  0.4455050833574848  0.1232463574745715  0.2616834929172727   T   T   T
  0.9460048734107683  0.1230373784612468  0.2410435230223857   T   T   T
  0.1958445812347817  0.0021850152526642  0.2497940918846512   T   T   T
  0.6957696857928041  0.0023504517299814  0.2501062758106808   T   T   T
  0.1968664623642799  0.5027062778464874  0.2579965046968702   T   T   T
  0.6967998523666901  0.5029801688915390  0.2583261073653397   T   T   T
  0.5299735837622407  0.4207439438806225  0.4620333206644842   T   T   T
  0.7427386401007033  0.3505755048601392  0.4675859936542201   T   T   T
  0.4326295669565454  0.3315763292751392  0.5297411965353654   T   T   T

  0.00000000E+00  0.00000000E+00  0.00000000E+00
  0.00000000E+00  0.00000000E+00  0.00000000E+00
  0.00000000E+00  0.00000000E+00  0.00000000E+00
  0.00000000E+00  0.00000000E+00  0.00000000E+00
  0.00000000E+00  0.00000000E+00  0.00000000E+00
  0.00000000E+00  0.00000000E+00  0.00000000E+00
  0.00000000E+00  0.00000000E+00  0.00000000E+00
  0.00000000E+00  0.00000000E+00  0.00000000E+00
  0.00000000E+00  0.00000000E+00  0.00000000E+00
  0.00000000E+00  0.00000000E+00  0.00000000E+00
  0.00000000E+00  0.00000000E+00  0.00000000E+00
  0.00000000E+00  0.00000000E+00  0.00000000E+00
  0.00000000E+00  0.00000000E+00  0.00000000E+00
  0.00000000E+00  0.00000000E+00  0.00000000E+00
  0.00000000E+00  0.00000000E+00  0.00000000E+00
