Al2C                                    
   1.0000000000000000     
     6.0191999999999997    0.0000000000000000    0.0000000000000000
     0.0000000000000000   10.1400000000000006    0.0000000000000000
     0.0000000000000000    0.0000000000000000   15.0000000000000000
   Al   C    Te   H 
     8     4     1     2
Selective dynamics
Direct
  0.4202388164607120  0.8720798759865724  0.2224712137781815   T   T   T
  0.9201727610071611  0.8727885025917728  0.2740110699140667   T   T   T
  0.4210824048564849  0.6091893826350415  0.2237914071934988   T   T   T
  0.9219221217319669  0.6109894509504434  0.2756303249681913   T   T   T
  0.4177961296567501  0.3708605626008663  0.2767307320515372   T   T   T
  0.9196261240087928  0.3727989975703008  0.2240029924638928   T   T   T
  0.4192442010910778  0.1100300380868066  0.2728567060876908   T   T   T
  0.9194373746230812  0.1097092514884820  0.2220439932408201   T   T   T
  0.1697682483526294  0.9909177613758037  0.2471171910154134   T   T   T
  0.6697796848279827  0.9910537051172055  0.2483020827990668   T   T   T
  0.1701549183274571  0.4912250198051351  0.2485680021780424   T   T   T
  0.6701931871719065  0.4912040621012100  0.2540227307595731   T   T   T
  0.5982402718102359  0.4600423231326237  0.4822455041529726   T   T   T
  0.8365644580860296  0.3753408851481143  0.4680979704177084   T   T   T
  0.5865501645480737  0.4036636725338800  0.5895080789793322   T   T   T

  0.00000000E+00  0.00000000E+00  0.00000000E+00
  0.00000000E+00  0.00000000E+00  0.00000000E+00
  0.00000000E+00  0.00000000E+00  0.00000000E+00
  0.00000000E+00  0.00000000E+00  0.00000000E+00
  0.00000000E+00  0.00000000E+00  0.00000000E+00
  0.00000000E+00  0.00000000E+00  0.00000000E+00
  0.00000000E+00  0.00000000E+00  0.00000000E+00
  0.00000000E+00  0.00000000E+00  0.00000000E+00
  0.00000000E+00  0.00000000E+00  0.00000000E+00
  0.00000000E+00  0.00000000E+00  0.00000000E+00
  0.00000000E+00  0.00000000E+00  0.00000000E+00
  0.00000000E+00  0.00000000E+00  0.00000000E+00
  0.00000000E+00  0.00000000E+00  0.00000000E+00
  0.00000000E+00  0.00000000E+00  0.00000000E+00
  0.00000000E+00  0.00000000E+00  0.00000000E+00
