  15  15   0   0
  0.6103469E+02  0.6019200E-09  0.1014000E-08  0.1500000E-08  0.3500000E-15
   1.0000000000000000E-004
  CAR 
 Al2C                                    
      1.84189000    -14.95256916  301     -1.68319700      1.00000000
    -14.953  0.0000E+00  0.0000E+00
    -14.897  0.0000E+00  0.0000E+00
    -14.841  0.0000E+00  0.0000E+00
    -14.785  0.0000E+00  0.0000E+00
    -14.729  0.0000E+00  0.0000E+00
    -14.673  0.0000E+00  0.0000E+00
    -14.617  0.0000E+00  0.0000E+00
    -14.561  0.0000E+00  0.0000E+00
    -14.505  0.0000E+00  0.0000E+00
    -14.449  0.3027E-14  0.1694E-15
    -14.393  0.1400E-09  0.7836E-11
    -14.337  0.5838E-06  0.3269E-07
    -14.281  0.2310E-03  0.1297E-04
    -14.225  0.9482E-02  0.5438E-03
    -14.169  0.4643E-01  0.3143E-02
    -14.113  0.3055E-01  0.4853E-02
    -14.057  0.2600E-02  0.4999E-02
    -14.001  0.2475E-04  0.5000E-02
    -13.945  0.2332E-07  0.5000E-02
    -13.889  0.2024E-11  0.5000E-02
    -13.833  0.1587E-16  0.5000E-02
    -13.777  0.0000E+00  0.5000E-02
    -13.721  0.0000E+00  0.5000E-02
    -13.665  0.0000E+00  0.5000E-02
    -13.609  0.7106E-16  0.5000E-02
    -13.553  0.4469E-11  0.5000E-02
    -13.497  0.2455E-07  0.5000E-02
    -13.441  0.1255E-04  0.5001E-02
    -13.385  0.7031E-03  0.5040E-02
    -13.329  0.5842E-02  0.5367E-02
    -13.273  0.1044E-01  0.5951E-02
    -13.217  0.1767E-01  0.6941E-02
    -13.161  0.2807E-01  0.8512E-02
    -13.105  0.1909E-01  0.9581E-02
    -13.049  0.1853E-01  0.1062E-01
    -12.993  0.6397E-02  0.1098E-01
    -12.937  0.5468E-03  0.1101E-01
    -12.881  0.3695E-02  0.1121E-01
    -12.825  0.1709E-01  0.1217E-01
    -12.769  0.1802E-01  0.1318E-01
    -12.713  0.1940E-01  0.1427E-01
    -12.657  0.1169E-01  0.1492E-01
    -12.601  0.1407E-02  0.1500E-01
    -12.545  0.2506E-04  0.1500E-01
    -12.489  0.4893E-07  0.1500E-01
    -12.433  0.1092E-06  0.1500E-01
    -12.377  0.4654E-04  0.1500E-01
    -12.321  0.2254E-02  0.1513E-01
    -12.265  0.1525E-01  0.1598E-01
    -12.209  0.2009E-01  0.1711E-01
    -12.153  0.2050E-01  0.1826E-01
    -12.098  0.1200E-01  0.1893E-01
    -12.042  0.1281E-02  0.1900E-01
    -11.986  0.1894E-04  0.1900E-01
    -11.930  0.3080E-07  0.1900E-01
    -11.874  0.4724E-11  0.1900E-01
    -11.818  0.2840E-10  0.1900E-01
    -11.762  0.1307E-06  0.1900E-01
    -11.706  0.5863E-04  0.1900E-01
    -11.650  0.2845E-02  0.1916E-01
    -11.594  0.1761E-01  0.2015E-01
    -11.538  0.2340E-01  0.2146E-01
    -11.482  0.2130E-01  0.2265E-01
    -11.426  0.5996E-02  0.2299E-01
    -11.370  0.2383E-03  0.2300E-01
    -11.314  0.1283E-03  0.2301E-01
    -11.258  0.3303E-02  0.2319E-01
    -11.202  0.1180E-01  0.2385E-01
    -11.146  0.1325E-01  0.2459E-01
    -11.090  0.6654E-02  0.2497E-01
    -11.034  0.5826E-03  0.2500E-01
    -10.978  0.5795E-05  0.2500E-01
    -10.922  0.5676E-08  0.2500E-01
    -10.866  0.5120E-12  0.2500E-01
    -10.810  0.3305E-17  0.2500E-01
    -10.754  0.0000E+00  0.2500E-01
    -10.698  0.0000E+00  0.2500E-01
    -10.642  0.0000E+00  0.2500E-01
    -10.586  0.0000E+00  0.2500E-01
    -10.530  0.0000E+00  0.2500E-01
    -10.474  0.0000E+00  0.2500E-01
    -10.418  0.0000E+00  0.2500E-01
    -10.362  0.0000E+00  0.2500E-01
    -10.306  0.0000E+00  0.2500E-01
    -10.250  0.0000E+00  0.2500E-01
    -10.194  0.0000E+00  0.2500E-01
    -10.138  0.0000E+00  0.2500E-01
    -10.082  0.0000E+00  0.2500E-01
    -10.026  0.0000E+00  0.2500E-01
     -9.970  0.0000E+00  0.2500E-01
     -9.914  0.0000E+00  0.2500E-01
     -9.858  0.0000E+00  0.2500E-01
     -9.802  0.0000E+00  0.2500E-01
     -9.746  0.0000E+00  0.2500E-01
     -9.690  0.0000E+00  0.2500E-01
     -9.634  0.0000E+00  0.2500E-01
     -9.578  0.0000E+00  0.2500E-01
     -9.522  0.0000E+00  0.2500E-01
     -9.466  0.0000E+00  0.2500E-01
     -9.410  0.0000E+00  0.2500E-01
     -9.354  0.0000E+00  0.2500E-01
     -9.298  0.0000E+00  0.2500E-01
     -9.242  0.0000E+00  0.2500E-01
     -9.186  0.0000E+00  0.2500E-01
     -9.130  0.0000E+00  0.2500E-01
     -9.075  0.0000E+00  0.2500E-01
     -9.019  0.0000E+00  0.2500E-01
     -8.963  0.0000E+00  0.2500E-01
     -8.907  0.0000E+00  0.2500E-01
     -8.851  0.0000E+00  0.2500E-01
     -8.795  0.0000E+00  0.2500E-01
     -8.739  0.0000E+00  0.2500E-01
     -8.683  0.0000E+00  0.2500E-01
     -8.627  0.0000E+00  0.2500E-01
     -8.571  0.4826E-16  0.2500E-01
     -8.515  0.3283E-11  0.2500E-01
     -8.459  0.1926E-07  0.2500E-01
     -8.403  0.1019E-04  0.2500E-01
     -8.347  0.5338E-03  0.2503E-01
     -8.291  0.3741E-02  0.2524E-01
     -8.235  0.7654E-02  0.2567E-01
     -8.179  0.5532E-02  0.2598E-01
     -8.123  0.3985E-02  0.2620E-01
     -8.067  0.9442E-02  0.2673E-01
     -8.011  0.8104E-02  0.2718E-01
     -7.955  0.1012E-01  0.2775E-01
     -7.899  0.4674E-02  0.2801E-01
     -7.843  0.4867E-02  0.2828E-01
     -7.787  0.6509E-02  0.2865E-01
     -7.731  0.1178E-01  0.2931E-01
     -7.675  0.2998E-01  0.3099E-01
     -7.619  0.3382E-01  0.3288E-01
     -7.563  0.4198E-01  0.3523E-01
     -7.507  0.4450E-01  0.3772E-01
     -7.451  0.2339E-01  0.3903E-01
     -7.395  0.9087E-02  0.3954E-01
     -7.339  0.2734E-02  0.3969E-01
     -7.283  0.7431E-02  0.4011E-01
     -7.227  0.1288E-01  0.4083E-01
     -7.171  0.2978E-02  0.4100E-01
     -7.115  0.1404E-03  0.4100E-01
     -7.059  0.1853E-02  0.4111E-01
     -7.003  0.6736E-02  0.4148E-01
     -6.947  0.5482E-02  0.4179E-01
     -6.891  0.1642E-01  0.4271E-01
     -6.835  0.1575E-01  0.4359E-01
     -6.779  0.9581E-02  0.4413E-01
     -6.723  0.1300E-01  0.4486E-01
     -6.667  0.9349E-02  0.4538E-01
     -6.611  0.3329E-01  0.4724E-01
     -6.555  0.4502E-01  0.4976E-01
     -6.499  0.2262E-01  0.5103E-01
     -6.443  0.1513E-01  0.5188E-01
     -6.387  0.2027E-01  0.5301E-01
     -6.331  0.5576E-02  0.5332E-01
     -6.275  0.1841E-03  0.5333E-01
     -6.219  0.7399E-04  0.5334E-01
     -6.163  0.2572E-02  0.5348E-01
     -6.107  0.1449E-01  0.5429E-01
     -6.052  0.1814E-01  0.5531E-01
     -5.996  0.8281E-02  0.5577E-01
     -5.940  0.1105E-01  0.5639E-01
     -5.884  0.9310E-02  0.5691E-01
     -5.828  0.1557E-02  0.5700E-01
     -5.772  0.1264E-02  0.5707E-01
     -5.716  0.1506E-01  0.5791E-01
     -5.660  0.2568E-01  0.5935E-01
     -5.604  0.1200E-01  0.6002E-01
     -5.548  0.1114E-01  0.6065E-01
     -5.492  0.9712E-02  0.6119E-01
     -5.436  0.9686E-02  0.6173E-01
     -5.380  0.4431E-02  0.6198E-01
     -5.324  0.6978E-03  0.6202E-01
     -5.268  0.2668E-02  0.6217E-01
     -5.212  0.2639E-02  0.6232E-01
     -5.156  0.2117E-02  0.6243E-01
     -5.100  0.1706E-01  0.6339E-01
     -5.044  0.2380E-01  0.6472E-01
     -4.988  0.5702E-02  0.6504E-01
     -4.932  0.3444E-02  0.6523E-01
     -4.876  0.2778E-02  0.6539E-01
     -4.820  0.1216E-01  0.6607E-01
     -4.764  0.1875E-01  0.6712E-01
     -4.708  0.1090E-01  0.6773E-01
     -4.652  0.2658E-01  0.6922E-01
     -4.596  0.3331E-01  0.7108E-01
     -4.540  0.2383E-01  0.7242E-01
     -4.484  0.7251E-02  0.7282E-01
     -4.428  0.1035E-01  0.7340E-01
     -4.372  0.2535E-01  0.7482E-01
     -4.316  0.4088E-01  0.7711E-01
     -4.260  0.3667E-01  0.7916E-01
     -4.204  0.2945E-01  0.8081E-01
     -4.148  0.9289E-02  0.8133E-01
     -4.092  0.5389E-02  0.8163E-01
     -4.036  0.1105E-01  0.8225E-01
     -3.980  0.1755E-01  0.8323E-01
     -3.924  0.2082E-01  0.8440E-01
     -3.868  0.3257E-01  0.8622E-01
     -3.812  0.2858E-01  0.8782E-01
     -3.756  0.2350E-01  0.8914E-01
     -3.700  0.1533E-01  0.9000E-01
     -3.644  0.9309E-02  0.9052E-01
     -3.588  0.1116E-01  0.9114E-01
     -3.532  0.1384E-01  0.9192E-01
     -3.476  0.2053E-01  0.9307E-01
     -3.420  0.2303E-01  0.9436E-01
     -3.364  0.2464E-01  0.9574E-01
     -3.308  0.2071E-01  0.9690E-01
     -3.252  0.2516E-01  0.9830E-01
     -3.196  0.4499E-01  0.1008E+00
     -3.140  0.4694E-01  0.1035E+00
     -3.084  0.2408E-01  0.1048E+00
     -3.029  0.3519E-02  0.1050E+00
     -2.973  0.1152E-03  0.1050E+00
     -2.917  0.2079E-02  0.1051E+00
     -2.861  0.1535E-01  0.1060E+00
     -2.805  0.2154E-01  0.1072E+00
     -2.749  0.8626E-02  0.1077E+00
     -2.693  0.9316E-02  0.1082E+00
     -2.637  0.2163E-01  0.1094E+00
     -2.581  0.3393E-01  0.1113E+00
     -2.525  0.4076E-01  0.1136E+00
     -2.469  0.2974E-01  0.1152E+00
     -2.413  0.1231E-01  0.1159E+00
     -2.357  0.1024E-01  0.1165E+00
     -2.301  0.1099E-01  0.1171E+00
     -2.245  0.3613E-02  0.1173E+00
     -2.189  0.1005E-02  0.1174E+00
     -2.133  0.7229E-02  0.1178E+00
     -2.077  0.8808E-02  0.1183E+00
     -2.021  0.6713E-02  0.1187E+00
     -1.965  0.1097E-01  0.1193E+00
     -1.909  0.8873E-02  0.1198E+00
     -1.853  0.3907E-02  0.1200E+00
     -1.797  0.2807E-03  0.1200E+00
     -1.741  0.2160E-05  0.1200E+00
     -1.685  0.1559E-08  0.1200E+00
     -1.629  0.9935E-13  0.1200E+00
     -1.573  0.0000E+00  0.1200E+00
     -1.517  0.0000E+00  0.1200E+00
     -1.461  0.0000E+00  0.1200E+00
     -1.405  0.0000E+00  0.1200E+00
     -1.349  0.1983E-17  0.1200E+00
     -1.293  0.2579E-12  0.1200E+00
     -1.237  0.3259E-08  0.1200E+00
     -1.181  0.3651E-05  0.1200E+00
     -1.125  0.3861E-03  0.1200E+00
     -1.069  0.4349E-02  0.1203E+00
     -1.013  0.6175E-02  0.1206E+00
     -0.957  0.4793E-02  0.1209E+00
     -0.901  0.1642E-01  0.1218E+00
     -0.845  0.1646E-01  0.1227E+00
     -0.789  0.1198E-01  0.1234E+00
     -0.733  0.4638E-02  0.1237E+00
     -0.677  0.2065E-02  0.1238E+00
     -0.621  0.8561E-02  0.1242E+00
     -0.565  0.1013E-01  0.1248E+00
     -0.509  0.4897E-02  0.1251E+00
     -0.453  0.1225E-01  0.1258E+00
     -0.397  0.1662E-01  0.1267E+00
     -0.341  0.1120E-01  0.1273E+00
     -0.285  0.1576E-01  0.1282E+00
     -0.229  0.2913E-01  0.1298E+00
     -0.173  0.2230E-01  0.1311E+00
     -0.117  0.2154E-01  0.1323E+00
     -0.061  0.2328E-01  0.1336E+00
     -0.006  0.2609E-01  0.1351E+00
      0.050  0.2334E-01  0.1364E+00
      0.106  0.2991E-01  0.1380E+00
      0.162  0.2476E-01  0.1394E+00
      0.218  0.2362E-01  0.1408E+00
      0.274  0.2369E-01  0.1421E+00
      0.330  0.2072E-01  0.1432E+00
      0.386  0.2340E-01  0.1445E+00
      0.442  0.2764E-01  0.1461E+00
      0.498  0.1726E-01  0.1471E+00
      0.554  0.2788E-01  0.1486E+00
      0.610  0.3160E-01  0.1504E+00
      0.666  0.2160E-01  0.1516E+00
      0.722  0.3214E-01  0.1534E+00
      0.778  0.3276E-01  0.1552E+00
      0.834  0.1362E-01  0.1560E+00
      0.890  0.8838E-02  0.1565E+00
      0.946  0.1777E-01  0.1575E+00
      1.002  0.1188E-01  0.1582E+00
      1.058  0.1387E-01  0.1589E+00
      1.114  0.1543E-01  0.1598E+00
      1.170  0.3631E-02  0.1600E+00
      1.226  0.1099E-03  0.1600E+00
      1.282  0.3372E-06  0.1600E+00
      1.338  0.9448E-10  0.1600E+00
      1.394  0.2306E-14  0.1600E+00
      1.450  0.0000E+00  0.1600E+00
      1.506  0.0000E+00  0.1600E+00
      1.562  0.0000E+00  0.1600E+00
      1.618  0.0000E+00  0.1600E+00
      1.674  0.0000E+00  0.1600E+00
      1.730  0.0000E+00  0.1600E+00
      1.786  0.0000E+00  0.1600E+00
      1.842  0.0000E+00  0.1600E+00
