   15   15  400    1
  0.6103469E+02  0.6019200E-09  0.1014000E-08  0.1500000E-08  0.3500000E-15
   1.0000000000000000E-004
  CAR 
 Al2C                                    
     48      8     32

  0.3742002E-15  0.3742002E-15  0.1262379E-14  0.6666667E-01
    1      -14.189185   1.000000
    2      -13.339319   1.000000
    3      -13.179430   1.000000
    4      -11.232336   1.000000
    5      -11.149209   1.000000
    6       -8.299246   1.000000
    7       -8.113639   1.000000
    8       -7.995963   1.000000
    9       -7.555942   1.000000
   10       -6.588429   1.000000
   11       -6.047109   1.000000
   12       -5.600829   1.000000
   13       -5.268280   1.000000
   14       -4.950419   1.000000
   15       -4.407653   1.000000
   16       -4.258513   1.000000
   17       -3.944233   1.000000
   18       -3.784989   1.000000
   19       -3.354915   1.000000
   20       -2.522521   1.000000
   21       -2.481588   1.000000
   22       -2.340837   1.000000
   23       -2.116773   1.000000
   24       -2.017295   1.000000
   25       -0.892956   0.000000
   26       -0.360492   0.000000
   27       -0.239126   0.000000
   28       -0.139493   0.000000
   29       -0.084129   0.000000
   30        0.009553   0.000000
   31        0.353475   0.000000
   32        0.697879   0.000000

  0.2000000E+00  0.3742002E-15  0.1262379E-14  0.1333333E+00
    1      -14.183172   1.000000
    2      -13.216648   1.000000
    3      -13.058512   1.000000
    4      -11.609990   1.000000
    5      -11.503968   1.000000
    6       -7.972028   1.000000
    7       -7.716715   1.000000
    8       -7.566845   1.000000
    9       -7.426172   1.000000
   10       -6.604815   1.000000
   11       -5.962842   1.000000
   12       -5.925063   1.000000
   13       -5.509206   1.000000
   14       -4.681532   1.000000
   15       -4.572257   1.000000
   16       -4.219729   1.000000
   17       -3.998987   1.000000
   18       -3.602062   1.000000
   19       -3.202416   1.000000
   20       -3.181372   1.000000
   21       -3.143409   1.000000
   22       -2.806160   1.000000
   23       -2.531084   1.000000
   24       -1.922974   1.000000
   25       -1.060003   0.000000
   26       -0.239904   0.000000
   27       -0.141746   0.000000
   28        0.111518   0.000000
   29        0.303037   0.000000
   30        0.397080   0.000000
   31        0.765297   0.000000
   32        0.888246   0.000000

  0.4000000E+00  0.3742002E-15  0.1262379E-14  0.1333333E+00
    1      -14.173875   1.000000
    2      -12.854035   1.000000
    3      -12.703126   1.000000
    4      -12.281470   1.000000
    5      -12.146923   1.000000
    6       -7.628723   1.000000
    7       -7.510426   1.000000
    8       -6.883094   1.000000
    9       -6.654287   1.000000
   10       -6.417609   1.000000
   11       -6.130104   1.000000
   12       -5.586227   1.000000
   13       -5.446238   1.000000
   14       -5.079382   1.000000
   15       -4.616649   1.000000
   16       -4.345508   1.000000
   17       -4.294130   1.000000
   18       -4.262194   1.000000
   19       -3.950757   1.000000
   20       -3.789656   1.000000
   21       -3.490301   1.000000
   22       -3.196875   1.000000
   23       -2.405533   1.000000
   24       -1.997151   1.000000
   25       -0.920852   0.000000
   26       -0.450817   0.000000
   27        0.120204   0.000000
   28        0.563374   0.000000
   29        0.602218   0.000000
   30        0.694619   0.000000
   31        0.763086   0.000000
   32        1.026140   0.000000

  0.3742002E-15  0.3333333E+00  0.1262379E-14  0.1333333E+00
    1      -14.189083   1.000000
    2      -13.304374   1.000000
    3      -13.219095   1.000000
    4      -11.223648   1.000000
    5      -11.158524   1.000000
    6       -8.236508   1.000000
    7       -8.078203   1.000000
    8       -7.836324   1.000000
    9       -7.552008   1.000000
   10       -7.024093   1.000000
   11       -6.584914   1.000000
   12       -5.092809   1.000000
   13       -4.804225   1.000000
   14       -4.686077   1.000000
   15       -4.458523   1.000000
   16       -4.373614   1.000000
   17       -3.863140   1.000000
   18       -3.659033   1.000000
   19       -3.417877   1.000000
   20       -2.873196   1.000000
   21       -2.520078   1.000000
   22       -2.484986   1.000000
   23       -2.324545   1.000000
   24       -2.134197   1.000000
   25       -0.920571   0.000000
   26       -0.462748   0.000000
   27       -0.247022   0.000000
   28       -0.121997   0.000000
   29       -0.018543   0.000000
   30        0.208234   0.000000
   31        0.414051   0.000000
   32        0.485704   0.000000

  0.2000000E+00  0.3333333E+00  0.1262379E-14  0.1333333E+00
    1      -14.183052   1.000000
    2      -13.182643   1.000000
    3      -13.096993   1.000000
    4      -11.593649   1.000000
    5      -11.521660   1.000000
    6       -7.710609   1.000000
    7       -7.663498   1.000000
    8       -7.552173   1.000000
    9       -7.504221   1.000000
   10       -6.900413   1.000000
   11       -6.595804   1.000000
   12       -5.713265   1.000000
   13       -5.081963   1.000000
   14       -4.587374   1.000000
   15       -4.367897   1.000000
   16       -4.314411   1.000000
   17       -3.884438   1.000000
   18       -3.340831   1.000000
   19       -3.250830   1.000000
   20       -3.179970   1.000000
   21       -3.128109   1.000000
   22       -2.858708   1.000000
   23       -2.613301   1.000000
   24       -2.546659   1.000000
   25       -0.801069   0.000000
   26       -0.403879   0.000000
   27       -0.019821   0.000000
   28        0.094384   0.000000
   29        0.205393   0.000000
   30        0.393188   0.000000
   31        0.558175   0.000000
   32        0.765279   0.000000

  0.4000000E+00  0.3333333E+00  0.1262379E-14  0.1333333E+00
    1      -14.173820   1.000000
    2      -12.823021   1.000000
    3      -12.737954   1.000000
    4      -12.256046   1.000000
    5      -12.175089   1.000000
    6       -7.607710   1.000000
    7       -7.263143   1.000000
    8       -6.771596   1.000000
    9       -6.612939   1.000000
   10       -6.527399   1.000000
   11       -6.424438   1.000000
   12       -6.085168   1.000000
   13       -5.697107   1.000000
   14       -4.798827   1.000000
   15       -4.652641   1.000000
   16       -4.257360   1.000000
   17       -4.017804   1.000000
   18       -3.896912   1.000000
   19       -3.758867   1.000000
   20       -3.536949   1.000000
   21       -3.432178   1.000000
   22       -3.227180   1.000000
   23       -2.678063   1.000000
   24       -2.594399   1.000000
   25       -0.587466   0.000000
   26       -0.305768   0.000000
   27        0.065558   0.000000
   28        0.291934   0.000000
   29        0.515350   0.000000
   30        0.670127   0.000000
   31        0.934399   0.000000
   32        1.077621   0.000000

 -0.4000000E+00  0.3333333E+00  0.1262379E-14  0.1333333E+00
    1      -14.173805   1.000000
    2      -12.823102   1.000000
    3      -12.737852   1.000000
    4      -12.255878   1.000000
    5      -12.175282   1.000000
    6       -7.606389   1.000000
    7       -7.271873   1.000000
    8       -6.758674   1.000000
    9       -6.612523   1.000000
   10       -6.521265   1.000000
   11       -6.425616   1.000000
   12       -6.099813   1.000000
   13       -5.689247   1.000000
   14       -4.820052   1.000000
   15       -4.647811   1.000000
   16       -4.222749   1.000000
   17       -4.085824   1.000000
   18       -3.871002   1.000000
   19       -3.752381   1.000000
   20       -3.506080   1.000000
   21       -3.412737   1.000000
   22       -3.260019   1.000000
   23       -2.683895   1.000000
   24       -2.588589   1.000000
   25       -0.639736   0.000000
   26       -0.210718   0.000000
   27        0.082141   0.000000
   28        0.197201   0.000000
   29        0.551103   0.000000
   30        0.703160   0.000000
   31        0.933891   0.000000
   32        1.078505   0.000000

 -0.2000000E+00  0.3333333E+00  0.1262379E-14  0.1333333E+00
    1      -14.183064   1.000000
    2      -13.182662   1.000000
    3      -13.096960   1.000000
    4      -11.593462   1.000000
    5      -11.521866   1.000000
    6       -7.709843   1.000000
    7       -7.665296   1.000000
    8       -7.556244   1.000000
    9       -7.501664   1.000000
   10       -6.895983   1.000000
   11       -6.594391   1.000000
   12       -5.703594   1.000000
   13       -5.106485   1.000000
   14       -4.585979   1.000000
   15       -4.364913   1.000000
   16       -4.333012   1.000000
   17       -3.858442   1.000000
   18       -3.348845   1.000000
   19       -3.249745   1.000000
   20       -3.172574   1.000000
   21       -3.124062   1.000000
   22       -2.840575   1.000000
   23       -2.621748   1.000000
   24       -2.549637   1.000000
   25       -0.849805   0.000000
   26       -0.267563   0.000000
   27       -0.085814   0.000000
   28       -0.015416   0.000000
   29        0.259817   0.000000
   30        0.395514   0.000000
   31        0.597033   0.000000
   32        0.726219   0.000000
