       N       E                     dE             d eps       ncg     rms          rms(c)
DAV:   1     0.323766499356E+03    0.32377E+03   -0.13134E+04   512   0.924E+02
DAV:   2     0.162840283788E+02   -0.30748E+03   -0.29109E+03   776   0.213E+02
DAV:   3    -0.681977037229E+02   -0.84482E+02   -0.83183E+02   832   0.103E+02
DAV:   4    -0.719322924775E+02   -0.37346E+01   -0.37231E+01   680   0.263E+01
DAV:   5    -0.720860375028E+02   -0.15375E+00   -0.15368E+00   832   0.607E+00
DAV:   6    -0.720893647388E+02   -0.33272E-02   -0.33266E-02   744   0.882E-01
DAV:   7    -0.720895175461E+02   -0.15281E-03   -0.15280E-03   848   0.180E-01    0.220E+01
DAV:   8    -0.492215925744E+02    0.22868E+02   -0.10969E+02   664   0.532E+01    0.593E+00
DAV:   9    -0.493040074564E+02   -0.82415E-01   -0.79996E+00   704   0.129E+01    0.420E+00
DAV:  10    -0.487762686569E+02    0.52774E+00   -0.24196E+00   728   0.882E+00    0.124E+00
DAV:  11    -0.486744528207E+02    0.10182E+00   -0.29835E-01   728   0.279E+00    0.630E-01
DAV:  12    -0.486567793541E+02    0.17673E-01   -0.28448E-01   720   0.240E+00    0.563E-01
DAV:  13    -0.486398426823E+02    0.16937E-01   -0.26913E-02   720   0.102E+00    0.321E-01
DAV:  14    -0.486275972490E+02    0.12245E-01   -0.37794E-02   720   0.951E-01    0.102E-01
DAV:  15    -0.486212706780E+02    0.63266E-02   -0.46433E-03   664   0.420E-01    0.797E-02
DAV:  16    -0.486167635788E+02    0.45071E-02   -0.71417E-03   560   0.429E-01    0.675E-02
DAV:  17    -0.486185574567E+02   -0.17939E-02   -0.32479E-03   584   0.360E-01    0.713E-02
DAV:  18    -0.486194596192E+02   -0.90216E-03   -0.33270E-03   680   0.303E-01    0.464E-02
DAV:  19    -0.486201324574E+02   -0.67284E-03   -0.68481E-04   680   0.164E-01    0.121E-02
DAV:  20    -0.486209689746E+02   -0.83652E-03   -0.36504E-04   632   0.853E-02    0.126E-02
DAV:  21    -0.486216427406E+02   -0.67377E-03   -0.24751E-04   560   0.623E-02    0.680E-03
DAV:  22    -0.486217453774E+02   -0.10264E-03   -0.38278E-05   576   0.330E-02    0.321E-03
DAV:  23    -0.486218184358E+02   -0.73058E-04   -0.38538E-05   488   0.301E-02    0.350E-03
DAV:  24    -0.486218309791E+02   -0.12543E-04   -0.43376E-06   424   0.152E-02    0.261E-03
DAV:  25    -0.486218432915E+02   -0.12312E-04   -0.61899E-06   368   0.149E-02    0.201E-03
DAV:  26    -0.486218448764E+02   -0.15849E-05   -0.28054E-06   408   0.992E-03
   1 F= -.48621845E+02 E0= -.48621845E+02  d E =-.486218E+02
       N       E                     dE             d eps       ncg     rms          rms(c)
DAV:   1    -0.486297462832E+02   -0.79030E-02   -0.13215E-01   712   0.212E+00    0.779E-02
DAV:   2    -0.486301371678E+02   -0.39088E-03   -0.53831E-03   640   0.343E-01    0.609E-02
DAV:   3    -0.486301037603E+02    0.33407E-04   -0.48257E-04   808   0.120E-01    0.287E-02
DAV:   4    -0.486301062044E+02   -0.24442E-05   -0.44796E-05   608   0.357E-02
   2 F= -.48630106E+02 E0= -.48630106E+02  d E =-.826133E-02
       N       E                     dE             d eps       ncg     rms          rms(c)
DAV:   1    -0.486313385643E+02   -0.12348E-02   -0.46957E-02   712   0.126E+00    0.464E-02
DAV:   2    -0.486314768818E+02   -0.13832E-03   -0.19121E-03   648   0.205E-01    0.360E-02
DAV:   3    -0.486314670093E+02    0.98725E-05   -0.17222E-04   816   0.715E-02    0.173E-02
DAV:   4    -0.486314679802E+02   -0.97088E-06   -0.13502E-05   384   0.214E-02
   3 F= -.48631468E+02 E0= -.48631468E+02  d E =-.962310E-02
       N       E                     dE             d eps       ncg     rms          rms(c)
DAV:   1    -0.486386870144E+02   -0.72200E-02   -0.15925E-01   704   0.249E+00    0.765E-02
DAV:   2    -0.486391551013E+02   -0.46809E-03   -0.55963E-03   704   0.320E-01    0.519E-02
DAV:   3    -0.486391575046E+02   -0.24033E-05   -0.23076E-04   808   0.786E-02    0.284E-02
DAV:   4    -0.486391702967E+02   -0.12792E-04   -0.59389E-05   608   0.401E-02    0.682E-03
DAV:   5    -0.486391717390E+02   -0.14423E-05   -0.67596E-06   448   0.174E-02
   4 F= -.48639172E+02 E0= -.48639172E+02  d E =-.770376E-02
       N       E                     dE             d eps       ncg     rms          rms(c)
DAV:   1    -0.486510285568E+02   -0.11858E-01   -0.14358E+00   680   0.745E+00    0.231E-01
DAV:   2    -0.486553310884E+02   -0.43025E-02   -0.51043E-02   680   0.969E-01    0.156E-01
DAV:   3    -0.486553558476E+02   -0.24759E-04   -0.22029E-03   784   0.247E-01    0.856E-02
DAV:   4    -0.486554314748E+02   -0.75627E-04   -0.52020E-04   576   0.118E-01    0.200E-02
DAV:   5    -0.486554407048E+02   -0.92300E-05   -0.76904E-05   664   0.532E-02
   5 F= -.48655441E+02 E0= -.48655441E+02  d E =-.239727E-01
       N       E                     dE             d eps       ncg     rms          rms(c)
DAV:   1    -0.486423342672E+02    0.13097E-01   -0.57332E+00   672   0.148E+01    0.459E-01
DAV:   2    -0.486595363790E+02   -0.17202E-01   -0.20268E-01   672   0.193E+00    0.310E-01
DAV:   3    -0.486597498197E+02   -0.21344E-03   -0.98610E-03   784   0.518E-01    0.172E-01
DAV:   4    -0.486599875685E+02   -0.23775E-03   -0.22699E-03   680   0.247E-01    0.401E-02
DAV:   5    -0.486600154013E+02   -0.27833E-04   -0.33261E-04   680   0.110E-01    0.216E-02
DAV:   6    -0.486600643802E+02   -0.48979E-04   -0.16360E-04   736   0.628E-02    0.130E-02
DAV:   7    -0.486600875950E+02   -0.23215E-04   -0.27333E-05   560   0.365E-02    0.644E-03
DAV:   8    -0.486601415728E+02   -0.53978E-04   -0.33241E-05   544   0.271E-02    0.576E-03
DAV:   9    -0.486601672533E+02   -0.25681E-04   -0.40870E-06   448   0.183E-02    0.300E-03
DAV:  10    -0.486602218269E+02   -0.54574E-04   -0.34522E-05   536   0.297E-02    0.671E-03
DAV:  11    -0.486602333914E+02   -0.11565E-04   -0.62194E-06   440   0.229E-02    0.309E-03
DAV:  12    -0.486602495981E+02   -0.16207E-04   -0.78374E-06   392   0.145E-02    0.842E-04
DAV:  13    -0.486602627023E+02   -0.13104E-04   -0.38660E-06   408   0.122E-02    0.815E-04
DAV:  14    -0.486602685171E+02   -0.58148E-05   -0.19908E-06   392   0.775E-03
   6 F= -.48660269E+02 E0= -.48660269E+02  d E =-.288005E-01
       N       E                     dE             d eps       ncg     rms          rms(c)
DAV:   1    -0.486604901850E+02   -0.22748E-03   -0.72732E-01   680   0.529E+00    0.160E-01
DAV:   2    -0.486624831865E+02   -0.19930E-02   -0.23719E-02   688   0.667E-01    0.109E-01
DAV:   3    -0.486625277299E+02   -0.44543E-04   -0.11728E-03   800   0.174E-01    0.575E-02
DAV:   4    -0.486625720773E+02   -0.44347E-04   -0.26135E-04   600   0.817E-02    0.140E-02
DAV:   5    -0.486625727329E+02   -0.65559E-06   -0.29243E-05   616   0.353E-02
   7 F= -.48662573E+02 E0= -.48662573E+02  d E =-.311048E-01
       N       E                     dE             d eps       ncg     rms          rms(c)
DAV:   1    -0.486688025717E+02   -0.62305E-02   -0.31017E-01   616   0.356E+00    0.967E-02
DAV:   2    -0.486696529302E+02   -0.85036E-03   -0.10886E-02   640   0.491E-01    0.772E-02
DAV:   3    -0.486696028548E+02    0.50075E-04   -0.56495E-04   824   0.135E-01    0.449E-02
DAV:   4    -0.486696170399E+02   -0.14185E-04   -0.21143E-04   592   0.712E-02    0.125E-02
DAV:   5    -0.486696229672E+02   -0.59273E-05   -0.30243E-05   496   0.329E-02
   8 F= -.48669623E+02 E0= -.48669623E+02  d E =-.705023E-02
       N       E                     dE             d eps       ncg     rms          rms(c)
DAV:   1    -0.486719471149E+02   -0.23301E-02   -0.22539E+00   616   0.957E+00    0.262E-01
DAV:   2    -0.486782816478E+02   -0.63345E-02   -0.79734E-02   656   0.132E+00    0.206E-01
DAV:   3    -0.486779544300E+02    0.32722E-03   -0.39209E-03   832   0.353E-01    0.121E-01
DAV:   4    -0.486780211556E+02   -0.66726E-04   -0.15856E-03   600   0.193E-01    0.329E-02
DAV:   5    -0.486780534688E+02   -0.32313E-04   -0.24875E-04   680   0.892E-02    0.154E-02
DAV:   6    -0.486780659122E+02   -0.12443E-04   -0.55723E-05   600   0.362E-02    0.866E-03
DAV:   7    -0.486780737040E+02   -0.77918E-05   -0.10394E-05   432   0.254E-02
   9 F= -.48678074E+02 E0= -.48678074E+02  d E =-.155010E-01
       N       E                     dE             d eps       ncg     rms          rms(c)
DAV:   1    -0.486868725756E+02   -0.88067E-02   -0.96650E-01   640   0.631E+00    0.154E-01
DAV:   2    -0.486883389543E+02   -0.14664E-02   -0.21773E-02   608   0.768E-01    0.121E-01
DAV:   3    -0.486881320033E+02    0.20695E-03   -0.13034E-03   792   0.203E-01    0.581E-02
DAV:   4    -0.486881909008E+02   -0.58898E-04   -0.60188E-04   584   0.110E-01    0.174E-02
DAV:   5    -0.486882046802E+02   -0.13779E-04   -0.81524E-05   624   0.500E-02    0.804E-03
DAV:   6    -0.486882142613E+02   -0.95811E-05   -0.14178E-05   384   0.215E-02
  10 F= -.48688214E+02 E0= -.48688214E+02  d E =-.101406E-01
       N       E                     dE             d eps       ncg     rms          rms(c)
DAV:   1    -0.486948341573E+02   -0.66295E-02   -0.67885E+00   640   0.167E+01    0.412E-01
DAV:   2    -0.487056454930E+02   -0.10811E-01   -0.15620E-01   640   0.207E+00    0.324E-01
DAV:   3    -0.487040557249E+02    0.15898E-02   -0.88337E-03   784   0.545E-01    0.161E-01
DAV:   4    -0.487042967810E+02   -0.24106E-03   -0.46124E-03   656   0.305E-01    0.486E-02
DAV:   5    -0.487043339304E+02   -0.37149E-04   -0.71284E-04   616   0.146E-01    0.223E-02
DAV:   6    -0.487043689590E+02   -0.35029E-04   -0.15153E-04   712   0.602E-02    0.145E-02
DAV:   7    -0.487043771653E+02   -0.82063E-05   -0.28619E-05   472   0.351E-02
  11 F= -.48704377E+02 E0= -.48704377E+02  d E =-.263035E-01
       N       E                     dE             d eps       ncg     rms          rms(c)
DAV:   1    -0.486473112297E+02    0.57058E-01   -0.26995E+01   616   0.335E+01    0.838E-01
DAV:   2    -0.486949154275E+02   -0.47604E-01   -0.67368E-01   632   0.431E+00    0.659E-01
DAV:   3    -0.486887314419E+02    0.61840E-02   -0.35852E-02   816   0.110E+00    0.371E-01
DAV:   4    -0.486889642643E+02   -0.23282E-03   -0.26160E-02   696   0.760E-01    0.118E-01
DAV:   5    -0.486889422256E+02    0.22039E-04   -0.47753E-03   624   0.352E-01    0.761E-02
DAV:   6    -0.486890677666E+02   -0.12554E-03   -0.19237E-03   664   0.218E-01    0.428E-02
DAV:   7    -0.486890718831E+02   -0.41165E-05   -0.23645E-04   736   0.944E-02    0.230E-02
DAV:   8    -0.486891401782E+02   -0.68295E-04   -0.25078E-04   632   0.804E-02    0.136E-02
DAV:   9    -0.486891641418E+02   -0.23964E-04   -0.32285E-05   600   0.338E-02    0.101E-02
DAV:  10    -0.486892156533E+02   -0.51512E-04   -0.60105E-05   696   0.388E-02    0.595E-03
DAV:  11    -0.486892739424E+02   -0.58289E-04   -0.15351E-05   440   0.243E-02    0.322E-03
DAV:  12    -0.486893112184E+02   -0.37276E-04   -0.10636E-05   432   0.189E-02    0.275E-03
DAV:  13    -0.486893558043E+02   -0.44586E-04   -0.11787E-05   392   0.217E-02    0.181E-03
DAV:  14    -0.486893739815E+02   -0.18177E-04   -0.47406E-06   416   0.155E-02    0.155E-03
DAV:  15    -0.486893863395E+02   -0.12358E-04   -0.34373E-06   360   0.132E-02    0.882E-04
DAV:  16    -0.486893979175E+02   -0.11578E-04   -0.28522E-06   400   0.112E-02    0.425E-04
DAV:  17    -0.486894023623E+02   -0.44449E-05   -0.13002E-06   400   0.736E-03
  12 F= -.48689402E+02 E0= -.48689402E+02  d E =-.113287E-01
       N       E                     dE             d eps       ncg     rms          rms(c)
DAV:   1    -0.486833741675E+02    0.60237E-02   -0.14763E+01   624   0.246E+01    0.610E-01
DAV:   2    -0.487098106181E+02   -0.26436E-01   -0.36745E-01   632   0.324E+00    0.490E-01
DAV:   3    -0.487065712259E+02    0.32394E-02   -0.21681E-02   808   0.833E-01    0.267E-01
DAV:   4    -0.487067186217E+02   -0.14740E-03   -0.12047E-02   704   0.495E-01    0.777E-02
DAV:   5    -0.487067608890E+02   -0.42267E-04   -0.19525E-03   632   0.224E-01    0.453E-02
DAV:   6    -0.487068009198E+02   -0.40031E-04   -0.35476E-04   712   0.874E-02    0.252E-02
DAV:   7    -0.487068186753E+02   -0.17755E-04   -0.10962E-04   696   0.583E-02    0.796E-03
DAV:   8    -0.487068260690E+02   -0.73937E-05   -0.23569E-05   528   0.260E-02
  13 F= -.48706826E+02 E0= -.48706826E+02  d E =-.287524E-01
       N       E                     dE             d eps       ncg     rms          rms(c)
DAV:   1    -0.487139278747E+02   -0.71092E-02   -0.90864E-01   600   0.606E+00    0.157E-01
DAV:   2    -0.487152558954E+02   -0.13280E-02   -0.20686E-02   656   0.787E-01    0.121E-01
DAV:   3    -0.487149973588E+02    0.25854E-03   -0.13828E-03   768   0.212E-01    0.521E-02
DAV:   4    -0.487150393474E+02   -0.41989E-04   -0.55265E-04   640   0.101E-01    0.171E-02
DAV:   5    -0.487150390819E+02    0.26545E-06   -0.58321E-05   656   0.409E-02
  14 F= -.48715039E+02 E0= -.48715039E+02  d E =-.821301E-02
       N       E                     dE             d eps       ncg     rms          rms(c)
DAV:   1    -0.487170894698E+02   -0.20501E-02   -0.29463E+00   600   0.110E+01    0.282E-01
DAV:   2    -0.487215320318E+02   -0.44426E-02   -0.67636E-02   648   0.145E+00    0.218E-01
DAV:   3    -0.487207427265E+02    0.78931E-03   -0.44673E-03   776   0.384E-01    0.953E-02
DAV:   4    -0.487209024045E+02   -0.15968E-03   -0.17683E-03   632   0.183E-01    0.308E-02
DAV:   5    -0.487209317648E+02   -0.29360E-04   -0.19797E-04   648   0.744E-02    0.142E-02
DAV:   6    -0.487209404533E+02   -0.86885E-05   -0.26010E-05   504   0.299E-02
  15 F= -.48720940E+02 E0= -.48720940E+02  d E =-.141144E-01
       N       E                     dE             d eps       ncg     rms          rms(c)
DAV:   1    -0.487245527558E+02   -0.36210E-02   -0.11964E-01   648   0.210E+00    0.698E-02
DAV:   2    -0.487248483933E+02   -0.29564E-03   -0.38614E-03   688   0.306E-01    0.583E-02
DAV:   3    -0.487248059206E+02    0.42473E-04   -0.21198E-04   816   0.930E-02    0.338E-02
DAV:   4    -0.487248286266E+02   -0.22706E-04   -0.20563E-04   592   0.731E-02    0.136E-02
DAV:   5    -0.487248276410E+02    0.98563E-06   -0.36260E-05   560   0.401E-02
  16 F= -.48724828E+02 E0= -.48724828E+02  d E =-.388719E-02
       N       E                     dE             d eps       ncg     rms          rms(c)
DAV:   1    -0.487264656198E+02   -0.16370E-02   -0.26160E-01   632   0.311E+00    0.103E-01
DAV:   2    -0.487271452257E+02   -0.67961E-03   -0.86375E-03   688   0.457E-01    0.879E-02
DAV:   3    -0.487270414926E+02    0.10373E-03   -0.47543E-04   832   0.140E-01    0.522E-02
DAV:   4    -0.487270773763E+02   -0.35884E-04   -0.49787E-04   608   0.115E-01    0.216E-02
DAV:   5    -0.487270710622E+02    0.63141E-05   -0.97371E-05   792   0.608E-02
  17 F= -.48727071E+02 E0= -.48727071E+02  d E =-.613061E-02
       N       E                     dE             d eps       ncg     rms          rms(c)
DAV:   1    -0.487295721736E+02   -0.24948E-02   -0.10564E-01   656   0.210E+00    0.585E-02
DAV:   2    -0.487297529765E+02   -0.18080E-03   -0.25603E-03   624   0.275E-01    0.467E-02
DAV:   3    -0.487297275228E+02    0.25454E-04   -0.16533E-04   728   0.751E-02    0.234E-02
DAV:   4    -0.487297435221E+02   -0.15999E-04   -0.87629E-05   544   0.477E-02    0.803E-03
DAV:   5    -0.487297489130E+02   -0.53909E-05   -0.15903E-05   464   0.270E-02
  18 F= -.48729749E+02 E0= -.48729749E+02  d E =-.267785E-02
       N       E                     dE             d eps       ncg     rms          rms(c)
DAV:   1    -0.487309569150E+02   -0.12134E-02   -0.26584E-01   648   0.333E+00    0.912E-02
DAV:   2    -0.487314143775E+02   -0.45746E-03   -0.64652E-03   696   0.437E-01    0.726E-02
DAV:   3    -0.487313426848E+02    0.71693E-04   -0.40428E-04   736   0.118E-01    0.368E-02
DAV:   4    -0.487313713620E+02   -0.28677E-04   -0.21965E-04   592   0.743E-02    0.132E-02
DAV:   5    -0.487313786734E+02   -0.73114E-05   -0.60086E-05   608   0.464E-02
  19 F= -.48731379E+02 E0= -.48731379E+02  d E =-.430761E-02
       N       E                     dE             d eps       ncg     rms          rms(c)
DAV:   1    -0.487326746026E+02   -0.13032E-02   -0.20898E-01   520   0.302E+00    0.718E-02
DAV:   2    -0.487329592863E+02   -0.28468E-03   -0.51460E-03   712   0.411E-01    0.587E-02
DAV:   3    -0.487328839681E+02    0.75318E-04   -0.34494E-04   752   0.112E-01    0.309E-02
DAV:   4    -0.487329020603E+02   -0.18092E-04   -0.22177E-04   568   0.718E-02    0.114E-02
DAV:   5    -0.487329070309E+02   -0.49706E-05   -0.34198E-05   528   0.370E-02
  20 F= -.48732907E+02 E0= -.48732907E+02  d E =-.152836E-02
       N       E                     dE             d eps       ncg     rms          rms(c)
DAV:   1    -0.487329489255E+02   -0.46865E-04   -0.77582E-03   536   0.578E-01    0.146E-02
DAV:   2    -0.487329611501E+02   -0.12225E-04   -0.19399E-04   696   0.799E-02    0.115E-02
DAV:   3    -0.487329606590E+02    0.49110E-06   -0.13586E-05   456   0.253E-02
  21 F= -.48732961E+02 E0= -.48732961E+02  d E =-.158199E-02
       N       E                     dE             d eps       ncg     rms          rms(c)
DAV:   1    -0.487338229723E+02   -0.86182E-03   -0.90659E-02   576   0.201E+00    0.448E-02
DAV:   2    -0.487339868590E+02   -0.16389E-03   -0.22285E-03   672   0.261E-01    0.394E-02
DAV:   3    -0.487339638434E+02    0.23016E-04   -0.10021E-04   784   0.640E-02    0.250E-02
DAV:   4    -0.487339757730E+02   -0.11930E-04   -0.15053E-04   608   0.633E-02    0.101E-02
DAV:   5    -0.487339738824E+02    0.18907E-05   -0.27573E-05   528   0.317E-02
  22 F= -.48733974E+02 E0= -.48733974E+02  d E =-.101322E-02
       N       E                     dE             d eps       ncg     rms          rms(c)
DAV:   1    -0.487342186636E+02   -0.24289E-03   -0.96441E-02   576   0.207E+00    0.452E-02
DAV:   2    -0.487344073631E+02   -0.18870E-03   -0.24549E-03   680   0.271E-01    0.417E-02
DAV:   3    -0.487343798436E+02    0.27520E-04   -0.10388E-04   792   0.664E-02    0.283E-02
DAV:   4    -0.487343897939E+02   -0.99503E-05   -0.21472E-04   616   0.772E-02    0.123E-02
DAV:   5    -0.487343849966E+02    0.47973E-05   -0.48956E-05   624   0.424E-02
  23 F= -.48734385E+02 E0= -.48734385E+02  d E =-.142434E-02
       N       E                     dE             d eps       ncg     rms          rms(c)
DAV:   1    -0.487348773575E+02   -0.48756E-03   -0.70563E-02   512   0.173E+00    0.389E-02
DAV:   2    -0.487349863843E+02   -0.10903E-03   -0.15483E-03   744   0.217E-01    0.338E-02
DAV:   3    -0.487349668376E+02    0.19547E-04   -0.62404E-05   680   0.499E-02    0.197E-02
DAV:   4    -0.487349754142E+02   -0.85765E-05   -0.96231E-05   592   0.483E-02
  24 F= -.48734975E+02 E0= -.48734975E+02  d E =-.590418E-03
       N       E                     dE             d eps       ncg     rms          rms(c)
DAV:   1    -0.487350750538E+02   -0.10822E-03   -0.31452E-02   512   0.116E+00    0.264E-02
DAV:   2    -0.487351330069E+02   -0.57953E-04   -0.77127E-04   744   0.150E-01    0.241E-02
DAV:   3    -0.487351225882E+02    0.10419E-04   -0.23248E-05   528   0.340E-02    0.166E-02
DAV:   4    -0.487351292360E+02   -0.66478E-05   -0.97426E-05   592   0.526E-02
  25 F= -.48735129E+02 E0= -.48735129E+02  d E =-.744239E-03
       N       E                     dE             d eps       ncg     rms          rms(c)
DAV:   1    -0.487355167290E+02   -0.39414E-03   -0.86762E-02   552   0.196E+00    0.428E-02
DAV:   2    -0.487356596214E+02   -0.14289E-03   -0.19690E-03   680   0.241E-01    0.353E-02
DAV:   3    -0.487356424382E+02    0.17183E-04   -0.86658E-05   800   0.580E-02    0.207E-02
DAV:   4    -0.487356512591E+02   -0.88209E-05   -0.91925E-05   592   0.482E-02
  26 F= -.48735651E+02 E0= -.48735651E+02  d E =-.522023E-03
       N       E                     dE             d eps       ncg     rms          rms(c)
DAV:   1    -0.487357621159E+02   -0.11968E-03   -0.15981E-02   552   0.841E-01    0.191E-02
DAV:   2    -0.487357913940E+02   -0.29278E-04   -0.38017E-04   688   0.105E-01    0.153E-02
DAV:   3    -0.487357889168E+02    0.24773E-05   -0.11289E-05   472   0.251E-02
  27 F= -.48735789E+02 E0= -.48735789E+02  d E =-.659681E-03
       N       E                     dE             d eps       ncg     rms          rms(c)
DAV:   1    -0.487358357385E+02   -0.44344E-04   -0.61890E-02   552   0.167E+00    0.358E-02
DAV:   2    -0.487359305955E+02   -0.94857E-04   -0.13077E-03   672   0.197E-01    0.287E-02
DAV:   3    -0.487359218589E+02    0.87366E-05   -0.66360E-05   752   0.478E-02
  28 F= -.48735922E+02 E0= -.48735922E+02  d E =-.792623E-03
       N       E                     dE             d eps       ncg     rms          rms(c)
DAV:   1    -0.487361651803E+02   -0.23458E-03   -0.21142E-02   552   0.976E-01    0.228E-02
DAV:   2    -0.487361905764E+02   -0.25396E-04   -0.39345E-04   680   0.112E-01    0.171E-02
DAV:   3    -0.487361900988E+02    0.47766E-06   -0.25043E-05   496   0.304E-02
  29 F= -.48736190E+02 E0= -.48736190E+02  d E =-.268240E-03
       N       E                     dE             d eps       ncg     rms          rms(c)
DAV:   1    -0.487365463509E+02   -0.35577E-03   -0.19327E-01   552   0.294E+00    0.642E-02
DAV:   2    -0.487368108344E+02   -0.26448E-03   -0.37681E-03   680   0.345E-01    0.504E-02
DAV:   3    -0.487367776703E+02    0.33164E-04   -0.21683E-04   800   0.844E-02    0.219E-02
DAV:   4    -0.487367925320E+02   -0.14862E-04   -0.99044E-05   584   0.440E-02    0.813E-03
DAV:   5    -0.487367936302E+02   -0.10982E-05   -0.92068E-06   448   0.185E-02
  30 F= -.48736794E+02 E0= -.48736794E+02  d E =-.871771E-03
       N       E                     dE             d eps       ncg     rms          rms(c)
DAV:   1    -0.487361571162E+02    0.63542E-03   -0.77600E-01   552   0.587E+00    0.128E-01
DAV:   2    -0.487372533750E+02   -0.10963E-02   -0.15455E-02   680   0.697E-01    0.101E-01
DAV:   3    -0.487370805902E+02    0.17278E-03   -0.84185E-04   800   0.168E-01    0.457E-02
DAV:   4    -0.487371179029E+02   -0.37313E-04   -0.42610E-04   632   0.914E-02    0.161E-02
DAV:   5    -0.487371218900E+02   -0.39871E-05   -0.50632E-05   616   0.400E-02
  31 F= -.48737122E+02 E0= -.48737122E+02  d E =-.120003E-02
       N       E                     dE             d eps       ncg     rms          rms(c)
DAV:   1    -0.487370874356E+02    0.30467E-04   -0.52791E-02   552   0.154E+00    0.337E-02
DAV:   2    -0.487371524416E+02   -0.65006E-04   -0.10092E-03   640   0.180E-01    0.267E-02
DAV:   3    -0.487371435066E+02    0.89350E-05   -0.62527E-05   672   0.457E-02
  32 F= -.48737144E+02 E0= -.48737144E+02  d E =-.122165E-02
       N       E                     dE             d eps       ncg     rms          rms(c)
DAV:   1    -0.487375249659E+02   -0.37252E-03   -0.12935E-01   528   0.239E+00    0.522E-02
DAV:   2    -0.487377005407E+02   -0.17557E-03   -0.25823E-03   640   0.280E-01    0.423E-02
DAV:   3    -0.487376671623E+02    0.33378E-04   -0.13979E-04   800   0.724E-02    0.193E-02
DAV:   4    -0.487376760265E+02   -0.88642E-05   -0.89240E-05   560   0.428E-02
  33 F= -.48737676E+02 E0= -.48737676E+02  d E =-.532520E-03
       N       E                     dE             d eps       ncg     rms          rms(c)
DAV:   1    -0.487377908919E+02   -0.12373E-03   -0.13952E-01   528   0.248E+00    0.562E-02
DAV:   2    -0.487379885330E+02   -0.19764E-03   -0.27809E-03   656   0.292E-01    0.447E-02
DAV:   3    -0.487379572650E+02    0.31268E-04   -0.15652E-04   808   0.794E-02    0.211E-02
DAV:   4    -0.487379709719E+02   -0.13707E-04   -0.11126E-04   560   0.488E-02    0.101E-02
DAV:   5    -0.487379684658E+02    0.25061E-05   -0.20163E-05   528   0.317E-02
  34 F= -.48737968E+02 E0= -.48737968E+02  d E =-.824959E-03
       N       E                     dE             d eps       ncg     rms          rms(c)
DAV:   1    -0.487370855076E+02    0.88546E-03   -0.55457E-01   528   0.496E+00    0.111E-01
DAV:   2    -0.487378618618E+02   -0.77635E-03   -0.10831E-02   640   0.579E-01    0.878E-02
DAV:   3    -0.487377261874E+02    0.13567E-03   -0.64448E-04   816   0.157E-01    0.387E-02
DAV:   4    -0.487377665720E+02   -0.40385E-04   -0.37085E-04   624   0.869E-02    0.182E-02
DAV:   5    -0.487377633823E+02    0.31898E-05   -0.89704E-05   752   0.570E-02
  35 F= -.48737763E+02 E0= -.48737763E+02  d E =-.619876E-03
       N       E                     dE             d eps       ncg     rms          rms(c)
DAV:   1    -0.487376815333E+02    0.85039E-04   -0.29300E-01   528   0.360E+00    0.805E-02
DAV:   2    -0.487380712618E+02   -0.38973E-03   -0.57108E-03   632   0.421E-01    0.642E-02
DAV:   3    -0.487379994438E+02    0.71818E-04   -0.31962E-04   824   0.111E-01    0.290E-02
DAV:   4    -0.487380231783E+02   -0.23735E-04   -0.22769E-04   568   0.677E-02    0.136E-02
DAV:   5    -0.487380181266E+02    0.50517E-05   -0.38588E-05   608   0.400E-02
  36 F= -.48738018E+02 E0= -.48738018E+02  d E =-.874620E-03
       N       E                     dE             d eps       ncg     rms          rms(c)
DAV:   1    -0.487383100903E+02   -0.28691E-03   -0.85574E-02   528   0.196E+00    0.438E-02
DAV:   2    -0.487384394697E+02   -0.12938E-03   -0.18680E-03   592   0.236E-01    0.334E-02
DAV:   3    -0.487384276312E+02    0.11838E-04   -0.10798E-04   816   0.587E-02    0.166E-02
DAV:   4    -0.487384339514E+02   -0.63202E-05   -0.53213E-05   520   0.356E-02
  37 F= -.48738434E+02 E0= -.48738434E+02  d E =-.415825E-03
       N       E                     dE             d eps       ncg     rms          rms(c)
DAV:   1    -0.487384972310E+02   -0.69600E-04   -0.13092E-01   528   0.242E+00    0.551E-02
DAV:   2    -0.487387135232E+02   -0.21629E-03   -0.29346E-03   624   0.294E-01    0.421E-02
DAV:   3    -0.487386967296E+02    0.16794E-04   -0.15404E-04   840   0.734E-02    0.216E-02
DAV:   4    -0.487387082931E+02   -0.11564E-04   -0.89518E-05   544   0.461E-02    0.780E-03
DAV:   5    -0.487387072934E+02    0.99970E-06   -0.13669E-05   448   0.243E-02
  38 F= -.48738707E+02 E0= -.48738707E+02  d E =-.689167E-03
       N       E                     dE             d eps       ncg     rms          rms(c)
DAV:   1    -0.487390801864E+02   -0.37189E-03   -0.82588E-02   528   0.192E+00    0.460E-02
DAV:   2    -0.487392268703E+02   -0.14668E-03   -0.20088E-03   584   0.239E-01    0.332E-02
DAV:   3    -0.487392198558E+02    0.70144E-05   -0.11761E-04   840   0.614E-02    0.172E-02
DAV:   4    -0.487392266638E+02   -0.68080E-05   -0.47963E-05   520   0.357E-02
  39 F= -.48739227E+02 E0= -.48739227E+02  d E =-.519370E-03
       N       E                     dE             d eps       ncg     rms          rms(c)
DAV:   1    -0.487392828098E+02   -0.62954E-04   -0.96308E-02   528   0.207E+00    0.504E-02
DAV:   2    -0.487394603226E+02   -0.17751E-03   -0.23636E-03   616   0.259E-01    0.364E-02
DAV:   3    -0.487394517441E+02    0.85785E-05   -0.13584E-04   840   0.685E-02    0.192E-02
DAV:   4    -0.487394607305E+02   -0.89864E-05   -0.66068E-05   528   0.415E-02
  40 F= -.48739461E+02 E0= -.48739461E+02  d E =-.753437E-03
       N       E                     dE             d eps       ncg     rms          rms(c)
DAV:   1    -0.487396981811E+02   -0.24644E-03   -0.35057E-02   536   0.122E+00    0.329E-02
DAV:   2    -0.487397652034E+02   -0.67022E-04   -0.84777E-04   632   0.148E-01    0.227E-02
DAV:   3    -0.487397656270E+02   -0.42355E-06   -0.44113E-05   664   0.415E-02
  41 F= -.48739766E+02 E0= -.48739766E+02  d E =-.304896E-03
       N       E                     dE             d eps       ncg     rms          rms(c)
DAV:   1    -0.487396449457E+02    0.12026E-03   -0.26133E-01   536   0.334E+00    0.865E-02
DAV:   2    -0.487401391660E+02   -0.49422E-03   -0.60222E-03   600   0.396E-01    0.583E-02
DAV:   3    -0.487401446628E+02   -0.54968E-05   -0.36638E-04   864   0.106E-01    0.283E-02
DAV:   4    -0.487401654422E+02   -0.20779E-04   -0.11447E-04   536   0.536E-02    0.979E-03
DAV:   5    -0.487401636178E+02    0.18244E-05   -0.16911E-05   448   0.274E-02
  42 F= -.48740164E+02 E0= -.48740164E+02  d E =-.702887E-03
       N       E                     dE             d eps       ncg     rms          rms(c)
DAV:   1    -0.487404286809E+02   -0.26324E-03   -0.47776E-02   536   0.141E+00    0.373E-02
DAV:   2    -0.487405146248E+02   -0.85944E-04   -0.10788E-03   632   0.167E-01    0.251E-02
DAV:   3    -0.487405177592E+02   -0.31344E-05   -0.66235E-05   760   0.441E-02
  43 F= -.48740518E+02 E0= -.48740518E+02  d E =-.354141E-03
       N       E                     dE             d eps       ncg     rms          rms(c)
DAV:   1    -0.487403960145E+02    0.11861E-03   -0.28316E-01   536   0.345E+00    0.911E-02
DAV:   2    -0.487409243569E+02   -0.52834E-03   -0.62781E-03   632   0.402E-01    0.615E-02
DAV:   3    -0.487409332999E+02   -0.89430E-05   -0.38982E-04   864   0.108E-01    0.288E-02
DAV:   4    -0.487409565509E+02   -0.23251E-04   -0.12001E-04   536   0.541E-02    0.104E-02
DAV:   5    -0.487409541443E+02    0.24066E-05   -0.15877E-05   448   0.270E-02
  44 F= -.48740954E+02 E0= -.48740954E+02  d E =-.790526E-03
       N       E                     dE             d eps       ncg     rms          rms(c)
DAV:   1    -0.487412339262E+02   -0.27738E-03   -0.11767E-01   528   0.225E+00    0.557E-02
DAV:   2    -0.487414256874E+02   -0.19176E-03   -0.25816E-03   584   0.270E-01    0.400E-02
DAV:   3    -0.487414192409E+02    0.64464E-05   -0.17018E-04   848   0.722E-02    0.187E-02
DAV:   4    -0.487414313119E+02   -0.12071E-04   -0.56197E-05   520   0.356E-02    0.645E-03
DAV:   5    -0.487414318191E+02   -0.50714E-06   -0.88510E-06   440   0.187E-02
  45 F= -.48741432E+02 E0= -.48741432E+02  d E =-.477675E-03
       N       E                     dE             d eps       ncg     rms          rms(c)
DAV:   1    -0.487412970671E+02    0.13424E-03   -0.23586E-01   528   0.319E+00    0.786E-02
DAV:   2    -0.487416881870E+02   -0.39112E-03   -0.51509E-03   592   0.382E-01    0.561E-02
DAV:   3    -0.487416725030E+02    0.15684E-04   -0.33402E-04   856   0.100E-01    0.263E-02
DAV:   4    -0.487416923340E+02   -0.19831E-04   -0.11031E-04   536   0.494E-02    0.880E-03
DAV:   5    -0.487416925465E+02   -0.21248E-06   -0.16397E-05   504   0.239E-02
  46 F= -.48741693E+02 E0= -.48741693E+02  d E =-.738402E-03
       N       E                     dE             d eps       ncg     rms          rms(c)
DAV:   1    -0.487418912591E+02   -0.19893E-03   -0.43864E-02   528   0.136E+00    0.346E-02
DAV:   2    -0.487419601418E+02   -0.68883E-04   -0.90337E-04   592   0.159E-01    0.241E-02
DAV:   3    -0.487419618473E+02   -0.17055E-05   -0.54685E-05   672   0.410E-02
  47 F= -.48741962E+02 E0= -.48741962E+02  d E =-.269301E-03
       N       E                     dE             d eps       ncg     rms          rms(c)
DAV:   1    -0.487418515011E+02    0.10864E-03   -0.39260E-01   528   0.408E+00    0.103E-01
DAV:   2    -0.487425026580E+02   -0.65116E-03   -0.79412E-03   592   0.474E-01    0.717E-02
DAV:   3    -0.487424983254E+02    0.43325E-05   -0.49849E-04   848   0.121E-01    0.302E-02
DAV:   4    -0.487425294381E+02   -0.31113E-04   -0.14971E-04   536   0.554E-02    0.113E-02
DAV:   5    -0.487425281225E+02    0.13156E-05   -0.20632E-05   496   0.261E-02
  48 F= -.48742528E+02 E0= -.48742528E+02  d E =-.835576E-03
       N       E                     dE             d eps       ncg     rms          rms(c)
DAV:   1    -0.487397374050E+02    0.27920E-02   -0.15750E+00   528   0.815E+00    0.205E-01
DAV:   2    -0.487424114887E+02   -0.26741E-02   -0.32522E-02   600   0.958E-01    0.144E-01
DAV:   3    -0.487423275691E+02    0.83920E-04   -0.20212E-03   856   0.246E-01    0.618E-02
DAV:   4    -0.487424201102E+02   -0.92541E-04   -0.62967E-04   536   0.113E-01    0.227E-02
DAV:   5    -0.487424162349E+02    0.38752E-05   -0.10429E-04   656   0.555E-02    0.101E-02
DAV:   6    -0.487424214451E+02   -0.52101E-05   -0.16832E-05   456   0.225E-02
  49 F= -.48742421E+02 E0= -.48742421E+02  d E =-.728899E-03
       N       E                     dE             d eps       ncg     rms          rms(c)
DAV:   1    -0.487416428223E+02    0.77341E-03   -0.61329E-01   528   0.509E+00    0.127E-01
DAV:   2    -0.487426657030E+02   -0.10229E-02   -0.12518E-02   592   0.593E-01    0.895E-02
DAV:   3    -0.487426444471E+02    0.21256E-04   -0.76127E-04   856   0.150E-01    0.383E-02
DAV:   4    -0.487426854307E+02   -0.40984E-04   -0.24294E-04   584   0.704E-02    0.139E-02
DAV:   5    -0.487426823308E+02    0.30999E-05   -0.36820E-05   632   0.337E-02
  50 F= -.48742682E+02 E0= -.48742682E+02  d E =-.989784E-03
       N       E                     dE             d eps       ncg     rms          rms(c)
DAV:   1    -0.487429303924E+02   -0.24496E-03   -0.36826E-02   512   0.124E+00    0.322E-02
DAV:   2    -0.487429901827E+02   -0.59790E-04   -0.79824E-04   648   0.153E-01    0.242E-02
DAV:   3    -0.487429854216E+02    0.47611E-05   -0.44775E-05   704   0.431E-02
  51 F= -.48742985E+02 E0= -.48742985E+02  d E =-.303091E-03
       N       E                     dE             d eps       ncg     rms          rms(c)
DAV:   1    -0.487430562780E+02   -0.66095E-04   -0.35111E-02   512   0.122E+00    0.331E-02
DAV:   2    -0.487431126280E+02   -0.56350E-04   -0.72753E-04   648   0.146E-01    0.234E-02
DAV:   3    -0.487431124399E+02    0.18806E-06   -0.41470E-05   688   0.402E-02
  52 F= -.48743112E+02 E0= -.48743112E+02  d E =-.430109E-03
       N       E                     dE             d eps       ncg     rms          rms(c)
DAV:   1    -0.487433349408E+02   -0.22231E-03   -0.11588E-02   512   0.659E-01    0.211E-02
DAV:   2    -0.487433511732E+02   -0.16232E-04   -0.22654E-04   664   0.799E-02    0.150E-02
DAV:   3    -0.487433534538E+02   -0.22805E-05   -0.11673E-05   432   0.238E-02
  53 F= -.48743353E+02 E0= -.48743353E+02  d E =-.241014E-03
       N       E                     dE             d eps       ncg     rms          rms(c)
DAV:   1    -0.487434563205E+02   -0.10515E-03   -0.10424E-01   512   0.198E+00    0.592E-02
DAV:   2    -0.487436259911E+02   -0.16967E-03   -0.20161E-03   664   0.237E-01    0.430E-02
DAV:   3    -0.487436323105E+02   -0.63194E-05   -0.14133E-04   848   0.742E-02    0.212E-02
DAV:   4    -0.487436500618E+02   -0.17751E-04   -0.69761E-05   520   0.428E-02    0.929E-03
DAV:   5    -0.487436466503E+02    0.34115E-05   -0.13132E-05   472   0.286E-02
  54 F= -.48743647E+02 E0= -.48743647E+02  d E =-.534210E-03
       N       E                     dE             d eps       ncg     rms          rms(c)
DAV:   1    -0.487437726009E+02   -0.12254E-03   -0.92077E-03   512   0.608E-01    0.170E-02
DAV:   2    -0.487437853822E+02   -0.12781E-04   -0.17220E-04   656   0.736E-02    0.116E-02
DAV:   3    -0.487437870639E+02   -0.16817E-05   -0.10536E-05   408   0.216E-02
  55 F= -.48743787E+02 E0= -.48743787E+02  d E =-.140414E-03
       N       E                     dE             d eps       ncg     rms          rms(c)
DAV:   1    -0.487439105900E+02   -0.12521E-03   -0.82410E-02   512   0.182E+00    0.501E-02
DAV:   2    -0.487440394631E+02   -0.12887E-03   -0.15301E-03   656   0.217E-01    0.345E-02
DAV:   3    -0.487440465568E+02   -0.70937E-05   -0.11659E-04   808   0.608E-02    0.133E-02
DAV:   4    -0.487440536712E+02   -0.71144E-05   -0.23727E-05   432   0.250E-02
  56 F= -.48744054E+02 E0= -.48744054E+02  d E =-.407021E-03
       N       E                     dE             d eps       ncg     rms          rms(c)
DAV:   1    -0.487433022909E+02    0.74427E-03   -0.33051E-01   512   0.365E+00    0.993E-02
DAV:   2    -0.487438420834E+02   -0.53979E-03   -0.62064E-03   656   0.438E-01    0.686E-02
DAV:   3    -0.487438463096E+02   -0.42262E-05   -0.45260E-04   824   0.120E-01    0.275E-02
DAV:   4    -0.487438716135E+02   -0.25304E-04   -0.11044E-04   600   0.514E-02    0.103E-02
DAV:   5    -0.487438706137E+02    0.99978E-06   -0.18578E-05   472   0.259E-02
  57 F= -.48743871E+02 E0= -.48743871E+02  d E =-.223963E-03
       N       E                     dE             d eps       ncg     rms          rms(c)
DAV:   1    -0.487438033229E+02    0.68291E-04   -0.17420E-01   512   0.265E+00    0.716E-02
DAV:   2    -0.487440811560E+02   -0.27783E-03   -0.32206E-03   640   0.315E-01    0.498E-02
DAV:   3    -0.487440882640E+02   -0.71079E-05   -0.23044E-04   800   0.856E-02    0.200E-02
DAV:   4    -0.487441035823E+02   -0.15318E-04   -0.56658E-05   488   0.371E-02    0.703E-03
DAV:   5    -0.487441025910E+02    0.99125E-06   -0.77521E-06   440   0.180E-02
  58 F= -.48744103E+02 E0= -.48744103E+02  d E =-.455941E-03
       N       E                     dE             d eps       ncg     rms          rms(c)
DAV:   1    -0.487442349614E+02   -0.13138E-03   -0.61424E-03   512   0.525E-01    0.122E-02
DAV:   2    -0.487442463579E+02   -0.11396E-04   -0.15400E-04   688   0.669E-02    0.109E-02
DAV:   3    -0.487442442292E+02    0.21287E-05   -0.45941E-06   344   0.168E-02
  59 F= -.48744244E+02 E0= -.48744244E+02  d E =-.141638E-03
       N       E                     dE             d eps       ncg     rms          rms(c)
DAV:   1    -0.487443251998E+02   -0.78842E-04   -0.27927E-02   512   0.112E+00    0.264E-02
DAV:   2    -0.487443771203E+02   -0.51920E-04   -0.66830E-04   712   0.139E-01    0.223E-02
DAV:   3    -0.487443695514E+02    0.75689E-05   -0.25816E-05   520   0.358E-02
  60 F= -.48744370E+02 E0= -.48744370E+02  d E =-.266960E-03
       N       E                     dE             d eps       ncg     rms          rms(c)
DAV:   1    -0.487445101930E+02   -0.13307E-03   -0.10150E-02   512   0.664E-01    0.186E-02
DAV:   2    -0.487445256851E+02   -0.15492E-04   -0.27333E-04   672   0.924E-02    0.147E-02
DAV:   3    -0.487445236300E+02    0.20551E-05   -0.19922E-05   480   0.273E-02
  61 F= -.48744524E+02 E0= -.48744524E+02  d E =-.154079E-03
       N       E                     dE             d eps       ncg     rms          rms(c)
DAV:   1    -0.487445591189E+02   -0.33434E-04   -0.12152E-02   512   0.731E-01    0.200E-02
DAV:   2    -0.487445776616E+02   -0.18543E-04   -0.28304E-04   704   0.947E-02    0.155E-02
DAV:   3    -0.487445764082E+02    0.12534E-05   -0.17845E-05   472   0.270E-02
  62 F= -.48744576E+02 E0= -.48744576E+02  d E =-.206857E-03
       N       E                     dE             d eps       ncg     rms          rms(c)
DAV:   1    -0.487446829237E+02   -0.10526E-03   -0.13270E-02   528   0.766E-01    0.196E-02
DAV:   2    -0.487447090884E+02   -0.26165E-04   -0.33632E-04   616   0.959E-02    0.155E-02
DAV:   3    -0.487447077637E+02    0.13246E-05   -0.17051E-05   536   0.297E-02
  63 F= -.48744708E+02 E0= -.48744708E+02  d E =-.131356E-03
       N       E                     dE             d eps       ncg     rms          rms(c)
DAV:   1    -0.487447074849E+02    0.16034E-05   -0.53159E-02   528   0.153E+00    0.379E-02
DAV:   2    -0.487448158818E+02   -0.10840E-03   -0.13192E-03   632   0.190E-01    0.290E-02
DAV:   3    -0.487448119201E+02    0.39616E-05   -0.65735E-05   760   0.521E-02
  64 F= -.48744812E+02 E0= -.48744812E+02  d E =-.235512E-03
       N       E                     dE             d eps       ncg     rms          rms(c)
DAV:   1    -0.487449387115E+02   -0.12283E-03   -0.32419E-02   528   0.122E+00    0.287E-02
DAV:   2    -0.487449899163E+02   -0.51205E-04   -0.71108E-04   616   0.144E-01    0.212E-02
DAV:   3    -0.487449882655E+02    0.16509E-05   -0.46223E-05   656   0.400E-02
  65 F= -.48744988E+02 E0= -.48744988E+02  d E =-.176345E-03
       N       E                     dE             d eps       ncg     rms          rms(c)
DAV:   1    -0.487450042097E+02   -0.14293E-04   -0.32312E-02   528   0.121E+00    0.288E-02
DAV:   2    -0.487450571435E+02   -0.52934E-04   -0.71161E-04   648   0.144E-01    0.212E-02
DAV:   3    -0.487450555677E+02    0.15758E-05   -0.39761E-05   608   0.374E-02
  66 F= -.48745056E+02 E0= -.48745056E+02  d E =-.243648E-03
       N       E                     dE             d eps       ncg     rms          rms(c)
DAV:   1    -0.487451676929E+02   -0.11055E-03   -0.28933E-02   528   0.114E+00    0.276E-02
DAV:   2    -0.487452195126E+02   -0.51820E-04   -0.68814E-04   600   0.140E-01    0.209E-02
DAV:   3    -0.487452171329E+02    0.23798E-05   -0.41077E-05   640   0.390E-02
  67 F= -.48745217E+02 E0= -.48745217E+02  d E =-.161565E-03
       N       E                     dE             d eps       ncg     rms          rms(c)
DAV:   1    -0.487452271308E+02   -0.76182E-05   -0.26767E-02   528   0.110E+00    0.267E-02
DAV:   2    -0.487452742510E+02   -0.47120E-04   -0.61591E-04   600   0.133E-01    0.196E-02
DAV:   3    -0.487452733748E+02    0.87618E-06   -0.34312E-05   600   0.353E-02
  68 F= -.48745273E+02 E0= -.48745273E+02  d E =-.217807E-03
       N       E                     dE             d eps       ncg     rms          rms(c)
DAV:   1    -0.487453775224E+02   -0.10327E-03   -0.23511E-02   568   0.982E-01    0.276E-02
DAV:   2    -0.487454224086E+02   -0.44886E-04   -0.55134E-04   536   0.118E-01    0.186E-02
DAV:   3    -0.487454253255E+02   -0.29170E-05   -0.30301E-05   632   0.352E-02
  69 F= -.48745425E+02 E0= -.48745425E+02  d E =-.151951E-03
       N       E                     dE             d eps       ncg     rms          rms(c)
DAV:   1    -0.487454207136E+02    0.16950E-05   -0.42372E-02   568   0.132E+00    0.363E-02
DAV:   2    -0.487455034032E+02   -0.82690E-04   -0.98829E-04   584   0.158E-01    0.243E-02
DAV:   3    -0.487455079466E+02   -0.45435E-05   -0.55103E-05   720   0.455E-02
  70 F= -.48745508E+02 E0= -.48745508E+02  d E =-.234572E-03
       N       E                     dE             d eps       ncg     rms          rms(c)
DAV:   1    -0.487456044826E+02   -0.10108E-03   -0.18089E-02   528   0.877E-01    0.240E-02
DAV:   2    -0.487456408922E+02   -0.36410E-04   -0.44483E-04   640   0.108E-01    0.160E-02
DAV:   3    -0.487456434459E+02   -0.25538E-05   -0.30883E-05   584   0.322E-02
  71 F= -.48745643E+02 E0= -.48745643E+02  d E =-.135499E-03
       N       E                     dE             d eps       ncg     rms          rms(c)
DAV:   1    -0.487455630940E+02    0.77798E-04   -0.93916E-02   536   0.199E+00    0.531E-02
DAV:   2    -0.487457529666E+02   -0.18987E-03   -0.22350E-03   656   0.240E-01    0.352E-02
DAV:   3    -0.487457604802E+02   -0.75136E-05   -0.13845E-04   816   0.649E-02    0.162E-02
DAV:   4    -0.487457695899E+02   -0.91097E-05   -0.34268E-05   424   0.301E-02
  72 F= -.48745770E+02 E0= -.48745770E+02  d E =-.261643E-03
       N       E                     dE             d eps       ncg     rms          rms(c)
DAV:   1    -0.487458431287E+02   -0.82649E-04   -0.24048E-02   528   0.989E-01    0.279E-02
DAV:   2    -0.487458937658E+02   -0.50637E-04   -0.56957E-04   632   0.121E-01    0.187E-02
DAV:   3    -0.487458967394E+02   -0.29736E-05   -0.34650E-05   648   0.358E-02
  73 F= -.48745897E+02 E0= -.48745897E+02  d E =-.127149E-03
       N       E                     dE             d eps       ncg     rms          rms(c)
DAV:   1    -0.487457261464E+02    0.16762E-03   -0.15487E-01   528   0.252E+00    0.692E-02
DAV:   2    -0.487460477465E+02   -0.32160E-03   -0.35517E-03   632   0.302E-01    0.457E-02
DAV:   3    -0.487460652208E+02   -0.17474E-04   -0.23276E-04   848   0.858E-02    0.229E-02
DAV:   4    -0.487460842358E+02   -0.19015E-04   -0.77063E-05   528   0.447E-02    0.919E-03
DAV:   5    -0.487460812194E+02    0.30165E-05   -0.14488E-05   472   0.274E-02
  74 F= -.48746081E+02 E0= -.48746081E+02  d E =-.311630E-03
       N       E                     dE             d eps       ncg     rms          rms(c)
DAV:   1    -0.487462324864E+02   -0.14825E-03   -0.30683E-02   528   0.112E+00    0.303E-02
DAV:   2    -0.487462896218E+02   -0.57135E-04   -0.69709E-04   552   0.138E-01    0.204E-02
DAV:   3    -0.487462933016E+02   -0.36797E-05   -0.44068E-05   608   0.368E-02
  75 F= -.48746293E+02 E0= -.48746293E+02  d E =-.212082E-03
       N       E                     dE             d eps       ncg     rms          rms(c)
DAV:   1    -0.487462002487E+02    0.89373E-04   -0.17297E-01   528   0.266E+00    0.716E-02
DAV:   2    -0.487465354585E+02   -0.33521E-03   -0.38474E-03   584   0.323E-01    0.480E-02
DAV:   3    -0.487465555563E+02   -0.20098E-04   -0.24872E-04   848   0.841E-02    0.231E-02
DAV:   4    -0.487465718466E+02   -0.16290E-04   -0.64994E-05   512   0.402E-02    0.734E-03
DAV:   5    -0.487465707578E+02    0.10888E-05   -0.92177E-06   448   0.195E-02
  76 F= -.48746571E+02 E0= -.48746571E+02  d E =-.489538E-03
       N       E                     dE             d eps       ncg     rms          rms(c)
DAV:   1    -0.487467000940E+02   -0.12825E-03   -0.19998E-02   528   0.925E-01    0.234E-02
DAV:   2    -0.487467340625E+02   -0.33968E-04   -0.42092E-04   568   0.108E-01    0.159E-02
DAV:   3    -0.487467352921E+02   -0.12297E-05   -0.26967E-05   472   0.304E-02
  77 F= -.48746735E+02 E0= -.48746735E+02  d E =-.164534E-03
       N       E                     dE             d eps       ncg     rms          rms(c)
DAV:   1    -0.487467429925E+02   -0.89300E-05   -0.17838E-01   528   0.277E+00    0.695E-02
DAV:   2    -0.487470575013E+02   -0.31451E-03   -0.36701E-03   600   0.319E-01    0.470E-02
DAV:   3    -0.487470683960E+02   -0.10895E-04   -0.25047E-04   816   0.852E-02    0.207E-02
DAV:   4    -0.487470834762E+02   -0.15080E-04   -0.60139E-05   520   0.375E-02    0.788E-03
DAV:   5    -0.487470827700E+02    0.70620E-06   -0.93193E-06   432   0.202E-02
  78 F= -.48747083E+02 E0= -.48747083E+02  d E =-.512012E-03
       N       E                     dE             d eps       ncg     rms          rms(c)
DAV:   1    -0.487457826783E+02    0.13008E-02   -0.71594E-01   528   0.554E+00    0.138E-01
DAV:   2    -0.487470600826E+02   -0.12774E-02   -0.14917E-02   608   0.645E-01    0.940E-02
DAV:   3    -0.487470683280E+02   -0.82454E-05   -0.10245E-03   832   0.173E-01    0.414E-02
DAV:   4    -0.487471178971E+02   -0.49569E-04   -0.24307E-04   552   0.746E-02    0.161E-02
DAV:   5    -0.487471166334E+02    0.12637E-05   -0.50816E-05   648   0.407E-02
  79 F= -.48747117E+02 E0= -.48747117E+02  d E =-.545876E-03
       N       E                     dE             d eps       ncg     rms          rms(c)
DAV:   1    -0.487468874797E+02    0.23042E-03   -0.17963E-01   528   0.278E+00    0.683E-02
DAV:   2    -0.487471946770E+02   -0.30720E-03   -0.37141E-03   608   0.321E-01    0.469E-02
DAV:   3    -0.487471974139E+02   -0.27370E-05   -0.24447E-04   792   0.849E-02    0.209E-02
DAV:   4    -0.487472125405E+02   -0.15127E-04   -0.67250E-05   528   0.394E-02    0.800E-03
DAV:   5    -0.487472116742E+02    0.86630E-06   -0.95840E-06   448   0.204E-02
  80 F= -.48747212E+02 E0= -.48747212E+02  d E =-.640916E-03
       N       E                     dE             d eps       ncg     rms          rms(c)
DAV:   1    -0.487472608677E+02   -0.48327E-04   -0.78548E-02   528   0.183E+00    0.463E-02
DAV:   2    -0.487473954906E+02   -0.13462E-03   -0.16229E-03   608   0.211E-01    0.315E-02
DAV:   3    -0.487473993045E+02   -0.38139E-05   -0.10463E-04   680   0.556E-02    0.136E-02
DAV:   4    -0.487474065171E+02   -0.72126E-05   -0.24252E-05   384   0.251E-02
  81 F= -.48747407E+02 E0= -.48747407E+02  d E =-.194843E-03
       N       E                     dE             d eps       ncg     rms          rms(c)
DAV:   1    -0.487473510497E+02    0.48255E-04   -0.90398E-02   528   0.196E+00    0.506E-02
DAV:   2    -0.487475133976E+02   -0.16235E-03   -0.19042E-03   648   0.229E-01    0.341E-02
DAV:   3    -0.487475189417E+02   -0.55440E-05   -0.11949E-04   704   0.595E-02    0.151E-02
DAV:   4    -0.487475279653E+02   -0.90237E-05   -0.29801E-05   400   0.280E-02
  82 F= -.48747528E+02 E0= -.48747528E+02  d E =-.316291E-03
       N       E                     dE             d eps       ncg     rms          rms(c)
DAV:   1    -0.487475096626E+02    0.92791E-05   -0.21049E-02   528   0.943E-01    0.249E-02
DAV:   2    -0.487475481853E+02   -0.38523E-04   -0.45283E-04   624   0.111E-01    0.167E-02
DAV:   3    -0.487475503621E+02   -0.21768E-05   -0.24144E-05   528   0.291E-02
  83 F= -.48747550E+02 E0= -.48747550E+02  d E =-.338688E-03
       N       E                     dE             d eps       ncg     rms          rms(c)
DAV:   1    -0.487476706447E+02   -0.12246E-03   -0.10027E-01   560   0.199E+00    0.562E-02
DAV:   2    -0.487478411053E+02   -0.17046E-03   -0.19542E-03   576   0.225E-01    0.368E-02
DAV:   3    -0.487478556557E+02   -0.14550E-04   -0.12910E-04   784   0.633E-02    0.157E-02
DAV:   4    -0.487478646525E+02   -0.89968E-05   -0.26844E-05   384   0.265E-02
  84 F= -.48747865E+02 E0= -.48747865E+02  d E =-.314290E-03
       N       E                     dE             d eps       ncg     rms          rms(c)
DAV:   1    -0.487470316545E+02    0.82400E-03   -0.60536E-01   560   0.489E+00    0.137E-01
DAV:   2    -0.487480888942E+02   -0.10572E-02   -0.11910E-02   592   0.558E-01    0.897E-02
DAV:   3    -0.487481459431E+02   -0.57049E-04   -0.82352E-04   840   0.159E-01    0.389E-02
DAV:   4    -0.487481900539E+02   -0.44111E-04   -0.17682E-04   520   0.644E-02    0.146E-02
DAV:   5    -0.487481877082E+02    0.23457E-05   -0.44745E-05   640   0.390E-02
  85 F= -.48748188E+02 E0= -.48748188E+02  d E =-.637346E-03
       N       E                     dE             d eps       ncg     rms          rms(c)
DAV:   1    -0.487482725110E+02   -0.82457E-04   -0.62167E-02   560   0.158E+00    0.444E-02
DAV:   2    -0.487483850743E+02   -0.11256E-03   -0.12736E-03   568   0.180E-01    0.285E-02
DAV:   3    -0.487483953347E+02   -0.10260E-04   -0.81765E-05   680   0.487E-02    0.126E-02
DAV:   4    -0.487484009145E+02   -0.55798E-05   -0.14869E-05   384   0.215E-02
  86 F= -.48748401E+02 E0= -.48748401E+02  d E =-.213206E-03
       N       E                     dE             d eps       ncg     rms          rms(c)
DAV:   1    -0.487477385153E+02    0.65682E-03   -0.56090E-01   560   0.474E+00    0.130E-01
DAV:   2    -0.487487673972E+02   -0.10289E-02   -0.11447E-02   592   0.541E-01    0.844E-02
DAV:   3    -0.487488230605E+02   -0.55663E-04   -0.72340E-04   832   0.144E-01    0.367E-02
DAV:   4    -0.487488616369E+02   -0.38576E-04   -0.14948E-04   528   0.598E-02    0.129E-02
DAV:   5    -0.487488598704E+02    0.17664E-05   -0.21716E-05   472   0.282E-02
  87 F= -.48748860E+02 E0= -.48748860E+02  d E =-.672162E-03
       N       E                     dE             d eps       ncg     rms          rms(c)
DAV:   1    -0.487444755916E+02    0.43860E-02   -0.22423E+00   560   0.948E+00    0.259E-01
DAV:   2    -0.487486479525E+02   -0.41724E-02   -0.46055E-02   600   0.109E+00    0.168E-01
DAV:   3    -0.487488310859E+02   -0.18313E-03   -0.29258E-03   832   0.290E-01    0.730E-02
DAV:   4    -0.487489654636E+02   -0.13438E-03   -0.60533E-04   576   0.119E-01    0.261E-02
DAV:   5    -0.487489596016E+02    0.58620E-05   -0.10451E-04   680   0.565E-02    0.119E-02
DAV:   6    -0.487489628260E+02   -0.32243E-05   -0.16409E-05   464   0.247E-02
  88 F= -.48748963E+02 E0= -.48748963E+02  d E =-.775118E-03
       N       E                     dE             d eps       ncg     rms          rms(c)
DAV:   1    -0.487479771678E+02    0.98243E-03   -0.53803E-01   552   0.465E+00    0.126E-01
DAV:   2    -0.487489752750E+02   -0.99811E-03   -0.11120E-02   592   0.535E-01    0.822E-02
DAV:   3    -0.487490231421E+02   -0.47867E-04   -0.66823E-04   824   0.140E-01    0.371E-02
DAV:   4    -0.487490587847E+02   -0.35643E-04   -0.14786E-04   528   0.597E-02    0.125E-02
DAV:   5    -0.487490570395E+02    0.17452E-05   -0.22241E-05   504   0.287E-02
  89 F= -.48749057E+02 E0= -.48749057E+02  d E =-.869331E-03
       N       E                     dE             d eps       ncg     rms          rms(c)
DAV:   1    -0.487489718511E+02    0.86934E-04   -0.26500E-01   528   0.328E+00    0.884E-02
DAV:   2    -0.487494837104E+02   -0.51186E-03   -0.57531E-03   600   0.394E-01    0.582E-02
DAV:   3    -0.487495053426E+02   -0.21632E-04   -0.36876E-04   816   0.106E-01    0.257E-02
DAV:   4    -0.487495253030E+02   -0.19960E-04   -0.79006E-05   520   0.438E-02    0.965E-03
DAV:   5    -0.487495239759E+02    0.13272E-05   -0.13822E-05   448   0.238E-02
  90 F= -.48749524E+02 E0= -.48749524E+02  d E =-.466936E-03
       N       E                     dE             d eps       ncg     rms          rms(c)
DAV:   1    -0.487490321619E+02    0.49314E-03   -0.36584E-01   528   0.385E+00    0.105E-01
DAV:   2    -0.487497524629E+02   -0.72030E-03   -0.80171E-03   624   0.464E-01    0.685E-02
DAV:   3    -0.487497828183E+02   -0.30355E-04   -0.51471E-04   832   0.125E-01    0.306E-02
DAV:   4    -0.487498108576E+02   -0.28039E-04   -0.11129E-04   552   0.524E-02    0.115E-02
DAV:   5    -0.487498093505E+02    0.15072E-05   -0.22599E-05   504   0.288E-02
  91 F= -.48749809E+02 E0= -.48749809E+02  d E =-.752311E-03
       N       E                     dE             d eps       ncg     rms          rms(c)
DAV:   1    -0.487497037978E+02    0.10706E-03   -0.64735E-02   528   0.162E+00    0.444E-02
DAV:   2    -0.487498301737E+02   -0.12638E-03   -0.14233E-03   624   0.195E-01    0.289E-02
DAV:   3    -0.487498386616E+02   -0.84879E-05   -0.92669E-05   768   0.530E-02
  92 F= -.48749839E+02 E0= -.48749839E+02  d E =-.781622E-03
       N       E                     dE             d eps       ncg     rms          rms(c)
DAV:   1    -0.487495893013E+02    0.24087E-03   -0.31065E-01   512   0.347E+00    0.101E-01
DAV:   2    -0.487502326931E+02   -0.64339E-03   -0.68235E-03   608   0.424E-01    0.652E-02
DAV:   3    -0.487502864124E+02   -0.53719E-04   -0.46940E-04   832   0.117E-01    0.303E-02
DAV:   4    -0.487503145338E+02   -0.28121E-04   -0.10017E-04   528   0.511E-02    0.105E-02
DAV:   5    -0.487503113456E+02    0.31882E-05   -0.19954E-05   488   0.301E-02
  93 F= -.48750311E+02 E0= -.48750311E+02  d E =-.472684E-03
       N       E                     dE             d eps       ncg     rms          rms(c)
DAV:   1    -0.487503236162E+02   -0.90824E-05   -0.39146E-02   520   0.123E+00    0.359E-02
DAV:   2    -0.487503991665E+02   -0.75550E-04   -0.84090E-04   592   0.149E-01    0.232E-02
DAV:   3    -0.487504071332E+02   -0.79667E-05   -0.63934E-05   728   0.449E-02
  94 F= -.48750407E+02 E0= -.48750407E+02  d E =-.568472E-03
       N       E                     dE             d eps       ncg     rms          rms(c)
DAV:   1    -0.487501394636E+02    0.25970E-03   -0.15583E-01   512   0.246E+00    0.719E-02
DAV:   2    -0.487504600545E+02   -0.32059E-03   -0.34206E-03   592   0.300E-01    0.464E-02
DAV:   3    -0.487504901295E+02   -0.30075E-04   -0.23308E-04   848   0.824E-02    0.217E-02
DAV:   4    -0.487505054173E+02   -0.15288E-04   -0.50952E-05   480   0.372E-02    0.723E-03
DAV:   5    -0.487505037297E+02    0.16876E-05   -0.81959E-06   432   0.218E-02
  95 F= -.48750504E+02 E0= -.48750504E+02  d E =-.665068E-03
       N       E                     dE             d eps       ncg     rms          rms(c)
DAV:   1    -0.487505829531E+02   -0.77536E-04   -0.10774E-01   552   0.206E+00    0.579E-02
DAV:   2    -0.487507767809E+02   -0.19383E-03   -0.22732E-03   584   0.243E-01    0.381E-02
DAV:   3    -0.487507905525E+02   -0.13772E-04   -0.15248E-04   800   0.680E-02    0.181E-02
DAV:   4    -0.487508003465E+02   -0.97940E-05   -0.32964E-05   384   0.307E-02
  96 F= -.48750800E+02 E0= -.48750800E+02  d E =-.296617E-03
       N       E                     dE             d eps       ncg     rms          rms(c)
DAV:   1    -0.487506727523E+02    0.11780E-03   -0.12953E-01   552   0.226E+00    0.641E-02
DAV:   2    -0.487509162105E+02   -0.24346E-03   -0.27805E-03   608   0.268E-01    0.427E-02
DAV:   3    -0.487509305964E+02   -0.14386E-04   -0.18072E-04   840   0.772E-02    0.204E-02
DAV:   4    -0.487509424245E+02   -0.11828E-04   -0.40377E-05   400   0.338E-02    0.694E-03
DAV:   5    -0.487509421459E+02    0.27860E-06   -0.80651E-06   432   0.242E-02
  97 F= -.48750942E+02 E0= -.48750942E+02  d E =-.438416E-03
       N       E                     dE             d eps       ncg     rms          rms(c)
DAV:   1    -0.487510399864E+02   -0.97562E-04   -0.81217E-02   512   0.183E+00    0.487E-02
DAV:   2    -0.487512105243E+02   -0.17054E-03   -0.19036E-03   624   0.225E-01    0.334E-02
DAV:   3    -0.487512162858E+02   -0.57616E-05   -0.12142E-04   784   0.628E-02    0.166E-02
DAV:   4    -0.487512245303E+02   -0.82444E-05   -0.29945E-05   392   0.298E-02
  98 F= -.48751225E+02 E0= -.48751225E+02  d E =-.282384E-03
       N       E                     dE             d eps       ncg     rms          rms(c)
DAV:   1    -0.487507659821E+02    0.45030E-03   -0.32989E-01   512   0.368E+00    0.982E-02
DAV:   2    -0.487514746226E+02   -0.70864E-03   -0.77435E-03   616   0.454E-01    0.670E-02
DAV:   3    -0.487514921127E+02   -0.17490E-04   -0.47743E-04   824   0.124E-01    0.340E-02
DAV:   4    -0.487515227294E+02   -0.30617E-04   -0.14203E-04   544   0.612E-02    0.130E-02
DAV:   5    -0.487515195053E+02    0.32241E-05   -0.36926E-05   600   0.382E-02
  99 F= -.48751520E+02 E0= -.48751520E+02  d E =-.577359E-03
       N       E                     dE             d eps       ncg     rms          rms(c)
DAV:   1    -0.487514768304E+02    0.45899E-04   -0.26794E-02   512   0.105E+00    0.287E-02
DAV:   2    -0.487515338609E+02   -0.57030E-04   -0.62803E-04   616   0.129E-01    0.194E-02
DAV:   3    -0.487515369393E+02   -0.30784E-05   -0.41513E-05   672   0.377E-02
 100 F= -.48751537E+02 E0= -.48751537E+02  d E =-.594793E-03
       N       E                     dE             d eps       ncg     rms          rms(c)
DAV:   1    -0.487514876946E+02    0.46166E-04   -0.15732E-01   528   0.249E+00    0.716E-02
DAV:   2    -0.487517810684E+02   -0.29337E-03   -0.31681E-03   632   0.286E-01    0.467E-02
DAV:   3    -0.487518078303E+02   -0.26762E-04   -0.21626E-04   784   0.790E-02    0.191E-02
DAV:   4    -0.487518186681E+02   -0.10838E-04   -0.32796E-05   408   0.299E-02    0.651E-03
DAV:   5    -0.487518186084E+02    0.59708E-07   -0.70281E-06   432   0.186E-02
 101 F= -.48751819E+02 E0= -.48751819E+02  d E =-.281669E-03
       N       E                     dE             d eps       ncg     rms          rms(c)
DAV:   1    -0.487501011810E+02    0.17175E-02   -0.91379E-01   528   0.599E+00    0.168E-01
DAV:   2    -0.487518431676E+02   -0.17420E-02   -0.18640E-02   632   0.692E-01    0.110E-01
DAV:   3    -0.487519437071E+02   -0.10054E-03   -0.12101E-03   808   0.186E-01    0.466E-02
DAV:   4    -0.487520027500E+02   -0.59043E-04   -0.22180E-04   664   0.729E-02    0.166E-02
DAV:   5    -0.487520001315E+02    0.26185E-05   -0.45553E-05   640   0.381E-02
 102 F= -.48752000E+02 E0= -.48752000E+02  d E =-.463192E-03
       N       E                     dE             d eps       ncg     rms          rms(c)
DAV:   1    -0.487518993999E+02    0.10335E-03   -0.59856E-02   520   0.154E+00    0.428E-02
DAV:   2    -0.487520085220E+02   -0.10912E-03   -0.12397E-03   608   0.179E-01    0.282E-02
DAV:   3    -0.487520175405E+02   -0.90184E-05   -0.79881E-05   720   0.483E-02
 103 F= -.48752018E+02 E0= -.48752018E+02  d E =-.480601E-03
       N       E                     dE             d eps       ncg     rms          rms(c)
DAV:   1    -0.487519859396E+02    0.22582E-04   -0.17270E-02   528   0.821E-01    0.220E-02
DAV:   2    -0.487520149593E+02   -0.29020E-04   -0.36187E-04   608   0.967E-02    0.148E-02
DAV:   3    -0.487520163694E+02   -0.14101E-05   -0.21701E-05   480   0.271E-02
 104 F= -.48752016E+02 E0= -.48752016E+02  d E =-.479430E-03
       N       E                     dE             d eps       ncg     rms          rms(c)
DAV:   1    -0.487520148955E+02    0.63862E-07   -0.43405E-03   536   0.411E-01    0.108E-02
DAV:   2    -0.487520214160E+02   -0.65205E-05   -0.87810E-05   592   0.483E-02
 105 F= -.48752021E+02 E0= -.48752021E+02  d E =-.484477E-03
       N       E                     dE             d eps       ncg     rms          rms(c)
DAV:   1    -0.487518468457E+02    0.16805E-03   -0.23571E-01   544   0.298E+00    0.850E-02
DAV:   2    -0.487522848185E+02   -0.43797E-03   -0.47638E-03   576   0.347E-01    0.555E-02
DAV:   3    -0.487523208887E+02   -0.36070E-04   -0.33787E-04   856   0.104E-01    0.261E-02
DAV:   4    -0.487523393331E+02   -0.18444E-04   -0.65796E-05   512   0.417E-02    0.951E-03
DAV:   5    -0.487523375798E+02    0.17533E-05   -0.17327E-05   496   0.275E-02
 106 F= -.48752338E+02 E0= -.48752338E+02  d E =-.316164E-03
       N       E                     dE             d eps       ncg     rms          rms(c)
DAV:   1    -0.487522591149E+02    0.80218E-04   -0.73899E-02   544   0.167E+00    0.497E-02
DAV:   2    -0.487523965094E+02   -0.13739E-03   -0.14974E-03   592   0.194E-01    0.323E-02
DAV:   3    -0.487524116697E+02   -0.15160E-04   -0.11622E-04   824   0.610E-02    0.146E-02
DAV:   4    -0.487524173934E+02   -0.57237E-05   -0.17710E-05   384   0.235E-02
 107 F= -.48752417E+02 E0= -.48752417E+02  d E =-.395977E-03
       N       E                     dE             d eps       ncg     rms          rms(c)
DAV:   1    -0.487525848857E+02   -0.17322E-03   -0.63223E-02   568   0.159E+00    0.442E-02
DAV:   2    -0.487527011504E+02   -0.11626E-03   -0.12970E-03   608   0.183E-01    0.301E-02
DAV:   3    -0.487527079308E+02   -0.67804E-05   -0.75607E-05   800   0.476E-02
 108 F= -.48752708E+02 E0= -.48752708E+02  d E =-.290537E-03
       N       E                     dE             d eps       ncg     rms          rms(c)
DAV:   1    -0.487527201917E+02   -0.19041E-04   -0.90650E-02   568   0.191E+00    0.533E-02
DAV:   2    -0.487528861678E+02   -0.16598E-03   -0.18167E-03   616   0.216E-01    0.359E-02
DAV:   3    -0.487528984162E+02   -0.12248E-04   -0.10700E-04   824   0.565E-02    0.161E-02
DAV:   4    -0.487529064324E+02   -0.80162E-05   -0.25170E-05   432   0.269E-02
 109 F= -.48752906E+02 E0= -.48752906E+02  d E =-.489039E-03
       N       E                     dE             d eps       ncg     rms          rms(c)
DAV:   1    -0.487520084691E+02    0.88995E-03   -0.36449E-01   568   0.382E+00    0.104E-01
DAV:   2    -0.487526923071E+02   -0.68384E-03   -0.75066E-03   624   0.441E-01    0.714E-02
DAV:   3    -0.487527174123E+02   -0.25105E-04   -0.43176E-04   840   0.114E-01    0.329E-02
DAV:   4    -0.487527459115E+02   -0.28499E-04   -0.11830E-04   600   0.554E-02    0.106E-02
DAV:   5    -0.487527447299E+02    0.11817E-05   -0.16562E-05   456   0.260E-02
 110 F= -.48752745E+02 E0= -.48752745E+02  d E =-.327336E-03
       N       E                     dE             d eps       ncg     rms          rms(c)
DAV:   1    -0.487524944801E+02    0.25143E-03   -0.22236E-01   568   0.299E+00    0.812E-02
DAV:   2    -0.487529028846E+02   -0.40840E-03   -0.45179E-03   616   0.342E-01    0.556E-02
DAV:   3    -0.487529181777E+02   -0.15293E-04   -0.25737E-04   816   0.874E-02    0.256E-02
DAV:   4    -0.487529358090E+02   -0.17631E-04   -0.71885E-05   528   0.428E-02    0.813E-03
DAV:   5    -0.487529345108E+02    0.12981E-05   -0.84805E-06   448   0.185E-02
 111 F= -.48752935E+02 E0= -.48752935E+02  d E =-.517117E-03
       N       E                     dE             d eps       ncg     rms          rms(c)
DAV:   1    -0.487530148285E+02   -0.79020E-04   -0.76237E-02   512   0.179E+00    0.461E-02
DAV:   2    -0.487531495869E+02   -0.13476E-03   -0.16330E-03   680   0.217E-01    0.319E-02
DAV:   3    -0.487531518277E+02   -0.22408E-05   -0.10841E-04   776   0.579E-02    0.145E-02
DAV:   4    -0.487531587203E+02   -0.68926E-05   -0.24551E-05   400   0.258E-02
 112 F= -.48753159E+02 E0= -.48753159E+02  d E =-.224210E-03
       N       E                     dE             d eps       ncg     rms          rms(c)
DAV:   1    -0.487531600854E+02   -0.82576E-05   -0.25661E-02   512   0.104E+00    0.274E-02
DAV:   2    -0.487532080018E+02   -0.47916E-04   -0.56669E-04   688   0.128E-01    0.188E-02
DAV:   3    -0.487532098436E+02   -0.18418E-05   -0.33320E-05   624   0.341E-02
 113 F= -.48753210E+02 E0= -.48753210E+02  d E =-.275333E-03
       N       E                     dE             d eps       ncg     rms          rms(c)
DAV:   1    -0.487533154690E+02   -0.10747E-03   -0.16712E-02   512   0.847E-01    0.228E-02
DAV:   2    -0.487533454441E+02   -0.29975E-04   -0.36620E-04   704   0.104E-01    0.163E-02
DAV:   3    -0.487533457491E+02   -0.30502E-06   -0.21381E-05   496   0.291E-02
 114 F= -.48753346E+02 E0= -.48753346E+02  d E =-.135905E-03
       N       E                     dE             d eps       ncg     rms          rms(c)
DAV:   1    -0.487533611971E+02   -0.15753E-04   -0.18754E-02   512   0.900E-01    0.235E-02
DAV:   2    -0.487533956274E+02   -0.34430E-04   -0.39625E-04   696   0.109E-01    0.165E-02
DAV:   3    -0.487533968993E+02   -0.12718E-05   -0.21938E-05   528   0.289E-02
 115 F= -.48753397E+02 E0= -.48753397E+02  d E =-.187056E-03
       N       E                     dE             d eps       ncg     rms          rms(c)
DAV:   1    -0.487534642585E+02   -0.68631E-04   -0.19917E-02   632   0.913E-01    0.241E-02
DAV:   2    -0.487535040012E+02   -0.39743E-04   -0.44179E-04   672   0.107E-01    0.171E-02
DAV:   3    -0.487535058602E+02   -0.18591E-05   -0.19084E-05   520   0.280E-02
 116 F= -.48753506E+02 E0= -.48753506E+02  d E =-.108961E-03
       N       E                     dE             d eps       ncg     rms          rms(c)
DAV:   1    -0.487535105978E+02   -0.65967E-05   -0.17181E-02   632   0.849E-01    0.225E-02
DAV:   2    -0.487535453087E+02   -0.34711E-04   -0.37765E-04   664   0.980E-02    0.157E-02
DAV:   3    -0.487535476871E+02   -0.23784E-05   -0.14887E-05   504   0.249E-02
 117 F= -.48753548E+02 E0= -.48753548E+02  d E =-.150788E-03
       N       E                     dE             d eps       ncg     rms          rms(c)
DAV:   1    -0.487536167651E+02   -0.71456E-04   -0.21089E-02   616   0.956E-01    0.238E-02
DAV:   2    -0.487536565796E+02   -0.39815E-04   -0.50141E-04   656   0.118E-01    0.176E-02
DAV:   3    -0.487536545859E+02    0.19937E-05   -0.25646E-05   576   0.314E-02
 118 F= -.48753655E+02 E0= -.48753655E+02  d E =-.106899E-03
       N       E                     dE             d eps       ncg     rms          rms(c)
DAV:   1    -0.487536627135E+02   -0.61339E-05   -0.75626E-03   624   0.576E-01    0.152E-02
DAV:   2    -0.487536770311E+02   -0.14318E-04   -0.16823E-04   688   0.682E-02    0.106E-02
DAV:   3    -0.487536773923E+02   -0.36125E-06   -0.73547E-06   344   0.182E-02
 119 F= -.48753677E+02 E0= -.48753677E+02  d E =-.129705E-03
       N       E                     dE             d eps       ncg     rms          rms(c)
DAV:   1    -0.487537340811E+02   -0.57050E-04   -0.13371E-02   520   0.752E-01    0.200E-02
DAV:   2    -0.487537616743E+02   -0.27593E-04   -0.33280E-04   648   0.978E-02    0.141E-02
DAV:   3    -0.487537620131E+02   -0.33878E-06   -0.15907E-05   448   0.250E-02
 120 F= -.48753762E+02 E0= -.48753762E+02  d E =-.846208E-04
       N       E                     dE             d eps       ncg     rms          rms(c)
DAV:   1    -0.487537696638E+02   -0.79895E-05   -0.77147E-03   512   0.573E-01    0.154E-02
DAV:   2    -0.487537864223E+02   -0.16758E-04   -0.18752E-04   680   0.736E-02    0.106E-02
DAV:   3    -0.487537871942E+02   -0.77186E-06   -0.74391E-06   360   0.184E-02
 121 F= -.48753787E+02 E0= -.48753787E+02  d E =-.109802E-03
       N       E                     dE             d eps       ncg     rms          rms(c)
DAV:   1    -0.487538230282E+02   -0.36606E-04   -0.85217E-03   528   0.616E-01    0.144E-02
DAV:   2    -0.487538410043E+02   -0.17976E-04   -0.22081E-04   648   0.790E-02    0.113E-02
DAV:   3    -0.487538394621E+02    0.15422E-05   -0.74143E-06   392   0.195E-02
 122 F= -.48753839E+02 E0= -.48753839E+02  d E =-.522679E-04
       N       E                     dE             d eps       ncg     rms          rms(c)
DAV:   1    -0.487538364551E+02    0.45492E-05   -0.99390E-03   528   0.668E-01    0.156E-02
DAV:   2    -0.487538565559E+02   -0.20101E-04   -0.24391E-04   648   0.836E-02    0.117E-02
DAV:   3    -0.487538555784E+02    0.97745E-06   -0.82416E-06   424   0.198E-02
 123 F= -.48753856E+02 E0= -.48753856E+02  d E =-.683843E-04
       N       E                     dE             d eps       ncg     rms          rms(c)
DAV:   1    -0.487538862227E+02   -0.29667E-04   -0.84554E-03   528   0.614E-01    0.144E-02
DAV:   2    -0.487539008867E+02   -0.14664E-04   -0.18574E-04   560   0.727E-02    0.100E-02
DAV:   3    -0.487539014671E+02   -0.58040E-06   -0.77235E-06   336   0.183E-02
 124 F= -.48753901E+02 E0= -.48753901E+02  d E =-.458887E-04
       N       E                     dE             d eps       ncg     rms          rms(c)
DAV:   1    -0.487538288286E+02    0.72058E-04   -0.76982E-02   528   0.184E+00    0.427E-02
DAV:   2    -0.487539696543E+02   -0.14083E-03   -0.17309E-03   600   0.223E-01    0.302E-02
DAV:   3    -0.487539676960E+02    0.19583E-05   -0.96661E-05   760   0.544E-02
 125 F= -.48753968E+02 E0= -.48753968E+02  d E =-.112118E-03
       N       E                     dE             d eps       ncg     rms          rms(c)
DAV:   1    -0.487540122889E+02   -0.42635E-04   -0.42509E-03   528   0.440E-01    0.123E-02
DAV:   2    -0.487540203390E+02   -0.80500E-05   -0.94492E-05   632   0.520E-02
 126 F= -.48754020E+02 E0= -.48754020E+02  d E =-.526430E-04
       N       E                     dE             d eps       ncg     rms          rms(c)
DAV:   1    -0.487540446246E+02   -0.32336E-04   -0.38916E-02   528   0.132E+00    0.331E-02
DAV:   2    -0.487541161832E+02   -0.71559E-04   -0.89513E-04   624   0.162E-01    0.235E-02
DAV:   3    -0.487541157175E+02    0.46565E-06   -0.56484E-05   672   0.427E-02
 127 F= -.48754116E+02 E0= -.48754116E+02  d E =-.148022E-03
       N       E                     dE             d eps       ncg     rms          rms(c)
DAV:   1    -0.487538112406E+02    0.30494E-03   -0.15533E-01   528   0.263E+00    0.614E-02
DAV:   2    -0.487541082079E+02   -0.29697E-03   -0.35527E-03   648   0.323E-01    0.440E-02
DAV:   3    -0.487541013444E+02    0.68635E-05   -0.19850E-04   824   0.801E-02    0.215E-02
DAV:   4    -0.487541152810E+02   -0.13937E-04   -0.77754E-05   560   0.414E-02    0.771E-03
DAV:   5    -0.487541149959E+02    0.28503E-06   -0.10862E-05   440   0.204E-02
 128 F= -.48754115E+02 E0= -.48754115E+02  d E =-.147300E-03
       N       E                     dE             d eps       ncg     rms          rms(c)
DAV:   1    -0.487540125982E+02    0.10268E-03   -0.72432E-02   528   0.180E+00    0.410E-02
DAV:   2    -0.487541462806E+02   -0.13368E-03   -0.16696E-03   608   0.221E-01    0.299E-02
DAV:   3    -0.487541418111E+02    0.44696E-05   -0.93232E-05   760   0.542E-02
 129 F= -.48754142E+02 E0= -.48754142E+02  d E =-.174115E-03
       N       E                     dE             d eps       ncg     rms          rms(c)
DAV:   1    -0.487541146273E+02    0.31653E-04   -0.18606E-02   528   0.900E-01    0.197E-02
DAV:   2    -0.487541496234E+02   -0.34996E-04   -0.48349E-04   568   0.117E-01    0.157E-02
DAV:   3    -0.487541456680E+02    0.39554E-05   -0.21217E-05   472   0.282E-02
 130 F= -.48754146E+02 E0= -.48754146E+02  d E =-.177972E-03
       N       E                     dE             d eps       ncg     rms          rms(c)
DAV:   1    -0.487541461353E+02    0.34881E-05   -0.30173E-03   528   0.360E-01    0.784E-03
DAV:   2    -0.487541520621E+02   -0.59268E-05   -0.84160E-05   528   0.488E-02
 131 F= -.48754152E+02 E0= -.48754152E+02  d E =-.184366E-03
       N       E                     dE             d eps       ncg     rms          rms(c)
DAV:   1    -0.487541687384E+02   -0.22603E-04   -0.13912E-02   528   0.779E-01    0.162E-02
DAV:   2    -0.487541960779E+02   -0.27340E-04   -0.31302E-04   616   0.953E-02    0.114E-02
DAV:   3    -0.487541953194E+02    0.75852E-06   -0.95339E-06   392   0.214E-02
 132 F= -.48754195E+02 E0= -.48754195E+02  d E =-.432573E-04
       N       E                     dE             d eps       ncg     rms          rms(c)
DAV:   1    -0.487541986495E+02   -0.25715E-05   -0.14803E-02   528   0.809E-01    0.195E-02
DAV:   2    -0.487542264678E+02   -0.27818E-04   -0.32363E-04   640   0.956E-02    0.134E-02
DAV:   3    -0.487542275463E+02   -0.10785E-05   -0.14412E-05   456   0.236E-02
 133 F= -.48754228E+02 E0= -.48754228E+02  d E =-.754842E-04
       N       E                     dE             d eps       ncg     rms          rms(c)
DAV:   1    -0.487541269455E+02    0.99522E-04   -0.59670E-02   528   0.162E+00    0.387E-02
DAV:   2    -0.487542399574E+02   -0.11301E-03   -0.13156E-03   656   0.195E-01    0.269E-02
DAV:   3    -0.487542406772E+02   -0.71980E-06   -0.72810E-05   744   0.484E-02
 134 F= -.48754241E+02 E0= -.48754241E+02  d E =-.886151E-04
       N       E                     dE             d eps       ncg     rms          rms(c)
DAV:   1    -0.487542081286E+02    0.31829E-04   -0.21296E-02   528   0.959E-01    0.219E-02
DAV:   2    -0.487542452929E+02   -0.37164E-04   -0.50421E-04   584   0.120E-01    0.164E-02
DAV:   3    -0.487542419577E+02    0.33353E-05   -0.24214E-05   536   0.299E-02
 135 F= -.48754242E+02 E0= -.48754242E+02  d E =-.898956E-04
       N       E                     dE             d eps       ncg     rms          rms(c)
DAV:   1    -0.487542390974E+02    0.61956E-05   -0.53978E-03   528   0.481E-01    0.107E-02
DAV:   2    -0.487542487297E+02   -0.96324E-05   -0.13279E-04   560   0.613E-02    0.826E-03
DAV:   3    -0.487542477101E+02    0.10197E-05   -0.49466E-06   280   0.150E-02
 136 F= -.48754248E+02 E0= -.48754248E+02  d E =-.956480E-04
       N       E                     dE             d eps       ncg     rms          rms(c)
DAV:   1    -0.487542929396E+02   -0.44210E-04   -0.10504E-02   528   0.678E-01    0.166E-02
DAV:   2    -0.487543127465E+02   -0.19807E-04   -0.24380E-04   624   0.831E-02    0.121E-02
DAV:   3    -0.487543119218E+02    0.82475E-06   -0.10152E-05   400   0.216E-02
 137 F= -.48754312E+02 E0= -.48754312E+02  d E =-.642117E-04
       N       E                     dE             d eps       ncg     rms          rms(c)
DAV:   1    -0.487543059743E+02    0.67722E-05   -0.27611E-02   528   0.110E+00    0.264E-02
DAV:   2    -0.487543591647E+02   -0.53190E-04   -0.63089E-04   616   0.134E-01    0.190E-02
DAV:   3    -0.487543577030E+02    0.14617E-05   -0.30083E-05   560   0.332E-02
 138 F= -.48754358E+02 E0= -.48754358E+02  d E =-.109993E-03
       N       E                     dE             d eps       ncg     rms          rms(c)
DAV:   1    -0.487543902320E+02   -0.31067E-04   -0.38668E-03   512   0.391E-01    0.120E-02
DAV:   2    -0.487543975415E+02   -0.73096E-05   -0.11097E-04   688   0.573E-02    0.898E-03
DAV:   3    -0.487543970184E+02    0.52315E-06   -0.59136E-06   328   0.161E-02
 139 F= -.48754397E+02 E0= -.48754397E+02  d E =-.393154E-04
