Al2C                                    
           1
     6.019200    0.000000    0.000000
     0.000000   10.140000    0.000000
     0.000000    0.000000   15.000000
   Al   C    Te   H 
   8   4   1   2
Direct configuration=     1
   0.43241749  0.87665629  0.23553779
   0.93212496  0.87716319  0.26232991
   0.43280048  0.61743452  0.23854708
   0.93366742  0.61980747  0.27004635
   0.43048229  0.37552987  0.27767968
   0.93264969  0.37747829  0.24198754
   0.43154815  0.11884785  0.26292878
   0.93182714  0.11882918  0.23722466
   0.18211011  0.99758090  0.24773344
   0.68188761  0.99778009  0.24943843
   0.18266204  0.49802506  0.25592911
   0.68243980  0.49854685  0.26096830
   0.55801686  0.43877699  0.46551486
   0.80960759  0.36764705  0.46242232
   0.50652925  0.35178988  0.56111174
Direct configuration=     2
   0.43240898  0.87627849  0.23533919
   0.93214042  0.87679059  0.26255383
   0.43284577  0.61782068  0.23817725
   0.93367098  0.62022737  0.27024587
   0.43031131  0.37501430  0.27735395
   0.93269440  0.37710988  0.24164189
   0.43152129  0.11921091  0.26312084
   0.93184256  0.11919979  0.23700493
   0.18207715  0.99758708  0.24776729
   0.68190330  0.99778066  0.24945031
   0.18266539  0.49803299  0.25600584
   0.68234332  0.49857517  0.26091733
   0.55747583  0.43927401  0.46596139
   0.81049916  0.36741392  0.46244176
   0.50637100  0.35157767  0.56141833
Direct configuration=     3
   0.43240390  0.87605294  0.23522063
   0.93214965  0.87656814  0.26268751
   0.43287282  0.61805121  0.23795646
   0.93367310  0.62047806  0.27036498
   0.43020923  0.37470650  0.27715949
   0.93272109  0.37688994  0.24143554
   0.43150525  0.11942765  0.26323549
   0.93185177  0.11942104  0.23687376
   0.18205747  0.99759077  0.24778749
   0.68191266  0.99778100  0.24945739
   0.18266740  0.49803773  0.25605164
   0.68228572  0.49859208  0.26088689
   0.55715284  0.43957073  0.46622798
   0.81103143  0.36727473  0.46245337
   0.50627653  0.35145098  0.56160137
Direct configuration=     4
   0.43238887  0.87617484  0.23491625
   0.93215815  0.87671526  0.26303201
   0.43291461  0.61795207  0.23743993
   0.93362746  0.62035786  0.27066565
   0.43008487  0.37469675  0.27668416
   0.93272227  0.37708716  0.24093279
   0.43148107  0.11921721  0.26349322
   0.93185620  0.11929050  0.23652175
   0.18205629  0.99759635  0.24785394
   0.68190238  0.99779081  0.24948323
   0.18257639  0.49808364  0.25610405
   0.68219943  0.49861704  0.26074436
   0.55753340  0.43985429  0.46693531
   0.81120980  0.36727504  0.46252547
   0.50605968  0.35118466  0.56206790
Direct configuration=     5
   0.43234381  0.87654054  0.23400310
   0.93218365  0.87715662  0.26406553
   0.43303997  0.61765467  0.23589035
   0.93349054  0.61999726  0.27156766
   0.42971179  0.37466750  0.27525816
   0.93272580  0.37767883  0.23942455
   0.43140852  0.11858590  0.26426639
   0.93186948  0.11889889  0.23546571
   0.18205275  0.99761311  0.24805326
   0.68187153  0.99782023  0.24956075
   0.18230338  0.49822138  0.25626125
   0.68194054  0.49869194  0.26031678
   0.55867507  0.44070497  0.46905731
   0.81174489  0.36727595  0.46274175
   0.50540914  0.35038570  0.56346747
Direct configuration=     6
   0.43225367  0.87727194  0.23217680
   0.93223465  0.87803934  0.26613255
   0.43329069  0.61705985  0.23279119
   0.93321671  0.61927605  0.27337167
   0.42896564  0.37460900  0.27240616
   0.93273287  0.37886218  0.23640807
   0.43126343  0.11732327  0.26581275
   0.93189604  0.11811568  0.23335363
   0.18204568  0.99764663  0.24845191
   0.68180983  0.99787908  0.24971578
   0.18175734  0.49849686  0.25657567
   0.68142277  0.49884173  0.25946160
   0.56095842  0.44240634  0.47330130
   0.81281509  0.36727777  0.46317432
   0.50410805  0.34878778  0.56626661
Direct configuration=     7
   0.43228553  0.87701337  0.23282243
   0.93221662  0.87772728  0.26540182
   0.43320206  0.61727013  0.23388680
   0.93331352  0.61953101  0.27273392
   0.42922942  0.37462968  0.27341440
   0.93273037  0.37844385  0.23747446
   0.43131472  0.11776964  0.26526608
   0.93188665  0.11839256  0.23410029
   0.18204818  0.99763478  0.24831098
   0.68183164  0.99785828  0.24966097
   0.18195038  0.49839947  0.25646452
   0.68160581  0.49878877  0.25976392
   0.56015121  0.44180487  0.47180096
   0.81243675  0.36727713  0.46302140
   0.50456801  0.34935268  0.56527706
Direct configuration=     8
   0.43229379  0.87689128  0.23236051
   0.93217637  0.87759480  0.26594226
   0.43301524  0.61720832  0.23340161
   0.93312924  0.61960206  0.27311060
   0.42937695  0.37480298  0.27320593
   0.93251986  0.37852865  0.23685704
   0.43133354  0.11789715  0.26559683
   0.93185519  0.11855663  0.23357905
   0.18192821  0.99756167  0.24839287
   0.68192626  0.99780326  0.24969268
   0.18212284  0.49846751  0.25626680
   0.68153538  0.49867065  0.25940003
   0.56090009  0.44166722  0.47261646
   0.81200429  0.36741019  0.46322421
   0.50465360  0.34923112  0.56575313
Direct configuration=     9
   0.43231598  0.87656296  0.23111835
   0.93206814  0.87723856  0.26739555
   0.43251288  0.61704212  0.23209690
   0.93263370  0.61979312  0.27412352
   0.42977369  0.37526902  0.27264533
   0.93195377  0.37875668  0.23519676
   0.43138416  0.11824006  0.26648625
   0.93177058  0.11899782  0.23217740
   0.18160560  0.99736506  0.24861308
   0.68218072  0.99765533  0.24977794
   0.18258663  0.49865046  0.25573513
   0.68134599  0.49835301  0.25842148
   0.56291391  0.44129705  0.47480941
   0.81084137  0.36776801  0.46376958
   0.50488378  0.34890425  0.56703331
Direct configuration=    10
   0.43232789  0.87669359  0.23038198
   0.93196049  0.87738490  0.26832329
   0.43226635  0.61705082  0.23154908
   0.93239315  0.61952676  0.27459531
   0.43011203  0.37559825  0.27290890
   0.93192800  0.37903976  0.23426685
   0.43140852  0.11821845  0.26695086
   0.93173196  0.11884505  0.23133511
   0.18161551  0.99729596  0.24870886
   0.68212038  0.99759151  0.24979531
   0.18202039  0.49870635  0.25510104
   0.68167231  0.49835933  0.25765678
   0.56267917  0.44129982  0.47573511
   0.81096611  0.36756063  0.46423139
   0.50556859  0.34872231  0.56786012
Direct configuration=    11
   0.43235951  0.87704020  0.22842812
   0.93167486  0.87777317  0.27078490
   0.43161223  0.61707389  0.23009553
   0.93175488  0.61882004  0.27584713
   0.43100978  0.37647182  0.27360825
   0.93185965  0.37979087  0.23179948
   0.43147317  0.11816111  0.26818363
   0.93162949  0.11843969  0.22910023
   0.18164182  0.99711262  0.24896300
   0.68196027  0.99742220  0.24984138
   0.18051798  0.49885462  0.25341859
   0.68253817  0.49837612  0.25562779
   0.56205633  0.44130718  0.47819129
   0.81129711  0.36701037  0.46545672
   0.50738562  0.34823958  0.57005395
Direct configuration=    12
   0.43242275  0.87773342  0.22452040
   0.93110360  0.87854972  0.27570812
   0.43030399  0.61712002  0.22718842
   0.93047834  0.61740660  0.27835077
   0.43280526  0.37821896  0.27500695
   0.93172294  0.38129310  0.22686474
   0.43160246  0.11804643  0.27064918
   0.93142457  0.11762899  0.22463047
   0.18169444  0.99674593  0.24947129
   0.68164005  0.99708358  0.24993352
   0.17751316  0.49915117  0.25005367
   0.68426989  0.49840969  0.25156981
   0.56081064  0.44132189  0.48310366
   0.81195909  0.36590986  0.46790739
   0.51101968  0.34727412  0.57444161
Direct configuration=    13
   0.43237603  0.87722121  0.22740774
   0.93152569  0.87797594  0.27207044
   0.43127062  0.61708593  0.22933643
   0.93142155  0.61845097  0.27650088
   0.43147861  0.37692803  0.27397348
   0.93182395  0.38018313  0.23051092
   0.43150693  0.11813116  0.26882743
   0.93157598  0.11822800  0.22793309
   0.18165556  0.99701687  0.24909573
   0.68187665  0.99733378  0.24986544
   0.17973337  0.49893205  0.25253994
   0.68299036  0.49838488  0.25456818
   0.56173105  0.44131102  0.47947400
   0.81146996  0.36672301  0.46609664
   0.50833454  0.34798748  0.57119965
Direct configuration=    14
   0.43230689  0.87753518  0.22674839
   0.93149142  0.87831969  0.27301059
   0.43110328  0.61706761  0.22876593
   0.93133589  0.61837879  0.27688838
   0.43136881  0.37722091  0.27437303
   0.93194451  0.38003642  0.22945397
   0.43146621  0.11795247  0.26931465
   0.93158641  0.11780319  0.22711319
   0.18161454  0.99705938  0.24913229
   0.68185072  0.99737932  0.24982311
   0.18032071  0.49895152  0.25194258
   0.68222567  0.49860261  0.25389892
   0.56172371  0.44127493  0.48017388
   0.81122722  0.36654610  0.46665982
   0.50920485  0.34776538  0.57210127
Direct configuration=    15
   0.43218231  0.87810093  0.22556029
   0.93142967  0.87893909  0.27470468
   0.43080174  0.61703458  0.22773791
   0.93118154  0.61824874  0.27758662
   0.43117095  0.37774865  0.27509299
   0.93216175  0.37977206  0.22754940
   0.43139284  0.11763048  0.27019257
   0.93160521  0.11703770  0.22563577
   0.18154064  0.99713597  0.24919818
   0.68180399  0.99746139  0.24974684
   0.18137906  0.49898660  0.25086617
   0.68084775  0.49899493  0.25269297
   0.56171049  0.44120991  0.48143501
   0.81078982  0.36622731  0.46767465
   0.51077310  0.34736516  0.57372594
Direct configuration=    16
   0.43205439  0.87823896  0.22536492
   0.93150220  0.87919344  0.27511339
   0.43082051  0.61732283  0.22729914
   0.93140080  0.61804796  0.27755226
   0.43067495  0.37758880  0.27536521
   0.93214971  0.37977249  0.22697728
   0.43130545  0.11763498  0.27050396
   0.93164539  0.11672672  0.22527517
   0.18142933  0.99724179  0.24913829
   0.68185887  0.99756982  0.24965238
   0.18122254  0.49890109  0.25074907
   0.68104080  0.49907681  0.25262213
   0.56198278  0.44102770  0.48164089
   0.81025532  0.36618945  0.46804543
   0.51142782  0.34736064  0.57410048
Direct configuration=    17
   0.43186520  0.87844310  0.22507598
   0.93160947  0.87956961  0.27571785
   0.43084828  0.61774913  0.22665022
   0.93172506  0.61775102  0.27750143
   0.42994140  0.37735240  0.27576780
   0.93213191  0.37977312  0.22613116
   0.43117622  0.11764163  0.27096448
   0.93170483  0.11626681  0.22474188
   0.18126471  0.99739829  0.24904972
   0.68194003  0.99773019  0.24951268
   0.18099106  0.49877463  0.25057588
   0.68132630  0.49919790  0.25251736
   0.56238548  0.44075823  0.48194537
   0.80946484  0.36613346  0.46859378
   0.51239610  0.34735397  0.57465440
Direct configuration=    18
   0.43176855  0.87864227  0.22503067
   0.93165150  0.87958170  0.27597368
   0.43097318  0.61762244  0.22624579
   0.93205162  0.61763895  0.27732884
   0.42961403  0.37746060  0.27596984
   0.93184926  0.37982754  0.22563988
   0.43110472  0.11768673  0.27126597
   0.93168260  0.11632803  0.22440759
   0.18148751  0.99747692  0.24897143
   0.68165575  0.99778088  0.24941823
   0.18111348  0.49871539  0.25058771
   0.68114147  0.49905659  0.25269871
   0.56205880  0.44067469  0.48206553
   0.80945747  0.36589976  0.46893693
   0.51316094  0.34750101  0.57485921
Direct configuration=    19
   0.43161533  0.87895798  0.22495884
   0.93171812  0.87960087  0.27637922
   0.43117117  0.61742162  0.22560468
   0.93256931  0.61746128  0.27705525
   0.42909507  0.37763212  0.27629013
   0.93140121  0.37991381  0.22486108
   0.43099138  0.11775822  0.27174389
   0.93164737  0.11642509  0.22387765
   0.18184068  0.99760157  0.24884732
   0.68120510  0.99786122  0.24926850
   0.18130754  0.49862149  0.25060647
   0.68084849  0.49883257  0.25298620
   0.56154094  0.44054225  0.48225600
   0.80944578  0.36552930  0.46948090
   0.51437338  0.34773409  0.57518387
Direct configuration=    20
   0.43162658  0.87889194  0.22488676
   0.93166184  0.87977484  0.27639433
   0.43139884  0.61703213  0.22524197
   0.93260387  0.61745700  0.27688336
   0.42909176  0.37772148  0.27651561
   0.93105156  0.38008502  0.22447843
   0.43097637  0.11796434  0.27205577
   0.93150639  0.11642429  0.22354184
   0.18117230  0.99772359  0.24883447
   0.68174680  0.99793275  0.24925906
   0.18108230  0.49855270  0.25052096
   0.68088304  0.49864710  0.25327216
   0.56135096  0.44044260  0.48226704
   0.80944269  0.36527152  0.46984586
   0.51517557  0.34797218  0.57540239
Direct configuration=    21
   0.43162873  0.87887930  0.22487297
   0.93165107  0.87980814  0.27639723
   0.43144241  0.61695758  0.22517254
   0.93261048  0.61745618  0.27685046
   0.42909112  0.37773859  0.27655877
   0.93098464  0.38011779  0.22440519
   0.43097350  0.11800380  0.27211547
   0.93147940  0.11642414  0.22347756
   0.18104436  0.99774694  0.24883201
   0.68185048  0.99794645  0.24925725
   0.18103918  0.49853953  0.25050459
   0.68088966  0.49861160  0.25332689
   0.56131460  0.44042352  0.48226916
   0.80944210  0.36522218  0.46991572
   0.51532912  0.34801776  0.57544422
Direct configuration=    22
   0.43167450  0.87889423  0.22482178
   0.93154843  0.87986855  0.27623934
   0.43154219  0.61662841  0.22501312
   0.93236838  0.61764439  0.27681395
   0.42918323  0.37769296  0.27673523
   0.93085496  0.38014374  0.22427197
   0.43098198  0.11791953  0.27224077
   0.93131575  0.11652757  0.22324338
   0.18113764  0.99785903  0.24887849
   0.68165495  0.99802523  0.24933450
   0.18088058  0.49848477  0.25031512
   0.68098863  0.49855578  0.25353657
   0.56152902  0.44030011  0.48220303
   0.80933479  0.36510023  0.47014183
   0.51577584  0.34824893  0.57561091
Direct configuration=    23
   0.43172155  0.87890959  0.22476915
   0.93144291  0.87993066  0.27607702
   0.43164477  0.61628999  0.22484923
   0.93211947  0.61783789  0.27677642
   0.42927793  0.37764605  0.27691665
   0.93072163  0.38017043  0.22413500
   0.43099071  0.11783290  0.27236961
   0.93114749  0.11663391  0.22300261
   0.18123354  0.99797428  0.24892629
   0.68145391  0.99810624  0.24941393
   0.18071752  0.49842847  0.25012031
   0.68109039  0.49849840  0.25375215
   0.56174948  0.44017323  0.48213505
   0.80922446  0.36497485  0.47037429
   0.51623512  0.34848661  0.57578229
Direct configuration=    24
   0.43162640  0.87885446  0.22469621
   0.93143959  0.88009132  0.27584244
   0.43151112  0.61624882  0.22476430
   0.93214668  0.61791196  0.27677469
   0.42907471  0.37748630  0.27707384
   0.93079586  0.38014608  0.22413666
   0.43089628  0.11780919  0.27243457
   0.93108438  0.11660968  0.22288067
   0.18115982  0.99797673  0.24893131
   0.68142096  0.99813730  0.24947665
   0.18077356  0.49842092  0.24990349
   0.68098622  0.49847867  0.25393536
   0.56176453  0.44014507  0.48212247
   0.80956280  0.36476375  0.47051309
   0.51652795  0.34881325  0.57591426
Direct configuration=    25
   0.43156330  0.87881791  0.22464784
   0.93143739  0.88019785  0.27568690
   0.43142251  0.61622152  0.22470799
   0.93216473  0.61796107  0.27677354
   0.42893996  0.37738037  0.27717806
   0.93084508  0.38012993  0.22413776
   0.43083367  0.11779347  0.27247765
   0.93104254  0.11659362  0.22279982
   0.18111093  0.99797835  0.24893464
   0.68139911  0.99815790  0.24951823
   0.18081072  0.49841591  0.24975972
   0.68091716  0.49846558  0.25405684
   0.56177450  0.44012640  0.48211413
   0.80978714  0.36462379  0.47060512
   0.51672211  0.34902983  0.57600176
Direct configuration=    26
   0.43146382  0.87882852  0.22456918
   0.93140976  0.88011352  0.27547845
   0.43144087  0.61625459  0.22467403
   0.93228334  0.61787077  0.27675195
   0.42867860  0.37738803  0.27729576
   0.93074856  0.38017303  0.22422956
   0.43067177  0.11771738  0.27251146
   0.93100959  0.11661706  0.22274973
   0.18121182  0.99799392  0.24883766
   0.68113383  0.99817745  0.24950551
   0.18075609  0.49838826  0.24955013
   0.68080515  0.49839725  0.25424288
   0.56222967  0.44005266  0.48208117
   0.81000132  0.36446003  0.47073246
   0.51692668  0.34946102  0.57619006
Direct configuration=    27
   0.43142141  0.87883305  0.22453566
   0.93139798  0.88007757  0.27538959
   0.43144870  0.61626868  0.22465956
   0.93233389  0.61783228  0.27674275
   0.42856721  0.37739130  0.27734592
   0.93070742  0.38019141  0.22426869
   0.43060276  0.11768495  0.27252587
   0.93099554  0.11662706  0.22272838
   0.18125482  0.99800055  0.24879633
   0.68102076  0.99818578  0.24950010
   0.18073280  0.49837648  0.24946079
   0.68075741  0.49836813  0.25432217
   0.56242368  0.44002124  0.48206712
   0.81009261  0.36439023  0.47078674
   0.51701388  0.34964481  0.57627032
Direct configuration=    28
   0.43133661  0.87884210  0.22446860
   0.93137443  0.88000568  0.27521189
   0.43146435  0.61629686  0.22463062
   0.93243500  0.61775530  0.27672435
   0.42834441  0.37739783  0.27744625
   0.93062514  0.38022815  0.22434696
   0.43046474  0.11762009  0.27255470
   0.93096745  0.11664705  0.22268567
   0.18134082  0.99801382  0.24871366
   0.68079461  0.99820244  0.24948926
   0.18068623  0.49835291  0.24928212
   0.68066193  0.49830988  0.25448077
   0.56281169  0.43995838  0.48203901
   0.81027519  0.36425063  0.47089530
   0.51718827  0.35001238  0.57643084
Direct configuration=    29
   0.43130816  0.87884401  0.22442458
   0.93134501  0.87996338  0.27511952
   0.43150595  0.61629641  0.22462485
   0.93246202  0.61772056  0.27671105
   0.42823052  0.37741137  0.27748744
   0.93052628  0.38020666  0.22438906
   0.43039709  0.11762470  0.27256978
   0.93092944  0.11664914  0.22268337
   0.18123258  0.99799874  0.24864647
   0.68081174  0.99819430  0.24946694
   0.18068570  0.49835324  0.24918913
   0.68060721  0.49829305  0.25458184
   0.56302868  0.43994780  0.48202629
   0.81041829  0.36415561  0.47095164
   0.51728221  0.35023450  0.57652805
Direct configuration=    30
   0.43122283  0.87884976  0.22429252
   0.93125675  0.87983649  0.27484240
   0.43163076  0.61629507  0.22460757
   0.93254310  0.61761635  0.27667116
   0.42788883  0.37745201  0.27761098
   0.93022970  0.38014221  0.22451537
   0.43019415  0.11763855  0.27261503
   0.93081539  0.11665543  0.22267646
   0.18090785  0.99795350  0.24844490
   0.68086310  0.99816987  0.24939999
   0.18068412  0.49835424  0.24891016
   0.68044304  0.49824258  0.25488505
   0.56367964  0.43991606  0.48198812
   0.81084758  0.36387052  0.47112064
   0.51756404  0.35090085  0.57681967
Direct configuration=    31
   0.43105215  0.87886126  0.22402839
   0.93108023  0.87958270  0.27428816
   0.43188037  0.61629239  0.22457300
   0.93270525  0.61740792  0.27659137
   0.42720544  0.37753328  0.27785806
   0.92963654  0.38001330  0.22476800
   0.42978827  0.11766623  0.27270553
   0.93058731  0.11666802  0.22266265
   0.18025840  0.99786302  0.24804175
   0.68096583  0.99812101  0.24926610
   0.18068094  0.49835623  0.24835220
   0.68011471  0.49814163  0.25549146
   0.56498156  0.43985259  0.48191178
   0.81170617  0.36330036  0.47145866
   0.51812769  0.35223355  0.57740290
Direct configuration=    32
   0.43109677  0.87885826  0.22409743
   0.93112637  0.87964905  0.27443304
   0.43181512  0.61629309  0.22458204
   0.93266286  0.61746241  0.27661223
   0.42738409  0.37751203  0.27779347
   0.92979160  0.38004700  0.22470196
   0.42989437  0.11765900  0.27268187
   0.93064693  0.11666473  0.22266626
   0.18042817  0.99788668  0.24814714
   0.68093898  0.99813378  0.24930110
   0.18068177  0.49835571  0.24849806
   0.68020054  0.49816802  0.25533294
   0.56464122  0.43986918  0.48193174
   0.81148173  0.36344941  0.47137030
   0.51798034  0.35188517  0.57725043
Direct configuration=    33
   0.43109677  0.87894574  0.22398410
   0.93099036  0.87951530  0.27426500
   0.43195699  0.61625477  0.22459056
   0.93260957  0.61749445  0.27657405
   0.42719059  0.37751485  0.27783656
   0.92950553  0.37988526  0.22477192
   0.42977393  0.11758967  0.27266706
   0.93043205  0.11669025  0.22270265
   0.18038256  0.99782219  0.24794869
   0.68078173  0.99810792  0.24921675
   0.18057972  0.49835117  0.24833140
   0.68019827  0.49815445  0.25559507
   0.56505532  0.43993823  0.48195269
   0.81196387  0.36314759  0.47149486
   0.51825362  0.35248165  0.57746865
Direct configuration=    34
   0.43109676  0.87903650  0.22386654
   0.93084927  0.87937655  0.27409068
   0.43210415  0.61621502  0.22459940
   0.93255429  0.61752770  0.27653444
   0.42698988  0.37751778  0.27788126
   0.92920877  0.37971749  0.22484449
   0.42964900  0.11751776  0.27265170
   0.93020915  0.11671672  0.22274040
   0.18033523  0.99775529  0.24774282
   0.68061862  0.99808109  0.24912925
   0.18047385  0.49834645  0.24815852
   0.68019590  0.49814038  0.25586699
   0.56548488  0.44000986  0.48197442
   0.81246401  0.36283449  0.47162408
   0.51853710  0.35310041  0.57769501
Direct configuration=    35
   0.43109675  0.87921801  0.22363141
   0.93056708  0.87909907  0.27374205
   0.43239849  0.61613552  0.22461708
   0.93244372  0.61759418  0.27645522
   0.42658844  0.37752364  0.27797067
   0.92861526  0.37938194  0.22498963
   0.42939913  0.11737393  0.27262098
   0.92976334  0.11676966  0.22281590
   0.18024059  0.99762149  0.24733109
   0.68029239  0.99802743  0.24895424
   0.18026212  0.49833703  0.24781276
   0.68019118  0.49811225  0.25641083
   0.56634401  0.44015311  0.48201788
   0.81346430  0.36220831  0.47188252
   0.51910406  0.35433793  0.57814774
Direct configuration=    36
   0.43109676  0.87908608  0.22380231
   0.93077219  0.87930076  0.27399546
   0.43218455  0.61619330  0.22460423
   0.93252409  0.61754586  0.27651280
   0.42688023  0.37751938  0.27790568
   0.92904666  0.37962583  0.22488413
   0.42958075  0.11747847  0.27264331
   0.93008738  0.11673118  0.22276102
   0.18030938  0.99771874  0.24763036
   0.68052951  0.99806643  0.24908145
   0.18041602  0.49834388  0.24806408
   0.68019461  0.49813270  0.25601554
   0.56571955  0.44004899  0.48198629
   0.81273723  0.36266346  0.47169467
   0.51869196  0.35343843  0.57781867
Direct configuration=    37
   0.43110740  0.87902973  0.22367070
   0.93067347  0.87931792  0.27390968
   0.43221142  0.61615637  0.22463421
   0.93246234  0.61759099  0.27646304
   0.42681894  0.37748432  0.27787123
   0.92893599  0.37959347  0.22493788
   0.42946887  0.11740391  0.27256202
   0.92990035  0.11664387  0.22283011
   0.18020708  0.99768973  0.24745918
   0.68041874  0.99807217  0.24901254
   0.18020076  0.49828539  0.24801471
   0.68021134  0.49807705  0.25621785
   0.56631322  0.44012941  0.48203369
   0.81286789  0.36246087  0.47179447
   0.51897305  0.35395830  0.57798870
Direct configuration=    38
   0.43112052  0.87896026  0.22350847
   0.93055178  0.87933906  0.27380395
   0.43224454  0.61611085  0.22467116
   0.93238623  0.61764663  0.27640170
   0.42674340  0.37744110  0.27782876
   0.92879958  0.37955359  0.22500414
   0.42933096  0.11731200  0.27246181
   0.92966980  0.11653625  0.22291527
   0.18008098  0.99765396  0.24724817
   0.68028220  0.99807923  0.24892761
   0.17993541  0.49821329  0.24795385
   0.68023195  0.49800846  0.25646724
   0.56704501  0.44022855  0.48209211
   0.81302894  0.36221115  0.47191749
   0.51931954  0.35459912  0.57819828
Direct configuration=    39
   0.43102564  0.87879978  0.22335267
   0.93050780  0.87939245  0.27376955
   0.43207083  0.61596386  0.22474396
   0.93232972  0.61767190  0.27635159
   0.42666714  0.37736177  0.27773598
   0.92876771  0.37954012  0.22506892
   0.42911668  0.11728978  0.27230428
   0.92958436  0.11657061  0.22294559
   0.18003210  0.99756727  0.24709599
   0.68011454  0.99799652  0.24888949
   0.18010946  0.49820351  0.24798918
   0.67998889  0.49798106  0.25659878
   0.56763472  0.44046172  0.48214086
   0.81312886  0.36195954  0.47200952
   0.51969242  0.35513360  0.57840362
Direct configuration=    40
   0.43092335  0.87862675  0.22318469
   0.93046038  0.87945001  0.27373247
   0.43188354  0.61580538  0.22482245
   0.93226879  0.61769914  0.27629757
   0.42658492  0.37727625  0.27763595
   0.92873335  0.37952560  0.22513877
   0.42888566  0.11726583  0.27213445
   0.92949224  0.11660767  0.22297828
   0.17997939  0.99747382  0.24693192
   0.67993378  0.99790735  0.24884840
   0.18029710  0.49819297  0.24802727
   0.67972684  0.49795152  0.25674061
   0.56827050  0.44071310  0.48219342
   0.81323659  0.36168827  0.47210874
   0.52009443  0.35570985  0.57862501
Direct configuration=    41
   0.43083904  0.87851586  0.22308644
   0.93041944  0.87945875  0.27371813
   0.43178157  0.61576704  0.22486893
   0.93222274  0.61768268  0.27626832
   0.42654542  0.37716472  0.27757643
   0.92872548  0.37956541  0.22520488
   0.42875107  0.11721821  0.27199979
   0.92943358  0.11662980  0.22297546
   0.17991790  0.99742690  0.24683369
   0.67984050  0.99786421  0.24882938
   0.18017758  0.49816073  0.24807437
   0.67974972  0.49792825  0.25678556
   0.56863829  0.44091241  0.48224568
   0.81332351  0.36148664  0.47216627
   0.52040503  0.35611190  0.57876666
Direct configuration=    42
   0.43060782  0.87821174  0.22281702
   0.93030718  0.87948273  0.27367879
   0.43150191  0.61566192  0.22499641
   0.93209645  0.61763752  0.27618810
   0.42643709  0.37685887  0.27741320
   0.92870390  0.37967459  0.22538619
   0.42838196  0.11708759  0.27163050
   0.92927270  0.11669050  0.22296771
   0.17974929  0.99729823  0.24656430
   0.67958469  0.99774590  0.24877721
   0.17984980  0.49807230  0.24820354
   0.67981246  0.49786444  0.25690885
   0.56964691  0.44145898  0.48238899
   0.81356188  0.36093370  0.47232407
   0.52125683  0.35721448  0.57915512
Direct configuration=    43
   0.43054161  0.87821121  0.22276846
   0.93020057  0.87941541  0.27365621
   0.43148450  0.61564040  0.22505023
   0.93201406  0.61767898  0.27620279
   0.42643107  0.37679728  0.27736580
   0.92863409  0.37963304  0.22546500
   0.42833765  0.11693997  0.27147209
   0.92914445  0.11665815  0.22291965
   0.17961170  0.99726465  0.24645157
   0.67952688  0.99772399  0.24874432
   0.17977713  0.49800886  0.24827801
   0.67974039  0.49782985  0.25687569
   0.57007414  0.44164193  0.48247289
   0.81357916  0.36072062  0.47237520
   0.52167348  0.35772913  0.57930209
Direct configuration=    44
   0.43037977  0.87820993  0.22264980
   0.92993999  0.87925085  0.27360100
   0.43144195  0.61558781  0.22518176
   0.93181268  0.61778031  0.27623870
   0.42641635  0.37664677  0.27724994
   0.92846347  0.37953151  0.22565762
   0.42822936  0.11657916  0.27108493
   0.92883100  0.11657907  0.22280220
   0.17927542  0.99718258  0.24617602
   0.67938557  0.99767045  0.24866395
   0.17959949  0.49785381  0.24846002
   0.67956424  0.49774533  0.25679465
   0.57111835  0.44208908  0.48267793
   0.81362140  0.36019982  0.47250019
   0.52269183  0.35898703  0.57966130
Direct configuration=    45
   0.43027717  0.87818675  0.22264974
   0.92978137  0.87918766  0.27351910
   0.43133748  0.61555364  0.22525060
   0.93169946  0.61766466  0.27629612
   0.42639084  0.37660912  0.27722053
   0.92832483  0.37938269  0.22574722
   0.42815932  0.11661748  0.27095216
   0.92864973  0.11650163  0.22267827
   0.17902053  0.99705918  0.24602007
   0.67940528  0.99751924  0.24858180
   0.17959422  0.49787272  0.24858728
   0.67949322  0.49774912  0.25667228
   0.57171806  0.44235205  0.48272898
   0.81359664  0.35991961  0.47254677
   0.52332271  0.35971795  0.57994909
Direct configuration=    46
   0.43013175  0.87815389  0.22264966
   0.92955653  0.87909809  0.27340300
   0.43118940  0.61550520  0.22534817
   0.93153898  0.61750074  0.27637752
   0.42635468  0.37655574  0.27717884
   0.92812832  0.37917174  0.22587422
   0.42806005  0.11667180  0.27076396
   0.92839279  0.11639187  0.22250262
   0.17865923  0.99688427  0.24579903
   0.67943322  0.99730490  0.24846537
   0.17958675  0.49789951  0.24876766
   0.67939255  0.49775449  0.25649883
   0.57256812  0.44272480  0.48280133
   0.81356154  0.35952243  0.47261279
   0.52421698  0.36075402  0.58035701
Direct configuration=    47
   0.43004989  0.87810421  0.22266180
   0.92949015  0.87902030  0.27334606
   0.43109812  0.61552083  0.22538144
   0.93148532  0.61741717  0.27641852
   0.42633657  0.37657236  0.27717186
   0.92810169  0.37911437  0.22591718
   0.42799157  0.11667740  0.27069944
   0.92830474  0.11631990  0.22241667
   0.17863998  0.99685774  0.24570657
   0.67929641  0.99725641  0.24840468
   0.17951460  0.49786465  0.24885229
   0.67936163  0.49771333  0.25641749
   0.57289630  0.44288065  0.48283207
   0.81357395  0.35934484  0.47263163
   0.52462994  0.36122933  0.58054230
Direct configuration=    48
   0.42980433  0.87795517  0.22269823
   0.92929103  0.87878695  0.27317523
   0.43082426  0.61556772  0.22548126
   0.93132436  0.61716645  0.27654151
   0.42628223  0.37662223  0.27715093
   0.92802181  0.37894227  0.22604604
   0.42778613  0.11669421  0.27050588
   0.92804060  0.11610397  0.22215885
   0.17858222  0.99677813  0.24542921
   0.67888601  0.99711091  0.24822261
   0.17929818  0.49776007  0.24910617
   0.67926889  0.49758987  0.25617345
   0.57388082  0.44334819  0.48292429
   0.81361117  0.35881208  0.47268815
   0.52586883  0.36265526  0.58109817
Direct configuration=    49
   0.42931319  0.87765710  0.22277109
   0.92889277  0.87832025  0.27283359
   0.43027655  0.61566150  0.22568091
   0.93100244  0.61666503  0.27678749
   0.42617355  0.37672196  0.27710907
   0.92786204  0.37859807  0.22630377
   0.42737527  0.11672784  0.27011876
   0.92751232  0.11567211  0.22164320
   0.17846672  0.99661893  0.24487449
   0.67806521  0.99681993  0.24785848
   0.17886533  0.49755090  0.24961392
   0.67908340  0.49734293  0.25568539
   0.57584987  0.44428326  0.48310874
   0.81368561  0.35774656  0.47280119
   0.52834660  0.36550713  0.58220992
Direct configuration=    50
   0.42961975  0.87784315  0.22272561
   0.92914135  0.87861155  0.27304683
   0.43061842  0.61560297  0.22555629
   0.93120338  0.61697801  0.27663396
   0.42624138  0.37665971  0.27713520
   0.92796176  0.37881291  0.22614290
   0.42763172  0.11670685  0.27036039
   0.92784206  0.11594167  0.22196506
   0.17853881  0.99671830  0.24522073
   0.67857754  0.99700155  0.24808576
   0.17913551  0.49768146  0.24929699
   0.67919917  0.49749706  0.25599003
   0.57462084  0.44369961  0.48299361
   0.81363914  0.35841163  0.47273064
   0.52680003  0.36372706  0.58151599
Direct configuration=    51
   0.42950257  0.87774018  0.22272643
   0.92915814  0.87861127  0.27297719
   0.43048176  0.61559129  0.22557151
   0.93112731  0.61697933  0.27666128
   0.42622159  0.37667412  0.27715732
   0.92808195  0.37879145  0.22610853
   0.42751859  0.11664242  0.27033455
   0.92781548  0.11582246  0.22190474
   0.17844966  0.99675477  0.24517186
   0.67853003  0.99703130  0.24802637
   0.17906925  0.49757582  0.24937501
   0.67907104  0.49742062  0.25595042
   0.57484633  0.44375514  0.48306811
   0.81367959  0.35827702  0.47272525
   0.52721757  0.36422630  0.58164143
Direct configuration=    52
   0.42938759  0.87763914  0.22272723
   0.92917460  0.87861100  0.27290884
   0.43034765  0.61557983  0.22558644
   0.93105267  0.61698062  0.27668809
   0.42620216  0.37668826  0.27717903
   0.92819989  0.37877040  0.22607480
   0.42740757  0.11657920  0.27030919
   0.92778941  0.11570548  0.22184555
   0.17836218  0.99679055  0.24512390
   0.67848341  0.99706050  0.24796810
   0.17900423  0.49747215  0.24945156
   0.67894531  0.49734560  0.25591156
   0.57506761  0.44380964  0.48314122
   0.81371929  0.35814492  0.47271997
   0.52762731  0.36471621  0.58176453
Direct configuration=    53
   0.42931589  0.87761867  0.22271958
   0.92918171  0.87866945  0.27285899
   0.43021197  0.61547636  0.22558733
   0.93093248  0.61698159  0.27668350
   0.42618565  0.37659789  0.27722768
   0.92826074  0.37874350  0.22597708
   0.42733882  0.11653809  0.27032977
   0.92777849  0.11573437  0.22180806
   0.17835065  0.99675798  0.24513087
   0.67844775  0.99702844  0.24792542
   0.17896723  0.49746037  0.24949966
   0.67894114  0.49733200  0.25591939
   0.57519844  0.44382927  0.48315669
   0.81375182  0.35809324  0.47269898
   0.52790808  0.36503228  0.58187700
Direct configuration=    54
   0.42910078  0.87755726  0.22269662
   0.92920305  0.87884482  0.27270944
   0.42980494  0.61516593  0.22559000
   0.93057190  0.61698453  0.27666971
   0.42613611  0.37632680  0.27737363
   0.92844331  0.37866279  0.22568395
   0.42713258  0.11641476  0.27039150
   0.92774574  0.11582103  0.22169559
   0.17831606  0.99666024  0.24515181
   0.67834076  0.99693227  0.24779740
   0.17885624  0.49742505  0.24964396
   0.67892865  0.49729120  0.25594286
   0.57559094  0.44388813  0.48320310
   0.81384941  0.35793818  0.47263600
   0.52875039  0.36598050  0.58221441
Direct configuration=    55
   0.42907968  0.87751772  0.22268099
   0.92916220  0.87883967  0.27268107
   0.42974537  0.61509885  0.22558367
   0.93049203  0.61698660  0.27666224
   0.42613283  0.37627824  0.27741811
   0.92843327  0.37869361  0.22560414
   0.42712539  0.11636861  0.27041736
   0.92772454  0.11584107  0.22166473
   0.17829399  0.99667016  0.24516568
   0.67831239  0.99693828  0.24776028
   0.17880036  0.49738448  0.24967782
   0.67890607  0.49722727  0.25594878
   0.57568972  0.44392445  0.48318811
   0.81388559  0.35790276  0.47261672
   0.52898743  0.36622171  0.58233031
Direct configuration=    56
   0.42901637  0.87739911  0.22263408
   0.92903966  0.87882422  0.27259595
   0.42956663  0.61489763  0.22556467
   0.93025242  0.61699282  0.27663980
   0.42612301  0.37613255  0.27755156
   0.92840316  0.37878607  0.22536470
   0.42710382  0.11623018  0.27049493
   0.92766095  0.11590118  0.22157216
   0.17822777  0.99669993  0.24520731
   0.67822728  0.99695629  0.24764891
   0.17863272  0.49726280  0.24977939
   0.67883834  0.49703550  0.25596654
   0.57598608  0.44403339  0.48314314
   0.81399414  0.35779649  0.47255886
   0.52969854  0.36694533  0.58267800
Direct configuration=    57
   0.42888974  0.87716188  0.22254027
   0.92879458  0.87879332  0.27242571
   0.42920917  0.61449518  0.22552668
   0.92977318  0.61700526  0.27659492
   0.42610336  0.37584118  0.27781847
   0.92834293  0.37897098  0.22488583
   0.42706068  0.11595330  0.27065007
   0.92753375  0.11602140  0.22138703
   0.17809533  0.99675947  0.24529055
   0.67805705  0.99699231  0.24742616
   0.17829744  0.49701944  0.24998253
   0.67870288  0.49665195  0.25600207
   0.57657878  0.44425128  0.48305320
   0.81421122  0.35758397  0.47244314
   0.53112077  0.36839258  0.58337338
Direct configuration=    58
   0.42898184  0.87733442  0.22260850
   0.92897284  0.87881579  0.27254953
   0.42946917  0.61478789  0.22555431
   0.93012175  0.61699621  0.27662756
   0.42611765  0.37605311  0.27762434
   0.92838674  0.37883649  0.22523413
   0.42709205  0.11615468  0.27053723
   0.92762626  0.11593396  0.22152168
   0.17819166  0.99671617  0.24523000
   0.67818086  0.99696611  0.24758817
   0.17854130  0.49719645  0.24983478
   0.67880140  0.49693092  0.25597623
   0.57614768  0.44409280  0.48311862
   0.81405333  0.35773855  0.47252730
   0.53008633  0.36733994  0.58286760
Direct configuration=    59
   0.42899550  0.87733736  0.22258492
   0.92887866  0.87876249  0.27255592
   0.42955175  0.61479166  0.22554147
   0.93015357  0.61694703  0.27663120
   0.42605732  0.37606881  0.27764823
   0.92825535  0.37886184  0.22521842
   0.42715429  0.11615125  0.27056399
   0.92761147  0.11590382  0.22150139
   0.17813068  0.99671326  0.24524510
   0.67820684  0.99697106  0.24755806
   0.17855434  0.49716639  0.24983926
   0.67868170  0.49687291  0.25596307
   0.57619888  0.44411057  0.48312837
   0.81406836  0.35773962  0.47251680
   0.53027218  0.36749542  0.58290380
Direct configuration=    60
   0.42902469  0.87734364  0.22253456
   0.92867745  0.87864861  0.27256956
   0.42972817  0.61479970  0.22551404
   0.93022155  0.61684195  0.27663898
   0.42592842  0.37610235  0.27769926
   0.92797464  0.37891601  0.22518486
   0.42728724  0.11614391  0.27062115
   0.92757986  0.11583943  0.22145804
   0.17800042  0.99670705  0.24527736
   0.67826233  0.99698165  0.24749372
   0.17858219  0.49710217  0.24984885
   0.67842596  0.49674899  0.25593495
   0.57630825  0.44414853  0.48314919
   0.81410047  0.35774192  0.47249434
   0.53066924  0.36782758  0.58298114
Direct configuration=    61
   0.42899247  0.87742096  0.22249184
   0.92859187  0.87858605  0.27259379
   0.42980058  0.61483068  0.22548632
   0.93024646  0.61672147  0.27665957
   0.42575730  0.37607643  0.27772765
   0.92779432  0.37885505  0.22518368
   0.42731220  0.11614503  0.27066270
   0.92760312  0.11581312  0.22142689
   0.17804145  0.99663360  0.24531507
   0.67820894  0.99693734  0.24745239
   0.17853439  0.49712419  0.24982378
   0.67843415  0.49676097  0.25591395
   0.57637811  0.44421206  0.48315318
   0.81412866  0.35776040  0.47248246
   0.53094685  0.36801615  0.58302675
Direct configuration=    62
   0.42895689  0.87750633  0.22244467
   0.92849738  0.87851697  0.27262054
   0.42988053  0.61486488  0.22545572
   0.93027398  0.61658846  0.27668232
   0.42556837  0.37604781  0.27775898
   0.92759523  0.37878774  0.22518237
   0.42733975  0.11614627  0.27070857
   0.92762880  0.11578407  0.22139249
   0.17808675  0.99655251  0.24535671
   0.67815000  0.99688842  0.24740675
   0.17848161  0.49714849  0.24979609
   0.67844320  0.49677419  0.25589077
   0.57645524  0.44428221  0.48315758
   0.81415979  0.35778079  0.47246934
   0.53125335  0.36822435  0.58307710
Direct configuration=    63
   0.42888450  0.87752084  0.22237359
   0.92848686  0.87846285  0.27265611
   0.42984234  0.61489745  0.22541585
   0.93025725  0.61653579  0.27672724
   0.42539675  0.37607078  0.27777118
   0.92753837  0.37868196  0.22518709
   0.42727272  0.11610762  0.27075976
   0.92770134  0.11567851  0.22137083
   0.17803808  0.99650771  0.24541645
   0.67817376  0.99687585  0.24736781
   0.17843593  0.49713573  0.24973024
   0.67839181  0.49677557  0.25588340
   0.57656361  0.44440024  0.48314057
   0.81419380  0.35782068  0.47245470
   0.53159375  0.36842190  0.58314519
Direct configuration=    64
   0.42873938  0.87754993  0.22223107
   0.92846577  0.87835435  0.27272742
   0.42976576  0.61496274  0.22533591
   0.93022373  0.61643021  0.27681732
   0.42505269  0.37611683  0.27779562
   0.92742436  0.37846990  0.22519656
   0.42713833  0.11603013  0.27086240
   0.92784676  0.11546689  0.22132740
   0.17794052  0.99641788  0.24553624
   0.67822139  0.99685064  0.24728973
   0.17834435  0.49711014  0.24959821
   0.67828878  0.49677835  0.25586863
   0.57678088  0.44463688  0.48310646
   0.81426199  0.35790067  0.47242533
   0.53227617  0.36881797  0.58328170
Direct configuration=    65
   0.42874491  0.87749964  0.22214352
   0.92843804  0.87829849  0.27278918
   0.42960995  0.61491088  0.22527832
   0.93013878  0.61642498  0.27686038
   0.42505787  0.37617726  0.27778237
   0.92747826  0.37844967  0.22520239
   0.42709175  0.11596542  0.27092701
   0.92785078  0.11538439  0.22131038
   0.17794284  0.99636035  0.24561972
   0.67812426  0.99682593  0.24725239
   0.17820514  0.49706606  0.24948827
   0.67812905  0.49669365  0.25589501
   0.57694507  0.44476758  0.48312437
   0.81430075  0.35797787  0.47239592
   0.53271342  0.36909132  0.58333076
Direct configuration=    66
   0.42875041  0.87744962  0.22205644
   0.92841047  0.87824293  0.27285061
   0.42945498  0.61485930  0.22522103
   0.93005429  0.61641979  0.27690321
   0.42506302  0.37623737  0.27776919
   0.92753188  0.37842955  0.22520819
   0.42704542  0.11590106  0.27099127
   0.92785477  0.11530235  0.22129346
   0.17794515  0.99630313  0.24570276
   0.67802766  0.99680135  0.24721526
   0.17806668  0.49702222  0.24937893
   0.67797019  0.49660941  0.25592125
   0.57710837  0.44489757  0.48314219
   0.81433929  0.35805466  0.47236666
   0.53314830  0.36936319  0.58337956
Direct configuration=    67
   0.42877475  0.87737997  0.22198833
   0.92830906  0.87825521  0.27291880
   0.42929450  0.61475418  0.22514583
   0.92984863  0.61637154  0.27691276
   0.42508981  0.37616812  0.27774980
   0.92748651  0.37843582  0.22519680
   0.42703443  0.11587664  0.27105894
   0.92777771  0.11528806  0.22128781
   0.17792505  0.99619991  0.24577376
   0.67800467  0.99671287  0.24719213
   0.17795821  0.49703384  0.24928425
   0.67799242  0.49657920  0.25596405
   0.57726325  0.44505612  0.48316705
   0.81442209  0.35813798  0.47232173
   0.53358976  0.36964405  0.58343794
Direct configuration=    68
   0.42879823  0.87731275  0.22192261
   0.92821121  0.87826707  0.27298460
   0.42913965  0.61465274  0.22507327
   0.92965018  0.61632497  0.27692197
   0.42511566  0.37610131  0.27773109
   0.92744273  0.37844186  0.22518582
   0.42702383  0.11585308  0.27112425
   0.92770336  0.11527428  0.22128237
   0.17790566  0.99610030  0.24584228
   0.67798249  0.99662748  0.24716982
   0.17785354  0.49704505  0.24919288
   0.67801387  0.49655004  0.25600534
   0.57741271  0.44520911  0.48319104
   0.81450199  0.35821838  0.47227838
   0.53401576  0.36991506  0.58349429
Direct configuration=    69
   0.42874691  0.87724591  0.22189087
   0.92810265  0.87825759  0.27306913
   0.42912793  0.61454891  0.22497582
   0.92947482  0.61633445  0.27690543
   0.42503882  0.37599339  0.27770467
   0.92729637  0.37841550  0.22513817
   0.42701863  0.11571820  0.27117567
   0.92764770  0.11525556  0.22129476
   0.17788236  0.99605558  0.24589225
   0.67794277  0.99658835  0.24716551
   0.17789163  0.49700504  0.24913581
   0.67789704  0.49652455  0.25604806
   0.57761284  0.44541363  0.48319388
   0.81461113  0.35832853  0.47221335
   0.53447926  0.37020832  0.58359662
Direct configuration=    70
   0.42867809  0.87715626  0.22184830
   0.92795706  0.87824488  0.27318251
   0.42911222  0.61440964  0.22484512
   0.92923963  0.61634715  0.27688324
   0.42493576  0.37584866  0.27766923
   0.92710006  0.37838014  0.22507426
   0.42701165  0.11553730  0.27124465
   0.92757304  0.11523045  0.22131137
   0.17785111  0.99599560  0.24595927
   0.67788950  0.99653586  0.24715974
   0.17794273  0.49695138  0.24905926
   0.67774036  0.49649035  0.25610536
   0.57788126  0.44568793  0.48319769
   0.81475750  0.35847626  0.47212614
   0.53510091  0.37060163  0.58373387
Direct configuration=    71
   0.42859658  0.87710449  0.22183961
   0.92791554  0.87822986  0.27324320
   0.42914970  0.61436360  0.22476664
   0.92925116  0.61632432  0.27685579
   0.42481750  0.37577156  0.27765392
   0.92700890  0.37838409  0.22503260
   0.42698909  0.11543224  0.27128249
   0.92757163  0.11518917  0.22132849
   0.17776472  0.99597605  0.24598778
   0.67785242  0.99650995  0.24716700
   0.17779898  0.49688778  0.24902897
   0.67765835  0.49643605  0.25612597
   0.57806763  0.44583483  0.48321528
   0.81483933  0.35858491  0.47206604
   0.53548934  0.37086461  0.58380623
Direct configuration=    72
   0.42841125  0.87698676  0.22181986
   0.92782114  0.87819570  0.27338120
   0.42923491  0.61425891  0.22458818
   0.92927736  0.61627239  0.27679335
   0.42454863  0.37559625  0.27761911
   0.92680164  0.37839307  0.22493787
   0.42693782  0.11519339  0.27136853
   0.92756844  0.11509532  0.22136742
   0.17756829  0.99593159  0.24605260
   0.67776811  0.99645103  0.24718349
   0.17747215  0.49674317  0.24896012
   0.67747188  0.49631259  0.25617285
   0.57849136  0.44616884  0.48325527
   0.81502538  0.35883195  0.47192939
   0.53637251  0.37146252  0.58397075
Direct configuration=    73
   0.42829938  0.87695332  0.22182356
   0.92778200  0.87815441  0.27343521
   0.42919369  0.61416698  0.22452312
   0.92934349  0.61620573  0.27676315
   0.42435949  0.37555234  0.27760906
   0.92667379  0.37834994  0.22488538
   0.42687304  0.11514253  0.27141614
   0.92753961  0.11506796  0.22138102
   0.17751021  0.99586843  0.24607809
   0.67770076  0.99637301  0.24720442
   0.17740670  0.49670344  0.24892440
   0.67738542  0.49624936  0.25616958
   0.57869045  0.44633636  0.48328834
   0.81515034  0.35896616  0.47185132
   0.53686250  0.37180353  0.58404722
Direct configuration=    74
   0.42801418  0.87686806  0.22183300
   0.92768223  0.87804914  0.27357292
   0.42908858  0.61393259  0.22435724
   0.92951209  0.61603579  0.27668614
   0.42387726  0.37544037  0.27758343
   0.92634782  0.37823998  0.22475154
   0.42670788  0.11501285  0.27153750
   0.92746612  0.11499819  0.22141570
   0.17736213  0.99570737  0.24614308
   0.67752905  0.99617407  0.24725777
   0.17723983  0.49660214  0.24883334
   0.67716497  0.49608817  0.25616126
   0.57919803  0.44676346  0.48337264
   0.81546893  0.35930834  0.47165228
   0.53811176  0.37267295  0.58424216
Direct configuration=    75
   0.42796473  0.87680671  0.22184450
   0.92761443  0.87795288  0.27358634
   0.42896401  0.61387093  0.22433628
   0.92940430  0.61595196  0.27668089
   0.42377803  0.37545528  0.27759809
   0.92622259  0.37813623  0.22470883
   0.42661460  0.11502892  0.27158499
   0.92731482  0.11490554  0.22142279
   0.17732035  0.99566822  0.24617059
   0.67747016  0.99611421  0.24730369
   0.17726013  0.49652903  0.24876273
   0.67715835  0.49602171  0.25610861
   0.57937458  0.44696838  0.48336852
   0.81564013  0.35945019  0.47156916
   0.53866966  0.37303332  0.58435401
Direct configuration=    76
   0.42784689  0.87666050  0.22187190
   0.92745286  0.87772350  0.27361832
   0.42866718  0.61372398  0.22428633
   0.92914745  0.61575218  0.27666837
   0.42354157  0.37549079  0.27763303
   0.92592418  0.37788903  0.22460706
   0.42639232  0.11506723  0.27169816
   0.92695429  0.11468476  0.22143969
   0.17722079  0.99557493  0.24623613
   0.67732983  0.99597157  0.24741311
   0.17730851  0.49635481  0.24859446
   0.67714256  0.49586333  0.25598313
   0.57979529  0.44745669  0.48335869
   0.81604807  0.35978818  0.47137108
   0.53999908  0.37389202  0.58462054
Direct configuration=    77
   0.42782295  0.87663833  0.22189003
   0.92742020  0.87766251  0.27361452
   0.42861349  0.61371051  0.22427788
   0.92907397  0.61567503  0.27666438
   0.42355107  0.37548549  0.27765162
   0.92590350  0.37781311  0.22458119
   0.42633109  0.11505182  0.27172572
   0.92685479  0.11459729  0.22144386
   0.17716713  0.99554721  0.24625336
   0.67723756  0.99593206  0.24745402
   0.17717637  0.49629403  0.24854138
   0.67709450  0.49582392  0.25593761
   0.57995752  0.44758371  0.48335894
   0.81614159  0.35990889  0.47131336
   0.54042514  0.37416957  0.58469212
Direct configuration=    78
   0.42775114  0.87657184  0.22194442
   0.92732221  0.87747957  0.27360313
   0.42845241  0.61367007  0.22425253
   0.92885351  0.61544360  0.27665242
   0.42357957  0.37546961  0.27770739
   0.92584147  0.37758534  0.22450359
   0.42614740  0.11500559  0.27180840
   0.92655631  0.11433488  0.22145637
   0.17700616  0.99546405  0.24630503
   0.67696075  0.99581356  0.24757677
   0.17677996  0.49611168  0.24838214
   0.67695031  0.49570570  0.25580105
   0.58044418  0.44796476  0.48335969
   0.81642216  0.36027104  0.47114019
   0.54170332  0.37500222  0.58490688
Direct configuration=    79
   0.42760752  0.87643885  0.22205320
   0.92712624  0.87711367  0.27358036
   0.42813027  0.61358921  0.22420183
   0.92841260  0.61498072  0.27662849
   0.42363658  0.37543783  0.27781892
   0.92571741  0.37712981  0.22434839
   0.42578001  0.11491312  0.27197374
   0.92595934  0.11381006  0.22148141
   0.17668423  0.99529773  0.24640838
   0.67640715  0.99557654  0.24782226
   0.17598712  0.49574699  0.24806367
   0.67666194  0.49546926  0.25552793
   0.58141751  0.44872685  0.48336118
   0.81698329  0.36099532  0.47079385
   0.54425968  0.37666752  0.58533639
Direct configuration=    80
   0.42767945  0.87650546  0.22199872
   0.92722439  0.87729693  0.27359176
   0.42829161  0.61362971  0.22422722
   0.92863342  0.61521255  0.27664047
   0.42360803  0.37545374  0.27776306
   0.92577955  0.37735796  0.22442612
   0.42596401  0.11495943  0.27189093
   0.92625832  0.11407291  0.22146887
   0.17684546  0.99538103  0.24635662
   0.67668441  0.99569525  0.24769931
   0.17638420  0.49592964  0.24822318
   0.67680636  0.49558768  0.25566472
   0.58093003  0.44834516  0.48336043
   0.81670225  0.36063257  0.47096731
   0.54297936  0.37583347  0.58512127
Direct configuration=    81
   0.42754306  0.87649235  0.22205785
   0.92714476  0.87719542  0.27358486
   0.42813124  0.61357504  0.22421005
   0.92851477  0.61509439  0.27661599
   0.42358108  0.37540976  0.27777712
   0.92571850  0.37719034  0.22436935
   0.42582251  0.11486862  0.27193912
   0.92612390  0.11395895  0.22147586
   0.17668930  0.99528663  0.24637871
   0.67655284  0.99558780  0.24779300
   0.17634147  0.49582441  0.24814675
   0.67657041  0.49550899  0.25557830
   0.58123718  0.44859986  0.48338012
   0.81691755  0.36087742  0.47085667
   0.54388229  0.37642352  0.58523626
Direct configuration=    82
   0.42739720  0.87647834  0.22212108
   0.92705961  0.87708687  0.27357748
   0.42795973  0.61351657  0.22419168
   0.92838789  0.61496804  0.27658980
   0.42355226  0.37536271  0.27779216
   0.92565322  0.37701108  0.22430864
   0.42567119  0.11477150  0.27199065
   0.92598014  0.11383707  0.22148332
   0.17652229  0.99518567  0.24640234
   0.67641213  0.99547290  0.24789319
   0.17629577  0.49571187  0.24806503
   0.67631808  0.49542485  0.25548588
   0.58156565  0.44887223  0.48340118
   0.81714780  0.36113927  0.47073834
   0.54484792  0.37705453  0.58535924
Direct configuration=    83
   0.42732700  0.87647159  0.22215152
   0.92701863  0.87703462  0.27357392
   0.42787719  0.61348843  0.22418284
   0.92832682  0.61490723  0.27657720
   0.42353839  0.37534007  0.27779940
   0.92562180  0.37692481  0.22427942
   0.42559836  0.11472477  0.27201545
   0.92591095  0.11377842  0.22148692
   0.17644191  0.99513708  0.24641372
   0.67634441  0.99541761  0.24794141
   0.17627378  0.49565771  0.24802570
   0.67619664  0.49538435  0.25544140
   0.58172374  0.44900331  0.48341131
   0.81725861  0.36126529  0.47068140
   0.54531264  0.37735821  0.58541842
Direct configuration=    84
   0.42705934  0.87637446  0.22223194
   0.92685204  0.87689326  0.27358803
   0.42761818  0.61342344  0.22414084
   0.92821285  0.61476278  0.27650257
   0.42334398  0.37519262  0.27776857
   0.92544984  0.37683956  0.22421987
   0.42540630  0.11458139  0.27207872
   0.92579240  0.11371402  0.22150681
   0.17624044  0.99503268  0.24641587
   0.67630582  0.99530116  0.24805430
   0.17626333  0.49552873  0.24799782
   0.67615408  0.49527050  0.25535912
   0.58204686  0.44936169  0.48341297
   0.81758319  0.36154710  0.47055929
   0.54644222  0.37807011  0.58556329
Direct configuration=    85
   0.42640300  0.87613628  0.22242915
   0.92644355  0.87654663  0.27362264
   0.42698306  0.61326406  0.22403785
   0.92793337  0.61440859  0.27631957
   0.42286728  0.37483106  0.27769299
   0.92502816  0.37663051  0.22407384
   0.42493535  0.11422982  0.27223386
   0.92550171  0.11355611  0.22155559
   0.17574642  0.99477670  0.24642114
   0.67621120  0.99501561  0.24833113
   0.17623771  0.49521247  0.24792945
   0.67604970  0.49499133  0.25515736
   0.58283919  0.45024047  0.48341704
   0.81837908  0.36223811  0.47025987
   0.54921206  0.37981575  0.58591854
Direct configuration=    86
   0.42625622  0.87603939  0.22248678
   0.92631537  0.87643456  0.27364311
   0.42687858  0.61317513  0.22400824
   0.92788595  0.61431889  0.27625360
   0.42275375  0.37471697  0.27764472
   0.92492197  0.37659448  0.22402937
   0.42482296  0.11410676  0.27228370
   0.92539783  0.11350829  0.22158274
   0.17562171  0.99470697  0.24641922
   0.67605511  0.99493839  0.24840767
   0.17609957  0.49510574  0.24792793
   0.67593589  0.49490377  0.25510244
   0.58315190  0.45050954  0.48339747
   0.81859009  0.36247656  0.47017407
   0.55008398  0.38035807  0.58603894
Direct configuration=    87
   0.42581589  0.87574873  0.22265967
   0.92593084  0.87609834  0.27370453
   0.42656511  0.61290833  0.22391941
   0.92774371  0.61404979  0.27605567
   0.42241313  0.37437470  0.27749992
   0.92460337  0.37648638  0.22389599
   0.42448578  0.11373758  0.27243324
   0.92508618  0.11336484  0.22166419
   0.17524760  0.99449779  0.24641346
   0.67558681  0.99470670  0.24863730
   0.17568514  0.49478555  0.24792336
   0.67559444  0.49464110  0.25493769
   0.58409002  0.45131673  0.48333875
   0.81922311  0.36319189  0.46991668
   0.55269974  0.38198502  0.58640015
Direct configuration=    88
   0.42493522  0.87516741  0.22300545
   0.92516177  0.87542591  0.27382737
   0.42593818  0.61237474  0.22374175
   0.92745922  0.61351161  0.27565982
   0.42173190  0.37369015  0.27721033
   0.92396619  0.37627019  0.22362922
   0.42381141  0.11299923  0.27273231
   0.92446288  0.11307793  0.22182708
   0.17449937  0.99407943  0.24640194
   0.67465022  0.99424334  0.24909656
   0.17485630  0.49414517  0.24791423
   0.67491155  0.49411575  0.25460817
   0.58596626  0.45293113  0.48322132
   0.82048915  0.36462257  0.46940189
   0.55793125  0.38523894  0.58712256
Direct configuration=    89
   0.42536671  0.87545224  0.22283603
   0.92553859  0.87575538  0.27376718
   0.42624535  0.61263618  0.22382879
   0.92759861  0.61377530  0.27585377
   0.42206568  0.37402555  0.27735222
   0.92427839  0.37637612  0.22375993
   0.42414183  0.11336100  0.27258578
   0.92476827  0.11321850  0.22174727
   0.17486598  0.99428441  0.24640759
   0.67510912  0.99447037  0.24887154
   0.17526240  0.49445893  0.24791870
   0.67524614  0.49437315  0.25476962
   0.58504697  0.45214013  0.48327886
   0.81986883  0.36392159  0.46965412
   0.55536800  0.38364464  0.58676860
Direct configuration=    90
   0.42522702  0.87523296  0.22291623
   0.92529733  0.87565771  0.27379858
   0.42614865  0.61234918  0.22379667
   0.92739517  0.61368319  0.27574541
   0.42194667  0.37383323  0.27722086
   0.92404501  0.37619171  0.22366739
   0.42391634  0.11319049  0.27268853
   0.92442064  0.11302894  0.22183925
   0.17453796  0.99409460  0.24642167
   0.67481910  0.99427562  0.24900181
   0.17502919  0.49427742  0.24791497
   0.67481856  0.49423425  0.25466981
   0.58570846  0.45264613  0.48326132
   0.82031906  0.36442035  0.46948615
   0.55714170  0.38477771  0.58697135
Direct configuration=    91
   0.42506316  0.87497576  0.22301030
   0.92501435  0.87554315  0.27383542
   0.42603523  0.61201253  0.22375899
   0.92715654  0.61357516  0.27561831
   0.42180709  0.37360765  0.27706678
   0.92377127  0.37597540  0.22355885
   0.42365186  0.11299050  0.27280905
   0.92401289  0.11280658  0.22194714
   0.17415322  0.99387197  0.24643819
   0.67447892  0.99404718  0.24915461
   0.17475564  0.49406452  0.24791059
   0.67431702  0.49407131  0.25455273
   0.58648436  0.45323965  0.48324075
   0.82084716  0.36500537  0.46928913
   0.55922218  0.38610676  0.58720917
Direct configuration=    92
   0.42499425  0.87486759  0.22304986
   0.92489534  0.87549497  0.27385091
   0.42598753  0.61187096  0.22374314
   0.92705619  0.61352972  0.27556485
   0.42174839  0.37351278  0.27700199
   0.92365616  0.37588443  0.22351320
   0.42354064  0.11290640  0.27285974
   0.92384141  0.11271307  0.22199252
   0.17399142  0.99377834  0.24644513
   0.67433586  0.99395111  0.24921887
   0.17464060  0.49397498  0.24790875
   0.67410610  0.49400280  0.25450349
   0.58681065  0.45348925  0.48323210
   0.82106924  0.36525140  0.46920628
   0.56009709  0.38666568  0.58730918
Direct configuration=    93
   0.42485610  0.87459769  0.22308964
   0.92464294  0.87540178  0.27389365
   0.42572417  0.61162368  0.22371160
   0.92659296  0.61343544  0.27547371
   0.42156862  0.37329668  0.27684655
   0.92329438  0.37561618  0.22345016
   0.42314570  0.11273776  0.27295029
   0.92330770  0.11242506  0.22212114
   0.17382481  0.99356288  0.24649483
   0.67401377  0.99373673  0.24933705
   0.17432753  0.49378120  0.24787740
   0.67410247  0.49380377  0.25440335
   0.58746506  0.45407381  0.48323651
   0.82176267  0.36579433  0.46901275
   0.56214198  0.38800650  0.58750135
Direct configuration=    94
   0.42480721  0.87450216  0.22310373
   0.92455360  0.87536880  0.27390878
   0.42563095  0.61153616  0.22370043
   0.92642900  0.61340207  0.27544146
   0.42150500  0.37322020  0.27679154
   0.92316633  0.37552122  0.22342785
   0.42300591  0.11267807  0.27298234
   0.92311879  0.11232311  0.22216667
   0.17376584  0.99348662  0.24651242
   0.67389976  0.99366085  0.24937888
   0.17421672  0.49371261  0.24786631
   0.67410119  0.49373332  0.25436790
   0.58769669  0.45428072  0.48323807
   0.82200812  0.36598650  0.46894425
   0.56286577  0.38848108  0.58756937
Direct configuration=    95
   0.42470941  0.87431109  0.22313189
   0.92437493  0.87530283  0.27393904
   0.42544451  0.61136111  0.22367811
   0.92610108  0.61333532  0.27537694
   0.42137774  0.37306722  0.27668150
   0.92291022  0.37533132  0.22338322
   0.42272634  0.11255869  0.27304643
   0.92274096  0.11211922  0.22225772
   0.17364790  0.99333409  0.24654760
   0.67367175  0.99350909  0.24946254
   0.17399509  0.49357543  0.24784412
   0.67409862  0.49359243  0.25429701
   0.58815995  0.45469454  0.48324119
   0.82249900  0.36637084  0.46880725
   0.56431336  0.38943026  0.58770542
Direct configuration=    96
   0.42454498  0.87420374  0.22311293
   0.92432046  0.87509391  0.27399930
   0.42514091  0.61132048  0.22366409
   0.92589722  0.61322188  0.27535724
   0.42120281  0.37303874  0.27661212
   0.92284409  0.37516868  0.22342586
   0.42243775  0.11242015  0.27303824
   0.92257676  0.11200982  0.22230854
   0.17359407  0.99324571  0.24660827
   0.67340608  0.99341711  0.24950295
   0.17381011  0.49346436  0.24778296
   0.67401625  0.49341153  0.25424950
   0.58857951  0.45500254  0.48318290
   0.82295808  0.36669967  0.46871108
   0.56544178  0.39017517  0.58784402
Direct configuration=    97
   0.42436481  0.87408612  0.22309216
   0.92426078  0.87486499  0.27406531
   0.42480826  0.61127596  0.22364873
   0.92567386  0.61309759  0.27533565
   0.42101115  0.37300753  0.27653610
   0.92277163  0.37499048  0.22347259
   0.42212155  0.11226834  0.27302926
   0.92239685  0.11188994  0.22236422
   0.17353508  0.99314886  0.24667475
   0.67311498  0.99331633  0.24954722
   0.17360742  0.49334267  0.24771595
   0.67392599  0.49321333  0.25419744
   0.58903923  0.45534002  0.48311903
   0.82346109  0.36705996  0.46860570
   0.56667818  0.39099137  0.58799588
Direct configuration=    98
   0.42420609  0.87403350  0.22306304
   0.92417841  0.87473301  0.27411343
   0.42460213  0.61123796  0.22363988
   0.92553773  0.61293572  0.27532854
   0.42084731  0.37296271  0.27649366
   0.92275653  0.37484208  0.22353790
   0.42194290  0.11221201  0.27301052
   0.92231907  0.11178085  0.22240411
   0.17326684  0.99302724  0.24673126
   0.67306828  0.99319413  0.24956542
   0.17346253  0.49328979  0.24765174
   0.67369098  0.49311317  0.25416148
   0.58943179  0.45556264  0.48306321
   0.82385824  0.36735119  0.46853431
   0.56760206  0.39161750  0.58810151
Direct configuration=    99
   0.42388632  0.87392750  0.22300437
   0.92401244  0.87446709  0.27421038
   0.42418681  0.61116141  0.22362206
   0.92526345  0.61260958  0.27531421
   0.42051720  0.37287240  0.27640816
   0.92272610  0.37454309  0.22366950
   0.42158295  0.11209852  0.27297275
   0.92216237  0.11156104  0.22248448
   0.17272639  0.99278219  0.24684510
   0.67297418  0.99294793  0.24960211
   0.17317059  0.49318324  0.24752236
   0.67321747  0.49291137  0.25408901
   0.59022272  0.45601118  0.48295073
   0.82465842  0.36793795  0.46839048
   0.56946347  0.39287902  0.58831431
Direct configuration=   100
   0.42379521  0.87389729  0.22298765
   0.92396515  0.87439133  0.27423800
   0.42406848  0.61113959  0.22361698
   0.92518530  0.61251665  0.27531012
   0.42042314  0.37284667  0.27638380
   0.92271742  0.37445790  0.22370699
   0.42148039  0.11206619  0.27296199
   0.92211773  0.11149842  0.22250737
   0.17257240  0.99271237  0.24687754
   0.67294737  0.99287778  0.24961256
   0.17308742  0.49315288  0.24748550
   0.67308255  0.49285387  0.25406837
   0.59044807  0.45613898  0.48291869
   0.82488641  0.36810513  0.46834950
   0.56999383  0.39323845  0.58837494
Direct configuration=   101
   0.42355702  0.87388734  0.22295783
   0.92364550  0.87419827  0.27430719
   0.42393182  0.61108308  0.22359331
   0.92489991  0.61229624  0.27530972
   0.42014176  0.37270255  0.27633442
   0.92251499  0.37426919  0.22380901
   0.42137900  0.11194641  0.27292939
   0.92195821  0.11132229  0.22256699
   0.17242801  0.99251280  0.24695173
   0.67272171  0.99270715  0.24960881
   0.17287376  0.49306588  0.24740629
   0.67280509  0.49274511  0.25402420
   0.59098454  0.45643679  0.48287017
   0.82557212  0.36852782  0.46825300
   0.57135742  0.39419260  0.58847795
Direct configuration=   102
   0.42298359  0.87386338  0.22288603
   0.92287597  0.87373347  0.27447376
   0.42360281  0.61094703  0.22353632
   0.92421284  0.61176560  0.27530874
   0.41946435  0.37235558  0.27621555
   0.92202765  0.37381487  0.22405461
   0.42113489  0.11165804  0.27285091
   0.92157419  0.11089826  0.22271050
   0.17208041  0.99203235  0.24713033
   0.67217846  0.99229636  0.24959979
   0.17235939  0.49285642  0.24721559
   0.67213711  0.49248328  0.25391788
   0.59227607  0.45715375  0.48275337
   0.82722294  0.36954544  0.46802070
   0.57464020  0.39648966  0.58872592
Direct configuration=   103
   0.42313030  0.87386951  0.22290440
   0.92307284  0.87385238  0.27443115
   0.42368698  0.61098184  0.22355090
   0.92438862  0.61190136  0.27530899
   0.41963766  0.37244435  0.27624596
   0.92215233  0.37393110  0.22399177
   0.42119734  0.11173182  0.27287099
   0.92167243  0.11100674  0.22267378
   0.17216934  0.99215526  0.24708464
   0.67231744  0.99240145  0.24960210
   0.17249098  0.49291001  0.24726438
   0.67230800  0.49255026  0.25394508
   0.59194565  0.45697033  0.48278325
   0.82680060  0.36928510  0.46808013
   0.57380035  0.39590200  0.58866248
Direct configuration=   104
   0.42305175  0.87386622  0.22289456
   0.92296743  0.87378872  0.27445396
   0.42364191  0.61096320  0.22354309
   0.92429450  0.61182867  0.27530886
   0.41954486  0.37239682  0.27622968
   0.92208557  0.37386886  0.22402542
   0.42116390  0.11169231  0.27286023
   0.92161983  0.11094866  0.22269344
   0.17212173  0.99208945  0.24710910
   0.67224303  0.99234518  0.24960086
   0.17242052  0.49288131  0.24723826
   0.67221650  0.49251440  0.25393051
   0.59212257  0.45706854  0.48276725
   0.82702674  0.36942449  0.46804831
   0.57425004  0.39621666  0.58869645
Direct configuration=   105
   0.42309102  0.87386786  0.22289948
   0.92302013  0.87382055  0.27444255
   0.42366445  0.61097252  0.22354699
   0.92434156  0.61186501  0.27530892
   0.41959126  0.37242058  0.27623782
   0.92211895  0.37389998  0.22400859
   0.42118062  0.11171207  0.27286561
   0.92164613  0.11097770  0.22268361
   0.17214553  0.99212236  0.24709687
   0.67228023  0.99237331  0.24960148
   0.17245575  0.49289566  0.24725132
   0.67226225  0.49253233  0.25393780
   0.59203411  0.45701943  0.48277525
   0.82691367  0.36935479  0.46806422
   0.57402519  0.39605933  0.58867947
Direct configuration=   106
   0.42282174  0.87365268  0.22286668
   0.92255175  0.87358655  0.27450467
   0.42354124  0.61088148  0.22350034
   0.92396157  0.61176155  0.27531498
   0.41923067  0.37226259  0.27616030
   0.92163019  0.37372783  0.22408911
   0.42109513  0.11152968  0.27286317
   0.92143883  0.11070761  0.22277219
   0.17193146  0.99197183  0.24718360
   0.67202589  0.99227103  0.24955938
   0.17219591  0.49270084  0.24720543
   0.67203894  0.49229162  0.25391903
   0.59269975  0.45740755  0.48268028
   0.82784876  0.36989503  0.46796122
   0.57575903  0.39724561  0.58881962
Direct configuration=   107
   0.42267110  0.87353230  0.22284833
   0.92228975  0.87345566  0.27453942
   0.42347232  0.61083056  0.22347425
   0.92374901  0.61170367  0.27531837
   0.41902896  0.37217421  0.27611694
   0.92135678  0.37363153  0.22413415
   0.42104731  0.11142766  0.27286180
   0.92132287  0.11055653  0.22282174
   0.17181172  0.99188762  0.24723212
   0.67188361  0.99221382  0.24953582
   0.17205055  0.49259186  0.24717977
   0.67191403  0.49215697  0.25390853
   0.59307211  0.45762466  0.48262715
   0.82837183  0.37019724  0.46790361
   0.57672891  0.39790921  0.58889802
Direct configuration=   108
   0.42255945  0.87332787  0.22286068
   0.92216003  0.87345873  0.27452261
   0.42334055  0.61061415  0.22345638
   0.92368832  0.61171713  0.27530575
   0.41887936  0.37210322  0.27606593
   0.92110878  0.37354420  0.22409302
   0.42090339  0.11134709  0.27291172
   0.92127217  0.11052122  0.22285339
   0.17164579  0.99178717  0.24727743
   0.67175909  0.99212632  0.24947683
   0.17187595  0.49255016  0.24722072
   0.67176079  0.49206227  0.25395389
   0.59344540  0.45779634  0.48254217
   0.82880545  0.37048918  0.46788172
   0.57756634  0.39844844  0.58897776
Direct configuration=   109
   0.42242543  0.87308248  0.22287552
   0.92200432  0.87346242  0.27450244
   0.42318238  0.61035438  0.22343493
   0.92361546  0.61173328  0.27529060
   0.41869979  0.37201802  0.27600471
   0.92081109  0.37343937  0.22404364
   0.42073064  0.11125039  0.27297164
   0.92121132  0.11047884  0.22289138
   0.17144662  0.99166660  0.24733182
   0.67160961  0.99202129  0.24940601
   0.17166638  0.49250010  0.24726989
   0.67157684  0.49194859  0.25400833
   0.59389349  0.45800242  0.48244017
   0.82932594  0.37083961  0.46785545
   0.57857155  0.39909570  0.58907347
Direct configuration=   110
   0.42215739  0.87259170  0.22290518
   0.92169290  0.87346979  0.27446210
   0.42286604  0.60983485  0.22339203
   0.92346976  0.61176558  0.27526030
   0.41834064  0.37184760  0.27588226
   0.92021572  0.37322970  0.22394489
   0.42038513  0.11105699  0.27309148
   0.92108961  0.11039408  0.22296736
   0.17104829  0.99142546  0.24744060
   0.67131066  0.99181122  0.24926438
   0.17124722  0.49240000  0.24736821
   0.67120896  0.49172123  0.25411723
   0.59478966  0.45841457  0.48223617
   0.83036692  0.37154047  0.46780291
   0.58058198  0.40039024  0.58926489
Direct configuration=   111
   0.42236725  0.87297595  0.22288196
   0.92193672  0.87346402  0.27449369
   0.42311371  0.61024162  0.22342562
   0.92358384  0.61174029  0.27528402
   0.41862183  0.37198103  0.27597813
   0.92068186  0.37339386  0.22402221
   0.42065564  0.11120841  0.27299765
   0.92118490  0.11046044  0.22290787
   0.17136016  0.99161426  0.24735543
   0.67154472  0.99197569  0.24937527
   0.17157540  0.49247838  0.24729123
   0.67149699  0.49189924  0.25403197
   0.59408801  0.45809188  0.48239589
   0.82955189  0.37099174  0.46784405
   0.57900793  0.39937669  0.58911502
Direct configuration=   112
   0.42223124  0.87284713  0.22292728
   0.92181610  0.87345069  0.27445794
   0.42294078  0.61006558  0.22340268
   0.92347381  0.61172615  0.27525866
   0.41844033  0.37183754  0.27596201
   0.92054534  0.37339592  0.22396324
   0.42046663  0.11103553  0.27304471
   0.92107605  0.11045689  0.22291193
   0.17138683  0.99151098  0.24740670
   0.67130319  0.99189572  0.24929405
   0.17127471  0.49236078  0.24734714
   0.67145304  0.49182369  0.25409377
   0.59441022  0.45825936  0.48235556
   0.83007782  0.37128395  0.46783052
   0.57987477  0.39994360  0.58914382
Direct configuration=   113
   0.42215270  0.87277275  0.22295345
   0.92174646  0.87344300  0.27443730
   0.42284094  0.60996394  0.22338943
   0.92341028  0.61171798  0.27524402
   0.41833553  0.37175469  0.27595270
   0.92046651  0.37339710  0.22392919
   0.42035750  0.11093571  0.27307189
   0.92101320  0.11045484  0.22291428
   0.17140222  0.99145134  0.24743630
   0.67116373  0.99184954  0.24924715
   0.17110109  0.49229288  0.24737942
   0.67142767  0.49178006  0.25412945
   0.59459627  0.45835606  0.48233227
   0.83038149  0.37145267  0.46782271
   0.58037528  0.40027092  0.58916045
Direct configuration=   114
   0.42207788  0.87275125  0.22298446
   0.92167453  0.87340316  0.27440255
   0.42272288  0.60994989  0.22339021
   0.92326159  0.61169294  0.27523524
   0.41825539  0.37163984  0.27599437
   0.92046671  0.37342531  0.22389833
   0.42029795  0.11084504  0.27308469
   0.92091263  0.11041603  0.22288758
   0.17129641  0.99143264  0.24746020
   0.67120658  0.99185009  0.24920601
   0.17113703  0.49218276  0.24739795
   0.67131877  0.49176558  0.25415025
   0.59471992  0.45842739  0.48233249
   0.83066088  0.37159006  0.46782593
   0.58076173  0.40052150  0.58914974
Direct configuration=   115
   0.42199837  0.87272840  0.22301742
   0.92159809  0.87336083  0.27436561
   0.42259741  0.60993497  0.22339104
   0.92310358  0.61166633  0.27522592
   0.41817022  0.37151779  0.27603866
   0.92046693  0.37345528  0.22386553
   0.42023466  0.11074868  0.27309829
   0.92080575  0.11037479  0.22285921
   0.17118395  0.99141277  0.24748560
   0.67125212  0.99185068  0.24916229
   0.17117521  0.49206572  0.24741765
   0.67120303  0.49175018  0.25417235
   0.59485132  0.45850320  0.48233273
   0.83095778  0.37173607  0.46782934
   0.58117243  0.40078779  0.58913836
Direct configuration=   116
   0.42192638  0.87274519  0.22304645
   0.92152213  0.87327026  0.27431482
   0.42245956  0.60991704  0.22342505
   0.92298562  0.61156717  0.27522309
   0.41819909  0.37141044  0.27612149
   0.92041884  0.37343876  0.22382851
   0.42022002  0.11069512  0.27310929
   0.92074294  0.11038228  0.22279371
   0.17105130  0.99138989  0.24751066
   0.67116974  0.99181167  0.24911716
   0.17116561  0.49201222  0.24743690
   0.67102801  0.49171578  0.25417407
   0.59506836  0.45858758  0.48227911
   0.83122851  0.37192935  0.46784665
   0.58158475  0.40102074  0.58917303
Direct configuration=   117
   0.42185939  0.87276080  0.22307346
   0.92145145  0.87318599  0.27426756
   0.42233129  0.60990035  0.22345669
   0.92287588  0.61147492  0.27522046
   0.41822595  0.37131055  0.27619857
   0.92037409  0.37342340  0.22379406
   0.42020640  0.11064529  0.27311953
   0.92068449  0.11038925  0.22273276
   0.17092788  0.99136861  0.24753398
   0.67109310  0.99177537  0.24907518
   0.17115668  0.49196244  0.24745482
   0.67086516  0.49168378  0.25417567
   0.59527031  0.45866608  0.48222921
   0.83148040  0.37210918  0.46786275
   0.58196839  0.40123747  0.58920530
Direct configuration=   118
   0.42172774  0.87272723  0.22306627
   0.92134642  0.87313094  0.27420890
   0.42222200  0.60987716  0.22351971
   0.92286412  0.61136191  0.27523592
   0.41825001  0.37134208  0.27627470
   0.92023888  0.37336963  0.22376376
   0.42016351  0.11065371  0.27313475
   0.92065116  0.11034899  0.22267135
   0.17088335  0.99136783  0.24754722
   0.67101207  0.99171787  0.24903261
   0.17095219  0.49192344  0.24748992
   0.67090277  0.49158917  0.25415173
   0.59544827  0.45875779  0.48218979
   0.83178729  0.37229389  0.46788031
   0.58232108  0.40143185  0.58923307
Direct configuration=   119
   0.42164833  0.87270698  0.22306193
   0.92128308  0.87309773  0.27417352
   0.42215608  0.60986318  0.22355772
   0.92285703  0.61129375  0.27524524
   0.41826453  0.37136109  0.27632062
   0.92015732  0.37333720  0.22374549
   0.42013764  0.11065879  0.27314393
   0.92063106  0.11032470  0.22263430
   0.17085649  0.99136737  0.24755520
   0.67096320  0.99168318  0.24900693
   0.17082884  0.49189991  0.24751108
   0.67092545  0.49153210  0.25413730
   0.59555562  0.45881310  0.48216602
   0.83197240  0.37240530  0.46789090
   0.58253382  0.40154909  0.58924982
Direct configuration=   120
   0.42151523  0.87266810  0.22304198
   0.92120115  0.87307049  0.27412730
   0.42208775  0.60981257  0.22362000
   0.92283154  0.61127147  0.27527642
   0.41818600  0.37142595  0.27637418
   0.92005992  0.37322473  0.22371581
   0.42010233  0.11067031  0.27315413
   0.92058017  0.11024478  0.22258955
   0.17082013  0.99137035  0.24755475
   0.67089641  0.99164588  0.24896269
   0.17082302  0.49183481  0.24755485
   0.67087468  0.49147687  0.25410982
   0.59570639  0.45888275  0.48216922
   0.83226544  0.37257165  0.46790341
   0.58282070  0.40172278  0.58924588
Direct configuration=   121
   0.42141366  0.87263842  0.22302675
   0.92113863  0.87304970  0.27409202
   0.42203560  0.60977395  0.22366754
   0.92281209  0.61125447  0.27530021
   0.41812607  0.37147544  0.27641506
   0.91998559  0.37313891  0.22369317
   0.42007538  0.11067911  0.27316191
   0.92054134  0.11018378  0.22255540
   0.17079238  0.99137262  0.24755441
   0.67084544  0.99161741  0.24892892
   0.17081858  0.49178513  0.24758825
   0.67083594  0.49143473  0.25408886
   0.59582146  0.45893589  0.48217167
   0.83248908  0.37269861  0.46791296
   0.58303963  0.40185533  0.58924287
Direct configuration=   122
   0.42135345  0.87262898  0.22300941
   0.92112114  0.87304920  0.27408032
   0.42203341  0.60975991  0.22368615
   0.92276090  0.61124614  0.27531719
   0.41802255  0.37141959  0.27644443
   0.92000606  0.37308967  0.22369050
   0.42006938  0.11067286  0.27315811
   0.92047009  0.11012026  0.22253197
   0.17074092  0.99135080  0.24753911
   0.67075958  0.99160199  0.24888937
   0.17077865  0.49172703  0.24763338
   0.67081818  0.49146755  0.25407541
   0.59595730  0.45897789  0.48218178
   0.83267380  0.37282306  0.46791973
   0.58320547  0.40195856  0.58924313
Direct configuration=   123
   0.42128794  0.87261871  0.22299054
   0.92110210  0.87304865  0.27406759
   0.42203102  0.60974462  0.22370641
   0.92270519  0.61123707  0.27533567
   0.41790990  0.37135881  0.27647638
   0.92002833  0.37303610  0.22368760
   0.42006284  0.11066605  0.27315396
   0.92039256  0.11005114  0.22250648
   0.17068492  0.99132706  0.24752246
   0.67066615  0.99158521  0.24884634
   0.17073520  0.49166381  0.24768250
   0.67079885  0.49150326  0.25406078
   0.59610512  0.45902360  0.48219279
   0.83287481  0.37295847  0.46792709
   0.58338594  0.40207090  0.58924341
Direct configuration=   124
   0.42123281  0.87260093  0.22296764
   0.92106470  0.87303043  0.27407293
   0.42199055  0.60972083  0.22371109
   0.92267063  0.61121320  0.27534616
   0.41789117  0.37130403  0.27649565
   0.92002157  0.37304180  0.22370465
   0.42001437  0.11062396  0.27313863
   0.92031021  0.11002580  0.22247787
   0.17064615  0.99130634  0.24749862
   0.67060751  0.99156000  0.24880376
   0.17068309  0.49163208  0.24773994
   0.67075585  0.49149669  0.25405517
   0.59623636  0.45909220  0.48218529
   0.83309353  0.37308755  0.46793384
   0.58355235  0.40215766  0.58926878
Direct configuration=   125
   0.42106743  0.87254759  0.22289893
   0.92095250  0.87297575  0.27408894
   0.42186912  0.60964948  0.22372513
   0.92256693  0.61114158  0.27537763
   0.41783497  0.37113968  0.27655348
   0.92000128  0.37305889  0.22375580
   0.41986897  0.11049767  0.27309261
   0.92006318  0.10994977  0.22239203
   0.17052984  0.99124417  0.24742708
   0.67043161  0.99148437  0.24867600
   0.17052677  0.49153690  0.24791225
   0.67062686  0.49147695  0.25403834
   0.59663010  0.45929801  0.48216280
   0.83374969  0.37347476  0.46795409
   0.58405160  0.40241794  0.58934488
Direct configuration=   126
   0.42102849  0.87251958  0.22287776
   0.92091471  0.87296172  0.27409251
   0.42181078  0.60962163  0.22372782
   0.92254008  0.61113258  0.27538739
   0.41785008  0.37112497  0.27656210
   0.91996365  0.37305657  0.22377003
   0.41982281  0.11046658  0.27307988
   0.92002337  0.10994855  0.22236995
   0.17047560  0.99123234  0.24741104
   0.67041755  0.99145596  0.24865126
   0.17053864  0.49152988  0.24795216
   0.67058522  0.49144819  0.25403766
   0.59672353  0.45934196  0.48216574
   0.83390342  0.37357037  0.46795947
   0.58417294  0.40248263  0.58935523
Direct configuration=   127
   0.42091165  0.87243556  0.22281426
   0.92080133  0.87291962  0.27410322
   0.42163574  0.60953811  0.22373587
   0.92245954  0.61110558  0.27541665
   0.41789539  0.37108084  0.27658797
   0.91985076  0.37304960  0.22381273
   0.41968430  0.11037329  0.27304170
   0.91990394  0.10994490  0.22230373
   0.17031288  0.99119684  0.24736291
   0.67037537  0.99137074  0.24857703
   0.17057427  0.49150881  0.24807188
   0.67046029  0.49136191  0.25403561
   0.59700381  0.45947379  0.48217453
   0.83436461  0.37385720  0.46797561
   0.58453698  0.40267669  0.58938629
Direct configuration=   128
   0.42067797  0.87226752  0.22268726
   0.92057456  0.87283542  0.27412463
   0.42128568  0.60937106  0.22375197
   0.92229847  0.61105159  0.27547518
   0.41798601  0.37099258  0.27663970
   0.91962499  0.37303566  0.22389813
   0.41940729  0.11018671  0.27296532
   0.91966509  0.10993759  0.22217129
   0.16998744  0.99112586  0.24726667
   0.67029100  0.99120031  0.24842857
   0.17064552  0.49146668  0.24831131
   0.67021043  0.49118934  0.25403152
   0.59756438  0.45973747  0.48219213
   0.83528699  0.37443086  0.46800790
   0.58526504  0.40306482  0.58944842
Direct configuration=   129
   0.42083753  0.87238226  0.22277397
   0.92072939  0.87289291  0.27411001
   0.42152470  0.60948512  0.22374098
   0.92240845  0.61108846  0.27543522
   0.41792414  0.37105284  0.27660438
   0.91977915  0.37304518  0.22383982
   0.41959643  0.11031410  0.27301747
   0.91982818  0.10994258  0.22226172
   0.17020965  0.99117433  0.24733238
   0.67034861  0.99131668  0.24852993
   0.17059687  0.49149545  0.24814783
   0.67038103  0.49130717  0.25403432
   0.59718163  0.45955743  0.48218012
   0.83465720  0.37403917  0.46798586
   0.58476793  0.40279981  0.58940600
Direct configuration=   130
   0.42075775  0.87232489  0.22273062
   0.92065198  0.87286417  0.27411732
   0.42140519  0.60942809  0.22374648
   0.92235346  0.61107002  0.27545520
   0.41795507  0.37102271  0.27662204
   0.91970207  0.37304042  0.22386897
   0.41950186  0.11025040  0.27299140
   0.91974663  0.10994009  0.22221650
   0.17009854  0.99115009  0.24729952
   0.67031980  0.99125850  0.24847925
   0.17062120  0.49148107  0.24822957
   0.67029573  0.49124825  0.25403292
   0.59737300  0.45964745  0.48218612
   0.83497210  0.37423501  0.46799688
   0.58501648  0.40293232  0.58942721
Direct configuration=   131
   0.42078944  0.87234768  0.22274784
   0.92068273  0.87287558  0.27411442
   0.42145266  0.60945075  0.22374429
   0.92237531  0.61107735  0.27544726
   0.41794278  0.37103468  0.27661503
   0.91973269  0.37304231  0.22385739
   0.41953943  0.11027571  0.27300176
   0.91977903  0.10994108  0.22223447
   0.17014268  0.99115972  0.24731258
   0.67033125  0.99128161  0.24849939
   0.17061154  0.49148678  0.24819710
   0.67032962  0.49127166  0.25403347
   0.59729698  0.45961169  0.48218374
   0.83484700  0.37415721  0.46799250
   0.58491774  0.40287968  0.58941878
Direct configuration=   132
   0.42071107  0.87229503  0.22270416
   0.92060716  0.87285756  0.27411107
   0.42136457  0.60941104  0.22374800
   0.92230611  0.61105678  0.27547047
   0.41795787  0.37100437  0.27663150
   0.91968622  0.37302349  0.22388421
   0.41947609  0.11022111  0.27297684
   0.91972924  0.10993673  0.22219622
   0.17005943  0.99112708  0.24728359
   0.67024978  0.99122985  0.24846335
   0.17053816  0.49146052  0.24826448
   0.67032944  0.49123677  0.25403354
   0.59747209  0.45968012  0.48220329
   0.83512415  0.37434437  0.46800532
   0.58515948  0.40300869  0.58942396
Direct configuration=   133
   0.42062975  0.87224040  0.22265884
   0.92052875  0.87283885  0.27410759
   0.42127317  0.60936983  0.22375185
   0.92223431  0.61103543  0.27549456
   0.41797352  0.37097292  0.27664860
   0.91963800  0.37300396  0.22391204
   0.41941036  0.11016445  0.27295100
   0.91967758  0.10993222  0.22215653
   0.16997305  0.99109320  0.24725351
   0.67016524  0.99117614  0.24842595
   0.17046203  0.49143327  0.24833440
   0.67032925  0.49120056  0.25403360
   0.59765381  0.45975113  0.48222358
   0.83541173  0.37453859  0.46801863
   0.58541033  0.40314256  0.58942933
Direct configuration=   134
   0.42046711  0.87213114  0.22256819
   0.92037192  0.87280143  0.27410064
   0.42109035  0.60928741  0.22375954
   0.92209071  0.61099274  0.27554273
   0.41800482  0.37091001  0.27668279
   0.91954157  0.37296489  0.22396770
   0.41927891  0.11005113  0.27289930
   0.91957425  0.10992319  0.22207715
   0.16980028  0.99102545  0.24719335
   0.66999616  0.99106871  0.24835116
   0.17030976  0.49137877  0.24847423
   0.67032887  0.49112815  0.25403374
   0.59801723  0.45989315  0.48226416
   0.83598691  0.37492701  0.46804525
   0.58591203  0.40341031  0.58944008
Direct configuration=   135
   0.42056341  0.87219583  0.22262186
   0.92046478  0.87282358  0.27410476
   0.42119859  0.60933621  0.22375499
   0.92217574  0.61101802  0.27551421
   0.41798628  0.37094726  0.27666255
   0.91959867  0.37298802  0.22393474
   0.41935674  0.11011822  0.27292991
   0.91963543  0.10992853  0.22212415
   0.16990257  0.99106557  0.24722897
   0.67009627  0.99113232  0.24839544
   0.17039992  0.49141104  0.24839144
   0.67032909  0.49117102  0.25403366
   0.59780205  0.45980906  0.48224014
   0.83564635  0.37469703  0.46802949
   0.58561497  0.40325178  0.58943372
Direct configuration=   136
   0.42051526  0.87216349  0.22259503
   0.92041835  0.87281251  0.27410270
   0.42114447  0.60931181  0.22375726
   0.92213322  0.61100538  0.27552847
   0.41799555  0.37092864  0.27667267
   0.91957012  0.37297646  0.22395122
   0.41931782  0.11008467  0.27291460
   0.91960484  0.10992586  0.22210065
   0.16985143  0.99104551  0.24721116
   0.67004622  0.99110052  0.24837330
   0.17035484  0.49139491  0.24843283
   0.67032898  0.49114959  0.25403370
   0.59790964  0.45985110  0.48225215
   0.83581663  0.37481202  0.46803737
   0.58576350  0.40333104  0.58943690
Direct configuration=   137
   0.42042730  0.87213958  0.22255697
   0.92034500  0.87281014  0.27407973
   0.42113392  0.60927552  0.22376615
   0.92205870  0.61100033  0.27555893
   0.41794076  0.37090160  0.27668942
   0.91960046  0.37292521  0.22396793
   0.41929881  0.11005637  0.27289516
   0.91955414  0.10987023  0.22208015
   0.16983670  0.99100336  0.24718287
   0.66994061  0.99108142  0.24835032
   0.17026115  0.49133727  0.24847883
   0.67030578  0.49117437  0.25403057
   0.59802209  0.45991085  0.48225478
   0.83605032  0.37497231  0.46805411
   0.58599512  0.40343492  0.58945409
Direct configuration=   138
   0.42028466  0.87210082  0.22249526
   0.92022604  0.87280631  0.27404250
   0.42111682  0.60921668  0.22378056
   0.92193785  0.61099215  0.27560833
   0.41785189  0.37085776  0.27671658
   0.91964968  0.37284211  0.22399502
   0.41926797  0.11001047  0.27286362
   0.91947193  0.10978001  0.22204690
   0.16981282  0.99093501  0.24713698
   0.66976934  0.99105044  0.24831306
   0.17010922  0.49124380  0.24855343
   0.67026816  0.49121456  0.25402550
   0.59820445  0.46000774  0.48225903
   0.83642930  0.37523225  0.46808126
   0.58637073  0.40360337  0.58948197
Direct configuration=   139
   0.42023882  0.87207988  0.22247121
   0.92017276  0.87278850  0.27401107
   0.42108240  0.60918938  0.22379141
   0.92192212  0.61098945  0.27563032
   0.41779613  0.37086056  0.27673073
   0.91962612  0.37279900  0.22400299
   0.41924420  0.11003004  0.27285671
   0.91943737  0.10970925  0.22204399
   0.16976825  0.99091776  0.24711719
   0.66977968  0.99105371  0.24830208
   0.17015492  0.49122502  0.24856800
   0.67019319  0.49120406  0.25402273
   0.59824027  0.46004232  0.48224550
   0.83656446  0.37534089  0.46809797
   0.58655016  0.40366367  0.58950808
