Al2C                                    
   1.0000000000000000     
     6.0191999999999997    0.0000000000000000    0.0000000000000000
     0.0000000000000000   10.1400000000000006    0.0000000000000000
     0.0000000000000000    0.0000000000000000   15.0000000000000000
   Al   C    Se   H 
     8     4     1     2
Selective dynamics
Direct
  0.4453514402540126  0.8805023336617857  0.2359193044305987   T   T   T
  0.9451673766885890  0.8810494745700735  0.2627618288757390   T   T   T
  0.4461398613969558  0.6210793204392034  0.2389231891075861   T   T   T
  0.9464046230588871  0.6234089160631536  0.2710575721149643   T   T   T
  0.4452290381706920  0.3805296411618632  0.2799951063613639   T   T   T
  0.9465856057988485  0.3818655457994405  0.2418250845719246   T   T   T
  0.4447394177559954  0.1231610224256255  0.2632920772579339   T   T   T
  0.9451807832487875  0.1228141182986511  0.2371284142620455   T   T   T
  0.1952883984895240  0.0015889361306255  0.2483972105610381   T   T   T
  0.6949822835254258  0.0018377864392216  0.2493915360878351   T   T   T
  0.1962715670596668  0.5021545970077923  0.2585210144114086   T   T   T
  0.6961465846600231  0.5023402354183589  0.2593747567032252   T   T   T
  0.5331339860923201  0.4243504779710707  0.4620797331367684   T   T   T
  0.7451949087996080  0.3500253062787809  0.4673384201946713   T   T   T
  0.4349549915610070  0.3351857794586124  0.5316347519228841   T   T   T

  0.00000000E+00  0.00000000E+00  0.00000000E+00
  0.00000000E+00  0.00000000E+00  0.00000000E+00
  0.00000000E+00  0.00000000E+00  0.00000000E+00
  0.00000000E+00  0.00000000E+00  0.00000000E+00
  0.00000000E+00  0.00000000E+00  0.00000000E+00
  0.00000000E+00  0.00000000E+00  0.00000000E+00
  0.00000000E+00  0.00000000E+00  0.00000000E+00
  0.00000000E+00  0.00000000E+00  0.00000000E+00
  0.00000000E+00  0.00000000E+00  0.00000000E+00
  0.00000000E+00  0.00000000E+00  0.00000000E+00
  0.00000000E+00  0.00000000E+00  0.00000000E+00
  0.00000000E+00  0.00000000E+00  0.00000000E+00
  0.00000000E+00  0.00000000E+00  0.00000000E+00
  0.00000000E+00  0.00000000E+00  0.00000000E+00
  0.00000000E+00  0.00000000E+00  0.00000000E+00
