Al2C                                    
   1.0000000000000000     
     6.0191999999999997    0.0000000000000000    0.0000000000000000
     0.0000000000000000   10.1400000000000006    0.0000000000000000
     0.0000000000000000    0.0000000000000000   15.0000000000000000
   Al   C    Se    H 
     8     4    1    2 
Selective dynamics
Direct
  0.4208979942007289  0.8557390214404350  0.2666662077291022   T   T   T
  0.9209251792067548  0.8557555358529001  0.2666654086094695   T   T   T
  0.4208982270235637  0.5979126711698655  0.2666652845582078   T   T   T
  0.9209285745216604  0.5978974791497933  0.2666653822483056   T   T   T
  0.4208960994912943  0.3557392979106169  0.2666654867508029   T   T   T
  0.9209274604245081  0.3557556332217402  0.2666646299310997   T   T   T
  0.4208963936465722  0.0979125879009004  0.2666659803127303   T   T   T
  0.9209306727859428  0.0978971876459269  0.2666660486096504   T   T   T
  0.1708932018102018  0.9768195995467011  0.2666700866686753   T   T   T
  0.6708419374116232  0.9768222616652409  0.2666697253393764   T   T   T
  0.1708933559165544  0.4768212592236978  0.2666679099114688   T   T   T
  0.6708417701209370  0.4768209563964447  0.2666678493310926   T   T   T
  0.6700000000000000  0.4700000000000000  0.3900000000000000   T   T   T
  0.8415000000000000  0.4700000000000000  0.4588200000000000   T   T   T
  0.4985000000000000  0.4700000000000000  0.4588200000000000   T   T   T

  0.00000000E+00  0.00000000E+00  0.00000000E+00
  0.00000000E+00  0.00000000E+00  0.00000000E+00
  0.00000000E+00  0.00000000E+00  0.00000000E+00
  0.00000000E+00  0.00000000E+00  0.00000000E+00
  0.00000000E+00  0.00000000E+00  0.00000000E+00
  0.00000000E+00  0.00000000E+00  0.00000000E+00
  0.00000000E+00  0.00000000E+00  0.00000000E+00
  0.00000000E+00  0.00000000E+00  0.00000000E+00
  0.00000000E+00  0.00000000E+00  0.00000000E+00
  0.00000000E+00  0.00000000E+00  0.00000000E+00
  0.00000000E+00  0.00000000E+00  0.00000000E+00
  0.00000000E+00  0.00000000E+00  0.00000000E+00
