Al   C    Se   H                        
   1.0000000000000000     
     6.0191999999999997    0.0000000000000000    0.0000000000000000
     0.0000000000000000   10.1400000000000006    0.0000000000000000
     0.0000000000000000    0.0000000000000000   15.0000000000000000
   Al   C    Se   H 
     8     4     1     2
Selective dynamics
Direct
  0.4183358074172290  0.8617585845554885  0.2341685135729463   T   T   T
  0.9194862068629988  0.8625712661553209  0.2537883788462167   T   T   T
  0.4218981898655301  0.6035155714134035  0.2424796429104106   T   T   T
  0.9222810347267298  0.6066969457673252  0.2692758754630802   T   T   T
  0.4360935593982731  0.3578478835287058  0.2770678092922623   T   T   T
  0.9272030257267048  0.3629005434122163  0.2487499180416748   T   T   T
  0.4205371070271156  0.1050240042233099  0.2522272958071170   T   T   T
  0.9191913987890814  0.1050452657793812  0.2360241123815001   T   T   T
  0.1694772089520171  0.9837498316776632  0.2445303065418187   T   T   T
  0.6694984559529402  0.9826498763523617  0.2401342241220519   T   T   T
  0.1769955485025676  0.4836374248658828  0.2796232275196360   T   T   T
  0.6755973657564596  0.4853221487939479  0.2488804695863465   T   T   T
  0.4766192226936994  0.3835399866466815  0.4560114472606074   T   T   T
  0.3043718027303086  0.2954177261969164  0.4949762317230224   T   T   T
  0.2867028068556010  0.4534621709544240  0.3853559194770071   T   T   T

  0.00000000E+00  0.00000000E+00  0.00000000E+00
  0.00000000E+00  0.00000000E+00  0.00000000E+00
  0.00000000E+00  0.00000000E+00  0.00000000E+00
  0.00000000E+00  0.00000000E+00  0.00000000E+00
  0.00000000E+00  0.00000000E+00  0.00000000E+00
  0.00000000E+00  0.00000000E+00  0.00000000E+00
  0.00000000E+00  0.00000000E+00  0.00000000E+00
  0.00000000E+00  0.00000000E+00  0.00000000E+00
  0.00000000E+00  0.00000000E+00  0.00000000E+00
  0.00000000E+00  0.00000000E+00  0.00000000E+00
  0.00000000E+00  0.00000000E+00  0.00000000E+00
  0.00000000E+00  0.00000000E+00  0.00000000E+00
  0.00000000E+00  0.00000000E+00  0.00000000E+00
  0.00000000E+00  0.00000000E+00  0.00000000E+00
  0.00000000E+00  0.00000000E+00  0.00000000E+00
