   15   15  999    1
  0.6103469E+02  0.6019200E-09  0.1014000E-08  0.1500000E-08  0.3500000E-15
   1.0000000000000000E-004
  CAR 
 Al2C                                    
     48      8     32

  0.3742002E-15  0.3742002E-15  0.1262379E-14  0.6666667E-01
    1      -15.917407   1.000000
    2      -13.875356   1.000000
    3      -13.636174   1.000000
    4      -11.860666   1.000000
    5      -11.530669   1.000000
    6       -9.082881   1.000000
    7       -8.653103   1.000000
    8       -8.530363   1.000000
    9       -7.785064   1.000000
   10       -6.841497   1.000000
   11       -6.480933   1.000000
   12       -6.117483   1.000000
   13       -5.577746   1.000000
   14       -5.074751   1.000000
   15       -4.805619   1.000000
   16       -4.540277   1.000000
   17       -4.286601   1.000000
   18       -4.104346   1.000000
   19       -3.249899   1.000000
   20       -3.064087   1.000000
   21       -2.798987   1.000000
   22       -2.785873   1.000000
   23       -2.343270   1.000000
   24       -2.193732   1.000000
   25       -1.415058   0.000000
   26       -0.956023   0.000000
   27       -0.186626   0.000000
   28        0.100256   0.000000
   29        0.267121   0.000000
   30        0.513897   0.000000
   31        0.585475   0.000000
   32        0.932495   0.000000

  0.2000000E+00  0.3742002E-15  0.1262379E-14  0.1333333E+00
    1      -15.913103   1.000000
    2      -13.759377   1.000000
    3      -13.513076   1.000000
    4      -12.211600   1.000000
    5      -11.908997   1.000000
    6       -8.768906   1.000000
    7       -8.419240   1.000000
    8       -7.972358   1.000000
    9       -7.604606   1.000000
   10       -6.879408   1.000000
   11       -6.407503   1.000000
   12       -6.292105   1.000000
   13       -6.002790   1.000000
   14       -5.053840   1.000000
   15       -4.802706   1.000000
   16       -4.449195   1.000000
   17       -4.123749   1.000000
   18       -3.874958   1.000000
   19       -3.691669   1.000000
   20       -3.545789   1.000000
   21       -3.488800   1.000000
   22       -2.863077   1.000000
   23       -2.656389   1.000000
   24       -2.316999   1.000000
   25       -1.360209   0.000000
   26       -0.114432   0.000000
   27       -0.033507   0.000000
   28        0.239981   0.000000
   29        0.474184   0.000000
   30        0.630235   0.000000
   31        0.781736   0.000000
   32        1.039879   0.000000

  0.4000000E+00  0.3742002E-15  0.1262379E-14  0.1333333E+00
    1      -15.906174   1.000000
    2      -13.423840   1.000000
    3      -13.152785   1.000000
    4      -12.836313   1.000000
    5      -12.577251   1.000000
    6       -8.443789   1.000000
    7       -7.961439   1.000000
    8       -7.358790   1.000000
    9       -7.069105   1.000000
   10       -6.715250   1.000000
   11       -6.488485   1.000000
   12       -6.045972   1.000000
   13       -5.818829   1.000000
   14       -5.546491   1.000000
   15       -5.065918   1.000000
   16       -4.865925   1.000000
   17       -4.789677   1.000000
   18       -4.403320   1.000000
   19       -4.094865   1.000000
   20       -3.794627   1.000000
   21       -3.484392   1.000000
   22       -3.169993   1.000000
   23       -2.787280   1.000000
   24       -2.392445   1.000000
   25       -1.002812   0.000000
   26       -0.294178   0.000000
   27        0.061635   0.000000
   28        0.726923   0.000000
   29        0.873218   0.000000
   30        1.201321   0.000000
   31        1.380668   0.000000
   32        1.555685   0.000000

  0.3742002E-15  0.3333333E+00  0.1262379E-14  0.1333333E+00
    1      -15.917385   1.000000
    2      -13.856659   1.000000
    3      -13.659561   1.000000
    4      -11.858639   1.000000
    5      -11.533640   1.000000
    6       -9.064170   1.000000
    7       -8.570051   1.000000
    8       -8.370723   1.000000
    9       -7.827185   1.000000
   10       -7.468687   1.000000
   11       -6.791183   1.000000
   12       -5.423396   1.000000
   13       -5.075601   1.000000
   14       -5.031498   1.000000
   15       -4.819110   1.000000
   16       -4.606534   1.000000
   17       -4.221905   1.000000
   18       -4.002151   1.000000
   19       -3.543623   1.000000
   20       -3.200208   1.000000
   21       -3.052071   1.000000
   22       -2.796657   1.000000
   23       -2.779440   1.000000
   24       -2.194088   1.000000
   25       -1.191322   0.000000
   26       -0.530639   0.000000
   27       -0.358564   0.000000
   28       -0.058670   0.000000
   29        0.379429   0.000000
   30        0.583492   0.000000
   31        0.729497   0.000000
   32        0.909141   0.000000

  0.2000000E+00  0.3333333E+00  0.1262379E-14  0.1333333E+00
    1      -15.913052   1.000000
    2      -13.742082   1.000000
    3      -13.534817   1.000000
    4      -12.206799   1.000000
    5      -11.915498   1.000000
    6       -8.734425   1.000000
    7       -8.186731   1.000000
    8       -7.970210   1.000000
    9       -7.628100   1.000000
   10       -7.379823   1.000000
   11       -6.827052   1.000000
   12       -6.086594   1.000000
   13       -5.531466   1.000000
   14       -4.922392   1.000000
   15       -4.672417   1.000000
   16       -4.487033   1.000000
   17       -4.061765   1.000000
   18       -3.784943   1.000000
   19       -3.609709   1.000000
   20       -3.525299   1.000000
   21       -3.433050   1.000000
   22       -3.100804   1.000000
   23       -2.817359   1.000000
   24       -2.672168   1.000000
   25       -1.140484   0.000000
   26       -0.303038   0.000000
   27       -0.101855   0.000000
   28        0.100061   0.000000
   29        0.536166   0.000000
   30        0.611780   0.000000
   31        0.838065   0.000000
   32        1.041754   0.000000

  0.4000000E+00  0.3333333E+00  0.1262379E-14  0.1333333E+00
    1      -15.906144   1.000000
    2      -13.411014   1.000000
    3      -13.168667   1.000000
    4      -12.826593   1.000000
    5      -12.590747   1.000000
    6       -8.419027   1.000000
    7       -7.710061   1.000000
    8       -7.258773   1.000000
    9       -7.052662   1.000000
   10       -6.959970   1.000000
   11       -6.705728   1.000000
   12       -6.419010   1.000000
   13       -6.189325   1.000000
   14       -5.253147   1.000000
   15       -5.047790   1.000000
   16       -4.623652   1.000000
   17       -4.283051   1.000000
   18       -4.160153   1.000000
   19       -3.840455   1.000000
   20       -3.773632   1.000000
   21       -3.488831   1.000000
   22       -3.273905   1.000000
   23       -3.022370   1.000000
   24       -2.878792   1.000000
   25       -0.828482   0.000000
   26       -0.154741   0.000000
   27       -0.003799   0.000000
   28        0.449243   0.000000
   29        0.825051   0.000000
   30        0.885796   0.000000
   31        1.120500   0.000000
   32        1.323706   0.000000

 -0.4000000E+00  0.3333333E+00  0.1262379E-14  0.1333333E+00
    1      -15.906144   1.000000
    2      -13.411164   1.000000
    3      -13.168411   1.000000
    4      -12.826800   1.000000
    5      -12.590626   1.000000
    6       -8.413699   1.000000
    7       -7.741467   1.000000
    8       -7.222660   1.000000
    9       -7.033021   1.000000
   10       -6.947712   1.000000
   11       -6.733452   1.000000
   12       -6.491055   1.000000
   13       -6.120249   1.000000
   14       -5.269073   1.000000
   15       -5.043475   1.000000
   16       -4.620531   1.000000
   17       -4.248266   1.000000
   18       -4.132662   1.000000
   19       -3.970239   1.000000
   20       -3.738161   1.000000
   21       -3.493563   1.000000
   22       -3.223913   1.000000
   23       -3.049358   1.000000
   24       -2.875758   1.000000
   25       -0.681034   0.000000
   26       -0.380535   0.000000
   27       -0.003454   0.000000
   28        0.515742   0.000000
   29        0.818805   0.000000
   30        0.905773   0.000000
   31        1.179345   0.000000
   32        1.294397   0.000000

 -0.2000000E+00  0.3333333E+00  0.1262379E-14  0.1333333E+00
    1      -15.913052   1.000000
    2      -13.742195   1.000000
    3      -13.534692   1.000000
    4      -12.206885   1.000000
    5      -11.915382   1.000000
    6       -8.732246   1.000000
    7       -8.179715   1.000000
    8       -7.976650   1.000000
    9       -7.668441   1.000000
   10       -7.339996   1.000000
   11       -6.815805   1.000000
   12       -6.113821   1.000000
   13       -5.516189   1.000000
   14       -4.920333   1.000000
   15       -4.650681   1.000000
   16       -4.473647   1.000000
   17       -4.102488   1.000000
   18       -3.785444   1.000000
   19       -3.613322   1.000000
   20       -3.528141   1.000000
   21       -3.450621   1.000000
   22       -3.107029   1.000000
   23       -2.819247   1.000000
   24       -2.657119   1.000000
   25       -1.013456   0.000000
   26       -0.449492   0.000000
   27       -0.121736   0.000000
   28        0.128578   0.000000
   29        0.543797   0.000000
   30        0.655300   0.000000
   31        0.846197   0.000000
   32        1.035980   0.000000
