       N       E                     dE             d eps       ncg     rms          rms(c)
DAV:   1     0.300315824531E+03    0.30032E+03   -0.13379E+04   512   0.924E+02
DAV:   2    -0.584180310437E+01   -0.30616E+03   -0.28988E+03   728   0.214E+02
DAV:   3    -0.860014987245E+02   -0.80160E+02   -0.78465E+02   832   0.101E+02
DAV:   4    -0.891276592202E+02   -0.31262E+01   -0.31175E+01   656   0.248E+01
DAV:   5    -0.892638079791E+02   -0.13615E+00   -0.13611E+00   824   0.518E+00
DAV:   6    -0.892656885687E+02   -0.18806E-02   -0.18799E-02   672   0.731E-01
DAV:   7    -0.892658204032E+02   -0.13183E-03   -0.13182E-03   832   0.136E-01    0.187E+01
DAV:   8    -0.712717124784E+02    0.17994E+02   -0.76909E+01   640   0.445E+01    0.538E+00
DAV:   9    -0.711528445696E+02    0.11887E+00   -0.67467E+00   640   0.122E+01    0.383E+00
DAV:  10    -0.706186638416E+02    0.53418E+00   -0.12700E+00   736   0.690E+00    0.848E-01
DAV:  11    -0.705487471921E+02    0.69917E-01   -0.15865E-01   712   0.201E+00    0.565E-01
DAV:  12    -0.705486996323E+02    0.47560E-04   -0.28534E-01   744   0.252E+00    0.613E-01
DAV:  13    -0.705383172197E+02    0.10382E-01   -0.39890E-02   696   0.107E+00    0.430E-01
DAV:  14    -0.705296533744E+02    0.86638E-02   -0.60553E-02   728   0.114E+00    0.127E-01
DAV:  15    -0.705310788799E+02   -0.14255E-02   -0.70328E-03   656   0.452E-01    0.123E-01
DAV:  16    -0.705334291856E+02   -0.23503E-02   -0.44716E-03   688   0.345E-01    0.997E-02
DAV:  17    -0.705354998784E+02   -0.20707E-02   -0.59024E-03   696   0.356E-01    0.899E-02
DAV:  18    -0.705365301145E+02   -0.10302E-02   -0.40438E-03   704   0.323E-01    0.461E-02
DAV:  19    -0.705379302119E+02   -0.14001E-02   -0.96933E-04   696   0.149E-01    0.239E-02
DAV:  20    -0.705388565941E+02   -0.92638E-03   -0.37108E-04   696   0.809E-02    0.184E-02
DAV:  21    -0.705394422666E+02   -0.58567E-03   -0.14048E-04   640   0.547E-02    0.555E-03
DAV:  22    -0.705397852218E+02   -0.34296E-03   -0.40956E-05   608   0.248E-02    0.326E-03
DAV:  23    -0.705399230838E+02   -0.13786E-03   -0.19041E-05   592   0.147E-02    0.363E-03
DAV:  24    -0.705399710994E+02   -0.48016E-04   -0.76001E-06   648   0.120E-02    0.114E-03
DAV:  25    -0.705399838444E+02   -0.12745E-04   -0.26270E-06   512   0.678E-03    0.100E-03
DAV:  26    -0.705399859589E+02   -0.21145E-05   -0.33579E-07   400   0.340E-03    0.690E-04
DAV:  27    -0.705399881964E+02   -0.22375E-05   -0.38061E-07   392   0.291E-03    0.330E-04
DAV:  28    -0.705399892037E+02   -0.10073E-05   -0.23429E-07   416   0.231E-03    0.239E-04
DAV:  29    -0.705399895092E+02   -0.30546E-06   -0.11190E-07   424   0.176E-03
   1 F= -.70539990E+02 E0= -.70539990E+02  d E =-.705400E+02
