Al   C    Se   H                        
   1.0000000000000000     
     6.0191999999999997    0.0000000000000000    0.0000000000000000
     0.0000000000000000   10.1400000000000006    0.0000000000000000
     0.0000000000000000    0.0000000000000000   15.0000000000000000
   Al   C    Se   H 
     8     4     1     2
Selective dynamics
Direct
  0.4183358074172316  0.8617585845554858  0.2341685135729441   T   T   T
  0.9194862068629986  0.8625712661553219  0.2537883788462184   T   T   T
  0.4218981898655317  0.6035155714134068  0.2424796429104138   T   T   T
  0.9222810347267293  0.6066969457673249  0.2692758754630772   T   T   T
  0.4360935593982732  0.3578478835287089  0.2770678092922629   T   T   T
  0.9272030257267071  0.3629005434122184  0.2487499180416779   T   T   T
  0.4205371070271169  0.1050240042233075  0.2522272958071135   T   T   T
  0.9191913987890818  0.1050452657793813  0.2360241123814971   T   T   T
  0.1694772089520174  0.9837498316776646  0.2445303065418171   T   T   T
  0.6694984559529402  0.9826498763523596  0.2401342241220525   T   T   T
  0.1769955485025695  0.4836374248658856  0.2796232275196358   T   T   T
  0.6755973657564613  0.4853221487939444  0.2488804695863482   T   T   T
  0.4766192226936982  0.3835399866466820  0.4560114472606083   T   T   T
  0.3043718027303081  0.2954177261969186  0.4949762317230246   T   T   T
  0.2867028068556013  0.4534621709544221  0.3853559194770064   T   T   T

  0.00000000E+00  0.00000000E+00  0.00000000E+00
  0.00000000E+00  0.00000000E+00  0.00000000E+00
  0.00000000E+00  0.00000000E+00  0.00000000E+00
  0.00000000E+00  0.00000000E+00  0.00000000E+00
  0.00000000E+00  0.00000000E+00  0.00000000E+00
  0.00000000E+00  0.00000000E+00  0.00000000E+00
  0.00000000E+00  0.00000000E+00  0.00000000E+00
  0.00000000E+00  0.00000000E+00  0.00000000E+00
  0.00000000E+00  0.00000000E+00  0.00000000E+00
  0.00000000E+00  0.00000000E+00  0.00000000E+00
  0.00000000E+00  0.00000000E+00  0.00000000E+00
  0.00000000E+00  0.00000000E+00  0.00000000E+00
  0.00000000E+00  0.00000000E+00  0.00000000E+00
  0.00000000E+00  0.00000000E+00  0.00000000E+00
  0.00000000E+00  0.00000000E+00  0.00000000E+00
