Al2C                                    
           1
     6.019200    0.000000    0.000000
     0.000000   10.140000    0.000000
     0.000000    0.000000   15.000000
   Al   C    Se   H 
   8   4   1   2
Direct configuration=     1
   0.41833581  0.86175858  0.23416851
   0.91948621  0.86257127  0.25378838
   0.42189819  0.60351557  0.24247964
   0.92228103  0.60669695  0.26927588
   0.43609356  0.35784788  0.27706781
   0.92720303  0.36290054  0.24874992
   0.42053711  0.10502400  0.25222730
   0.91919140  0.10504527  0.23602411
   0.16947721  0.98374983  0.24453031
   0.66949846  0.98264988  0.24013422
   0.17699555  0.48363742  0.27962323
   0.67559737  0.48532215  0.24888047
   0.47661922  0.38353999  0.45601145
   0.30437180  0.29541773  0.49497623
   0.28670281  0.45346217  0.38535592
