Al   C    Te   H 
   1.0000000000000000     
   6.0191999999999997   0.0000000000000000   0.0000000000000000
   0.0000000000000000  10.1400000000000006   0.0000000000000000
   0.0000000000000000   0.0000000000000000  15.0000000000000000
Al   C    Te   H 
8  4  1  2  
Selective dynamics
Direct
  0.4089340045370593  0.8763151499733088  0.2539929283164397 T T T
  0.9091730809146777  0.8761860535556009  0.2393697621338950 T T T
  0.4077409519625081  0.6196850497651183  0.2534810224922163 T T T
  0.9081542837631387  0.6195288266266588  0.2415327424028873 T T T
  0.4092556806368499  0.3747893275291844  0.2373021844425577 T T T
  0.9093893683084882  0.3755912197284862  0.2519552398571111 T T T
  0.4100781798695896  0.1193454134398624  0.2365251036748537 T T T
  0.9087021129433863  0.1189053503593692  0.2531607641918655 T T T
  0.1594076710392653  0.9979458051796930  0.2462742706316554 T T T
  0.6591126823148291  0.9968627528957950  0.2469205938933654 T T T
  0.1586710940490980  0.4976071540420061  0.2442994334120995 T T T
  0.6580647481925925  0.4980270238668784  0.2524092756421019 T T T
  0.5542133008118123  0.3300041911342671  0.4495480593688767 T T T
  0.4012591682228778  0.2347101584058831  0.5192492006476015 T T T
  0.3270087017753016  0.4213317597899393  0.4288739796013797 T T T
