Al   C    Se   H                        
   1.0000000000000000     
     6.0191999999999997    0.0000000000000000    0.0000000000000000
     0.0000000000000000   10.1400000000000006    0.0000000000000000
     0.0000000000000000    0.0000000000000000   15.0000000000000000
   Al   C    Se   H 
     8     4     1     2
Selective dynamics
Direct
  0.4195181549218177  0.8628657920810454  0.2338016213585661   T   T   T
  0.9190444888157998  0.8635105286858220  0.2514069128822527   T   T   T
  0.4296078326055266  0.6035236202928687  0.2459547675575067   T   T   T
  0.9146034089785218  0.6096657436680175  0.2680278495651010   T   T   T
  0.4462656740530733  0.3562946415416874  0.2937420541098490   T   T   T
  0.9262979269883829  0.3601278232800382  0.2555251207446361   T   T   T
  0.4209881754714218  0.1069894956410522  0.2528436322009995   T   T   T
  0.9198938159951453  0.1050595392361018  0.2384149995173033   T   T   T
  0.1703708442048111  0.9835140456265847  0.2450421350448693   T   T   T
  0.6697018899693106  0.9831348824168558  0.2383881199173530   T   T   T
  0.1757303828105350  0.4870927510040133  0.2879885904879629   T   T   T
  0.6786129865084334  0.4836159773806656  0.2475860670037520   T   T   T
  0.5264488207952169  0.3587755719885024  0.4540326881100327   T   T   T
  0.3301782838426703  0.2827865222653045  0.4856870020150694   T   T   T
  0.1937643707267682  0.4892491028736643  0.3622779263902487   T   T   T

  0.00000000E+00  0.00000000E+00  0.00000000E+00
  0.00000000E+00  0.00000000E+00  0.00000000E+00
  0.00000000E+00  0.00000000E+00  0.00000000E+00
  0.00000000E+00  0.00000000E+00  0.00000000E+00
  0.00000000E+00  0.00000000E+00  0.00000000E+00
  0.00000000E+00  0.00000000E+00  0.00000000E+00
  0.00000000E+00  0.00000000E+00  0.00000000E+00
  0.00000000E+00  0.00000000E+00  0.00000000E+00
  0.00000000E+00  0.00000000E+00  0.00000000E+00
  0.00000000E+00  0.00000000E+00  0.00000000E+00
  0.00000000E+00  0.00000000E+00  0.00000000E+00
  0.00000000E+00  0.00000000E+00  0.00000000E+00
  0.00000000E+00  0.00000000E+00  0.00000000E+00
  0.00000000E+00  0.00000000E+00  0.00000000E+00
  0.00000000E+00  0.00000000E+00  0.00000000E+00
