   15   15  999    1
  0.6103469E+02  0.6019200E-09  0.1014000E-08  0.1500000E-08  0.3500000E-15
   1.0000000000000000E-004
  CAR 
 Al2C                                    
     48      8     32

  0.3742002E-15  0.3742002E-15  0.1262379E-14  0.6666667E-01
    1      -15.141079   1.000000
    2      -14.568406   1.000000
    3      -13.829787   1.000000
    4      -12.781253   1.000000
    5      -11.701860   1.000000
    6       -9.037360   1.000000
    7       -8.909411   1.000000
    8       -8.678733   1.000000
    9       -7.562267   1.000000
   10       -7.064388   1.000000
   11       -6.689703   1.000000
   12       -6.250428   1.000000
   13       -5.870516   1.000000
   14       -5.211872   1.000000
   15       -5.080680   1.000000
   16       -4.708192   1.000000
   17       -4.296149   1.000000
   18       -3.996216   1.000000
   19       -3.752239   1.000000
   20       -3.251862   1.000000
   21       -3.198138   1.000000
   22       -2.972556   1.000000
   23       -2.548911   1.000000
   24       -2.342109   1.000000
   25       -1.586938   0.000000
   26       -1.179850   0.000000
   27       -0.393451   0.000000
   28       -0.134588   0.000000
   29        0.004527   0.000000
   30        0.428760   0.000000
   31        0.545937   0.000000
   32        0.833619   0.000000

  0.2000000E+00  0.3742002E-15  0.1262379E-14  0.1333333E+00
    1      -15.094302   1.000000
    2      -14.544319   1.000000
    3      -13.705803   1.000000
    4      -12.985652   1.000000
    5      -12.082830   1.000000
    6       -8.788396   1.000000
    7       -8.697054   1.000000
    8       -8.112631   1.000000
    9       -7.413233   1.000000
   10       -7.084658   1.000000
   11       -6.647449   1.000000
   12       -6.553906   1.000000
   13       -6.131214   1.000000
   14       -5.335331   1.000000
   15       -4.919629   1.000000
   16       -4.613519   1.000000
   17       -4.343501   1.000000
   18       -4.077342   1.000000
   19       -3.739841   1.000000
   20       -3.675927   1.000000
   21       -3.459790   1.000000
   22       -3.307685   1.000000
   23       -2.824284   1.000000
   24       -2.536513   1.000000
   25       -1.512478   0.000000
   26       -0.459421   0.000000
   27       -0.335464   0.000000
   28       -0.005289   0.000000
   29        0.249871   0.000000
   30        0.643234   0.000000
   31        0.711407   0.000000
   32        0.910197   0.000000

  0.4000000E+00  0.3742002E-15  0.1262379E-14  0.1333333E+00
    1      -15.015114   1.000000
    2      -14.481472   1.000000
    3      -13.374206   1.000000
    4      -13.280180   1.000000
    5      -12.755585   1.000000
    6       -8.410202   1.000000
    7       -8.252427   1.000000
    8       -7.635265   1.000000
    9       -7.098054   1.000000
   10       -6.855498   1.000000
   11       -6.669835   1.000000
   12       -6.314519   1.000000
   13       -5.930089   1.000000
   14       -5.812873   1.000000
   15       -5.330703   1.000000
   16       -5.072071   1.000000
   17       -4.988611   1.000000
   18       -4.434844   1.000000
   19       -4.202935   1.000000
   20       -3.714838   1.000000
   21       -3.606241   1.000000
   22       -3.301630   1.000000
   23       -3.005014   1.000000
   24       -2.581165   1.000000
   25       -1.204180   0.000000
   26       -0.728954   0.000000
   27       -0.188818   0.000000
   28        0.582864   0.000000
   29        0.795623   0.000000
   30        1.174218   0.000000
   31        1.276299   0.000000
   32        1.333288   0.000000

  0.3742002E-15  0.3333333E+00  0.1262379E-14  0.1333333E+00
    1      -15.140110   1.000000
    2      -14.567853   1.000000
    3      -13.833477   1.000000
    4      -12.783198   1.000000
    5      -11.702768   1.000000
    6       -9.007862   1.000000
    7       -8.727861   1.000000
    8       -8.640301   1.000000
    9       -7.918185   1.000000
   10       -7.364192   1.000000
   11       -6.889892   1.000000
   12       -5.741147   1.000000
   13       -5.322848   1.000000
   14       -5.261034   1.000000
   15       -4.962601   1.000000
   16       -4.743446   1.000000
   17       -4.254525   1.000000
   18       -4.009515   1.000000
   19       -3.808165   1.000000
   20       -3.628520   1.000000
   21       -3.248670   1.000000
   22       -3.082950   1.000000
   23       -2.973035   1.000000
   24       -2.339631   1.000000
   25       -1.400898   0.000000
   26       -0.777546   0.000000
   27       -0.588804   0.000000
   28       -0.182159   0.000000
   29        0.299715   0.000000
   30        0.462167   0.000000
   31        0.624455   0.000000
   32        0.778000   0.000000

  0.2000000E+00  0.3333333E+00  0.1262379E-14  0.1333333E+00
    1      -15.093580   1.000000
    2      -14.543574   1.000000
    3      -13.708680   1.000000
    4      -12.987319   1.000000
    5      -12.084802   1.000000
    6       -8.744755   1.000000
    7       -8.483099   1.000000
    8       -8.133114   1.000000
    9       -7.740555   1.000000
   10       -7.270428   1.000000
   11       -6.933066   1.000000
   12       -6.375194   1.000000
   13       -5.784495   1.000000
   14       -5.181978   1.000000
   15       -4.757932   1.000000
   16       -4.653041   1.000000
   17       -4.220253   1.000000
   18       -3.951118   1.000000
   19       -3.752204   1.000000
   20       -3.692691   1.000000
   21       -3.557372   1.000000
   22       -3.376994   1.000000
   23       -3.035631   1.000000
   24       -2.806602   1.000000
   25       -1.404147   0.000000
   26       -0.521882   0.000000
   27       -0.360037   0.000000
   28       -0.153752   0.000000
   29        0.361788   0.000000
   30        0.529199   0.000000
   31        0.803954   0.000000
   32        0.955383   0.000000

  0.4000000E+00  0.3333333E+00  0.1262379E-14  0.1333333E+00
    1      -15.014850   1.000000
    2      -14.480824   1.000000
    3      -13.357115   1.000000
    4      -13.298599   1.000000
    5      -12.760609   1.000000
    6       -8.406592   1.000000
    7       -8.028268   1.000000
    8       -7.473349   1.000000
    9       -7.282337   1.000000
   10       -6.967792   1.000000
   11       -6.834203   1.000000
   12       -6.638849   1.000000
   13       -6.401162   1.000000
   14       -5.467726   1.000000
   15       -5.231350   1.000000
   16       -4.704981   1.000000
   17       -4.482427   1.000000
   18       -4.299487   1.000000
   19       -4.108251   1.000000
   20       -3.762018   1.000000
   21       -3.608692   1.000000
   22       -3.436786   1.000000
   23       -3.209811   1.000000
   24       -2.909001   1.000000
   25       -1.232596   0.000000
   26       -0.516672   0.000000
   27       -0.180322   0.000000
   28        0.406093   0.000000
   29        0.629307   0.000000
   30        0.706120   0.000000
   31        0.985159   0.000000
   32        1.321063   0.000000

 -0.4000000E+00  0.3333333E+00  0.1262379E-14  0.1333333E+00
    1      -15.014800   1.000000
    2      -14.480992   1.000000
    3      -13.351605   1.000000
    4      -13.304361   1.000000
    5      -12.760244   1.000000
    6       -8.385108   1.000000
    7       -8.063947   1.000000
    8       -7.453865   1.000000
    9       -7.323537   1.000000
   10       -6.921389   1.000000
   11       -6.850130   1.000000
   12       -6.593968   1.000000
   13       -6.430265   1.000000
   14       -5.462575   1.000000
   15       -5.241759   1.000000
   16       -4.721693   1.000000
   17       -4.455019   1.000000
   18       -4.276235   1.000000
   19       -4.180429   1.000000
   20       -3.792293   1.000000
   21       -3.550549   1.000000
   22       -3.403420   1.000000
   23       -3.248495   1.000000
   24       -2.907804   1.000000
   25       -1.027147   0.000000
   26       -0.789142   0.000000
   27       -0.226120   0.000000
   28        0.492595   0.000000
   29        0.618218   0.000000
   30        0.763581   0.000000
   31        1.063851   0.000000
   32        1.331053   0.000000

 -0.2000000E+00  0.3333333E+00  0.1262379E-14  0.1333333E+00
    1      -15.093509   1.000000
    2      -14.543806   1.000000
    3      -13.708241   1.000000
    4      -12.987761   1.000000
    5      -12.084658   1.000000
    6       -8.733939   1.000000
    7       -8.481728   1.000000
    8       -8.140871   1.000000
    9       -7.789293   1.000000
   10       -7.203837   1.000000
   11       -6.957765   1.000000
   12       -6.360984   1.000000
   13       -5.777377   1.000000
   14       -5.180412   1.000000
   15       -4.766525   1.000000
   16       -4.642951   1.000000
   17       -4.263991   1.000000
   18       -3.953202   1.000000
   19       -3.762012   1.000000
   20       -3.697759   1.000000
   21       -3.576022   1.000000
   22       -3.359650   1.000000
   23       -3.016057   1.000000
   24       -2.802341   1.000000
   25       -1.215613   0.000000
   26       -0.778889   0.000000
   27       -0.358686   0.000000
   28       -0.107247   0.000000
   29        0.353987   0.000000
   30        0.589742   0.000000
   31        0.769569   0.000000
   32        0.954587   0.000000
