       N       E                     dE             d eps       ncg     rms          rms(c)
DAV:   1     0.302622905900E+03    0.30262E+03   -0.13393E+04   512   0.924E+02
DAV:   2    -0.671378052565E+01   -0.30934E+03   -0.29345E+03   744   0.215E+02
DAV:   3    -0.870056196832E+02   -0.80292E+02   -0.79162E+02   840   0.102E+02
DAV:   4    -0.898852608735E+02   -0.28796E+01   -0.28734E+01   648   0.238E+01
DAV:   5    -0.899969160777E+02   -0.11166E+00   -0.11161E+00   832   0.489E+00
DAV:   6    -0.899983013151E+02   -0.13852E-02   -0.13847E-02   656   0.649E-01
DAV:   7    -0.899983918503E+02   -0.90535E-04   -0.90524E-04   848   0.118E-01    0.186E+01
DAV:   8    -0.725421268475E+02    0.17456E+02   -0.71051E+01   600   0.416E+01    0.545E+00
DAV:   9    -0.723025741434E+02    0.23955E+00   -0.57375E+00   640   0.115E+01    0.375E+00
DAV:  10    -0.718050362557E+02    0.49754E+00   -0.15041E+00   752   0.707E+00    0.100E+00
DAV:  11    -0.717607938896E+02    0.44242E-01   -0.13218E-01   680   0.214E+00    0.572E-01
DAV:  12    -0.717571498709E+02    0.36440E-02   -0.18692E-01   744   0.207E+00    0.432E-01
DAV:  13    -0.717512137606E+02    0.59361E-02   -0.27947E-02   712   0.927E-01    0.233E-01
DAV:  14    -0.717472963660E+02    0.39174E-02   -0.30395E-02   712   0.781E-01    0.131E-01
DAV:  15    -0.717477264149E+02   -0.43005E-03   -0.37995E-03   680   0.325E-01    0.100E-01
DAV:  16    -0.717507318347E+02   -0.30054E-02   -0.58470E-03   648   0.382E-01    0.800E-02
DAV:  17    -0.717526136156E+02   -0.18818E-02   -0.12309E-03   648   0.214E-01    0.443E-02
DAV:  18    -0.717536794067E+02   -0.10658E-02   -0.12812E-03   704   0.171E-01    0.354E-02
DAV:  19    -0.717552719426E+02   -0.15925E-02   -0.55407E-04   712   0.129E-01    0.146E-02
DAV:  20    -0.717558431222E+02   -0.57118E-03   -0.94007E-05   632   0.528E-02    0.107E-02
DAV:  21    -0.717565192529E+02   -0.67613E-03   -0.12860E-04   576   0.469E-02    0.728E-03
DAV:  22    -0.717567212863E+02   -0.20203E-03   -0.24906E-05   632   0.261E-02    0.407E-03
DAV:  23    -0.717568497864E+02   -0.12850E-03   -0.22274E-05   568   0.163E-02    0.193E-03
DAV:  24    -0.717568758914E+02   -0.26105E-04   -0.31799E-06   560   0.732E-03    0.113E-03
DAV:  25    -0.717568875446E+02   -0.11653E-04   -0.20497E-06   432   0.525E-03    0.880E-04
DAV:  26    -0.717568904369E+02   -0.28923E-05   -0.44556E-07   448   0.417E-03    0.396E-04
DAV:  27    -0.717568917176E+02   -0.12807E-05   -0.38377E-07   384   0.268E-03    0.584E-04
DAV:  28    -0.717568921560E+02   -0.43848E-06   -0.12371E-07   424   0.239E-03
   1 F= -.71756892E+02 E0= -.71756892E+02  d E =-.717569E+02
