Al   C    Se   H                        
   1.0000000000000000     
     6.0191999999999997    0.0000000000000000    0.0000000000000000
     0.0000000000000000   10.1400000000000006    0.0000000000000000
     0.0000000000000000    0.0000000000000000   15.0000000000000000
   Al   C    Se   H 
     8     4     1     2
Selective dynamics
Direct
  0.4195181549218210  0.8628657920810429  0.2338016213585679   T   T   T
  0.9190444888157969  0.8635105286858213  0.2514069128822556   T   T   T
  0.4296078326055272  0.6035236202928721  0.2459547675575054   T   T   T
  0.9146034089785245  0.6096657436680171  0.2680278495650974   T   T   T
  0.4462656740530705  0.3562946415416871  0.2937420541098467   T   T   T
  0.9262979269883834  0.3601278232800380  0.2555251207446341   T   T   T
  0.4209881754714241  0.1069894956410549  0.2528436322010001   T   T   T
  0.9198938159951483  0.1050595392361047  0.2384149995173007   T   T   T
  0.1703708442048115  0.9835140456265820  0.2450421350448677   T   T   T
  0.6697018899693108  0.9831348824168590  0.2383881199173546   T   T   T
  0.1757303828105318  0.4870927510040106  0.2879885904879659   T   T   T
  0.6786129865084352  0.4836159773806629  0.2475860670037517   T   T   T
  0.5264488207952147  0.3587755719885011  0.4540326881100333   T   T   T
  0.3301782838426719  0.2827865222653050  0.4856870020150695   T   T   T
  0.1937643707267691  0.4892491028736635  0.3622779263902456   T   T   T

  0.00000000E+00  0.00000000E+00  0.00000000E+00
  0.00000000E+00  0.00000000E+00  0.00000000E+00
  0.00000000E+00  0.00000000E+00  0.00000000E+00
  0.00000000E+00  0.00000000E+00  0.00000000E+00
  0.00000000E+00  0.00000000E+00  0.00000000E+00
  0.00000000E+00  0.00000000E+00  0.00000000E+00
  0.00000000E+00  0.00000000E+00  0.00000000E+00
  0.00000000E+00  0.00000000E+00  0.00000000E+00
  0.00000000E+00  0.00000000E+00  0.00000000E+00
  0.00000000E+00  0.00000000E+00  0.00000000E+00
  0.00000000E+00  0.00000000E+00  0.00000000E+00
  0.00000000E+00  0.00000000E+00  0.00000000E+00
  0.00000000E+00  0.00000000E+00  0.00000000E+00
  0.00000000E+00  0.00000000E+00  0.00000000E+00
  0.00000000E+00  0.00000000E+00  0.00000000E+00
