Al2C                                    
           1
     6.019200    0.000000    0.000000
     0.000000   10.140000    0.000000
     0.000000    0.000000   15.000000
   Al   C    Se   H 
   8   4   1   2
Direct configuration=     1
   0.41951815  0.86286579  0.23380162
   0.91904449  0.86351053  0.25140691
   0.42960783  0.60352362  0.24595477
   0.91460341  0.60966574  0.26802785
   0.44626567  0.35629464  0.29374205
   0.92629793  0.36012782  0.25552512
   0.42098818  0.10698950  0.25284363
   0.91989382  0.10505954  0.23841500
   0.17037084  0.98351405  0.24504214
   0.66970189  0.98313488  0.23838812
   0.17573038  0.48709275  0.28798859
   0.67861299  0.48361598  0.24758607
   0.52644882  0.35877557  0.45403269
   0.33017828  0.28278652  0.48568700
   0.19376437  0.48924910  0.36227793
