#VESTA_FORMAT_VERSION 3.5.4


CRYSTAL

TITLE
Al2C                                    

GROUP
1 1 P 1
SYMOP
 0.000000  0.000000  0.000000  1  0  0   0  1  0   0  0  1   1
 -1.0 -1.0 -1.0  0 0 0  0 0 0  0 0 0
TRANM 0
 0.000000  0.000000  0.000000  1  0  0   0  1  0   0  0  1
LTRANSL
 -1
 0.000000  0.000000  0.000000  0.000000  0.000000  0.000000
LORIENT
 -1   0   0   0   0
 1.000000  0.000000  0.000000  1.000000  0.000000  0.000000
 0.000000  0.000000  1.000000  0.000000  0.000000  1.000000
LMATRIX
 1.000000  0.000000  0.000000  0.000000
 0.000000  1.000000  0.000000  0.000000
 0.000000  0.000000  1.000000  0.000000
 0.000000  0.000000  0.000000  1.000000
 0.000000  0.000000  0.000000
CELLP
  6.019200  10.140000  15.000000  90.000000  90.000000  90.000000
  0.000000   0.000000   0.000000   0.000000   0.000000   0.000000
STRUC
  1 Al        Al1  1.0000   0.437785   0.877559   0.255008    1a       1
                            0.000000   0.000000   0.000000  0.00
  2 Al        Al2  1.0000   0.937111   0.877520   0.231224    1a       1
                            0.000000   0.000000   0.000000  0.00
  3 Al        Al3  1.0000   0.441197   0.621394   0.275612    1a       1
                            0.000000   0.000000   0.000000  0.00
  4 Al        Al4  1.0000   0.937716   0.618802   0.240086    1a       1
                            0.000000   0.000000   0.000000  0.00
  5 Al        Al5  1.0000   0.435027   0.379769   0.236218    1a       1
                            0.000000   0.000000   0.000000  0.00
  6 Al        Al6  1.0000   0.935207   0.376832   0.266470    1a       1
                            0.000000   0.000000   0.000000  0.00
  7 Al        Al7  1.0000   0.436210   0.120405   0.229900    1a       1
                            0.000000   0.000000   0.000000  0.00
  8 Al        Al8  1.0000   0.936602   0.119626   0.254900    1a       1
                            0.000000   0.000000   0.000000  0.00
  9  C         C1  1.0000   0.187021   0.998735   0.243208    1a       1
                            0.000000   0.000000   0.000000  0.00
 10  C         C2  1.0000   0.686832   0.999216   0.239736    1a       1
                            0.000000   0.000000   0.000000  0.00
 11  C         C3  1.0000   0.186844   0.498409   0.262723    1a       1
                            0.000000   0.000000   0.000000  0.00
 12  C         C4  1.0000   0.686321   0.498244   0.251793    1a       1
                            0.000000   0.000000   0.000000  0.00
 13  S         S1  1.0000   0.419743   0.605350   0.461786    1a       1
                            0.000000   0.000000   0.000000  0.00
 14  H         H1  1.0000   0.254075   0.692597   0.478537    1a       1
                            0.000000   0.000000   0.000000  0.00
 15  H         H2  1.0000   0.277082   0.526436   0.412798    1a       1
                            0.000000   0.000000   0.000000  0.00
  0 0 0 0 0 0 0
THERI 1
  1        Al1  0.000000
  2        Al2  0.000000
  3        Al3  0.000000
  4        Al4  0.000000
  5        Al5  0.000000
  6        Al6  0.000000
  7        Al7  0.000000
  8        Al8  0.000000
  9         C1  0.000000
 10         C2  0.000000
 11         C3  0.000000
 12         C4  0.000000
 13         S1  0.000000
 14         H1  0.000000
 15         H2  0.000000
  0 0 0
SHAPE
  0       0       0       0   0.000000  0   192   192   192   192
BOUND
       0        1         0        1         0        1
  0   0   0   0  0
SBOND
  1     S     H    0.00000    1.42998  0  1  1  0  1  0.250  2.000 127 127 127
  2    Al    Al    2.59000    2.65000  0  1  1  0  1  0.250  2.000 127 127 127
  3    Al     C    1.90000    2.10000  0  1  1  0  1  0.250  2.000 127 127 127
  0 0 0 0
SITET
  1        Al1  1.4300 129 178 214 129 178 214 204  0
  2        Al2  1.4300 129 178 214 129 178 214 204  0
  3        Al3  1.4300 129 178 214 129 178 214 204  0
  4        Al4  1.4300 129 178 214 129 178 214 204  0
  5        Al5  1.4300 129 178 214 129 178 214 204  0
  6        Al6  1.4300 129 178 214 129 178 214 204  0
  7        Al7  1.4300 129 178 214 129 178 214 204  0
  8        Al8  1.4300 129 178 214 129 178 214 204  0
  9         C1  0.7700 128  73  41 128  73  41 204  0
 10         C2  0.7700 128  73  41 128  73  41 204  0
 11         C3  0.7700 128  73  41 128  73  41 204  0
 12         C4  0.7700 128  73  41 128  73  41 204  0
 13         S1  1.0400 255 250   0 255 250   0 204  0
 14         H1  0.4600 255 204 204 255 204 204 204  0
 15         H2  0.4600 255 204 204 255 204 204 204  0
  0 0 0 0 0 0
VECTR
 0 0 0 0 0
VECTT
 0 0 0 0 0
SPLAN
  0   0   0   0
LBLAT
 -1
LBLSP
 -1
DLATM
 -1
DLBND
 -1
DLPLY
 -1
PLN2D
  0   0   0   0
ATOMT
  1         Al  1.4300 129 178 214 129 178 214 204
  2          C  0.7700 128  73  41 128  73  41 204
  3          S  1.0400 255 250   0 255 250   0 204
  4          H  0.4600 255 204 204 255 204 204 204
  0 0 0 0 0 0
SCENE
-0.316228  0.948683 -0.000000  0.000000
-0.155963 -0.051988  0.986394  0.000000
 0.935775  0.311925  0.164399  0.000000
 0.000000  0.000000  0.000000  1.000000
  0.000   0.000
  0.000
  1.796
HBOND 0 2

STYLE
DISPF 37753794
MODEL   0  1  0
SURFS   0  1  1
SECTS  32  1
FORMS   0  1
ATOMS   0  0  1
BONDS   1
POLYS   1
VECTS 1.000000
FORMP
  1  1.0   0   0   0
ATOMP
 24  24   0  50  2.0   0
BONDP
  1  16  0.250  2.000 127 127 127
POLYP
 204 1  1.000 180 180 180
ISURF
  0   0   0   0
TEX3P
  1  0.00000E+00  1.00000E+00
SECTP
  1  9.76021E-01  1.79680E+00  0.00000E+00  0.00000E+00  0.00000E+00  0.00000E+00
CONTR
 0.1 -1 1 1 10 -1 2 5
 2 1 2 1
   0   0   0
   0   0   0
   0   0   0
   0   0   0
HKLPP
 192 1  1.000 255   0 255
UCOLP
   0   0  1.000   0   0   0
COMPS 1
LABEL 1    12  1.000 0
PROJT 0  0.962
BKGRC
 255 255 255
DPTHQ 1 -0.5000  3.5000
LIGHT0 1
 1.000000  0.000000  0.000000  0.000000
 0.000000  1.000000  0.000000  0.000000
 0.000000  0.000000  1.000000  0.000000
 0.000000  0.000000  0.000000  1.000000
 0.000000  0.000000 20.000000  0.000000
 0.000000  0.000000 -1.000000
  26  26  26 255
 179 179 179 255
 255 255 255 255
LIGHT1
 1.000000  0.000000  0.000000  0.000000
 0.000000  1.000000  0.000000  0.000000
 0.000000  0.000000  1.000000  0.000000
 0.000000  0.000000  0.000000  1.000000
 0.000000  0.000000 20.000000  0.000000
 0.000000  0.000000 -1.000000
   0   0   0   0
   0   0   0   0
   0   0   0   0
LIGHT2
 1.000000  0.000000  0.000000  0.000000
 0.000000  1.000000  0.000000  0.000000
 0.000000  0.000000  1.000000  0.000000
 0.000000  0.000000  0.000000  1.000000
 0.000000  0.000000 20.000000  0.000000
 0.000000  0.000000 -1.000000
   0   0   0   0
   0   0   0   0
   0   0   0   0
LIGHT3
 1.000000  0.000000  0.000000  0.000000
 0.000000  1.000000  0.000000  0.000000
 0.000000  0.000000  1.000000  0.000000
 0.000000  0.000000  0.000000  1.000000
 0.000000  0.000000 20.000000  0.000000
 0.000000  0.000000 -1.000000
   0   0   0   0
   0   0   0   0
   0   0   0   0
SECCL 0

TEXCL 0

ATOMM
 204 204 204 255
  25.600
BONDM
 255 255 255 255
 128.000
POLYM
 255 255 255 255
 128.000
SURFM
   0   0   0 255
 128.000
FORMM
 255 255 255 255
 128.000
HKLPM
 255 255 255 255
 128.000
