Al2C                                    
   1.0000000000000000     
     6.0191999999999997    0.0000000000000000    0.0000000000000000
     0.0000000000000000   10.1400000000000006    0.0000000000000000
     0.0000000000000000    0.0000000000000000   15.0000000000000000
   Al   C    S    H 
     8     4     1     2
Selective dynamics
Direct
  0.4336392481292033  0.8738100633058536  0.2471043831986956   T   T   T
  0.9323629735699164  0.8742845107312479  0.2351656401228374   T   T   T
  0.4372240380881569  0.6193879296333094  0.2712971951238103   T   T   T
  0.9344680692321635  0.6165191987824503  0.2472423251105919   T   T   T
  0.4320264187851262  0.3750894139942469  0.2436435785432785   T   T   T
  0.9321069417006981  0.3736300095750757  0.2630314373774534   T   T   T
  0.4316375137635334  0.1175510842585658  0.2337978318677236   T   T   T
  0.9326944431160267  0.1177422560576404  0.2485561178175000   T   T   T
  0.1824777805647569  0.9955769952589779  0.2406797807482911   T   T   T
  0.6827425151999912  0.9966748420338705  0.2386103467438845   T   T   T
  0.1837076912712052  0.4952471557768360  0.2657376109897518   T   T   T
  0.6831141952388953  0.4950561853050877  0.2542446670606094   T   T   T
  0.4365944846506163  0.6219719347303052  0.4584225066844727   T   T   T
  0.2642824310315165  0.7043859670765702  0.4755060927743843   T   T   T
  0.2956921222185419  0.5339659446042219  0.4169604858367049   T   T   T

  0.00000000E+00  0.00000000E+00  0.00000000E+00
  0.00000000E+00  0.00000000E+00  0.00000000E+00
  0.00000000E+00  0.00000000E+00  0.00000000E+00
  0.00000000E+00  0.00000000E+00  0.00000000E+00
  0.00000000E+00  0.00000000E+00  0.00000000E+00
  0.00000000E+00  0.00000000E+00  0.00000000E+00
  0.00000000E+00  0.00000000E+00  0.00000000E+00
  0.00000000E+00  0.00000000E+00  0.00000000E+00
  0.00000000E+00  0.00000000E+00  0.00000000E+00
  0.00000000E+00  0.00000000E+00  0.00000000E+00
  0.00000000E+00  0.00000000E+00  0.00000000E+00
  0.00000000E+00  0.00000000E+00  0.00000000E+00
  0.00000000E+00  0.00000000E+00  0.00000000E+00
  0.00000000E+00  0.00000000E+00  0.00000000E+00
  0.00000000E+00  0.00000000E+00  0.00000000E+00
