Al2C                                    
   1.0000000000000000     
     6.0191999999999997    0.0000000000000000    0.0000000000000000
     0.0000000000000000   10.1400000000000006    0.0000000000000000
     0.0000000000000000    0.0000000000000000   15.0000000000000000
   Al   C    Te   H 
     8     4     1     2
Selective dynamics
Direct
  0.3423845398143487  0.8626872637493718  0.2441398617888838   T   T   T
  0.8401786924619454  0.8627219795537373  0.2444252427569978   T   T   T
  0.3285519788299719  0.6145578364285128  0.2885644567114997   T   T   T
  0.8539596318154441  0.6145410998289722  0.2886737417969415   T   T   T
  0.3345872867684105  0.3632485775774503  0.2537232811642879   T   T   T
  0.8477970818363790  0.3632791136750116  0.2536016212211494   T   T   T
  0.3402973853849788  0.1073171962599234  0.2362000344429932   T   T   T
  0.8422524220483452  0.1073269245341420  0.2359215374181907   T   T   T
  0.0912981833679215  0.9856404038472235  0.2356244804454755   T   T   T
  0.5912585073220363  0.9868962712408488  0.2392715093650520   T   T   T
  0.0912072600377995  0.4858885399777402  0.2498704574101606   T   T   T
  0.5912405885400802  0.4816145740965608  0.3008081052328025   T   T   T
  0.0917051047812903  0.6450305874164076  0.4565057721038309   T   T   T
  0.5912016287098253  0.4539265507113654  0.3723784299565019   T   T   T
  0.0920505748415742  0.8106165722270047  0.4702914681852155   T   T   T

  0.00000000E+00  0.00000000E+00  0.00000000E+00
  0.00000000E+00  0.00000000E+00  0.00000000E+00
  0.00000000E+00  0.00000000E+00  0.00000000E+00
  0.00000000E+00  0.00000000E+00  0.00000000E+00
  0.00000000E+00  0.00000000E+00  0.00000000E+00
  0.00000000E+00  0.00000000E+00  0.00000000E+00
  0.00000000E+00  0.00000000E+00  0.00000000E+00
  0.00000000E+00  0.00000000E+00  0.00000000E+00
  0.00000000E+00  0.00000000E+00  0.00000000E+00
  0.00000000E+00  0.00000000E+00  0.00000000E+00
  0.00000000E+00  0.00000000E+00  0.00000000E+00
  0.00000000E+00  0.00000000E+00  0.00000000E+00
  0.00000000E+00  0.00000000E+00  0.00000000E+00
  0.00000000E+00  0.00000000E+00  0.00000000E+00
  0.00000000E+00  0.00000000E+00  0.00000000E+00
