Al   C    S    H                        
   1.0000000000000000     
     6.0191999999999997    0.0000000000000000    0.0000000000000000
     0.0000000000000000   10.1400000000000006    0.0000000000000000
     0.0000000000000000    0.0000000000000000   15.0000000000000000
   Al   C    S    H 
     8     4     1     2
Selective dynamics
Direct
  0.4397090462932565  0.8787059824079262  0.2565649783841747   T   T   T
  0.9384953199208612  0.8784641682746940  0.2318815738198631   T   T   T
  0.4490727296696388  0.6240579668553242  0.2846407134674847   T   T   T
  0.9410940789739578  0.6197245520799254  0.2450372163262670   T   T   T
  0.4356080617011615  0.3815337195667602  0.2395181215650093   T   T   T
  0.9351159449604485  0.3768647756740228  0.2716057600146640   T   T   T
  0.4370591993030492  0.1214632795022638  0.2298798411036523   T   T   T
  0.9379736292694340  0.1203022453867372  0.2558901030245654   T   T   T
  0.1884946996525576  0.9996014591773252  0.2438995750331517   T   T   T
  0.6882006523515602  0.0004567466907340  0.2390298109867037   T   T   T
  0.1889320597215570  0.4989335491053910  0.2761415964046977   T   T   T
  0.6885221107318998  0.4990990321622497  0.2526880057161005   T   T   T
  0.4115546651996083  0.5974766788791779  0.4553141859587427   T   T   T
  0.2491932457840098  0.6873666627600739  0.4708572296927820   T   T   T
  0.2657454461226445  0.5268426797748361  0.3870513038775345   T   T   T

  0.00000000E+00  0.00000000E+00  0.00000000E+00
  0.00000000E+00  0.00000000E+00  0.00000000E+00
  0.00000000E+00  0.00000000E+00  0.00000000E+00
  0.00000000E+00  0.00000000E+00  0.00000000E+00
  0.00000000E+00  0.00000000E+00  0.00000000E+00
  0.00000000E+00  0.00000000E+00  0.00000000E+00
  0.00000000E+00  0.00000000E+00  0.00000000E+00
  0.00000000E+00  0.00000000E+00  0.00000000E+00
  0.00000000E+00  0.00000000E+00  0.00000000E+00
  0.00000000E+00  0.00000000E+00  0.00000000E+00
  0.00000000E+00  0.00000000E+00  0.00000000E+00
  0.00000000E+00  0.00000000E+00  0.00000000E+00
  0.00000000E+00  0.00000000E+00  0.00000000E+00
  0.00000000E+00  0.00000000E+00  0.00000000E+00
  0.00000000E+00  0.00000000E+00  0.00000000E+00
