   15   15  999    1
  0.6103469E+02  0.6019200E-09  0.1014000E-08  0.1500000E-08  0.3500000E-15
   1.0000000000000000E-004
  CAR 
 Al2C                                    
     48      8     32

  0.3742002E-15  0.3742002E-15  0.1262379E-14  0.6666667E-01
    1      -16.449860   1.000000
    2      -13.773751   1.000000
    3      -13.557842   1.000000
    4      -11.743013   1.000000
    5      -11.456407   1.000000
    6       -9.192375   1.000000
    7       -8.552965   1.000000
    8       -8.472542   1.000000
    9       -8.144802   1.000000
   10       -7.242391   1.000000
   11       -6.436131   1.000000
   12       -6.038045   1.000000
   13       -5.463767   1.000000
   14       -5.384425   1.000000
   15       -4.732271   1.000000
   16       -4.669055   1.000000
   17       -4.232801   1.000000
   18       -4.146866   1.000000
   19       -3.242701   1.000000
   20       -2.891576   1.000000
   21       -2.710697   1.000000
   22       -2.661749   1.000000
   23       -2.240624   1.000000
   24       -2.179343   1.000000
   25       -1.321772   0.000000
   26       -0.815514   0.000000
   27       -0.177441   0.000000
   28        0.134548   0.000000
   29        0.330245   0.000000
   30        0.442579   0.000000
   31        0.651554   0.000000
   32        0.933119   0.000000

  0.2000000E+00  0.3742002E-15  0.1262379E-14  0.1333333E+00
    1      -16.447585   1.000000
    2      -13.655200   1.000000
    3      -13.434928   1.000000
    4      -12.094541   1.000000
    5      -11.833818   1.000000
    6       -9.027166   1.000000
    7       -8.352774   1.000000
    8       -7.967239   1.000000
    9       -7.750523   1.000000
   10       -7.226374   1.000000
   11       -6.360785   1.000000
   12       -6.253005   1.000000
   13       -5.917725   1.000000
   14       -5.169491   1.000000
   15       -4.905396   1.000000
   16       -4.566087   1.000000
   17       -4.167649   1.000000
   18       -3.783863   1.000000
   19       -3.554061   1.000000
   20       -3.477684   1.000000
   21       -3.410239   1.000000
   22       -2.843899   1.000000
   23       -2.624323   1.000000
   24       -2.202110   1.000000
   25       -1.333203   0.000000
   26       -0.001504   0.000000
   27        0.078483   0.000000
   28        0.242846   0.000000
   29        0.501282   0.000000
   30        0.622864   0.000000
   31        0.836203   0.000000
   32        1.147670   0.000000

  0.4000000E+00  0.3742002E-15  0.1262379E-14  0.1333333E+00
    1      -16.443872   1.000000
    2      -13.313337   1.000000
    3      -13.075423   1.000000
    4      -12.723111   1.000000
    5      -12.500282   1.000000
    6       -8.904083   1.000000
    7       -7.935898   1.000000
    8       -7.455857   1.000000
    9       -7.157147   1.000000
   10       -6.700314   1.000000
   11       -6.459376   1.000000
   12       -6.015558   1.000000
   13       -5.764111   1.000000
   14       -5.471467   1.000000
   15       -5.059599   1.000000
   16       -4.915094   1.000000
   17       -4.715387   1.000000
   18       -4.475507   1.000000
   19       -4.171874   1.000000
   20       -3.848313   1.000000
   21       -3.505290   1.000000
   22       -3.196137   1.000000
   23       -2.669635   1.000000
   24       -2.274442   1.000000
   25       -0.996042   0.000000
   26       -0.279380   0.000000
   27        0.191021   0.000000
   28        0.768313   0.000000
   29        0.921877   0.000000
   30        1.215942   0.000000
   31        1.395749   0.000000
   32        1.673735   0.000000

  0.3742002E-15  0.3333333E+00  0.1262379E-14  0.1333333E+00
    1      -16.449898   1.000000
    2      -13.752741   1.000000
    3      -13.583326   1.000000
    4      -11.740749   1.000000
    5      -11.459593   1.000000
    6       -9.186573   1.000000
    7       -8.501372   1.000000
    8       -8.275008   1.000000
    9       -8.135888   1.000000
   10       -7.464486   1.000000
   11       -7.175015   1.000000
   12       -5.451827   1.000000
   13       -5.302932   1.000000
   14       -4.935855   1.000000
   15       -4.786134   1.000000
   16       -4.696808   1.000000
   17       -4.227580   1.000000
   18       -3.953450   1.000000
   19       -3.495594   1.000000
   20       -3.118503   1.000000
   21       -2.880563   1.000000
   22       -2.710947   1.000000
   23       -2.651524   1.000000
   24       -2.180744   1.000000
   25       -1.128656   0.000000
   26       -0.459316   0.000000
   27       -0.268197   0.000000
   28       -0.057952   0.000000
   29        0.369415   0.000000
   30        0.638051   0.000000
   31        0.846813   0.000000
   32        0.928872   0.000000

  0.2000000E+00  0.3333333E+00  0.1262379E-14  0.1333333E+00
    1      -16.447554   1.000000
    2      -13.635756   1.000000
    3      -13.458605   1.000000
    4      -12.089160   1.000000
    5      -11.840799   1.000000
    6       -9.023048   1.000000
    7       -8.082023   1.000000
    8       -7.925900   1.000000
    9       -7.812661   1.000000
   10       -7.362464   1.000000
   11       -7.127178   1.000000
   12       -6.066285   1.000000
   13       -5.495936   1.000000
   14       -5.146929   1.000000
   15       -4.633728   1.000000
   16       -4.549629   1.000000
   17       -4.182091   1.000000
   18       -3.642087   1.000000
   19       -3.492980   1.000000
   20       -3.439771   1.000000
   21       -3.388296   1.000000
   22       -3.029322   1.000000
   23       -2.779287   1.000000
   24       -2.628620   1.000000
   25       -0.970159   0.000000
   26       -0.393459   0.000000
   27       -0.003516   0.000000
   28        0.155928   0.000000
   29        0.567635   0.000000
   30        0.758670   0.000000
   31        0.892004   0.000000
   32        1.050703   0.000000

  0.4000000E+00  0.3333333E+00  0.1262379E-14  0.1333333E+00
    1      -16.443819   1.000000
    2      -13.298872   1.000000
    3      -13.092781   1.000000
    4      -12.711831   1.000000
    5      -12.515199   1.000000
    6       -8.903136   1.000000
    7       -7.699277   1.000000
    8       -7.411932   1.000000
    9       -6.979669   1.000000
   10       -6.913059   1.000000
   11       -6.707317   1.000000
   12       -6.441197   1.000000
   13       -6.078001   1.000000
   14       -5.291034   1.000000
   15       -4.979041   1.000000
   16       -4.893583   1.000000
   17       -4.184681   1.000000
   18       -4.149369   1.000000
   19       -3.953794   1.000000
   20       -3.730537   1.000000
   21       -3.501675   1.000000
   22       -3.224811   1.000000
   23       -2.937106   1.000000
   24       -2.811505   1.000000
   25       -0.654587   0.000000
   26       -0.318137   0.000000
   27        0.064503   0.000000
   28        0.553717   0.000000
   29        0.953968   0.000000
   30        0.971517   0.000000
   31        1.232968   0.000000
   32        1.333695   0.000000

 -0.4000000E+00  0.3333333E+00  0.1262379E-14  0.1333333E+00
    1      -16.443820   1.000000
    2      -13.298737   1.000000
    3      -13.092999   1.000000
    4      -12.711618   1.000000
    5      -12.515345   1.000000
    6       -8.904133   1.000000
    7       -7.684402   1.000000
    8       -7.424407   1.000000
    9       -7.026889   1.000000
   10       -6.871065   1.000000
   11       -6.700004   1.000000
   12       -6.427034   1.000000
   13       -6.097084   1.000000
   14       -5.304306   1.000000
   15       -4.970335   1.000000
   16       -4.892927   1.000000
   17       -4.224835   1.000000
   18       -4.144258   1.000000
   19       -3.881634   1.000000
   20       -3.736787   1.000000
   21       -3.487889   1.000000
   22       -3.273241   1.000000
   23       -2.924328   1.000000
   24       -2.807929   1.000000
   25       -0.779576   0.000000
   26       -0.099948   0.000000
   27        0.041060   0.000000
   28        0.491940   0.000000
   29        0.899910   0.000000
   30        0.996943   0.000000
   31        1.191755   0.000000
   32        1.391909   0.000000

 -0.2000000E+00  0.3333333E+00  0.1262379E-14  0.1333333E+00
    1      -16.447560   1.000000
    2      -13.635666   1.000000
    3      -13.458699   1.000000
    4      -12.089076   1.000000
    5      -11.840915   1.000000
    6       -9.024238   1.000000
    7       -8.083232   1.000000
    8       -7.922678   1.000000
    9       -7.806797   1.000000
   10       -7.361394   1.000000
   11       -7.138805   1.000000
   12       -6.047503   1.000000
   13       -5.513839   1.000000
   14       -5.159406   1.000000
   15       -4.654983   1.000000
   16       -4.545672   1.000000
   17       -4.145793   1.000000
   18       -3.643984   1.000000
   19       -3.489903   1.000000
   20       -3.437689   1.000000
   21       -3.367269   1.000000
   22       -3.031933   1.000000
   23       -2.764059   1.000000
   24       -2.651026   1.000000
   25       -1.083646   0.000000
   26       -0.263583   0.000000
   27        0.007970   0.000000
   28        0.165196   0.000000
   29        0.542098   0.000000
   30        0.703838   0.000000
   31        0.879537   0.000000
   32        1.079445   0.000000
