       N       E                     dE             d eps       ncg     rms          rms(c)
DAV:   1     0.302395049907E+03    0.30240E+03   -0.13415E+04   512   0.924E+02
DAV:   2    -0.772549713578E+01   -0.31012E+03   -0.29303E+03   768   0.213E+02
DAV:   3    -0.875151355790E+02   -0.79790E+02   -0.78162E+02   824   0.100E+02
DAV:   4    -0.905458425234E+02   -0.30307E+01   -0.30212E+01   672   0.246E+01
DAV:   5    -0.906840123846E+02   -0.13817E+00   -0.13814E+00   880   0.541E+00
DAV:   6    -0.906861646622E+02   -0.21523E-02   -0.21519E-02   720   0.760E-01
DAV:   7    -0.906862819527E+02   -0.11729E-03   -0.11728E-03   832   0.143E-01    0.189E+01
DAV:   8    -0.724156972876E+02    0.18271E+02   -0.77067E+01   656   0.452E+01    0.549E+00
DAV:   9    -0.722101162284E+02    0.20558E+00   -0.64496E+00   640   0.120E+01    0.383E+00
DAV:  10    -0.716467023361E+02    0.56341E+00   -0.12638E+00   704   0.687E+00    0.813E-01
DAV:  11    -0.715812441570E+02    0.65458E-01   -0.15202E-01   744   0.196E+00    0.511E-01
DAV:  12    -0.715791954034E+02    0.20488E-02   -0.24640E-01   776   0.232E+00    0.578E-01
DAV:  13    -0.715697544861E+02    0.94409E-02   -0.33476E-02   680   0.987E-01    0.433E-01
DAV:  14    -0.715619278068E+02    0.78267E-02   -0.60511E-02   736   0.116E+00    0.128E-01
DAV:  15    -0.715632089745E+02   -0.12812E-02   -0.66375E-03   608   0.457E-01    0.112E-01
DAV:  16    -0.715654725819E+02   -0.22636E-02   -0.41003E-03   632   0.320E-01    0.894E-02
DAV:  17    -0.715669818684E+02   -0.15093E-02   -0.31746E-03   712   0.264E-01    0.570E-02
DAV:  18    -0.715689850017E+02   -0.20031E-02   -0.28060E-03   712   0.268E-01    0.577E-02
DAV:  19    -0.715700010636E+02   -0.10161E-02   -0.10914E-03   704   0.164E-01    0.299E-02
DAV:  20    -0.715707662061E+02   -0.76514E-03   -0.36480E-04   744   0.876E-02    0.177E-02
DAV:  21    -0.715713014034E+02   -0.53520E-03   -0.61898E-05   656   0.382E-02    0.115E-02
DAV:  22    -0.715719973418E+02   -0.69594E-03   -0.12295E-04   584   0.420E-02    0.523E-03
DAV:  23    -0.715721217854E+02   -0.12444E-03   -0.34109E-05   720   0.249E-02    0.625E-03
DAV:  24    -0.715721806190E+02   -0.58834E-04   -0.11542E-05   632   0.155E-02    0.249E-03
DAV:  25    -0.715722078175E+02   -0.27198E-04   -0.40682E-06   528   0.827E-03    0.116E-03
DAV:  26    -0.715722159662E+02   -0.81487E-05   -0.12478E-06   432   0.557E-03    0.564E-04
DAV:  27    -0.715722197271E+02   -0.37609E-05   -0.68998E-07   384   0.368E-03    0.493E-04
DAV:  28    -0.715722206307E+02   -0.90362E-06   -0.21320E-07   432   0.247E-03
   1 F= -.71572221E+02 E0= -.71572221E+02  d E =-.715722E+02
       N       E                     dE             d eps       ncg     rms          rms(c)
DAV:   1    -0.715723064129E+02   -0.86686E-04   -0.58952E-04   600   0.140E-01    0.510E-03
DAV:   2    -0.715723091647E+02   -0.27518E-05   -0.34432E-05   768   0.301E-02    0.319E-03
DAV:   3    -0.715723089759E+02    0.18881E-06   -0.78885E-07   440   0.593E-03
   2 F= -.71572309E+02 E0= -.71572309E+02  d E =-.883453E-04
       N       E                     dE             d eps       ncg     rms          rms(c)
DAV:   1    -0.715724290444E+02   -0.11988E-03   -0.14706E-03   560   0.223E-01    0.798E-03
DAV:   2    -0.715724354085E+02   -0.63640E-05   -0.82527E-05   768   0.467E-02    0.490E-03
DAV:   3    -0.715724349017E+02    0.50677E-06   -0.23020E-06   560   0.929E-03
   3 F= -.71572435E+02 E0= -.71572435E+02  d E =-.125926E-03
       N       E                     dE             d eps       ncg     rms          rms(c)
DAV:   1    -0.715726361346E+02   -0.20073E-03   -0.48729E-03   528   0.412E-01    0.141E-02
DAV:   2    -0.715726553361E+02   -0.19202E-04   -0.25282E-04   768   0.813E-02    0.872E-03
DAV:   3    -0.715726536701E+02    0.16660E-05   -0.76067E-06   664   0.164E-02    0.535E-03
DAV:   4    -0.715726526174E+02    0.10527E-05   -0.38860E-06   648   0.959E-03    0.126E-03
DAV:   5    -0.715726526528E+02   -0.35396E-07   -0.11570E-06   488   0.544E-03
   4 F= -.71572653E+02 E0= -.71572653E+02  d E =-.217751E-03
       N       E                     dE             d eps       ncg     rms          rms(c)
DAV:   1    -0.715728344232E+02   -0.18181E-03   -0.41083E-03   512   0.381E-01    0.119E-02
DAV:   2    -0.715728497496E+02   -0.15326E-04   -0.19850E-04   768   0.715E-02    0.751E-03
DAV:   3    -0.715728483918E+02    0.13578E-05   -0.56596E-06   656   0.141E-02    0.464E-03
DAV:   4    -0.715728475688E+02    0.82305E-06   -0.32870E-06   632   0.886E-03
   5 F= -.71572848E+02 E0= -.71572848E+02  d E =-.194916E-03
       N       E                     dE             d eps       ncg     rms          rms(c)
DAV:   1    -0.715730315503E+02   -0.18316E-03   -0.37788E-03   512   0.363E-01    0.115E-02
DAV:   2    -0.715730451338E+02   -0.13584E-04   -0.17846E-04   768   0.687E-02    0.727E-03
DAV:   3    -0.715730438283E+02    0.13055E-05   -0.57449E-06   672   0.140E-02    0.443E-03
DAV:   4    -0.715730430436E+02    0.78473E-06   -0.30774E-06   640   0.871E-03
   6 F= -.71573043E+02 E0= -.71573043E+02  d E =-.195475E-03
