 vasp.5.4.4.18Apr17-6-g9f103f2a35 (build Dec  6 2019 17:49:40) complex           
 executed on             LinuxGNU date 2022.03.22  22:25:35
 running on   16 total cores
 each image running on    2 cores
 distrk:  each k-point on    2 cores,    1 groups
 distr:  one band on NCORES_PER_BAND=   1 cores,    2 groups


--------------------------------------------------------------------------------------------------------


 INCAR:
 POTCAR:    PAW Al_GW 19Mar2012                   
 POTCAR:    PAW C_GW 28Sep2005                    
 POTCAR:    PAW S_GW 19Mar2012                    
 POTCAR:    PAW H_GW 21Apr2008                    
 POTCAR:    PAW Al_GW 19Mar2012                   
   VRHFIN =Al: s2p1                                                             
   LEXCH  = PE                                                                  
   EATOM  =    53.5387 eV,    3.9350 Ry                                         
                                                                                
   TITEL  = PAW Al_GW 19Mar2012                                                 
   LULTRA =        F    use ultrasoft PP ?                                      
   IUNSCR =        1    unscreen: 0-lin 1-nonlin 2-no                           
   RPACOR =    1.500    partial core radius                                     
   POMASS =   26.982; ZVAL   =    3.000    mass and valenz                      
   RCORE  =    2.000    outmost cutoff radius                                   
   RWIGS  =    2.000; RWIGS  =    1.058    wigner-seitz radius (au A)           
   ENMAX  =  240.300; ENMIN  =  180.225 eV                                      
   ICORE  =        3    local potential                                         
   LCOR   =        T    correct aug charges                                     
   LPAW   =        T    paw PP                                                  
   EAUG   =  482.059                                                            
   DEXC   =    0.000                                                            
   RMAX   =    2.051    core radius for proj-oper                               
   RAUG   =    1.300    factor for augmentation sphere                          
   RDEP   =    2.096    radius for radial grids                                 
   RDEPT  =    1.856    core radius for aug-charge                              
                                                                                
   Atomic configuration                                                         
    7 entries                                                                   
     n  l   j            E        occ.                                          
     1  0  0.50     -1511.1048   2.0000                                         
     2  0  0.50      -108.1629   2.0000                                         
     2  1  1.50       -69.6402   6.0000                                         
     3  0  0.50        -7.7528   2.0000                                         
     3  1  1.50        -2.7121   1.0000                                         
     3  2  2.50        -2.7212   0.0000                                         
     4  3  2.50        -2.7212   0.0000                                         
   Description                                                                  
     l       E           TYP  RCUT    TYP  RCUT                                 
     0     -7.7528455     23  1.900                                             
     0     68.0291300     23  1.900                                             
     1     -2.7120682     23  1.900                                             
     1     68.0291300     23  1.900                                             
     2     -1.3605826     23  1.900                                             
     2     81.6349560     23  1.900                                             
     3     74.8320430     23  2.000                                             
  local pseudopotential read in
  partial core-charges read in
  partial kinetic energy density read in
  kinetic energy density of atom read in
  atomic valenz-charges read in
  non local Contribution for L=           0  read in
    real space projection operators read in
  non local Contribution for L=           0  read in
    real space projection operators read in
  non local Contribution for L=           1  read in
    real space projection operators read in
  non local Contribution for L=           1  read in
    real space projection operators read in
  non local Contribution for L=           2  read in
    real space projection operators read in
  non local Contribution for L=           2  read in
    real space projection operators read in
    PAW grid and wavefunctions read in

   number of l-projection  operators is LMAX  =           6
   number of lm-projection operators is LMMAX =          18

 POTCAR:    PAW C_GW 28Sep2005                    
   VRHFIN =C: s2p2                                                              
   LEXCH  = PE                                                                  
   EATOM  =   147.1560 eV,   10.8157 Ry                                         
                                                                                
   TITEL  = PAW C_GW 28Sep2005                                                  
   LULTRA =        F    use ultrasoft PP ?                                      
   IUNSCR =        0    unscreen: 0-lin 1-nonlin 2-no                           
   RPACOR =    0.000    partial core radius                                     
   POMASS =   12.011; ZVAL   =    4.000    mass and valenz                      
   RCORE  =    1.500    outmost cutoff radius                                   
   RWIGS  =    1.630; RWIGS  =    0.863    wigner-seitz radius (au A)           
   ENMAX  =  413.992; ENMIN  =  310.494 eV                                      
   ICORE  =        2    local potential                                         
   LCOR   =        T    correct aug charges                                     
   LPAW   =        T    paw PP                                                  
   EAUG   =  644.873                                                            
   DEXC   =    0.000                                                            
   RMAX   =    1.529    core radius for proj-oper                               
   RAUG   =    1.300    factor for augmentation sphere                          
   RDEP   =    1.501    radius for radial grids                                 
   RDEPT  =    1.300    core radius for aug-charge                              
                                                                                
   Atomic configuration                                                         
    4 entries                                                                   
     n  l   j            E        occ.                                          
     1  0  0.50      -273.3789   2.0000                                         
     2  0  0.50       -13.7508   2.0000                                         
     2  1  0.50        -5.2854   2.0000                                         
     3  2  1.50        -5.4423   0.0000                                         
   Description                                                                  
     l       E           TYP  RCUT    TYP  RCUT                                 
     0    -13.7508457     23  1.200                                             
     0     95.2407820     23  1.200                                             
     1     -5.2854382     23  1.500                                             
     1    108.8466080     23  1.500                                             
     2     -5.4423304      7  1.500                                             
  local pseudopotential read in
  kinetic energy density of atom read in
  atomic valenz-charges read in
  non local Contribution for L=           0  read in
    real space projection operators read in
  non local Contribution for L=           0  read in
    real space projection operators read in
  non local Contribution for L=           1  read in
    real space projection operators read in
  non local Contribution for L=           1  read in
    real space projection operators read in
    PAW grid and wavefunctions read in

   number of l-projection  operators is LMAX  =           4
   number of lm-projection operators is LMMAX =           8

 POTCAR:    PAW S_GW 19Mar2012                    
   VRHFIN =S : s2p4                                                             
   LEXCH  = PE                                                                  
   EATOM  =   276.8230 eV,   20.3459 Ry                                         
                                                                                
   TITEL  = PAW S_GW 19Mar2012                                                  
   LULTRA =        F    use ultrasoft PP ?                                      
   IUNSCR =        1    unscreen: 0-lin 1-nonlin 2-no                           
   RPACOR =    1.400    partial core radius                                     
   POMASS =   32.066; ZVAL   =    6.000    mass and valenz                      
   RCORE  =    1.900    outmost cutoff radius                                   
   RWIGS  =    1.900; RWIGS  =    1.005    wigner-seitz radius (au A)           
   ENMAX  =  258.689; ENMIN  =  194.016 eV                                      
   ICORE  =        3    local potential                                         
   LCOR   =        T    correct aug charges                                     
   LPAW   =        T    paw PP                                                  
   EAUG   =  488.319                                                            
   DEXC   =    0.000                                                            
   RMAX   =    1.942    core radius for proj-oper                               
   RAUG   =    1.300    factor for augmentation sphere                          
   RDEP   =    1.954    radius for radial grids                                 
   RDEPT  =    1.900    core radius for aug-charge                              
                                                                                
   Atomic configuration                                                         
    7 entries                                                                   
     n  l   j            E        occ.                                          
     1  0  0.50     -2405.8406   2.0000                                         
     2  0  0.50      -211.7007   2.0000                                         
     2  1  1.50      -156.4958   6.0000                                         
     3  0  0.50       -17.2562   2.0000                                         
     3  1  0.50        -7.0085   4.0000                                         
     3  2  1.50        -8.1635   0.0000                                         
     4  3  2.50        -1.3606   0.0000                                         
   Description                                                                  
     l       E           TYP  RCUT    TYP  RCUT                                 
     0    -17.2561639     23  1.700                                             
     0     88.4378690     23  1.900                                             
     1     -7.0085399     23  1.900                                             
     1     88.4378690     23  1.900                                             
     2    -10.8846608     23  1.900                                             
     2     54.4233040     23  1.900                                             
     3     27.2116520     23  1.800                                             
  local pseudopotential read in
  partial core-charges read in
  partial kinetic energy density read in
  kinetic energy density of atom read in
  atomic valenz-charges read in
  non local Contribution for L=           0  read in
    real space projection operators read in
  non local Contribution for L=           0  read in
    real space projection operators read in
  non local Contribution for L=           1  read in
    real space projection operators read in
  non local Contribution for L=           1  read in
    real space projection operators read in
  non local Contribution for L=           2  read in
    real space projection operators read in
  non local Contribution for L=           2  read in
    real space projection operators read in
    PAW grid and wavefunctions read in

   number of l-projection  operators is LMAX  =           6
   number of lm-projection operators is LMMAX =          18

 POTCAR:    PAW H_GW 21Apr2008                    
   VRHFIN =H: ultrasoft test                                                    
   LEXCH  = PE                                                                  
   EATOM  =    12.4884 eV,    0.9179 Ry                                         
                                                                                
   TITEL  = PAW H_GW 21Apr2008                                                  
   LULTRA =        F    use ultrasoft PP ?                                      
   IUNSCR =        0    unscreen: 0-lin 1-nonlin 2-no                           
   RPACOR =    0.000    partial core radius                                     
   POMASS =    1.000; ZVAL   =    1.000    mass and valenz                      
   RCORE  =    1.100    outmost cutoff radius                                   
   RWIGS  =    1.100; RWIGS  =    0.582    wigner-seitz radius (au A)           
   ENMAX  =  300.000; ENMIN  =  250.000 eV                                      
   RCLOC  =    0.701    cutoff for local pot                                    
   LCOR   =        T    correct aug charges                                     
   LPAW   =        T    paw PP                                                  
   EAUG   =  500.000                                                            
   RMAX   =    1.123    core radius for proj-oper                               
   RAUG   =    1.200    factor for augmentation sphere                          
   RDEP   =    1.112    radius for radial grids                                 
   RDEPT  =    1.100    core radius for aug-charge                              
                                                                                
   Atomic configuration                                                         
    3 entries                                                                   
     n  l   j            E        occ.                                          
     1  0  0.50        -6.4927   1.0000                                         
     2  1  0.50        -3.4015   0.0000                                         
     3  2  1.50        13.6058   0.0000                                         
   Description                                                                  
     l       E           TYP  RCUT    TYP  RCUT                                 
     0     -6.4927495     23  0.950                                             
     0      6.8029130     23  0.950                                             
     1     -4.0817478     23  1.100                                             
     1    108.8466080     23  1.100                                             
     2     81.6349560     23  1.100                                             
  local pseudopotential read in
  kinetic energy density of atom read in
  atomic valenz-charges read in
  non local Contribution for L=           0  read in
    real space projection operators read in
  non local Contribution for L=           0  read in
    real space projection operators read in
  non local Contribution for L=           1  read in
    real space projection operators read in
  non local Contribution for L=           1  read in
    real space projection operators read in
  non local Contribution for L=           2  read in
    real space projection operators read in
    PAW grid and wavefunctions read in

   number of l-projection  operators is LMAX  =           5
   number of lm-projection operators is LMMAX =          13

 Optimization of the real space projectors (new method)

 maximal supplied QI-value         = 18.90
 optimisation between [QCUT,QGAM] = [ 10.77, 21.73] = [ 32.49,132.25] Ry 
 Optimized for a Real-space Cutoff    1.60 Angstroem

   l    n(q)    QCUT    max X(q) W(low)/X(q) W(high)/X(q)  e(spline) 
   0     10    10.771    11.519    0.58E-04    0.59E-05    0.18E-06
   0     10    10.771     5.834    0.29E-04    0.42E-05    0.15E-06
   1     10    10.771    10.132    0.17E-04    0.63E-04    0.28E-06
   1     10    10.771     3.004    0.11E-04    0.44E-04    0.22E-06
   2      9    10.771     3.188    0.19E-03    0.85E-04    0.37E-06
   2      9    10.771     1.607    0.20E-04    0.14E-04    0.40E-06
 Optimization of the real space projectors (new method)

 maximal supplied QI-value         = 25.13
 optimisation between [QCUT,QGAM] = [ 10.81, 21.61] = [ 32.71,130.83] Ry 
 Optimized for a Real-space Cutoff    1.26 Angstroem

   l    n(q)    QCUT    max X(q) W(low)/X(q) W(high)/X(q)  e(spline) 
   0      8    10.807     6.744    0.14E-03    0.25E-03    0.15E-06
   0      8    10.807     2.789    0.17E-03    0.34E-03    0.18E-06
   1      8    10.807     2.977    0.14E-03    0.97E-04    0.55E-07
   1      8    10.807     2.397    0.19E-03    0.70E-04    0.28E-06
 Optimization of the real space projectors (new method)

 maximal supplied QI-value         = 19.84
 optimisation between [QCUT,QGAM] = [ 10.71, 21.63] = [ 32.15,130.99] Ry 
 Optimized for a Real-space Cutoff    1.42 Angstroem

   l    n(q)    QCUT    max X(q) W(low)/X(q) W(high)/X(q)  e(spline) 
   0      9    10.715     7.541    0.42E-04    0.39E-04    0.94E-07
   0      9    10.715     1.809    0.83E-04    0.74E-04    0.19E-06
   1      9    10.715     4.107    0.97E-05    0.62E-05    0.11E-06
   1      9    10.715     2.196    0.54E-05    0.24E-04    0.19E-06
   2      8    10.715     4.265    0.10E-03    0.23E-03    0.57E-06
   2      8    10.715     1.925    0.93E-04    0.18E-04    0.42E-06
 Optimization of the real space projectors (new method)

 maximal supplied QI-value         = 34.20
 optimisation between [QCUT,QGAM] = [ 10.60, 21.55] = [ 31.48,130.03] Ry 
 Optimized for a Real-space Cutoff    1.51 Angstroem

   l    n(q)    QCUT    max X(q) W(low)/X(q) W(high)/X(q)  e(spline) 
   0     10    10.603    26.161    0.94E-04    0.78E-04    0.97E-06
   0     10    10.603    15.773    0.86E-04    0.75E-04    0.95E-06
   1      9    10.603     3.022    0.64E-04    0.17E-03    0.10E-05
   1      9    10.603     2.445    0.31E-04    0.10E-03    0.83E-06
   2      9    10.603     6.097    0.15E-03    0.49E-03    0.94E-06
  PAW Al_GW 19Mar2012                   :
 energy of atom  1       EATOM=  -53.5387
 kinetic energy error for atom=    0.0004 (will be added to EATOM!!)
  PAW C_GW 28Sep2005                    :
 energy of atom  2       EATOM= -147.1560
 kinetic energy error for atom=    0.0116 (will be added to EATOM!!)
  PAW S_GW 19Mar2012                    :
 energy of atom  3       EATOM= -276.8230
 kinetic energy error for atom=    0.0041 (will be added to EATOM!!)
  PAW H_GW 21Apr2008                    :
 energy of atom  4       EATOM=  -12.4884
 kinetic energy error for atom=    0.0187 (will be added to EATOM!!)


 POSCAR: Al   C    S    H                        
  positions in direct lattice
  velocities in cartesian coordinates
 exchange correlation table for  LEXCH =        8
   RHO(1)=    0.500       N(1)  =     2000
   RHO(2)=  100.500       N(2)  =     4000

 VTST: version 3.2, (02/03/18)

 CHAIN: initializing optimizer
 
 OPT: Using VASP QUASI-newton optimizer
 CHAIN: Read ICHAIN            0
 CHAIN: Running the NEB
 NEB:          SPRING     -5.000000
 NEB:          LCLIMB      F
 NEB:     LTANGENTOLD      F
 NEB:           LDNEB      F
 NEB:        LDNEBORG      F
 NEB:        LNEBCELL      F
 NEB:          EFIRST      0.000000
 NEB:           ELAST      0.000000

 POSCAR: Al   C    S    H                        
  positions in direct lattice
  No initial velocities read in

 POSCAR: Al   C    S    H                        
  positions in direct lattice
  No initial velocities read in



--------------------------------------------------------------------------------------------------------


 ion  position               nearest neighbor table
   1  0.440  0.879  0.257-   9 1.96  10 1.96   7 2.49
   2  0.938  0.878  0.232-   9 1.95  10 1.95   8 2.48
   3  0.449  0.624  0.284-  12 1.98  11 2.02
   4  0.941  0.620  0.245-  12 1.95  11 1.98   6 2.49
   5  0.436  0.381  0.240-  12 1.94  11 1.98
   6  0.935  0.377  0.272-  12 1.95  11 1.97   4 2.49
   7  0.437  0.121  0.230-  10 1.95   9 1.95   1 2.49
   8  0.938  0.120  0.256-  10 1.95   9 1.95   2 2.48
   9  0.188  1.000  0.244-   8 1.95   2 1.95   7 1.95   1 1.96
  10  0.688  0.000  0.239-   8 1.95   7 1.95   2 1.95   1 1.96
  11  0.189  0.499  0.276-   6 1.97   5 1.98   4 1.98   3 2.02
  12  0.688  0.499  0.253-   5 1.94   6 1.95   4 1.95   3 1.98
  13  0.411  0.597  0.455-  14 1.36  15 1.52
  14  0.249  0.687  0.471-  13 1.36
  15  0.266  0.527  0.387-  13 1.52


IMPORTANT INFORMATION: All symmetrisations will be switched off!
NOSYMM: (Re-)initialisation of all symmetry stuff for point group C_1.



 KPOINTS: Automatic mesh                          

Automatic generation of k-mesh.
Space group operators:
 irot       det(A)        alpha          n_x          n_y          n_z        tau_x        tau_y        tau_z
    1     1.000000     0.000000     1.000000     0.000000     0.000000     0.000000     0.000000     0.000000
 
 Subroutine IBZKPT returns following result:
 ===========================================
 
 Found      8 irreducible k-points:
 
 Following reciprocal coordinates:
            Coordinates               Weight
  0.000000  0.000000  0.000000      1.000000
  0.200000  0.000000  0.000000      2.000000
  0.400000  0.000000  0.000000      2.000000
  0.000000  0.333333  0.000000      2.000000
  0.200000  0.333333  0.000000      2.000000
  0.400000  0.333333  0.000000      2.000000
 -0.400000  0.333333  0.000000      2.000000
 -0.200000  0.333333  0.000000      2.000000
 
 Following cartesian coordinates:
            Coordinates               Weight
  0.000000  0.000000  0.000000      1.000000
  0.033227  0.000000  0.000000      2.000000
  0.066454  0.000000  0.000000      2.000000
  0.000000  0.032873  0.000000      2.000000
  0.033227  0.032873  0.000000      2.000000
  0.066454  0.032873  0.000000      2.000000
 -0.066454  0.032873  0.000000      2.000000
 -0.033227  0.032873  0.000000      2.000000
 


--------------------------------------------------------------------------------------------------------




 Dimension of arrays:
   k-points           NKPTS =      8   k-points in BZ     NKDIM =      8   number of bands    NBANDS=     32
   number of dos      NEDOS =    301   number of ions     NIONS =     15
   non local maximal  LDIM  =      6   non local SUM 2l+1 LMDIM =     18
   total plane-waves  NPLWV = 317520
   max r-space proj   IRMAX =   6009   max aug-charges    IRDMAX=  13696
   dimension x,y,z NGX =    42 NGY =   70 NGZ =  108
   dimension x,y,z NGXF=    84 NGYF=  140 NGZF=  216
   support grid    NGXF=    84 NGYF=  140 NGZF=  216
   ions per type =               8   4   1   2
   NGX,Y,Z   is equivalent  to a cutoff of  11.60, 11.48, 11.97 a.u.
   NGXF,Y,Z  is equivalent  to a cutoff of  23.20, 22.95, 23.94 a.u.

 SYSTEM =  Al2C                                    
 POSCAR =  Al   C    S    H                        

 Startparameter for this run:
   NWRITE =      2    write-flag & timer
   PREC   = accura    normal or accurate (medium, high low for compatibility)
   ISTART =      0    job   : 0-new  1-cont  2-samecut
   ICHARG =      2    charge: 1-file 2-atom 10-const
   ISPIN  =      1    spin polarized calculation?
   LNONCOLLINEAR =      F non collinear calculations
   LSORBIT =      F    spin-orbit coupling
   INIWAV =      1    electr: 0-lowe 1-rand  2-diag
   LASPH  =      F    aspherical Exc in radial PAW
   METAGGA=      F    non-selfconsistent MetaGGA calc.

 Electronic Relaxation 1
   ENCUT  =  450.0 eV  33.07 Ry    5.75 a.u.  10.41 17.54 25.95*2*pi/ulx,y,z
   ENINI  =  450.0     initial cutoff
   ENAUG  =  644.9 eV  augmentation charge cutoff
   NELM   =    300;   NELMIN=  2; NELMDL= -7     # of ELM steps 
   EDIFF  = 0.1E-05   stopping-criterion for ELM
   LREAL  =      T    real-space projection
   NLSPLINE    = F    spline interpolate recip. space projectors
   LCOMPAT=      F    compatible to vasp.4.4
   GGA_COMPAT  = T    GGA compatible to vasp.4.4-vasp.4.6
   LMAXPAW     = -100 max onsite density
   LMAXMIX     =    2 max onsite mixed and CHGCAR
   VOSKOWN=      0    Vosko Wilk Nusair interpolation
   ROPT   =   -0.00020  -0.00020  -0.00020  -0.00020
 Ionic relaxation
   EDIFFG = -.1E-01   stopping-criterion for IOM
   NSW    =    999    number of steps for IOM
   NBLOCK =      1;   KBLOCK =    999    inner block; outer block 
   IBRION =      1    ionic relax: 0-MD 1-quasi-New 2-CG
   NFREE  =      0    steps in history (QN), initial steepest desc. (CG)
   ISIF   =      2    stress and relaxation
   IWAVPR =     11    prediction:  0-non 1-charg 2-wave 3-comb
   ISYM   =      0    0-nonsym 1-usesym 2-fastsym
   LCORR  =      T    Harris-Foulkes like correction to forces

   POTIM  = 0.3500    time-step for ionic-motion
   TEIN   =    0.0    initial temperature
   TEBEG  =    0.0;   TEEND  =   0.0 temperature during run
   SMASS  =  -3.00    Nose mass-parameter (am)
   estimated Nose-frequenzy (Omega)   =  0.10E-29 period in steps =****** mass=  -0.828E-27a.u.
   SCALEE = 1.0000    scale energy and forces
   NPACO  =    256;   APACO  = 16.0  distance and # of slots for P.C.
   PSTRESS=    0.0 pullay stress

  Mass of Ions in am
   POMASS =  26.98 12.01 32.07  1.00
  Ionic Valenz
   ZVAL   =   3.00  4.00  6.00  1.00
  Atomic Wigner-Seitz radii
   RWIGS  =  -1.00 -1.00 -1.00 -1.00
  virtual crystal weights 
   VCA    =   1.00  1.00  1.00  1.00
   NELECT =      48.0000    total number of electrons
   NUPDOWN=      -1.0000    fix difference up-down

 DOS related values:
   EMIN   =  10.00;   EMAX   =-10.00  energy-range for DOS
   EFERMI =   0.00
   ISMEAR =     0;   SIGMA  =   0.05  broadening in eV -4-tet -1-fermi 0-gaus

 Electronic relaxation 2 (details)
   IALGO  =     38    algorithm
   LDIAG  =      T    sub-space diagonalisation (order eigenvalues)
   LSUBROT=      F    optimize rotation matrix (better conditioning)
   TURBO    =      0    0=normal 1=particle mesh
   IRESTART =      0    0=no restart 2=restart with 2 vectors
   NREBOOT  =      0    no. of reboots
   NMIN     =      0    reboot dimension
   EREF     =   0.00    reference energy to select bands
   IMIX   =      4    mixing-type and parameters
     AMIX     =   0.40;   BMIX     =  1.00
     AMIX_MAG =   1.60;   BMIX_MAG =  1.00
     AMIN     =   0.10
     WC   =   100.;   INIMIX=   1;  MIXPRE=   1;  MAXMIX= -45

 Intra band minimization:
   WEIMIN = 0.0010     energy-eigenvalue tresh-hold
   EBREAK =  0.78E-08  absolut break condition
   DEPER  =   0.30     relativ break condition  

   TIME   =   0.40     timestep for ELM

  volume/ion in A,a.u.               =      61.03       411.88
  Fermi-wavevector in a.u.,A,eV,Ry     =   0.612725  1.157883  5.108069  0.375432
  Thomas-Fermi vector in A             =   1.669117

 Write flags
   LWAVE        =      F    write WAVECAR
   LDOWNSAMPLE  =      F    k-point downsampling of WAVECAR
   LCHARG       =      F    write CHGCAR
   LVTOT        =      F    write LOCPOT, total local potential
   LVHAR        =      F    write LOCPOT, Hartree potential only
   LELF         =      F    write electronic localiz. function (ELF)
   LORBIT       =      0    0 simple, 1 ext, 2 COOP (PROOUT), +10 PAW based schemes


 Dipole corrections
   LMONO  =      F    monopole corrections only (constant potential shift)
   LDIPOL =      F    correct potential (dipole corrections)
   IDIPOL =      0    1-x, 2-y, 3-z, 4-all directions 
   EPSILON=  1.0000000 bulk dielectric constant

 Exchange correlation treatment:
   GGA     =    PE    GGA type
   LEXCH   =     8    internal setting for exchange type
   VOSKOWN=      0    Vosko Wilk Nusair interpolation
   LHFCALC =     F    Hartree Fock is set to
   LHFONE  =     F    Hartree Fock one center treatment
   AEXX    =    0.0000 exact exchange contribution

 Linear response parameters
   LEPSILON=     F    determine dielectric tensor
   LRPA    =     F    only Hartree local field effects (RPA)
   LNABLA  =     F    use nabla operator in PAW spheres
   LVEL    =     F    velocity operator in full k-point grid
   LINTERFAST=   F  fast interpolation
   KINTER  =     0    interpolate to denser k-point grid
   CSHIFT  =0.1000    complex shift for real part using Kramers Kronig
   OMEGAMAX=  -1.0    maximum frequency
   DEG_THRESHOLD= 0.2000000E-02 threshold for treating states as degnerate
   RTIME   =   -0.100 relaxation time in fs
  (WPLASMAI=    0.000 imaginary part of plasma frequency in eV, 0.658/RTIME)
   DFIELD  = 0.0000000 0.0000000 0.0000000 field for delta impulse in time

 Orbital magnetization related:
   ORBITALMAG=     F  switch on orbital magnetization
   LCHIMAG   =     F  perturbation theory with respect to B field
   DQ        =  0.001000  dq finite difference perturbation B field
   LLRAUG    =     F  two centre corrections for induced B field



--------------------------------------------------------------------------------------------------------


 quasi-Newton-method for relaxation of ions
   using selective dynamics as specified on POSCAR
 charge density and potential will be updated during run
 non-spin polarized calculation
 Variant of blocked Davidson
 Davidson routine will perform the subspace rotation
 perform sub-space diagonalisation
    after iterative eigenvector-optimisation
 modified Broyden-mixing scheme, WC =      100.0
 initial mixing is a Kerker type mixing with AMIX =  0.4000 and BMIX =      1.0000
 Hartree-type preconditioning will be used
 using additional bands            8
 real space projection scheme for non local part
 use partial core corrections
 calculate Harris-corrections to forces   (improved forces if not selfconsistent)
 use gradient corrections 
 use of overlap-Matrix (Vanderbilt PP)
 Gauss-broadening in eV      SIGMA  =   0.05


--------------------------------------------------------------------------------------------------------


  energy-cutoff  :      450.00
  volume of cell :      915.52
      direct lattice vectors                 reciprocal lattice vectors
     6.019200000  0.000000000  0.000000000     0.166135035  0.000000000  0.000000000
     0.000000000 10.140000000  0.000000000     0.000000000  0.098619329  0.000000000
     0.000000000  0.000000000 15.000000000     0.000000000  0.000000000  0.066666667

  length of vectors
     6.019200000 10.140000000 15.000000000     0.166135035  0.098619329  0.066666667



 k-points in units of 2pi/SCALE and weight: Automatic mesh                          
   0.00000000  0.00000000  0.00000000       0.067
   0.03322701  0.00000000  0.00000000       0.133
   0.06645401  0.00000000  0.00000000       0.133
   0.00000000  0.03287311  0.00000000       0.133
   0.03322701  0.03287311  0.00000000       0.133
   0.06645401  0.03287311  0.00000000       0.133
  -0.06645401  0.03287311  0.00000000       0.133
  -0.03322701  0.03287311  0.00000000       0.133

 k-points in reciprocal lattice and weights: Automatic mesh                          
   0.00000000  0.00000000  0.00000000       0.067
   0.20000000  0.00000000  0.00000000       0.133
   0.40000000  0.00000000  0.00000000       0.133
   0.00000000  0.33333333  0.00000000       0.133
   0.20000000  0.33333333  0.00000000       0.133
   0.40000000  0.33333333  0.00000000       0.133
  -0.40000000  0.33333333  0.00000000       0.133
  -0.20000000  0.33333333  0.00000000       0.133

 position of ions in fractional coordinates (direct lattice) 
   0.43969910  0.87874334  0.25657515
   0.93847608  0.87845507  0.23190714
   0.44898697  0.62402414  0.28443245
   0.94100947  0.61971766  0.24508672
   0.43556181  0.38149251  0.23959269
   0.93513630  0.37689716  0.27167693
   0.43704628  0.12147941  0.22987439
   0.93795137  0.12031535  0.25589025
   0.18847407  0.99960890  0.24386904
   0.68818732  0.00046172  0.23898157
   0.18889766  0.49897699  0.27591133
   0.68848482  0.49906516  0.25275797
   0.41141800  0.59716474  0.45543181
   0.24932205  0.68729200  0.47072816
   0.26611959  0.52719935  0.38728443

 position of ions in cartesian coordinates  (Angst):
   2.64663680  8.91045747  3.84862718
   5.64887525  8.90753438  3.47860709
   2.70254237  6.32760480  4.26648675
   5.66412419  6.28393707  3.67630077
   2.62173367  3.86833408  3.59389029
   5.62877244  3.82173719  4.07515400
   2.63066900  1.23180121  3.44811589
   5.64571690  1.21999769  3.83835368
   1.13446315 10.13603429  3.65803562
   4.14233710  0.00468182  3.58472353
   1.13701279  5.05962667  4.13867002
   4.14412780  5.06052068  3.79136954
   2.47640722  6.05525044  6.83147708
   1.50071926  6.96914086  7.06092233
   1.60182702  5.34580144  5.80926649



--------------------------------------------------------------------------------------------------------


 k-point  1 :   0.0000 0.0000 0.0000  plane waves:   19845
 k-point  2 :   0.2000 0.0000 0.0000  plane waves:   19863
 k-point  3 :   0.4000 0.0000 0.0000  plane waves:   19851
 k-point  4 :   0.0000 0.3333 0.0000  plane waves:   19883
 k-point  5 :   0.2000 0.3333 0.0000  plane waves:   19830
 k-point  6 :   0.4000 0.3333 0.0000  plane waves:   19821
 k-point  7 :  -0.4000 0.3333 0.0000  plane waves:   19821
 k-point  8 :  -0.2000 0.3333 0.0000  plane waves:   19830

 maximum and minimum number of plane-waves per node :     19883    19821

 maximum number of plane-waves:     19883
 maximum index in each direction: 
   IXMAX=   10   IYMAX=   17   IZMAX=   25
   IXMIN=  -10   IYMIN=  -17   IZMIN=  -25


 serial   3D FFT for wavefunctions
 parallel 3D FFT for charge:
    minimum data exchange during FFTs selected (reduces bandwidth)


 total amount of memory used by VASP MPI-rank0   231929. kBytes
=======================================================================

   base      :      30000. kBytes
   nonlr-proj:      11425. kBytes
   fftplans  :      44247. kBytes
   grid      :     104852. kBytes
   one-center:        233. kBytes
   wavefun   :      41172. kBytes

     INWAV:  cpu time    0.0001: real time    0.0013
 Broyden mixing: mesh for mixing (old mesh)
   NGX = 21   NGY = 35   NGZ = 51
  (NGX  = 84   NGY  =140   NGZ  =216)
  gives a total of  37485 points

 initial charge density was supplied:
 charge density of overlapping atoms calculated
 number of electron      48.0000000 magnetization 
 keeping initial charge density in first step


--------------------------------------------------------------------------------------------------------


 Maximum index for non-local projection operator         5819
 Maximum index for augmentation-charges         6566 (set IRDMAX)


--------------------------------------------------------------------------------------------------------


 First call to EWALD:  gamma=   0.183
 Maximum number of real-space cells 4x 3x 2
 Maximum number of reciprocal cells 2x 3x 4

    FEWALD:  cpu time    0.0033: real time    0.0032


--------------------------------------- Iteration      1(   1)  ---------------------------------------


    POTLOK:  cpu time    1.9600: real time    1.9626
    SETDIJ:  cpu time    0.0478: real time    0.0478
     EDDAV:  cpu time   29.6206: real time   29.6333
       DOS:  cpu time    0.0012: real time    0.0013
    --------------------------------------------
      LOOP:  cpu time   31.6297: real time   31.6451

 eigenvalue-minimisations  :   512
 total energy-change (2. order) : 0.3023950E+03  (-0.1341497E+04)
 number of electron      48.0000000 magnetization 
 augmentation part       48.0000000 magnetization 

 Free energy of the ion-electron system (eV)
  ---------------------------------------------------
  alpha Z        PSCENC =        14.13034224
  Ewald energy   TEWEN  =      1491.12092832
  -Hartree energ DENC   =     -2505.96029578
  -exchange      EXHF   =         0.00000000
  -V(xc)+E(xc)   XCENC  =      -148.56403374
  PAW double counting   =      1187.55623386     -928.91038649
  entropy T*S    EENTRO =        -0.01360228
  eigenvalues    EBANDS =      -125.60602899
  atomic energy  EATOM  =      1318.64189276
  Solvation  Ediel_sol  =         0.00000000
  ---------------------------------------------------
  free energy    TOTEN  =       302.39504991 eV

  energy without entropy =      302.40865219  energy(sigma->0) =      302.40185105


--------------------------------------------------------------------------------------------------------




--------------------------------------- Iteration      1(   2)  ---------------------------------------


     EDDAV:  cpu time   41.1782: real time   41.2354
       DOS:  cpu time    0.0008: real time    0.0009
    --------------------------------------------
      LOOP:  cpu time   41.1791: real time   41.2363

 eigenvalue-minimisations  :   768
 total energy-change (2. order) :-0.3101205E+03  (-0.2930330E+03)
 number of electron      48.0000000 magnetization 
 augmentation part       48.0000000 magnetization 

 Free energy of the ion-electron system (eV)
  ---------------------------------------------------
  alpha Z        PSCENC =        14.13034224
  Ewald energy   TEWEN  =      1491.12092832
  -Hartree energ DENC   =     -2505.96029578
  -exchange      EXHF   =         0.00000000
  -V(xc)+E(xc)   XCENC  =      -148.56403374
  PAW double counting   =      1187.55623386     -928.91038649
  entropy T*S    EENTRO =        -0.00002344
  eigenvalues    EBANDS =      -435.74015487
  atomic energy  EATOM  =      1318.64189276
  Solvation  Ediel_sol  =         0.00000000
  ---------------------------------------------------
  free energy    TOTEN  =        -7.72549714 eV

  energy without entropy =       -7.72547369  energy(sigma->0) =       -7.72548541


--------------------------------------------------------------------------------------------------------




--------------------------------------- Iteration      1(   3)  ---------------------------------------


     EDDAV:  cpu time   43.7112: real time   43.7510
       DOS:  cpu time    0.0005: real time    0.0005
    --------------------------------------------
      LOOP:  cpu time   43.7117: real time   43.7515

 eigenvalue-minimisations  :   824
 total energy-change (2. order) :-0.7978964E+02  (-0.7816186E+02)
 number of electron      48.0000000 magnetization 
 augmentation part       48.0000000 magnetization 

 Free energy of the ion-electron system (eV)
  ---------------------------------------------------
  alpha Z        PSCENC =        14.13034224
  Ewald energy   TEWEN  =      1491.12092832
  -Hartree energ DENC   =     -2505.96029578
  -exchange      EXHF   =         0.00000000
  -V(xc)+E(xc)   XCENC  =      -148.56403374
  PAW double counting   =      1187.55623386     -928.91038649
  entropy T*S    EENTRO =        -0.00000000
  eigenvalues    EBANDS =      -515.52981675
  atomic energy  EATOM  =      1318.64189276
  Solvation  Ediel_sol  =         0.00000000
  ---------------------------------------------------
  free energy    TOTEN  =       -87.51513558 eV

  energy without entropy =      -87.51513558  energy(sigma->0) =      -87.51513558


--------------------------------------------------------------------------------------------------------




--------------------------------------- Iteration      1(   4)  ---------------------------------------


     EDDAV:  cpu time   36.7257: real time   36.7548
       DOS:  cpu time    0.0005: real time    0.0005
    --------------------------------------------
      LOOP:  cpu time   36.7262: real time   36.7553

 eigenvalue-minimisations  :   672
 total energy-change (2. order) :-0.3030707E+01  (-0.3021217E+01)
 number of electron      48.0000000 magnetization 
 augmentation part       48.0000000 magnetization 

 Free energy of the ion-electron system (eV)
  ---------------------------------------------------
  alpha Z        PSCENC =        14.13034224
  Ewald energy   TEWEN  =      1491.12092832
  -Hartree energ DENC   =     -2505.96029578
  -exchange      EXHF   =         0.00000000
  -V(xc)+E(xc)   XCENC  =      -148.56403374
  PAW double counting   =      1187.55623386     -928.91038649
  entropy T*S    EENTRO =        -0.00000000
  eigenvalues    EBANDS =      -518.56052370
  atomic energy  EATOM  =      1318.64189276
  Solvation  Ediel_sol  =         0.00000000
  ---------------------------------------------------
  free energy    TOTEN  =       -90.54584252 eV

  energy without entropy =      -90.54584252  energy(sigma->0) =      -90.54584252


--------------------------------------------------------------------------------------------------------




--------------------------------------- Iteration      1(   5)  ---------------------------------------


     EDDAV:  cpu time   46.2281: real time   46.2815
       DOS:  cpu time    0.0006: real time    0.0006
    --------------------------------------------
      LOOP:  cpu time   46.2287: real time   46.2821

 eigenvalue-minimisations  :   880
 total energy-change (2. order) :-0.1381699E+00  (-0.1381414E+00)
 number of electron      48.0000000 magnetization 
 augmentation part       48.0000000 magnetization 

 Free energy of the ion-electron system (eV)
  ---------------------------------------------------
  alpha Z        PSCENC =        14.13034224
  Ewald energy   TEWEN  =      1491.12092832
  -Hartree energ DENC   =     -2505.96029578
  -exchange      EXHF   =         0.00000000
  -V(xc)+E(xc)   XCENC  =      -148.56403374
  PAW double counting   =      1187.55623386     -928.91038649
  entropy T*S    EENTRO =        -0.00000000
  eigenvalues    EBANDS =      -518.69869356
  atomic energy  EATOM  =      1318.64189276
  Solvation  Ediel_sol  =         0.00000000
  ---------------------------------------------------
  free energy    TOTEN  =       -90.68401238 eV

  energy without entropy =      -90.68401238  energy(sigma->0) =      -90.68401238


--------------------------------------------------------------------------------------------------------




--------------------------------------- Iteration      1(   6)  ---------------------------------------


     EDDAV:  cpu time   38.8977: real time   38.9460
       DOS:  cpu time    0.0005: real time    0.0006
    --------------------------------------------
      LOOP:  cpu time   38.8983: real time   38.9465

 eigenvalue-minimisations  :   720
 total energy-change (2. order) :-0.2152278E-02  (-0.2151930E-02)
 number of electron      48.0000000 magnetization 
 augmentation part       48.0000000 magnetization 

 Free energy of the ion-electron system (eV)
  ---------------------------------------------------
  alpha Z        PSCENC =        14.13034224
  Ewald energy   TEWEN  =      1491.12092832
  -Hartree energ DENC   =     -2505.96029578
  -exchange      EXHF   =         0.00000000
  -V(xc)+E(xc)   XCENC  =      -148.56403374
  PAW double counting   =      1187.55623386     -928.91038649
  entropy T*S    EENTRO =        -0.00000000
  eigenvalues    EBANDS =      -518.70084584
  atomic energy  EATOM  =      1318.64189276
  Solvation  Ediel_sol  =         0.00000000
  ---------------------------------------------------
  free energy    TOTEN  =       -90.68616466 eV

  energy without entropy =      -90.68616466  energy(sigma->0) =      -90.68616466


--------------------------------------------------------------------------------------------------------




--------------------------------------- Iteration      1(   7)  ---------------------------------------


     EDDAV:  cpu time   43.7225: real time   43.7833
       DOS:  cpu time    0.0013: real time    0.0013
    CHARGE:  cpu time    2.0727: real time    2.0796
    MIXING:  cpu time    0.0419: real time    0.0419
    --------------------------------------------
      LOOP:  cpu time   45.8384: real time   45.9063

 eigenvalue-minimisations  :   832
 total energy-change (2. order) :-0.1172905E-03  (-0.1172834E-03)
 number of electron      47.9999994 magnetization 
 augmentation part       -0.3863426 magnetization 

 Broyden mixing:
  rms(total) = 0.18887E+01    rms(broyden)= 0.18881E+01
  rms(prec ) = 0.24602E+01
  weight for this iteration     100.00

 Free energy of the ion-electron system (eV)
  ---------------------------------------------------
  alpha Z        PSCENC =        14.13034224
  Ewald energy   TEWEN  =      1491.12092832
  -Hartree energ DENC   =     -2505.96029578
  -exchange      EXHF   =         0.00000000
  -V(xc)+E(xc)   XCENC  =      -148.56403374
  PAW double counting   =      1187.55623386     -928.91038649
  entropy T*S    EENTRO =        -0.00000000
  eigenvalues    EBANDS =      -518.70096313
  atomic energy  EATOM  =      1318.64189276
  Solvation  Ediel_sol  =         0.00000000
  ---------------------------------------------------
  free energy    TOTEN  =       -90.68628195 eV

  energy without entropy =      -90.68628195  energy(sigma->0) =      -90.68628195


--------------------------------------------------------------------------------------------------------




--------------------------------------- Iteration      1(   8)  ---------------------------------------


    POTLOK:  cpu time    2.1404: real time    2.1431
    SETDIJ:  cpu time    0.0620: real time    0.0619
     EDDAV:  cpu time   35.8281: real time   35.8860
       DOS:  cpu time    0.0013: real time    0.0013
    CHARGE:  cpu time    2.1090: real time    2.1110
    MIXING:  cpu time    0.0502: real time    0.0505
    --------------------------------------------
      LOOP:  cpu time   40.1910: real time   40.2539

 eigenvalue-minimisations  :   656
 total energy-change (2. order) : 0.1827058E+02  (-0.7706665E+01)
 number of electron      47.9999998 magnetization 
 augmentation part       -0.7188246 magnetization 

 Broyden mixing:
  rms(total) = 0.54938E+00    rms(broyden)= 0.54884E+00
  rms(prec ) = 0.67310E+00
  weight for this iteration     100.00

 eigenvalues of (default mixing * dielectric matrix)
  average eigenvalue GAMMA=   0.9505
  0.9505

 Free energy of the ion-electron system (eV)
  ---------------------------------------------------
  alpha Z        PSCENC =        14.13034224
  Ewald energy   TEWEN  =      1491.12092832
  -Hartree energ DENC   =     -2601.24496777
  -exchange      EXHF   =         0.00000000
  -V(xc)+E(xc)   XCENC  =      -143.21407402
  PAW double counting   =      1531.48305692    -1273.84312410
  entropy T*S    EENTRO =        -0.00000000
  eigenvalues    EBANDS =      -409.48975163
  atomic energy  EATOM  =      1318.64189276
  Solvation  Ediel_sol  =         0.00000000
  ---------------------------------------------------
  free energy    TOTEN  =       -72.41569729 eV

  energy without entropy =      -72.41569729  energy(sigma->0) =      -72.41569729


--------------------------------------------------------------------------------------------------------




--------------------------------------- Iteration      1(   9)  ---------------------------------------


    POTLOK:  cpu time    2.1666: real time    2.1688
    SETDIJ:  cpu time    0.0541: real time    0.0546
     EDDAV:  cpu time   35.5306: real time   35.5741
       DOS:  cpu time    0.0008: real time    0.0009
    CHARGE:  cpu time    2.1105: real time    2.1124
    MIXING:  cpu time    0.0482: real time    0.0482
    --------------------------------------------
      LOOP:  cpu time   39.9108: real time   39.9589

 eigenvalue-minimisations  :   640
 total energy-change (2. order) : 0.2055811E+00  (-0.6449616E+00)
 number of electron      47.9999998 magnetization 
 augmentation part       -0.7596221 magnetization 

 Broyden mixing:
  rms(total) = 0.38316E+00    rms(broyden)= 0.38307E+00
  rms(prec ) = 0.46291E+00
  weight for this iteration     100.00

 eigenvalues of (default mixing * dielectric matrix)
  average eigenvalue GAMMA=   1.5798
  1.1492  2.0104

 Free energy of the ion-electron system (eV)
  ---------------------------------------------------
  alpha Z        PSCENC =        14.13034224
  Ewald energy   TEWEN  =      1491.12092832
  -Hartree energ DENC   =     -2621.11391910
  -exchange      EXHF   =         0.00000000
  -V(xc)+E(xc)   XCENC  =      -142.29159815
  PAW double counting   =      1635.34204945    -1377.80460251
  entropy T*S    EENTRO =        -0.00000000
  eigenvalues    EBANDS =      -390.23520923
  atomic energy  EATOM  =      1318.64189276
  Solvation  Ediel_sol  =         0.00000000
  ---------------------------------------------------
  free energy    TOTEN  =       -72.21011623 eV

  energy without entropy =      -72.21011623  energy(sigma->0) =      -72.21011623


--------------------------------------------------------------------------------------------------------




--------------------------------------- Iteration      1(  10)  ---------------------------------------


    POTLOK:  cpu time    2.1835: real time    2.1849
    SETDIJ:  cpu time    0.0630: real time    0.0630
     EDDAV:  cpu time   38.1416: real time   38.1941
       DOS:  cpu time    0.0005: real time    0.0006
    CHARGE:  cpu time    2.0971: real time    2.1033
    MIXING:  cpu time    0.0537: real time    0.0537
    --------------------------------------------
      LOOP:  cpu time   42.5393: real time   42.5996

 eigenvalue-minimisations  :   704
 total energy-change (2. order) : 0.5634139E+00  (-0.1263847E+00)
 number of electron      47.9999998 magnetization 
 augmentation part       -0.7331190 magnetization 

 Broyden mixing:
  rms(total) = 0.81312E-01    rms(broyden)= 0.81292E-01
  rms(prec ) = 0.13913E+00
  weight for this iteration     100.00

 eigenvalues of (default mixing * dielectric matrix)
  average eigenvalue GAMMA=   1.4629
  2.4463  0.9712  0.9712

 Free energy of the ion-electron system (eV)
  ---------------------------------------------------
  alpha Z        PSCENC =        14.13034224
  Ewald energy   TEWEN  =      1491.12092832
  -Hartree energ DENC   =     -2644.49667078
  -exchange      EXHF   =         0.00000000
  -V(xc)+E(xc)   XCENC  =      -141.33468974
  PAW double counting   =      1748.13680612    -1490.62492882
  entropy T*S    EENTRO =        -0.00000000
  eigenvalues    EBANDS =      -367.22038242
  atomic energy  EATOM  =      1318.64189276
  Solvation  Ediel_sol  =         0.00000000
  ---------------------------------------------------
  free energy    TOTEN  =       -71.64670234 eV

  energy without entropy =      -71.64670234  energy(sigma->0) =      -71.64670234


--------------------------------------------------------------------------------------------------------




--------------------------------------- Iteration      1(  11)  ---------------------------------------


    POTLOK:  cpu time    2.1949: real time    2.2006
    SETDIJ:  cpu time    0.0613: real time    0.0614
     EDDAV:  cpu time   39.8056: real time   39.8858
       DOS:  cpu time    0.0006: real time    0.0006
    CHARGE:  cpu time    2.1048: real time    2.1098
    MIXING:  cpu time    0.0513: real time    0.0513
    --------------------------------------------
      LOOP:  cpu time   44.2185: real time   44.3095

 eigenvalue-minimisations  :   744
 total energy-change (2. order) : 0.6545818E-01  (-0.1520238E-01)
 number of electron      47.9999998 magnetization 
 augmentation part       -0.7407344 magnetization 

 Broyden mixing:
  rms(total) = 0.51123E-01    rms(broyden)= 0.51113E-01
  rms(prec ) = 0.88165E-01
  weight for this iteration     100.00

 eigenvalues of (default mixing * dielectric matrix)
  average eigenvalue GAMMA=   1.5554
  1.0591  1.0591  2.0517  2.0517

 Free energy of the ion-electron system (eV)
  ---------------------------------------------------
  alpha Z        PSCENC =        14.13034224
  Ewald energy   TEWEN  =      1491.12092832
  -Hartree energ DENC   =     -2654.93130881
  -exchange      EXHF   =         0.00000000
  -V(xc)+E(xc)   XCENC  =      -140.90116489
  PAW double counting   =      1767.24804855    -1509.76009097
  entropy T*S    EENTRO =        -0.00000000
  eigenvalues    EBANDS =      -357.12989136
  atomic energy  EATOM  =      1318.64189276
  Solvation  Ediel_sol  =         0.00000000
  ---------------------------------------------------
  free energy    TOTEN  =       -71.58124416 eV

  energy without entropy =      -71.58124416  energy(sigma->0) =      -71.58124416


--------------------------------------------------------------------------------------------------------




--------------------------------------- Iteration      1(  12)  ---------------------------------------


    POTLOK:  cpu time    2.2081: real time    2.2113
    SETDIJ:  cpu time    0.0584: real time    0.0584
     EDDAV:  cpu time   41.1995: real time   41.2774
       DOS:  cpu time    0.0007: real time    0.0007
    CHARGE:  cpu time    2.0987: real time    2.1020
    MIXING:  cpu time    0.0501: real time    0.0502
    --------------------------------------------
      LOOP:  cpu time   45.6155: real time   45.6999

 eigenvalue-minimisations  :   776
 total energy-change (2. order) : 0.2048754E-02  (-0.2464025E-01)
 number of electron      47.9999998 magnetization 
 augmentation part       -0.7571000 magnetization 

 Broyden mixing:
  rms(total) = 0.57846E-01    rms(broyden)= 0.57827E-01
  rms(prec ) = 0.80856E-01
  weight for this iteration     100.00

 eigenvalues of (default mixing * dielectric matrix)
  average eigenvalue GAMMA=   1.4200
  2.2281  2.2281  0.9988  0.9988  0.6461

 Free energy of the ion-electron system (eV)
  ---------------------------------------------------
  alpha Z        PSCENC =        14.13034224
  Ewald energy   TEWEN  =      1491.12092832
  -Hartree energ DENC   =     -2664.15052689
  -exchange      EXHF   =         0.00000000
  -V(xc)+E(xc)   XCENC  =      -140.68179283
  PAW double counting   =      1747.05566880    -1489.54855248
  entropy T*S    EENTRO =        -0.00000000
  eigenvalues    EBANDS =      -348.14715532
  atomic energy  EATOM  =      1318.64189276
  Solvation  Ediel_sol  =         0.00000000
  ---------------------------------------------------
  free energy    TOTEN  =       -71.57919540 eV

  energy without entropy =      -71.57919540  energy(sigma->0) =      -71.57919540


--------------------------------------------------------------------------------------------------------




--------------------------------------- Iteration      1(  13)  ---------------------------------------


    POTLOK:  cpu time    2.2101: real time    2.2128
    SETDIJ:  cpu time    0.0591: real time    0.0592
     EDDAV:  cpu time   36.6986: real time   36.7600
       DOS:  cpu time    0.0006: real time    0.0006
    CHARGE:  cpu time    2.0939: real time    2.0970
    MIXING:  cpu time    0.0552: real time    0.0552
    --------------------------------------------
      LOOP:  cpu time   41.1175: real time   41.1848

 eigenvalue-minimisations  :   680
 total energy-change (2. order) : 0.9440917E-02  (-0.3347600E-02)
 number of electron      47.9999998 magnetization 
 augmentation part       -0.7570185 magnetization 

 Broyden mixing:
  rms(total) = 0.43336E-01    rms(broyden)= 0.43336E-01
  rms(prec ) = 0.61943E-01
  weight for this iteration     100.00

 eigenvalues of (default mixing * dielectric matrix)
  average eigenvalue GAMMA=   1.4850
  2.4458  2.4458  0.9980  0.9980  1.0112  1.0112

 Free energy of the ion-electron system (eV)
  ---------------------------------------------------
  alpha Z        PSCENC =        14.13034224
  Ewald energy   TEWEN  =      1491.12092832
  -Hartree energ DENC   =     -2665.86170055
  -exchange      EXHF   =         0.00000000
  -V(xc)+E(xc)   XCENC  =      -140.65793570
  PAW double counting   =      1744.98912513    -1487.47275969
  entropy T*S    EENTRO =        -0.00000000
  eigenvalues    EBANDS =      -346.45964700
  atomic energy  EATOM  =      1318.64189276
  Solvation  Ediel_sol  =         0.00000000
  ---------------------------------------------------
  free energy    TOTEN  =       -71.56975449 eV

  energy without entropy =      -71.56975449  energy(sigma->0) =      -71.56975449


--------------------------------------------------------------------------------------------------------




--------------------------------------- Iteration      1(  14)  ---------------------------------------


    POTLOK:  cpu time    2.1992: real time    2.2031
    SETDIJ:  cpu time    0.0658: real time    0.0660
     EDDAV:  cpu time   39.4637: real time   39.5383
       DOS:  cpu time    0.0010: real time    0.0010
    CHARGE:  cpu time    2.0871: real time    2.0890
    MIXING:  cpu time    0.0556: real time    0.0557
    --------------------------------------------
      LOOP:  cpu time   43.8724: real time   43.9531

 eigenvalue-minimisations  :   736
 total energy-change (2. order) : 0.7826679E-02  (-0.6051124E-02)
 number of electron      47.9999998 magnetization 
 augmentation part       -0.7507305 magnetization 

 Broyden mixing:
  rms(total) = 0.12833E-01    rms(broyden)= 0.12817E-01
  rms(prec ) = 0.25688E-01
  weight for this iteration     100.00

 eigenvalues of (default mixing * dielectric matrix)
  average eigenvalue GAMMA=   1.5295
  3.0874  2.6232  1.0687  1.0687  0.9346  0.9617  0.9617

 Free energy of the ion-electron system (eV)
  ---------------------------------------------------
  alpha Z        PSCENC =        14.13034224
  Ewald energy   TEWEN  =      1491.12092832
  -Hartree energ DENC   =     -2670.51585697
  -exchange      EXHF   =         0.00000000
  -V(xc)+E(xc)   XCENC  =      -140.57415277
  PAW double counting   =      1742.30992461    -1484.78051253
  entropy T*S    EENTRO =        -0.00000000
  eigenvalues    EBANDS =      -341.89449347
  atomic energy  EATOM  =      1318.64189276
  Solvation  Ediel_sol  =         0.00000000
  ---------------------------------------------------
  free energy    TOTEN  =       -71.56192781 eV

  energy without entropy =      -71.56192781  energy(sigma->0) =      -71.56192781


--------------------------------------------------------------------------------------------------------




--------------------------------------- Iteration      1(  15)  ---------------------------------------


    POTLOK:  cpu time    2.2253: real time    2.2284
    SETDIJ:  cpu time    0.0590: real time    0.0591
     EDDAV:  cpu time   33.7235: real time   33.7883
       DOS:  cpu time    0.0007: real time    0.0008
    CHARGE:  cpu time    2.1017: real time    2.1132
    MIXING:  cpu time    0.0589: real time    0.0594
    --------------------------------------------
      LOOP:  cpu time   38.1691: real time   38.2492

 eigenvalue-minimisations  :   608
 total energy-change (2. order) :-0.1281168E-02  (-0.6637514E-03)
 number of electron      47.9999998 magnetization 
 augmentation part       -0.7492696 magnetization 

 Broyden mixing:
  rms(total) = 0.11209E-01    rms(broyden)= 0.11207E-01
  rms(prec ) = 0.20153E-01
  weight for this iteration     100.00

 eigenvalues of (default mixing * dielectric matrix)
  average eigenvalue GAMMA=   1.6272
  3.6489  2.4463  1.9558  1.0129  1.0129  1.0392  1.0392  0.8625

 Free energy of the ion-electron system (eV)
  ---------------------------------------------------
  alpha Z        PSCENC =        14.13034224
  Ewald energy   TEWEN  =      1491.12092832
  -Hartree energ DENC   =     -2672.50955264
  -exchange      EXHF   =         0.00000000
  -V(xc)+E(xc)   XCENC  =      -140.56355356
  PAW double counting   =      1738.85870846    -1481.31800305
  entropy T*S    EENTRO =        -0.00000000
  eigenvalues    EBANDS =      -339.92397150
  atomic energy  EATOM  =      1318.64189276
  Solvation  Ediel_sol  =         0.00000000
  ---------------------------------------------------
  free energy    TOTEN  =       -71.56320897 eV

  energy without entropy =      -71.56320897  energy(sigma->0) =      -71.56320897


--------------------------------------------------------------------------------------------------------




--------------------------------------- Iteration      1(  16)  ---------------------------------------


    POTLOK:  cpu time    2.2005: real time    2.2116
    SETDIJ:  cpu time    0.0607: real time    0.0616
     EDDAV:  cpu time   34.7674: real time   34.8758
       DOS:  cpu time    0.0005: real time    0.0006
    CHARGE:  cpu time    2.0588: real time    2.0630
    MIXING:  cpu time    0.0593: real time    0.0605
    --------------------------------------------
      LOOP:  cpu time   39.1472: real time   39.2730

 eigenvalue-minimisations  :   632
 total energy-change (2. order) :-0.2263607E-02  (-0.4100260E-03)
 number of electron      47.9999998 magnetization 
 augmentation part       -0.7485373 magnetization 

 Broyden mixing:
  rms(total) = 0.89439E-02    rms(broyden)= 0.89429E-02
  rms(prec ) = 0.13755E-01
  weight for this iteration     100.00

 eigenvalues of (default mixing * dielectric matrix)
  average eigenvalue GAMMA=   1.7129
  4.5319  2.5240  2.5240  1.0124  1.0124  1.0572  1.0572  0.8978  0.7995

 Free energy of the ion-electron system (eV)
  ---------------------------------------------------
  alpha Z        PSCENC =        14.13034224
  Ewald energy   TEWEN  =      1491.12092832
  -Hartree energ DENC   =     -2675.03758654
  -exchange      EXHF   =         0.00000000
  -V(xc)+E(xc)   XCENC  =      -140.53901371
  PAW double counting   =      1739.85161457    -1482.30770006
  entropy T*S    EENTRO =        -0.00000000
  eigenvalues    EBANDS =      -337.42595016
  atomic energy  EATOM  =      1318.64189276
  Solvation  Ediel_sol  =         0.00000000
  ---------------------------------------------------
  free energy    TOTEN  =       -71.56547258 eV

  energy without entropy =      -71.56547258  energy(sigma->0) =      -71.56547258


--------------------------------------------------------------------------------------------------------




--------------------------------------- Iteration      1(  17)  ---------------------------------------


    POTLOK:  cpu time    2.1737: real time    2.1775
    SETDIJ:  cpu time    0.0621: real time    0.0622
     EDDAV:  cpu time   38.3441: real time   38.4064
       DOS:  cpu time    0.0006: real time    0.0006
    CHARGE:  cpu time    2.1064: real time    2.1080
    MIXING:  cpu time    0.0609: real time    0.0609
    --------------------------------------------
      LOOP:  cpu time   42.7477: real time   42.8156

 eigenvalue-minimisations  :   712
 total energy-change (2. order) :-0.1509286E-02  (-0.3174571E-03)
 number of electron      47.9999998 magnetization 
 augmentation part       -0.7504912 magnetization 

 Broyden mixing:
  rms(total) = 0.56973E-02    rms(broyden)= 0.56954E-02
  rms(prec ) = 0.89459E-02
  weight for this iteration     100.00

 eigenvalues of (default mixing * dielectric matrix)
  average eigenvalue GAMMA=   1.7793
  4.7679  3.1565  2.1893  1.5283  1.0395  1.0395  1.1452  1.1452  0.9346  0.8472

 Free energy of the ion-electron system (eV)
  ---------------------------------------------------
  alpha Z        PSCENC =        14.13034224
  Ewald energy   TEWEN  =      1491.12092832
  -Hartree energ DENC   =     -2676.24373848
  -exchange      EXHF   =         0.00000000
  -V(xc)+E(xc)   XCENC  =      -140.52430198
  PAW double counting   =      1740.91787166    -1483.37733843
  entropy T*S    EENTRO =        -0.00000000
  eigenvalues    EBANDS =      -336.23263796
  atomic energy  EATOM  =      1318.64189276
  Solvation  Ediel_sol  =         0.00000000
  ---------------------------------------------------
  free energy    TOTEN  =       -71.56698187 eV

  energy without entropy =      -71.56698187  energy(sigma->0) =      -71.56698187


--------------------------------------------------------------------------------------------------------




--------------------------------------- Iteration      1(  18)  ---------------------------------------


    POTLOK:  cpu time    2.1784: real time    2.1805
    SETDIJ:  cpu time    0.0573: real time    0.0573
     EDDAV:  cpu time   38.4277: real time   38.4727
       DOS:  cpu time    0.0005: real time    0.0006
    CHARGE:  cpu time    2.0987: real time    2.0990
    MIXING:  cpu time    0.0656: real time    0.0656
    --------------------------------------------
      LOOP:  cpu time   42.8282: real time   42.8756

 eigenvalue-minimisations  :   712
 total energy-change (2. order) :-0.2003133E-02  (-0.2806029E-03)
 number of electron      47.9999998 magnetization 
 augmentation part       -0.7494121 magnetization 

 Broyden mixing:
  rms(total) = 0.57697E-02    rms(broyden)= 0.57681E-02
  rms(prec ) = 0.80213E-02
  weight for this iteration     100.00

 eigenvalues of (default mixing * dielectric matrix)
  average eigenvalue GAMMA=   1.8214
  5.6087  3.3482  2.2549  2.0887  1.0277  1.0277  1.0247  1.0247  0.8944  0.8681
  0.8681

 Free energy of the ion-electron system (eV)
  ---------------------------------------------------
  alpha Z        PSCENC =        14.13034224
  Ewald energy   TEWEN  =      1491.12092832
  -Hartree energ DENC   =     -2676.53422199
  -exchange      EXHF   =         0.00000000
  -V(xc)+E(xc)   XCENC  =      -140.54520416
  PAW double counting   =      1740.20976871    -1482.66848944
  entropy T*S    EENTRO =        -0.00000000
  eigenvalues    EBANDS =      -335.92400144
  atomic energy  EATOM  =      1318.64189276
  Solvation  Ediel_sol  =         0.00000000
  ---------------------------------------------------
  free energy    TOTEN  =       -71.56898500 eV

  energy without entropy =      -71.56898500  energy(sigma->0) =      -71.56898500


--------------------------------------------------------------------------------------------------------




--------------------------------------- Iteration      1(  19)  ---------------------------------------


    POTLOK:  cpu time    2.1481: real time    2.1483
    SETDIJ:  cpu time    0.0680: real time    0.0680
     EDDAV:  cpu time   38.1641: real time   38.1687
       DOS:  cpu time    0.0006: real time    0.0006
    CHARGE:  cpu time    2.0962: real time    2.0963
    MIXING:  cpu time    0.0641: real time    0.0641
    --------------------------------------------
      LOOP:  cpu time   42.5410: real time   42.5460

 eigenvalue-minimisations  :   704
 total energy-change (2. order) :-0.1016062E-02  (-0.1091367E-03)
 number of electron      47.9999998 magnetization 
 augmentation part       -0.7500402 magnetization 

 Broyden mixing:
  rms(total) = 0.29876E-02    rms(broyden)= 0.29866E-02
  rms(prec ) = 0.39791E-02
  weight for this iteration     100.00

 eigenvalues of (default mixing * dielectric matrix)
  average eigenvalue GAMMA=   1.8424
  6.1124  3.5986  2.3708  2.0822  1.0315  1.0315  0.9967  0.9967  1.0795  1.0795
  0.8646  0.8646

 Free energy of the ion-electron system (eV)
  ---------------------------------------------------
  alpha Z        PSCENC =        14.13034224
  Ewald energy   TEWEN  =      1491.12092832
  -Hartree energ DENC   =     -2677.08177820
  -exchange      EXHF   =         0.00000000
  -V(xc)+E(xc)   XCENC  =      -140.52954521
  PAW double counting   =      1741.07183001    -1483.53346915
  entropy T*S    EENTRO =        -0.00000000
  eigenvalues    EBANDS =      -335.39020184
  atomic energy  EATOM  =      1318.64189276
  Solvation  Ediel_sol  =         0.00000000
  ---------------------------------------------------
  free energy    TOTEN  =       -71.57000106 eV

  energy without entropy =      -71.57000106  energy(sigma->0) =      -71.57000106


--------------------------------------------------------------------------------------------------------




--------------------------------------- Iteration      1(  20)  ---------------------------------------


    POTLOK:  cpu time    2.1589: real time    2.1592
    SETDIJ:  cpu time    0.0608: real time    0.0608
     EDDAV:  cpu time   39.7650: real time   39.7705
       DOS:  cpu time    0.0006: real time    0.0007
    CHARGE:  cpu time    2.0972: real time    2.0973
    MIXING:  cpu time    0.0790: real time    0.0791
    --------------------------------------------
      LOOP:  cpu time   44.1615: real time   44.1677

 eigenvalue-minimisations  :   744
 total energy-change (2. order) :-0.7651426E-03  (-0.3647989E-04)
 number of electron      47.9999998 magnetization 
 augmentation part       -0.7502212 magnetization 

 Broyden mixing:
  rms(total) = 0.17710E-02    rms(broyden)= 0.17705E-02
  rms(prec ) = 0.24375E-02
  weight for this iteration     100.00

 eigenvalues of (default mixing * dielectric matrix)
  average eigenvalue GAMMA=   1.8122
  6.2721  3.7465  2.5392  2.0761  1.0264  1.0264  1.0970  1.0970  1.0765  0.9657
  0.8347  0.9002  0.9002

 Free energy of the ion-electron system (eV)
  ---------------------------------------------------
  alpha Z        PSCENC =        14.13034224
  Ewald energy   TEWEN  =      1491.12092832
  -Hartree energ DENC   =     -2677.19118321
  -exchange      EXHF   =         0.00000000
  -V(xc)+E(xc)   XCENC  =      -140.53091604
  PAW double counting   =      1740.98443841    -1483.44557868
  entropy T*S    EENTRO =        -0.00000000
  eigenvalues    EBANDS =      -335.28069000
  atomic energy  EATOM  =      1318.64189276
  Solvation  Ediel_sol  =         0.00000000
  ---------------------------------------------------
  free energy    TOTEN  =       -71.57076621 eV

  energy without entropy =      -71.57076621  energy(sigma->0) =      -71.57076621


--------------------------------------------------------------------------------------------------------




--------------------------------------- Iteration      1(  21)  ---------------------------------------


    POTLOK:  cpu time    2.1404: real time    2.1407
    SETDIJ:  cpu time    0.0643: real time    0.0643
     EDDAV:  cpu time   35.7644: real time   35.7909
       DOS:  cpu time    0.0004: real time    0.0005
    CHARGE:  cpu time    2.0994: real time    2.1029
    MIXING:  cpu time    0.0732: real time    0.0734
    --------------------------------------------
      LOOP:  cpu time   40.1421: real time   40.1727

 eigenvalue-minimisations  :   656
 total energy-change (2. order) :-0.5351973E-03  (-0.6189774E-05)
 number of electron      47.9999998 magnetization 
 augmentation part       -0.7501979 magnetization 

 Broyden mixing:
  rms(total) = 0.11454E-02    rms(broyden)= 0.11453E-02
  rms(prec ) = 0.16553E-02
  weight for this iteration     100.00

 eigenvalues of (default mixing * dielectric matrix)
  average eigenvalue GAMMA=   1.9818
  7.5147  4.3631  2.8158  2.3660  1.8881  1.0258  1.0258  0.9558  0.9558  1.0627
  1.0627  0.8984  0.9054  0.9054

 Free energy of the ion-electron system (eV)
  ---------------------------------------------------
  alpha Z        PSCENC =        14.13034224
  Ewald energy   TEWEN  =      1491.12092832
  -Hartree energ DENC   =     -2677.26210390
  -exchange      EXHF   =         0.00000000
  -V(xc)+E(xc)   XCENC  =      -140.53083272
  PAW double counting   =      1740.93871553    -1483.39960188
  entropy T*S    EENTRO =        -0.00000000
  eigenvalues    EBANDS =      -335.21064176
  atomic energy  EATOM  =      1318.64189276
  Solvation  Ediel_sol  =         0.00000000
  ---------------------------------------------------
  free energy    TOTEN  =       -71.57130140 eV

  energy without entropy =      -71.57130140  energy(sigma->0) =      -71.57130140


--------------------------------------------------------------------------------------------------------




--------------------------------------- Iteration      1(  22)  ---------------------------------------


    POTLOK:  cpu time    2.1514: real time    2.1553
    SETDIJ:  cpu time    0.0631: real time    0.0632
     EDDAV:  cpu time   32.7195: real time   32.7785
       DOS:  cpu time    0.0006: real time    0.0006
    CHARGE:  cpu time    2.1000: real time    2.1035
    MIXING:  cpu time    0.0742: real time    0.0745
    --------------------------------------------
      LOOP:  cpu time   37.1087: real time   37.1756

 eigenvalue-minimisations  :   584
 total energy-change (2. order) :-0.6959384E-03  (-0.1229531E-04)
 number of electron      47.9999998 magnetization 
 augmentation part       -0.7500646 magnetization 

 Broyden mixing:
  rms(total) = 0.52278E-03    rms(broyden)= 0.52256E-03
  rms(prec ) = 0.71269E-03
  weight for this iteration     100.00

 eigenvalues of (default mixing * dielectric matrix)
  average eigenvalue GAMMA=   1.9939
  7.9310  4.7399  2.9398  2.5477  1.8238  1.0179  1.0179  0.9673  0.9673  1.1481
  1.0554  1.0554  0.9283  0.9283  0.8407

 Free energy of the ion-electron system (eV)
  ---------------------------------------------------
  alpha Z        PSCENC =        14.13034224
  Ewald energy   TEWEN  =      1491.12092832
  -Hartree energ DENC   =     -2677.30041989
  -exchange      EXHF   =         0.00000000
  -V(xc)+E(xc)   XCENC  =      -140.53329204
  PAW double counting   =      1740.68997355    -1483.15027621
  entropy T*S    EENTRO =        -0.00000000
  eigenvalues    EBANDS =      -335.17114607
  atomic energy  EATOM  =      1318.64189276
  Solvation  Ediel_sol  =         0.00000000
  ---------------------------------------------------
  free energy    TOTEN  =       -71.57199734 eV

  energy without entropy =      -71.57199734  energy(sigma->0) =      -71.57199734


--------------------------------------------------------------------------------------------------------




--------------------------------------- Iteration      1(  23)  ---------------------------------------


    POTLOK:  cpu time    2.1644: real time    2.1683
    SETDIJ:  cpu time    0.0603: real time    0.0605
     EDDAV:  cpu time   39.0188: real time   39.0883
       DOS:  cpu time    0.0008: real time    0.0008
    CHARGE:  cpu time    2.1235: real time    2.1272
    MIXING:  cpu time    0.0733: real time    0.0735
    --------------------------------------------
      LOOP:  cpu time   43.4411: real time   43.5186

 eigenvalue-minimisations  :   720
 total energy-change (2. order) :-0.1244437E-03  (-0.3410887E-05)
 number of electron      47.9999998 magnetization 
 augmentation part       -0.7499634 magnetization 

 Broyden mixing:
  rms(total) = 0.62499E-03    rms(broyden)= 0.62486E-03
  rms(prec ) = 0.79376E-03
  weight for this iteration     100.00

 eigenvalues of (default mixing * dielectric matrix)
  average eigenvalue GAMMA=   1.9899
  8.1193  4.9775  3.0765  2.4680  1.8869  1.0232  1.0232  0.9830  0.9830  1.2418
  1.2418  1.1204  1.1204  0.8683  0.8683  0.8372

 Free energy of the ion-electron system (eV)
  ---------------------------------------------------
  alpha Z        PSCENC =        14.13034224
  Ewald energy   TEWEN  =      1491.12092832
  -Hartree energ DENC   =     -2677.28246306
  -exchange      EXHF   =         0.00000000
  -V(xc)+E(xc)   XCENC  =      -140.53435851
  PAW double counting   =      1740.61170503    -1483.07185367
  entropy T*S    EENTRO =        -0.00000000
  eigenvalues    EBANDS =      -335.18831489
  atomic energy  EATOM  =      1318.64189276
  Solvation  Ediel_sol  =         0.00000000
  ---------------------------------------------------
  free energy    TOTEN  =       -71.57212179 eV

  energy without entropy =      -71.57212179  energy(sigma->0) =      -71.57212179


--------------------------------------------------------------------------------------------------------




--------------------------------------- Iteration      1(  24)  ---------------------------------------


    POTLOK:  cpu time    2.1989: real time    2.2035
    SETDIJ:  cpu time    0.0755: real time    0.0755
     EDDAV:  cpu time   34.7088: real time   34.7691
       DOS:  cpu time    0.0006: real time    0.0007
    CHARGE:  cpu time    2.0942: real time    2.0980
    MIXING:  cpu time    0.0865: real time    0.0868
    --------------------------------------------
      LOOP:  cpu time   39.1647: real time   39.2337

 eigenvalue-minimisations  :   632
 total energy-change (2. order) :-0.5883359E-04  (-0.1154214E-05)
 number of electron      47.9999998 magnetization 
 augmentation part       -0.7500366 magnetization 

 Broyden mixing:
  rms(total) = 0.24926E-03    rms(broyden)= 0.24918E-03
  rms(prec ) = 0.32229E-03
  weight for this iteration     100.00

 eigenvalues of (default mixing * dielectric matrix)
  average eigenvalue GAMMA=   2.0293
  8.5525  5.2420  3.3079  2.6046  2.3646  1.4250  1.0163  1.0163  0.9770  0.9770
  1.2605  1.0453  1.0453  0.9581  0.9581  0.8739  0.8739

 Free energy of the ion-electron system (eV)
  ---------------------------------------------------
  alpha Z        PSCENC =        14.13034224
  Ewald energy   TEWEN  =      1491.12092832
  -Hartree energ DENC   =     -2677.29358224
  -exchange      EXHF   =         0.00000000
  -V(xc)+E(xc)   XCENC  =      -140.53363884
  PAW double counting   =      1740.66844713    -1483.12866891
  entropy T*S    EENTRO =        -0.00000000
  eigenvalues    EBANDS =      -335.17790107
  atomic energy  EATOM  =      1318.64189276
  Solvation  Ediel_sol  =         0.00000000
  ---------------------------------------------------
  free energy    TOTEN  =       -71.57218062 eV

  energy without entropy =      -71.57218062  energy(sigma->0) =      -71.57218062


--------------------------------------------------------------------------------------------------------




--------------------------------------- Iteration      1(  25)  ---------------------------------------


    POTLOK:  cpu time    2.1758: real time    2.1803
    SETDIJ:  cpu time    0.0578: real time    0.0578
     EDDAV:  cpu time   30.2320: real time   30.2844
       DOS:  cpu time    0.0005: real time    0.0006
    CHARGE:  cpu time    2.1028: real time    2.1062
    MIXING:  cpu time    0.0869: real time    0.0872
    --------------------------------------------
      LOOP:  cpu time   34.6558: real time   34.7164

 eigenvalue-minimisations  :   528
 total energy-change (2. order) :-0.2719845E-04  (-0.4068250E-06)
 number of electron      47.9999998 magnetization 
 augmentation part       -0.7500713 magnetization 

 Broyden mixing:
  rms(total) = 0.11610E-03    rms(broyden)= 0.11606E-03
  rms(prec ) = 0.15615E-03
  weight for this iteration     100.00

 eigenvalues of (default mixing * dielectric matrix)
  average eigenvalue GAMMA=   2.0347
  8.5988  5.4853  3.3214  2.7276  2.3629  1.5809  1.5809  1.0180  1.0180  1.0026
  1.0026  1.0192  1.0192  1.1107  0.9824  0.9824  0.9601  0.8519

 Free energy of the ion-electron system (eV)
  ---------------------------------------------------
  alpha Z        PSCENC =        14.13034224
  Ewald energy   TEWEN  =      1491.12092832
  -Hartree energ DENC   =     -2677.29407472
  -exchange      EXHF   =         0.00000000
  -V(xc)+E(xc)   XCENC  =      -140.53361467
  PAW double counting   =      1740.68273711    -1483.14293632
  entropy T*S    EENTRO =        -0.00000000
  eigenvalues    EBANDS =      -335.17748253
  atomic energy  EATOM  =      1318.64189276
  Solvation  Ediel_sol  =         0.00000000
  ---------------------------------------------------
  free energy    TOTEN  =       -71.57220782 eV

  energy without entropy =      -71.57220782  energy(sigma->0) =      -71.57220782


--------------------------------------------------------------------------------------------------------




--------------------------------------- Iteration      1(  26)  ---------------------------------------


    POTLOK:  cpu time    2.2228: real time    2.2277
    SETDIJ:  cpu time    0.0598: real time    0.0601
     EDDAV:  cpu time   25.6126: real time   25.6557
       DOS:  cpu time    0.0005: real time    0.0005
    CHARGE:  cpu time    2.0413: real time    2.0452
    MIXING:  cpu time    0.0857: real time    0.0860
    --------------------------------------------
      LOOP:  cpu time   30.0228: real time   30.0751

 eigenvalue-minimisations  :   432
 total energy-change (2. order) :-0.8148724E-05  (-0.1247827E-06)
 number of electron      47.9999998 magnetization 
 augmentation part       -0.7500656 magnetization 

 Broyden mixing:
  rms(total) = 0.56428E-04    rms(broyden)= 0.56374E-04
  rms(prec ) = 0.80734E-04
  weight for this iteration     100.00

 eigenvalues of (default mixing * dielectric matrix)
  average eigenvalue GAMMA=   2.0298
  8.7029  5.5651  3.4503  2.8876  2.3891  1.9887  1.0173  1.0173  1.3901  1.3901
  1.0081  1.0081  1.0194  1.0194  0.9993  0.9993  0.8491  0.9319  0.9319

 Free energy of the ion-electron system (eV)
  ---------------------------------------------------
  alpha Z        PSCENC =        14.13034224
  Ewald energy   TEWEN  =      1491.12092832
  -Hartree energ DENC   =     -2677.29278495
  -exchange      EXHF   =         0.00000000
  -V(xc)+E(xc)   XCENC  =      -140.53371407
  PAW double counting   =      1740.68237403    -1483.14254335
  entropy T*S    EENTRO =        -0.00000000
  eigenvalues    EBANDS =      -335.17871094
  atomic energy  EATOM  =      1318.64189276
  Solvation  Ediel_sol  =         0.00000000
  ---------------------------------------------------
  free energy    TOTEN  =       -71.57221597 eV

  energy without entropy =      -71.57221597  energy(sigma->0) =      -71.57221597


--------------------------------------------------------------------------------------------------------




--------------------------------------- Iteration      1(  27)  ---------------------------------------


    POTLOK:  cpu time    2.1525: real time    2.1571
    SETDIJ:  cpu time    0.0596: real time    0.0597
     EDDAV:  cpu time   22.4942: real time   22.5324
       DOS:  cpu time    0.0005: real time    0.0006
    CHARGE:  cpu time    1.8192: real time    1.8220
    MIXING:  cpu time    0.0804: real time    0.0805
    --------------------------------------------
      LOOP:  cpu time   26.6064: real time   26.6524

 eigenvalue-minimisations  :   384
 total energy-change (2. order) :-0.3760866E-05  (-0.6899763E-07)
 number of electron      47.9999998 magnetization 
 augmentation part       -0.7500674 magnetization 

 Broyden mixing:
  rms(total) = 0.49291E-04    rms(broyden)= 0.49287E-04
  rms(prec ) = 0.65269E-04
  weight for this iteration     100.00

 eigenvalues of (default mixing * dielectric matrix)
  average eigenvalue GAMMA=   2.0164
  8.6825  5.7124  3.5817  3.0809  2.4939  2.0669  1.4323  1.4323  1.0184  1.0184
  1.0136  1.0136  1.0334  1.0334  1.1129  1.0489  0.9189  0.9189  0.8576  0.8576

 Free energy of the ion-electron system (eV)
  ---------------------------------------------------
  alpha Z        PSCENC =        14.13034224
  Ewald energy   TEWEN  =      1491.12092832
  -Hartree energ DENC   =     -2677.29126556
  -exchange      EXHF   =         0.00000000
  -V(xc)+E(xc)   XCENC  =      -140.53376280
  PAW double counting   =      1740.68428520    -1483.14445475
  entropy T*S    EENTRO =        -0.00000000
  eigenvalues    EBANDS =      -335.18018514
  atomic energy  EATOM  =      1318.64189276
  Solvation  Ediel_sol  =         0.00000000
  ---------------------------------------------------
  free energy    TOTEN  =       -71.57221973 eV

  energy without entropy =      -71.57221973  energy(sigma->0) =      -71.57221973


--------------------------------------------------------------------------------------------------------




--------------------------------------- Iteration      1(  28)  ---------------------------------------


    POTLOK:  cpu time    1.9067: real time    1.9088
    SETDIJ:  cpu time    0.0553: real time    0.0554
     EDDAV:  cpu time   20.2960: real time   20.3188
       DOS:  cpu time    0.0005: real time    0.0005
    --------------------------------------------
      LOOP:  cpu time   22.2584: real time   22.2834

 eigenvalue-minimisations  :   432
 total energy-change (2. order) :-0.9036187E-06  (-0.2132001E-07)
 number of electron      47.9999998 magnetization 
 augmentation part       -0.7500674 magnetization 

 Free energy of the ion-electron system (eV)
  ---------------------------------------------------
  alpha Z        PSCENC =        14.13034224
  Ewald energy   TEWEN  =      1491.12092832
  -Hartree energ DENC   =     -2677.29182588
  -exchange      EXHF   =         0.00000000
  -V(xc)+E(xc)   XCENC  =      -140.53373061
  PAW double counting   =      1740.68567431    -1483.14584873
  entropy T*S    EENTRO =        -0.00000000
  eigenvalues    EBANDS =      -335.17965304
  atomic energy  EATOM  =      1318.64189276
  Solvation  Ediel_sol  =         0.00000000
  ---------------------------------------------------
  free energy    TOTEN  =       -71.57222063 eV

  energy without entropy =      -71.57222063  energy(sigma->0) =      -71.57222063


--------------------------------------------------------------------------------------------------------




 average (electrostatic) potential at core
  the test charge radii are     1.0406  0.6991  1.0339  0.5883
  (the norm of the test charge is              1.0000)
       1 -59.0521       2 -59.1687       3 -59.2930       4 -59.3292       5 -59.2100
       6 -59.2348       7 -59.1539       8 -59.1313       9 -55.0315      10 -55.0297
      11 -55.2827      12 -55.1400      13 -97.6261      14 -38.9065      15 -37.7856



 E-fermi :  -1.9364     XC(G=0):  -3.2297     alpha+bet : -2.6874


 k-point     1 :       0.0000    0.0000    0.0000
  band No.  band energies     occupation 
      1     -16.4683      2.00000
      2     -13.7697      2.00000
      3     -13.5558      2.00000
      4     -11.7358      2.00000
      5     -11.4549      2.00000
      6      -9.1953      2.00000
      7      -8.5514      2.00000
      8      -8.4721      2.00000
      9      -8.1501      2.00000
     10      -7.2538      2.00000
     11      -6.4345      2.00000
     12      -6.0359      2.00000
     13      -5.4621      2.00000
     14      -5.3858      2.00000
     15      -4.7308      2.00000
     16      -4.6685      2.00000
     17      -4.2321      2.00000
     18      -4.1466      2.00000
     19      -3.2415      2.00000
     20      -2.8851      2.00000
     21      -2.7091      2.00000
     22      -2.6526      2.00000
     23      -2.2381      2.00000
     24      -2.1779      2.00000
     25      -1.3215      0.00000
     26      -0.8138      0.00000
     27      -0.1773      0.00000
     28       0.1385      0.00000
     29       0.3351      0.00000
     30       0.4405      0.00000
     31       0.6518      0.00000
     32       0.9363      0.00000

 k-point     2 :       0.2000    0.0000    0.0000
  band No.  band energies     occupation 
      1     -16.4661      2.00000
      2     -13.6509      2.00000
      3     -13.4329      2.00000
      4     -12.0884      2.00000
      5     -11.8322      2.00000
      6      -9.0328      2.00000
      7      -8.3518      2.00000
      8      -7.9674      2.00000
      9      -7.7507      2.00000
     10      -7.2374      2.00000
     11      -6.3591      2.00000
     12      -6.2516      2.00000
     13      -5.9157      2.00000
     14      -5.1719      2.00000
     15      -4.9038      2.00000
     16      -4.5656      2.00000
     17      -4.1659      2.00000
     18      -3.7802      2.00000
     19      -3.5509      2.00000
     20      -3.4773      2.00000
     21      -3.4090      2.00000
     22      -2.8402      2.00000
     23      -2.6212      2.00000
     24      -2.1996      2.00000
     25      -1.3325      0.00000
     26       0.0047      0.00000
     27       0.0803      0.00000
     28       0.2450      0.00000
     29       0.5033      0.00000
     30       0.6226      0.00000
     31       0.8353      0.00000
     32       1.1521      0.00000

 k-point     3 :       0.4000    0.0000    0.0000
  band No.  band energies     occupation 
      1     -16.4624      2.00000
      2     -13.3080      2.00000
      3     -13.0734      2.00000
      4     -12.7187      2.00000
      5     -12.4985      2.00000
      6      -8.9126      2.00000
      7      -7.9353      2.00000
      8      -7.4606      2.00000
      9      -7.1566      2.00000
     10      -6.7007      2.00000
     11      -6.4587      2.00000
     12      -6.0137      2.00000
     13      -5.7628      2.00000
     14      -5.4699      2.00000
     15      -5.0603      2.00000
     16      -4.9130      2.00000
     17      -4.7133      2.00000
     18      -4.4760      2.00000
     19      -4.1716      2.00000
     20      -3.8470      2.00000
     21      -3.5043      2.00000
     22      -3.1935      2.00000
     23      -2.6678      2.00000
     24      -2.2722      2.00000
     25      -0.9946      0.00000
     26      -0.2778      0.00000
     27       0.2006      0.00000
     28       0.7700      0.00000
     29       0.9228      0.00000
     30       1.2145      0.00000
     31       1.3979      0.00000
     32       1.6763      0.00000

 k-point     4 :       0.0000    0.3333    0.0000
  band No.  band energies     occupation 
      1     -16.4683      2.00000
      2     -13.7483      2.00000
      3     -13.5817      2.00000
      4     -11.7335      2.00000
      5     -11.4581      2.00000
      6      -9.1897      2.00000
      7      -8.5002      2.00000
      8      -8.2739      2.00000
      9      -8.1409      2.00000
     10      -7.4649      2.00000
     11      -7.1850      2.00000
     12      -5.4529      2.00000
     13      -5.3011      2.00000
     14      -4.9334      2.00000
     15      -4.7842      2.00000
     16      -4.6965      2.00000
     17      -4.2271      2.00000
     18      -3.9528      2.00000
     19      -3.4949      2.00000
     20      -3.1164      2.00000
     21      -2.8751      2.00000
     22      -2.7094      2.00000
     23      -2.6423      2.00000
     24      -2.1794      2.00000
     25      -1.1271      0.00000
     26      -0.4560      0.00000
     27      -0.2669      0.00000
     28      -0.0576      0.00000
     29       0.3676      0.00000
     30       0.6399      0.00000
     31       0.8489      0.00000
     32       0.9324      0.00000

 k-point     5 :       0.2000    0.3333    0.0000
  band No.  band energies     occupation 
      1     -16.4660      2.00000
      2     -13.6311      2.00000
      3     -13.4570      2.00000
      4     -12.0829      2.00000
      5     -11.8393      2.00000
      6      -9.0290      2.00000
      7      -8.0808      2.00000
      8      -7.9253      2.00000
      9      -7.8132      2.00000
     10      -7.3651      2.00000
     11      -7.1347      2.00000
     12      -6.0645      2.00000
     13      -5.4951      2.00000
     14      -5.1481      2.00000
     15      -4.6319      2.00000
     16      -4.5490      2.00000
     17      -4.1804      2.00000
     18      -3.6365      2.00000
     19      -3.4910      2.00000
     20      -3.4381      2.00000
     21      -3.3880      2.00000
     22      -3.0278      2.00000
     23      -2.7752      2.00000
     24      -2.6269      2.00000
     25      -0.9694      0.00000
     26      -0.3881      0.00000
     27      -0.0018      0.00000
     28       0.1590      0.00000
     29       0.5665      0.00000
     30       0.7606      0.00000
     31       0.8926      0.00000
     32       1.0526      0.00000

 k-point     6 :       0.4000    0.3333    0.0000
  band No.  band energies     occupation 
      1     -16.4624      2.00000
      2     -13.2932      2.00000
      3     -13.0912      2.00000
      4     -12.7071      2.00000
      5     -12.5136      2.00000
      6      -8.9118      2.00000
      7      -7.6992      2.00000
      8      -7.4168      2.00000
      9      -6.9777      2.00000
     10      -6.9112      2.00000
     11      -6.7079      2.00000
     12      -6.4407      2.00000
     13      -6.0771      2.00000
     14      -5.2908      2.00000
     15      -4.9783      2.00000
     16      -4.8935      2.00000
     17      -4.1821      2.00000
     18      -4.1485      2.00000
     19      -3.9517      2.00000
     20      -3.7295      2.00000
     21      -3.5005      2.00000
     22      -3.2228      2.00000
     23      -2.9347      2.00000
     24      -2.8115      2.00000
     25      -0.6530      0.00000
     26      -0.3107      0.00000
     27       0.0669      0.00000
     28       0.5533      0.00000
     29       0.9581      0.00000
     30       0.9730      0.00000
     31       1.2331      0.00000
     32       1.3330      0.00000

 k-point     7 :      -0.4000    0.3333    0.0000
  band No.  band energies     occupation 
      1     -16.4624      2.00000
      2     -13.2931      2.00000
      3     -13.0914      2.00000
      4     -12.7069      2.00000
      5     -12.5138      2.00000
      6      -8.9127      2.00000
      7      -7.6852      2.00000
      8      -7.4279      2.00000
      9      -7.0253      2.00000
     10      -6.8694      2.00000
     11      -6.7008      2.00000
     12      -6.4268      2.00000
     13      -6.0956      2.00000
     14      -5.3043      2.00000
     15      -4.9693      2.00000
     16      -4.8929      2.00000
     17      -4.2218      2.00000
     18      -4.1433      2.00000
     19      -3.8815      2.00000
     20      -3.7348      2.00000
     21      -3.4869      2.00000
     22      -3.2703      2.00000
     23      -2.9224      2.00000
     24      -2.8077      2.00000
     25      -0.7752      0.00000
     26      -0.0964      0.00000
     27       0.0438      0.00000
     28       0.4923      0.00000
     29       0.9042      0.00000
     30       0.9986      0.00000
     31       1.1917      0.00000
     32       1.3942      0.00000

 k-point     8 :      -0.2000    0.3333    0.0000
  band No.  band energies     occupation 
      1     -16.4660      2.00000
      2     -13.6310      2.00000
      3     -13.4570      2.00000
      4     -12.0828      2.00000
      5     -11.8394      2.00000
      6      -9.0301      2.00000
      7      -8.0816      2.00000
      8      -7.9227      2.00000
      9      -7.8077      2.00000
     10      -7.3631      2.00000
     11      -7.1466      2.00000
     12      -6.0463      2.00000
     13      -5.5125      2.00000
     14      -5.1602      2.00000
     15      -4.6527      2.00000
     16      -4.5455      2.00000
     17      -4.1445      2.00000
     18      -3.6387      2.00000
     19      -3.4878      2.00000
     20      -3.4362      2.00000
     21      -3.3672      2.00000
     22      -3.0304      2.00000
     23      -2.7593      2.00000
     24      -2.6494      2.00000
     25      -1.0807      0.00000
     26      -0.2615      0.00000
     27       0.0096      0.00000
     28       0.1688      0.00000
     29       0.5413      0.00000
     30       0.7073      0.00000
     31       0.8799      0.00000
     32       1.0833      0.00000


--------------------------------------------------------------------------------------------------------


 soft charge-density along one line, spin component           1
         0         1         2         3         4         5         6         7         8         9
 total charge-density along one line

 pseudopotential strength for first ion, spin component:           1
  7.445 -17.441  -0.004   0.001  -0.000   0.023  -0.003   0.000
-17.441  50.460   0.011  -0.002   0.000  -0.050   0.008  -0.000
 -0.004   0.011   1.743   0.000   0.000  -6.878  -0.002  -0.000
  0.001  -0.002   0.000   1.747   0.000  -0.002  -6.895  -0.000
 -0.000   0.000   0.000   0.000   1.743  -0.000  -0.000  -6.880
  0.023  -0.050  -6.878  -0.002  -0.000  29.267   0.010   0.001
 -0.003   0.008  -0.002  -6.895  -0.000   0.010  29.337   0.001
  0.000  -0.000  -0.000  -0.000  -6.880   0.001   0.001  29.273
  0.000  -0.000  -0.000   0.000  -0.003   0.000  -0.000   0.009
  0.002  -0.003   0.000  -0.003   0.000  -0.001   0.009  -0.000
  0.009  -0.011   0.001   0.001   0.000  -0.004  -0.002  -0.000
  0.000  -0.000   0.000  -0.000   0.000  -0.000   0.000  -0.001
  0.001  -0.001   0.002   0.000  -0.000  -0.006  -0.000   0.000
 -0.001   0.001   0.000  -0.000   0.012  -0.001   0.000  -0.043
 -0.010   0.017  -0.000   0.012  -0.000   0.002  -0.044   0.000
 -0.037   0.065  -0.005  -0.002  -0.000   0.019   0.008   0.000
 -0.001   0.002  -0.000   0.000  -0.001   0.000  -0.000   0.005
 -0.003   0.006  -0.009  -0.000   0.000   0.033   0.001  -0.000
 total augmentation occupancy for first ion, spin component:           1
  1.391   0.018  -0.030   0.012   0.001   0.005  -0.001  -0.000  -0.003  -0.028  -0.091  -0.003  -0.025  -0.000  -0.001  -0.005
  0.018   0.000   0.008  -0.002  -0.000   0.000  -0.000  -0.000  -0.000  -0.001  -0.002  -0.000   0.000  -0.000  -0.000  -0.000
 -0.030   0.008   1.298  -0.130  -0.007   0.019  -0.002  -0.000   0.002  -0.006  -0.072  -0.005   0.058   0.000  -0.001  -0.002
  0.012  -0.002  -0.130   0.419  -0.017  -0.002   0.005  -0.000  -0.005   0.057  -0.006   0.001  -0.017  -0.000   0.001   0.000
  0.001  -0.000  -0.007  -0.017   1.135  -0.000  -0.000   0.018   0.228  -0.005   0.002  -0.039  -0.003   0.007  -0.000   0.000
  0.005   0.000   0.019  -0.002  -0.000   0.000  -0.000  -0.000   0.000  -0.000  -0.001  -0.000   0.000   0.000  -0.000  -0.000
 -0.001  -0.000  -0.002   0.005  -0.000  -0.000   0.000  -0.000  -0.000   0.001   0.000   0.000  -0.000  -0.000   0.000   0.000
 -0.000  -0.000  -0.000  -0.000   0.018  -0.000  -0.000   0.000   0.004  -0.000   0.000  -0.001  -0.000   0.000  -0.000   0.000
 -0.003  -0.000   0.002  -0.005   0.228   0.000  -0.000   0.004   0.065  -0.001   0.000  -0.009  -0.000   0.002  -0.000   0.000
 -0.028  -0.001  -0.006   0.057  -0.005  -0.000   0.001  -0.000  -0.001   0.011  -0.000   0.000   0.004  -0.000   0.000   0.000
 -0.091  -0.002  -0.072  -0.006   0.002  -0.001   0.000   0.000   0.000  -0.000   0.012  -0.000  -0.004   0.000   0.000   0.001
 -0.003  -0.000  -0.005   0.001  -0.039  -0.000   0.000  -0.001  -0.009   0.000  -0.000   0.021  -0.001  -0.000   0.000   0.000
 -0.025   0.000   0.058  -0.017  -0.003   0.000  -0.000  -0.000  -0.000   0.004  -0.004  -0.001   0.042  -0.000   0.000  -0.000
 -0.000  -0.000   0.000  -0.000   0.007   0.000  -0.000   0.000   0.002  -0.000   0.000  -0.000  -0.000   0.000  -0.000   0.000
 -0.001  -0.000  -0.001   0.001  -0.000  -0.000   0.000  -0.000  -0.000   0.000   0.000   0.000   0.000  -0.000   0.000   0.000
 -0.005  -0.000  -0.002   0.000   0.000  -0.000   0.000   0.000   0.000   0.000   0.001   0.000  -0.000   0.000   0.000   0.000
 -0.000  -0.000  -0.000   0.000  -0.001  -0.000   0.000  -0.000  -0.000   0.000   0.000   0.000  -0.000  -0.000   0.000   0.000
 -0.001   0.000   0.001  -0.000  -0.000  -0.000  -0.000  -0.000  -0.000   0.000  -0.000  -0.000   0.001  -0.000   0.000  -0.000


------------------------ aborting loop because EDIFF is reached ----------------------------------------


    CHARGE:  cpu time    1.5660: real time    1.5675
    FORLOC:  cpu time    0.3089: real time    0.3091
    FORNL :  cpu time    7.0887: real time    7.0964
    STRESS:  cpu time   21.2858: real time   21.3052
    FORCOR:  cpu time    1.8360: real time    1.8374
    FORHAR:  cpu time    0.7178: real time    0.7185
    MIXING:  cpu time    0.0659: real time    0.0661
    OFIELD:  cpu time    0.0000: real time    0.0000

  FORCE on cell =-STRESS in cart. coord.  units (eV):
  Direction    XX          YY          ZZ          XY          YZ          ZX
  --------------------------------------------------------------------------------------
  Alpha Z    14.13034    14.13034    14.13034
  Ewald    2450.02395  2038.12684 -2997.03132    -2.22297    66.44153    15.87860
  Hartree  2493.61189  2191.25879 -2007.57831     3.28958    36.15813     8.63944
  E(xc)    -153.67692  -154.58755  -153.92809    -0.03199     0.17036     0.08940
  Local   -5440.56629 -4727.93350  4516.05617    -6.09082   -96.33176   -24.58887
  n-local   198.95700   209.82782   168.98171     0.13323    -0.30374     0.10721
  augment   -24.37396   -24.88077   -22.79723    -0.34776     0.40489    -0.01994
  Kinetic   463.44502   450.78062   481.11086     5.58967    -6.64995    -0.22816
  Fock        0.00000     0.00000     0.00000     0.00000     0.00000     0.00000
  -------------------------------------------------------------------------------------
  Total       1.55103    -3.27741    -1.05585     0.31893    -0.11054    -0.12231
  in kB       2.71432    -5.73553    -1.84776     0.55814    -0.19344    -0.21405
  external pressure =       -1.62 kB  Pullay stress =        0.00 kB


 VOLUME and BASIS-vectors are now :
 -----------------------------------------------------------------------------
  energy-cutoff  :      450.00
  volume of cell :      915.52
      direct lattice vectors                 reciprocal lattice vectors
     6.019200000  0.000000000  0.000000000     0.166135035  0.000000000  0.000000000
     0.000000000 10.140000000  0.000000000     0.000000000  0.098619329  0.000000000
     0.000000000  0.000000000 15.000000000     0.000000000  0.000000000  0.066666667

  length of vectors
     6.019200000 10.140000000 15.000000000     0.166135035  0.098619329  0.066666667


 FORCES acting on ions
    electron-ion (+dipol)            ewald-force                    non-local-force                 convergence-correction
 -----------------------------------------------------------------------------------------------
   -.805E+00 0.373E+02 0.372E+01   0.826E+00 -.349E+02 -.403E+01   -.182E-01 -.239E+01 0.323E+00   -.269E-04 -.220E-04 -.174E-04
   0.377E+00 0.438E+02 0.413E+02   -.307E+00 -.406E+02 -.404E+02   -.669E-01 -.322E+01 -.950E+00   0.251E-04 -.133E-04 -.265E-04
   -.654E+01 -.530E+02 0.105E+02   0.702E+01 0.514E+02 -.128E+02   -.461E+00 0.159E+01 0.238E+01   -.164E-03 -.450E-04 0.441E-04
   -.716E+00 -.497E+02 0.492E+02   0.148E+00 0.472E+02 -.481E+02   0.575E+00 0.248E+01 -.101E+01   0.165E-03 -.287E-04 0.552E-04
   0.189E+01 0.579E+02 0.551E+02   -.118E+01 -.555E+02 -.536E+02   -.702E+00 -.249E+01 -.148E+01   -.159E-03 0.149E-04 0.300E-04
   0.187E+01 0.608E+02 -.384E+01   -.211E+01 -.582E+02 0.299E+01   0.248E+00 -.261E+01 0.866E+00   0.162E-03 0.234E-04 0.419E-04
   0.110E+00 -.494E+02 0.398E+02   -.104E+00 0.463E+02 -.387E+02   -.394E-02 0.312E+01 -.102E+01   -.181E-04 0.337E-04 -.536E-04
   0.265E+00 -.484E+02 -.451E+01   -.303E+00 0.454E+02 0.391E+01   0.415E-01 0.304E+01 0.608E+00   0.196E-04 0.360E-04 -.336E-04
   0.498E+00 -.597E+01 0.222E+02   -.396E+00 0.588E+01 -.223E+02   -.100E+00 0.882E-01 0.563E-01   -.659E-06 -.357E-05 -.618E-04
   -.465E+00 -.587E+01 0.328E+02   0.357E+00 0.584E+01 -.333E+02   0.112E+00 0.318E-01 0.494E+00   0.257E-05 0.248E-04 -.119E-03
   0.115E+02 0.153E+02 0.185E+02   -.114E+02 -.153E+02 -.178E+02   -.901E-01 -.136E-01 -.642E+00   0.434E-04 0.450E-04 0.166E-03
   -.601E+01 0.904E+01 0.498E+02   0.583E+01 -.918E+01 -.505E+02   0.191E+00 0.142E+00 0.670E+00   -.188E-04 -.920E-05 0.217E-04
   -.461E+02 0.202E+01 -.243E+03   0.531E+02 -.575E+01 0.245E+03   -.703E+01 0.372E+01 -.218E+01   0.687E-05 -.128E-03 0.156E-03
   0.295E+02 -.335E+02 -.433E+02   -.326E+02 0.363E+02 0.440E+02   0.306E+01 -.288E+01 -.756E+00   -.953E-05 -.229E-04 0.283E-04
   0.174E+02 0.177E+02 -.265E+02   -.189E+02 -.189E+02 0.253E+02   0.144E+01 0.121E+01 0.113E+01   -.244E-04 -.155E-04 -.447E-04
 -----------------------------------------------------------------------------------------------
   0.280E+01 -.182E+01 0.152E+01   -.355E-14 -.178E-13 0.142E-13   -.280E+01 0.182E+01 -.152E+01   0.300E-05 -.110E-03 0.186E-03


 POSITION                                       TOTAL-FORCE (eV/Angst)
 -----------------------------------------------------------------------------------
      2.64664      8.91046      3.84863         0.003519      0.002354      0.006653
      5.64888      8.90753      3.47861         0.003004      0.003540      0.002173
      2.70254      6.32760      4.26649         0.015758      0.009105      0.049511
      5.66412      6.28394      3.67630         0.007406      0.003207      0.019999
      2.62173      3.86833      3.59389         0.002064      0.006526      0.012029
      5.62877      3.82174      4.07515        -0.000072     -0.001238      0.020218
      2.63067      1.23180      3.44812         0.001700      0.002899      0.000287
      5.64572      1.22000      3.83835         0.002987      0.001803      0.004917
      1.13446     10.13603      3.65804         0.002187      0.002305      0.004722
      4.14234      0.00468      3.58472         0.003516      0.004110     -0.001086
      1.13701      5.05963      4.13867         0.004340      0.001477      0.067525
      4.14413      5.06052      3.79137         0.004399      0.003205      0.002333
      2.47641      6.05525      6.83148        -0.010888     -0.015308     -0.033986
      1.50072      6.96914      7.06092        -0.012266     -0.013050     -0.029645
      1.60183      5.34580      5.80927        -0.027652     -0.010935     -0.125649
 -----------------------------------------------------------------------------------
    total drift:                                0.001024     -0.001596      0.002665


--------------------------------------------------------------------------------------------------------



  FREE ENERGIE OF THE ION-ELECTRON SYSTEM (eV)
  ---------------------------------------------------
  free  energy   TOTEN  =       -71.57222063 eV

  energy  without entropy=      -71.57222063  energy(sigma->0) =      -71.57222063



--------------------------------------------------------------------------------------------------------


    POTLOK:  cpu time    1.7978: real time    1.7996


--------------------------------------------------------------------------------------------------------


 NEB: the previous image is higher in energy: F
 NEB: the next image is higher in energy    : F
 NEB: image is at an extrema
 NEB: diff energy (min, max):     0.686796   71.572221

 NEB: Tangent
 ----------------------------------------------
      0.02228      0.02310      0.04546
      0.01588      0.01842      0.01981
      0.09127      0.05202      0.25845
      0.03828      0.01825      0.14574
      0.00653      0.03385      0.09830
     -0.00131      0.00100      0.15143
      0.00972      0.02099     -0.00088
      0.01568      0.01346      0.02866
      0.01691      0.01720      0.01913
      0.01576      0.02448     -0.02202
      0.02390      0.01095      0.38494
      0.02534      0.01622      0.02776
     -0.09434     -0.15817     -0.18423
     -0.05480     -0.10400     -0.22673
     -0.13109      0.01223     -0.74581

 NEB: forces: par spring, perp REAL, dneb     0.012133    0.024419    0.000000
 NEB: distance to prev, next image, angle between     0.514047    0.516474  135.882902
 NEB: projections on to tangent (spring, REAL)     0.012133    0.165672

 stress matrix after NEB project (eV)
      1.55103      0.31893     -0.12231
      0.31893     -3.27741     -0.11054
     -0.12231     -0.11054     -1.05585
  FORCES: max atom, RMS     0.018569    0.007040
  FORCE total and by dimension    0.027267    0.012813
  Stress total and by dimension    3.810476    3.277411
 Quasi-Newton relaxation of ions (Broydens 2nd method)
  g(Force)  = 0.105E-03   g(Stress)= 0.000E+00

 Reset! Starting new Quasi-Newton update for ions 


--------------------------------------------------------------------------------------------------------


    WAVPRE:  cpu time   12.8694: real time   13.7328
    FEWALD:  cpu time    0.0029: real time    0.0029
    ORTHCH:  cpu time    3.4426: real time    3.4495
     LOOP+:  cpu time 1155.7622: real time 1158.5508


--------------------------------------- Iteration      2(   1)  ---------------------------------------


    POTLOK:  cpu time    2.6679: real time    2.6702
    SETDIJ:  cpu time    0.0512: real time    0.0514
     EDDAV:  cpu time   33.7586: real time   33.7769
       DOS:  cpu time    0.0005: real time    0.0005
    CHARGE:  cpu time    2.0758: real time    2.0781
    MIXING:  cpu time    0.0454: real time    0.0454
    --------------------------------------------
      LOOP:  cpu time   38.5994: real time   38.6225

 eigenvalue-minimisations  :   600
 total energy-change (2. order) :-0.8668587E-04  (-0.5895175E-04)
 number of electron      47.9999998 magnetization 
 augmentation part       -0.7500790 magnetization 

 Broyden mixing:
  rms(total) = 0.50994E-03    rms(broyden)= 0.50912E-03
  rms(prec ) = 0.59676E-03
  weight for this iteration     100.00

 Free energy of the ion-electron system (eV)
  ---------------------------------------------------
  alpha Z        PSCENC =        14.13034224
  Ewald energy   TEWEN  =      1491.14211506
  -Hartree energ DENC   =     -2677.32343359
  -exchange      EXHF   =         0.00000000
  -V(xc)+E(xc)   XCENC  =      -140.53419260
  PAW double counting   =      1740.68422569    -1483.14440262
  entropy T*S    EENTRO =        -0.00000000
  eigenvalues    EBANDS =      -335.16885335
  atomic energy  EATOM  =      1318.64189276
  Solvation  Ediel_sol  =         0.00000000
  ---------------------------------------------------
  free energy    TOTEN  =       -71.57230641 eV

  energy without entropy =      -71.57230641  energy(sigma->0) =      -71.57230641


--------------------------------------------------------------------------------------------------------




--------------------------------------- Iteration      2(   2)  ---------------------------------------


    POTLOK:  cpu time    2.3620: real time    2.3631
    SETDIJ:  cpu time    0.0641: real time    0.0641
     EDDAV:  cpu time   41.0068: real time   41.0952
       DOS:  cpu time    0.0005: real time    0.0006
    CHARGE:  cpu time    2.0312: real time    2.0384
    MIXING:  cpu time    0.0488: real time    0.0491
    --------------------------------------------
      LOOP:  cpu time   45.5133: real time   45.6104

 eigenvalue-minimisations  :   768
 total energy-change (2. order) :-0.2751809E-05  (-0.3443179E-05)
 number of electron      47.9999998 magnetization 
 augmentation part       -0.7500859 magnetization 

 Broyden mixing:
  rms(total) = 0.31870E-03    rms(broyden)= 0.31850E-03
  rms(prec ) = 0.38494E-03
  weight for this iteration     100.00

 eigenvalues of (default mixing * dielectric matrix)
  average eigenvalue GAMMA=   0.8724
  0.8724

 Free energy of the ion-electron system (eV)
  ---------------------------------------------------
  alpha Z        PSCENC =        14.13034224
  Ewald energy   TEWEN  =      1491.14211506
  -Hartree energ DENC   =     -2677.32000309
  -exchange      EXHF   =         0.00000000
  -V(xc)+E(xc)   XCENC  =      -140.53435519
  PAW double counting   =      1740.65709014    -1483.11721781
  entropy T*S    EENTRO =        -0.00000000
  eigenvalues    EBANDS =      -335.17217327
  atomic energy  EATOM  =      1318.64189276
  Solvation  Ediel_sol  =         0.00000000
  ---------------------------------------------------
  free energy    TOTEN  =       -71.57230916 eV

  energy without entropy =      -71.57230916  energy(sigma->0) =      -71.57230916


--------------------------------------------------------------------------------------------------------




--------------------------------------- Iteration      2(   3)  ---------------------------------------


    POTLOK:  cpu time    2.4381: real time    2.4489
    SETDIJ:  cpu time    0.0610: real time    0.0614
     EDDAV:  cpu time   25.8861: real time   25.9146
       DOS:  cpu time    0.0005: real time    0.0005
    --------------------------------------------
      LOOP:  cpu time   28.3857: real time   28.4254

 eigenvalue-minimisations  :   440
 total energy-change (2. order) : 0.1888077E-06  (-0.7888520E-07)
 number of electron      47.9999998 magnetization 
 augmentation part       -0.7500859 magnetization 

 Free energy of the ion-electron system (eV)
  ---------------------------------------------------
  alpha Z        PSCENC =        14.13034224
  Ewald energy   TEWEN  =      1491.14211506
  -Hartree energ DENC   =     -2677.31810198
  -exchange      EXHF   =         0.00000000
  -V(xc)+E(xc)   XCENC  =      -140.53443759
  PAW double counting   =      1740.64124808    -1483.10132140
  entropy T*S    EENTRO =        -0.00000000
  eigenvalues    EBANDS =      -335.17404614
  atomic energy  EATOM  =      1318.64189276
  Solvation  Ediel_sol  =         0.00000000
  ---------------------------------------------------
  free energy    TOTEN  =       -71.57230898 eV

  energy without entropy =      -71.57230898  energy(sigma->0) =      -71.57230898


--------------------------------------------------------------------------------------------------------




 average (electrostatic) potential at core
  the test charge radii are     1.0406  0.6991  1.0339  0.5883
  (the norm of the test charge is              1.0000)
       1 -59.0521       2 -59.1686       3 -59.2931       4 -59.3296       5 -59.2103
       6 -59.2351       7 -59.1540       8 -59.1313       9 -55.0315      10 -55.0297
      11 -55.2835      12 -55.1404      13 -97.6248      14 -38.9054      15 -37.7823



 E-fermi :  -1.9362     XC(G=0):  -3.2359     alpha+bet : -2.6874


 k-point     1 :       0.0000    0.0000    0.0000
  band No.  band energies     occupation 
      1     -16.4662      2.00000
      2     -13.7699      2.00000
      3     -13.5559      2.00000
      4     -11.7364      2.00000
      5     -11.4549      2.00000
      6      -9.1947      2.00000
      7      -8.5514      2.00000
      8      -8.4720      2.00000
      9      -8.1493      2.00000
     10      -7.2528      2.00000
     11      -6.4345      2.00000
     12      -6.0360      2.00000
     13      -5.4622      2.00000
     14      -5.3856      2.00000
     15      -4.7309      2.00000
     16      -4.6685      2.00000
     17      -4.2320      2.00000
     18      -4.1465      2.00000
     19      -3.2415      2.00000
     20      -2.8856      2.00000
     21      -2.7091      2.00000
     22      -2.6534      2.00000
     23      -2.2382      2.00000
     24      -2.1780      2.00000
     25      -1.3214      0.00000
     26      -0.8139      0.00000
     27      -0.1772      0.00000
     28       0.1382      0.00000
     29       0.3347      0.00000
     30       0.4404      0.00000
     31       0.6519      0.00000
     32       0.9360      0.00000

 k-point     2 :       0.2000    0.0000    0.0000
  band No.  band energies     occupation 
      1     -16.4640      2.00000
      2     -13.6511      2.00000
      3     -13.4330      2.00000
      4     -12.0888      2.00000
      5     -11.8322      2.00000
      6      -9.0320      2.00000
      7      -8.3518      2.00000
      8      -7.9672      2.00000
      9      -7.7506      2.00000
     10      -7.2363      2.00000
     11      -6.3592      2.00000
     12      -6.2516      2.00000
     13      -5.9158      2.00000
     14      -5.1717      2.00000
     15      -4.9038      2.00000
     16      -4.5656      2.00000
     17      -4.1659      2.00000
     18      -3.7805      2.00000
     19      -3.5511      2.00000
     20      -3.4772      2.00000
     21      -3.4090      2.00000
     22      -2.8405      2.00000
     23      -2.6214      2.00000
     24      -2.1997      2.00000
     25      -1.3324      0.00000
     26       0.0041      0.00000
     27       0.0802      0.00000
     28       0.2448      0.00000
     29       0.5032      0.00000
     30       0.6225      0.00000
     31       0.8351      0.00000
     32       1.1513      0.00000

 k-point     3 :       0.4000    0.0000    0.0000
  band No.  band energies     occupation 
      1     -16.4603      2.00000
      2     -13.3084      2.00000
      3     -13.0735      2.00000
      4     -12.7189      2.00000
      5     -12.4985      2.00000
      6      -8.9114      2.00000
      7      -7.9353      2.00000
      8      -7.4601      2.00000
      9      -7.1565      2.00000
     10      -6.7005      2.00000
     11      -6.4586      2.00000
     12      -6.0138      2.00000
     13      -5.7628      2.00000
     14      -5.4700      2.00000
     15      -5.0602      2.00000
     16      -4.9131      2.00000
     17      -4.7134      2.00000
     18      -4.4759      2.00000
     19      -4.1716      2.00000
     20      -3.8470      2.00000
     21      -3.5043      2.00000
     22      -3.1937      2.00000
     23      -2.6679      2.00000
     24      -2.2723      2.00000
     25      -0.9947      0.00000
     26      -0.2779      0.00000
     27       0.1996      0.00000
     28       0.7699      0.00000
     29       0.9227      0.00000
     30       1.2142      0.00000
     31       1.3976      0.00000
     32       1.6760      0.00000

 k-point     4 :       0.0000    0.3333    0.0000
  band No.  band energies     occupation 
      1     -16.4663      2.00000
      2     -13.7486      2.00000
      3     -13.5817      2.00000
      4     -11.7340      2.00000
      5     -11.4581      2.00000
      6      -9.1891      2.00000
      7      -8.5002      2.00000
      8      -8.2738      2.00000
      9      -8.1402      2.00000
     10      -7.4648      2.00000
     11      -7.1841      2.00000
     12      -5.4529      2.00000
     13      -5.3011      2.00000
     14      -4.9335      2.00000
     15      -4.7843      2.00000
     16      -4.6964      2.00000
     17      -4.2270      2.00000
     18      -3.9527      2.00000
     19      -3.4949      2.00000
     20      -3.1165      2.00000
     21      -2.8754      2.00000
     22      -2.7094      2.00000
     23      -2.6431      2.00000
     24      -2.1794      2.00000
     25      -1.1271      0.00000
     26      -0.4562      0.00000
     27      -0.2669      0.00000
     28      -0.0575      0.00000
     29       0.3678      0.00000
     30       0.6393      0.00000
     31       0.8488      0.00000
     32       0.9321      0.00000

 k-point     5 :       0.2000    0.3333    0.0000
  band No.  band energies     occupation 
      1     -16.4640      2.00000
      2     -13.6314      2.00000
      3     -13.4570      2.00000
      4     -12.0833      2.00000
      5     -11.8393      2.00000
      6      -9.0281      2.00000
      7      -8.0808      2.00000
      8      -7.9252      2.00000
      9      -7.8130      2.00000
     10      -7.3648      2.00000
     11      -7.1340      2.00000
     12      -6.0646      2.00000
     13      -5.4951      2.00000
     14      -5.1480      2.00000
     15      -4.6320      2.00000
     16      -4.5490      2.00000
     17      -4.1805      2.00000
     18      -3.6368      2.00000
     19      -3.4910      2.00000
     20      -3.4382      2.00000
     21      -3.3879      2.00000
     22      -3.0279      2.00000
     23      -2.7755      2.00000
     24      -2.6270      2.00000
     25      -0.9694      0.00000
     26      -0.3885      0.00000
     27      -0.0019      0.00000
     28       0.1588      0.00000
     29       0.5667      0.00000
     30       0.7604      0.00000
     31       0.8922      0.00000
     32       1.0523      0.00000

 k-point     6 :       0.4000    0.3333    0.0000
  band No.  band energies     occupation 
      1     -16.4603      2.00000
      2     -13.2936      2.00000
      3     -13.0912      2.00000
      4     -12.7074      2.00000
      5     -12.5137      2.00000
      6      -8.9106      2.00000
      7      -7.6992      2.00000
      8      -7.4163      2.00000
      9      -6.9778      2.00000
     10      -6.9113      2.00000
     11      -6.7078      2.00000
     12      -6.4406      2.00000
     13      -6.0771      2.00000
     14      -5.2908      2.00000
     15      -4.9783      2.00000
     16      -4.8934      2.00000
     17      -4.1822      2.00000
     18      -4.1484      2.00000
     19      -3.9518      2.00000
     20      -3.7295      2.00000
     21      -3.5005      2.00000
     22      -3.2229      2.00000
     23      -2.9348      2.00000
     24      -2.8114      2.00000
     25      -0.6530      0.00000
     26      -0.3114      0.00000
     27       0.0668      0.00000
     28       0.5534      0.00000
     29       0.9578      0.00000
     30       0.9728      0.00000
     31       1.2331      0.00000
     32       1.3326      0.00000

 k-point     7 :      -0.4000    0.3333    0.0000
  band No.  band energies     occupation 
      1     -16.4603      2.00000
      2     -13.2935      2.00000
      3     -13.0914      2.00000
      4     -12.7072      2.00000
      5     -12.5138      2.00000
      6      -8.9116      2.00000
      7      -7.6850      2.00000
      8      -7.4276      2.00000
      9      -7.0254      2.00000
     10      -6.8695      2.00000
     11      -6.7006      2.00000
     12      -6.4267      2.00000
     13      -6.0956      2.00000
     14      -5.3042      2.00000
     15      -4.9693      2.00000
     16      -4.8928      2.00000
     17      -4.2220      2.00000
     18      -4.1433      2.00000
     19      -3.8814      2.00000
     20      -3.7349      2.00000
     21      -3.4869      2.00000
     22      -3.2705      2.00000
     23      -2.9224      2.00000
     24      -2.8077      2.00000
     25      -0.7755      0.00000
     26      -0.0966      0.00000
     27       0.0436      0.00000
     28       0.4923      0.00000
     29       0.9039      0.00000
     30       0.9984      0.00000
     31       1.1916      0.00000
     32       1.3938      0.00000

 k-point     8 :      -0.2000    0.3333    0.0000
  band No.  band energies     occupation 
      1     -16.4640      2.00000
      2     -13.6313      2.00000
      3     -13.4571      2.00000
      4     -12.0832      2.00000
      5     -11.8394      2.00000
      6      -9.0292      2.00000
      7      -8.0816      2.00000
      8      -7.9226      2.00000
      9      -7.8074      2.00000
     10      -7.3628      2.00000
     11      -7.1459      2.00000
     12      -6.0464      2.00000
     13      -5.5126      2.00000
     14      -5.1601      2.00000
     15      -4.6528      2.00000
     16      -4.5454      2.00000
     17      -4.1445      2.00000
     18      -3.6390      2.00000
     19      -3.4879      2.00000
     20      -3.4363      2.00000
     21      -3.3671      2.00000
     22      -3.0305      2.00000
     23      -2.7596      2.00000
     24      -2.6495      2.00000
     25      -1.0808      0.00000
     26      -0.2616      0.00000
     27       0.0096      0.00000
     28       0.1685      0.00000
     29       0.5414      0.00000
     30       0.7070      0.00000
     31       0.8796      0.00000
     32       1.0828      0.00000


--------------------------------------------------------------------------------------------------------


 soft charge-density along one line, spin component           1
         0         1         2         3         4         5         6         7         8         9
 total charge-density along one line

 pseudopotential strength for first ion, spin component:           1
  7.445 -17.441  -0.004   0.001  -0.000   0.023  -0.003   0.000
-17.441  50.460   0.011  -0.002   0.000  -0.050   0.008  -0.000
 -0.004   0.011   1.743   0.000   0.000  -6.878  -0.002  -0.000
  0.001  -0.002   0.000   1.747   0.000  -0.002  -6.895  -0.000
 -0.000   0.000   0.000   0.000   1.743  -0.000  -0.000  -6.880
  0.023  -0.050  -6.878  -0.002  -0.000  29.267   0.010   0.001
 -0.003   0.008  -0.002  -6.895  -0.000   0.010  29.337   0.001
  0.000  -0.000  -0.000  -0.000  -6.880   0.001   0.001  29.273
  0.000  -0.000  -0.000   0.000  -0.003   0.000  -0.000   0.009
  0.002  -0.003   0.000  -0.003   0.000  -0.001   0.009  -0.000
  0.009  -0.011   0.001   0.001   0.000  -0.004  -0.002  -0.000
  0.000  -0.000   0.000  -0.000   0.000  -0.000   0.000  -0.001
  0.001  -0.001   0.002   0.000  -0.000  -0.006  -0.000   0.000
 -0.001   0.001   0.000  -0.000   0.012  -0.001   0.000  -0.043
 -0.010   0.017  -0.000   0.012  -0.000   0.002  -0.044   0.000
 -0.037   0.065  -0.005  -0.002  -0.000   0.019   0.008   0.000
 -0.001   0.002  -0.000   0.000  -0.001   0.000  -0.000   0.005
 -0.003   0.006  -0.009  -0.000   0.000   0.033   0.001  -0.000
 total augmentation occupancy for first ion, spin component:           1
  1.391   0.018  -0.030   0.012   0.001   0.005  -0.001  -0.000  -0.003  -0.028  -0.091  -0.003  -0.025  -0.000  -0.001  -0.005
  0.018   0.000   0.008  -0.002  -0.000   0.000  -0.000  -0.000  -0.000  -0.001  -0.002  -0.000   0.000  -0.000  -0.000  -0.000
 -0.030   0.008   1.298  -0.130  -0.007   0.019  -0.002  -0.000   0.002  -0.006  -0.072  -0.005   0.058   0.000  -0.001  -0.002
  0.012  -0.002  -0.130   0.419  -0.017  -0.002   0.005  -0.000  -0.005   0.057  -0.006   0.001  -0.017  -0.000   0.001   0.000
  0.001  -0.000  -0.007  -0.017   1.135  -0.000  -0.000   0.018   0.228  -0.005   0.002  -0.039  -0.003   0.007  -0.000   0.000
  0.005   0.000   0.019  -0.002  -0.000   0.000  -0.000  -0.000   0.000  -0.000  -0.001  -0.000   0.000   0.000  -0.000  -0.000
 -0.001  -0.000  -0.002   0.005  -0.000  -0.000   0.000  -0.000  -0.000   0.001   0.000   0.000  -0.000  -0.000   0.000   0.000
 -0.000  -0.000  -0.000  -0.000   0.018  -0.000  -0.000   0.000   0.004  -0.000   0.000  -0.001  -0.000   0.000  -0.000   0.000
 -0.003  -0.000   0.002  -0.005   0.228   0.000  -0.000   0.004   0.065  -0.001   0.000  -0.009  -0.000   0.002  -0.000   0.000
 -0.028  -0.001  -0.006   0.057  -0.005  -0.000   0.001  -0.000  -0.001   0.011  -0.000   0.000   0.004  -0.000   0.000   0.000
 -0.091  -0.002  -0.072  -0.006   0.002  -0.001   0.000   0.000   0.000  -0.000   0.012  -0.000  -0.004   0.000   0.000   0.001
 -0.003  -0.000  -0.005   0.001  -0.039  -0.000   0.000  -0.001  -0.009   0.000  -0.000   0.021  -0.001  -0.000   0.000   0.000
 -0.025   0.000   0.058  -0.017  -0.003   0.000  -0.000  -0.000  -0.000   0.004  -0.004  -0.001   0.042  -0.000   0.000  -0.000
 -0.000  -0.000   0.000  -0.000   0.007   0.000  -0.000   0.000   0.002  -0.000   0.000  -0.000  -0.000   0.000  -0.000   0.000
 -0.001  -0.000  -0.001   0.001  -0.000  -0.000   0.000  -0.000  -0.000   0.000   0.000   0.000   0.000  -0.000   0.000   0.000
 -0.005  -0.000  -0.002   0.000   0.000  -0.000   0.000   0.000   0.000   0.000   0.001   0.000  -0.000   0.000   0.000   0.000
 -0.000  -0.000  -0.000   0.000  -0.001  -0.000   0.000  -0.000  -0.000   0.000   0.000   0.000  -0.000  -0.000   0.000   0.000
 -0.001   0.000   0.001  -0.000  -0.000  -0.000  -0.000  -0.000  -0.000   0.000  -0.000  -0.000   0.001  -0.000   0.000  -0.000


------------------------ aborting loop because EDIFF is reached ----------------------------------------


    CHARGE:  cpu time    1.8370: real time    1.8376
    FORLOC:  cpu time    0.3501: real time    0.3501
    FORNL :  cpu time    7.2251: real time    7.2280
    STRESS:  cpu time   22.1606: real time   22.1688
    FORCOR:  cpu time    1.9187: real time    1.9192
    FORHAR:  cpu time    0.7080: real time    0.7088
    MIXING:  cpu time    0.0392: real time    0.0392
    OFIELD:  cpu time    0.0000: real time    0.0000

  FORCE on cell =-STRESS in cart. coord.  units (eV):
  Direction    XX          YY          ZZ          XY          YZ          ZX
  --------------------------------------------------------------------------------------
  Alpha Z    14.13034    14.13034    14.13034
  Ewald    2450.03275  2038.14064 -2997.03274    -2.19767    66.47183    15.85916
  Hartree  2493.62606  2191.28415 -2007.60151     3.29924    36.17150     8.64132
  E(xc)    -153.67562  -154.58647  -153.92708    -0.03198     0.17050     0.08931
  Local   -5440.58328 -4727.97665  4516.08069    -6.12576   -96.37851   -24.58234
  n-local   198.95364   209.82602   168.98609     0.13421    -0.30334     0.10701
  augment   -24.37367   -24.88105   -22.79773    -0.34787     0.40458    -0.02061
  Kinetic   463.43703   450.78252   481.09656     5.59059    -6.64938    -0.21648
  Fock        0.00000     0.00000     0.00000     0.00000     0.00000     0.00000
  -------------------------------------------------------------------------------------
  Total       1.54726    -3.28050    -1.06536     0.32075    -0.11282    -0.12263
  in kB       2.70774    -5.74093    -1.86440     0.56132    -0.19744    -0.21461
  external pressure =       -1.63 kB  Pullay stress =        0.00 kB


 VOLUME and BASIS-vectors are now :
 -----------------------------------------------------------------------------
  energy-cutoff  :      450.00
  volume of cell :      915.52
      direct lattice vectors                 reciprocal lattice vectors
     6.019200000  0.000000000  0.000000000     0.166135035  0.000000000  0.000000000
     0.000000000 10.140000000  0.000000000     0.000000000  0.098619329  0.000000000
     0.000000000  0.000000000 15.000000000     0.000000000  0.000000000  0.066666667

  length of vectors
     6.019200000 10.140000000 15.000000000     0.166135035  0.098619329  0.066666667


 FORCES acting on ions
    electron-ion (+dipol)            ewald-force                    non-local-force                 convergence-correction
 -----------------------------------------------------------------------------------------------
   -.806E+00 0.373E+02 0.373E+01   0.827E+00 -.349E+02 -.404E+01   -.179E-01 -.239E+01 0.322E+00   0.273E-04 0.265E-03 -.791E-03
   0.378E+00 0.438E+02 0.413E+02   -.308E+00 -.406E+02 -.404E+02   -.674E-01 -.322E+01 -.951E+00   -.227E-04 -.872E-04 -.533E-03
   -.654E+01 -.530E+02 0.105E+02   0.702E+01 0.514E+02 -.128E+02   -.461E+00 0.159E+01 0.238E+01   -.895E-04 -.866E-03 -.142E-02
   -.722E+00 -.497E+02 0.492E+02   0.152E+00 0.472E+02 -.481E+02   0.577E+00 0.248E+01 -.101E+01   0.293E-03 -.719E-03 -.698E-03
   0.189E+01 0.579E+02 0.551E+02   -.119E+01 -.555E+02 -.536E+02   -.704E+00 -.248E+01 -.148E+01   -.289E-03 0.189E-03 -.510E-03
   0.186E+01 0.608E+02 -.382E+01   -.211E+01 -.582E+02 0.298E+01   0.248E+00 -.261E+01 0.865E+00   0.178E-03 0.229E-03 -.719E-03
   0.110E+00 -.494E+02 0.398E+02   -.104E+00 0.463E+02 -.387E+02   -.416E-02 0.312E+01 -.102E+01   -.271E-04 0.391E-03 -.358E-03
   0.264E+00 -.484E+02 -.451E+01   -.303E+00 0.454E+02 0.390E+01   0.417E-01 0.304E+01 0.608E+00   0.369E-04 0.497E-03 -.405E-03
   0.492E+00 -.597E+01 0.222E+02   -.390E+00 0.589E+01 -.223E+02   -.993E-01 0.886E-01 0.551E-01   0.329E-03 0.555E-03 -.117E-02
   -.459E+00 -.587E+01 0.328E+02   0.351E+00 0.584E+01 -.332E+02   0.111E+00 0.317E-01 0.493E+00   -.462E-03 0.207E-03 -.130E-02
   0.115E+02 0.153E+02 0.185E+02   -.114E+02 -.153E+02 -.178E+02   -.893E-01 -.142E-01 -.640E+00   -.415E-03 -.600E-03 -.432E-02
   -.601E+01 0.904E+01 0.498E+02   0.583E+01 -.918E+01 -.505E+02   0.192E+00 0.141E+00 0.670E+00   0.147E-04 -.571E-03 -.942E-04
   -.461E+02 0.202E+01 -.243E+03   0.531E+02 -.574E+01 0.245E+03   -.703E+01 0.371E+01 -.218E+01   -.263E-02 -.464E-02 -.296E-03
   0.295E+02 -.334E+02 -.433E+02   -.326E+02 0.363E+02 0.440E+02   0.306E+01 -.288E+01 -.757E+00   -.309E-03 -.420E-03 -.218E-04
   0.174E+02 0.177E+02 -.266E+02   -.188E+02 -.189E+02 0.253E+02   0.143E+01 0.121E+01 0.113E+01   0.388E-04 -.169E-03 0.232E-03
 -----------------------------------------------------------------------------------------------
   0.282E+01 -.181E+01 0.155E+01   0.000E+00 0.178E-13 0.462E-13   -.281E+01 0.181E+01 -.153E+01   -.332E-02 -.574E-02 -.124E-01


 POSITION                                       TOTAL-FORCE (eV/Angst)
 -----------------------------------------------------------------------------------
      2.64664      8.91042      3.84862         0.003707      0.002855      0.006758
      5.64889      8.90756      3.47858         0.002823      0.003120      0.002165
      2.70260      6.32764      4.26682         0.015818      0.009179      0.049502
      5.66418      6.28395      3.67622         0.007210      0.003303      0.020637
      2.62177      3.86838      3.59379         0.001837      0.006467      0.012402
      5.62878      3.82169      4.07505        -0.000285     -0.000777      0.020845
      2.63068      1.23179      3.44813         0.001697      0.002713      0.000223
      5.64574      1.21999      3.83837         0.002942      0.001918      0.004819
      1.13445     10.13602      3.65810         0.003253      0.002440      0.004595
      4.14237      0.00469      3.58480         0.002469      0.003922     -0.001259
      1.13704      5.05962      4.13895         0.004540      0.000961      0.069370
      4.14414      5.06054      3.79130         0.004818      0.003378      0.002225
      2.47653      6.05555      6.83128        -0.013143     -0.015162     -0.033846
      1.50059      6.96924      7.06110        -0.010443     -0.014915     -0.030935
      1.60157      5.34537      5.80889        -0.027243     -0.009402     -0.127499
 -----------------------------------------------------------------------------------
    total drift:                                0.001115     -0.001517      0.003273


--------------------------------------------------------------------------------------------------------



  FREE ENERGIE OF THE ION-ELECTRON SYSTEM (eV)
  ---------------------------------------------------
  free  energy   TOTEN  =       -71.57230898 eV

  energy  without entropy=      -71.57230898  energy(sigma->0) =      -71.57230898

 d Force = 0.8764875E-04[ 0.873E-04, 0.880E-04]  d Energy = 0.8834525E-04-0.696E-06
 d Force =-0.2118674E-01[-0.212E-01,-0.212E-01]  d Ewald  =-0.2118674E-01-0.136E-08


--------------------------------------------------------------------------------------------------------


    POTLOK:  cpu time    1.8936: real time    1.8941


--------------------------------------------------------------------------------------------------------


 NEB: the previous image is higher in energy: F
 NEB: the next image is higher in energy    : F
 NEB: image is at an extrema
 NEB: diff energy (min, max):     0.688099   71.572309

 NEB: Tangent
 ----------------------------------------------
      0.02227      0.02301      0.04541
      0.01591      0.01845      0.01974
      0.09131      0.05205      0.25889
      0.03834      0.01827      0.14547
      0.00660      0.03391      0.09802
     -0.00130      0.00091      0.15112
      0.00972      0.02095     -0.00086
      0.01570      0.01343      0.02867
      0.01687      0.01717      0.01923
      0.01582      0.02449     -0.02186
      0.02393      0.01092      0.38517
      0.02535      0.01626      0.02762
     -0.09403     -0.15745     -0.18445
     -0.05501     -0.10373     -0.22622
     -0.13149      0.01138     -0.74595

 NEB: forces: par spring, perp REAL, dneb     0.010371    0.022175    0.000000
 NEB: distance to prev, next image, angle between     0.514453    0.516528  135.974083
 NEB: projections on to tangent (spring, REAL)     0.010371    0.168550

 stress matrix after NEB project (eV)
      1.54726      0.32075     -0.12263
      0.32075     -3.28050     -0.11282
     -0.12263     -0.11282     -1.06536
  FORCES: max atom, RMS     0.016042    0.006321
  FORCE total and by dimension    0.024481    0.011201
  Stress total and by dimension    3.814703    3.280495
 Quasi-Newton relaxation of ions (Broydens 2nd method)
  g(Force)  = 0.890E-04   g(Stress)= 0.000E+00

 retain information from N=  1 steps
 eigenvalues of (default step * inverse Hessian matrix)
  average eigenvalue of G=   1.9086
 eigenvalue spectrum of G is  1.9086


--------------------------------------------------------------------------------------------------------


    WAVPRE:  cpu time    0.6933: real time    1.8031
    FEWALD:  cpu time    0.0027: real time    0.0027
    ORTHCH:  cpu time    3.4646: real time    3.4791
     LOOP+:  cpu time  152.8973: real time  155.7465


--------------------------------------- Iteration      3(   1)  ---------------------------------------


    POTLOK:  cpu time    2.5065: real time    2.5074
    SETDIJ:  cpu time    0.0614: real time    0.0614
     EDDAV:  cpu time   31.7762: real time   31.7803
       DOS:  cpu time    0.0005: real time    0.0006
    CHARGE:  cpu time    1.9979: real time    1.9980
    MIXING:  cpu time    0.0477: real time    0.0477
    --------------------------------------------
      LOOP:  cpu time   36.3904: real time   36.3955

 eigenvalue-minimisations  :   560
 total energy-change (2. order) :-0.1198797E-03  (-0.1470597E-03)
 number of electron      47.9999998 magnetization 
 augmentation part       -0.7501127 magnetization 

 Broyden mixing:
  rms(total) = 0.79755E-03    rms(broyden)= 0.79633E-03
  rms(prec ) = 0.93892E-03
  weight for this iteration     100.00

 Free energy of the ion-electron system (eV)
  ---------------------------------------------------
  alpha Z        PSCENC =        14.13034224
  Ewald energy   TEWEN  =      1491.17637808
  -Hartree energ DENC   =     -2677.36043010
  -exchange      EXHF   =         0.00000000
  -V(xc)+E(xc)   XCENC  =      -140.53487173
  PAW double counting   =      1740.61899601    -1483.07900435
  entropy T*S    EENTRO =        -0.00000000
  eigenvalues    EBANDS =      -335.16573195
  atomic energy  EATOM  =      1318.64189276
  Solvation  Ediel_sol  =         0.00000000
  ---------------------------------------------------
  free energy    TOTEN  =       -71.57242904 eV

  energy without entropy =      -71.57242904  energy(sigma->0) =      -71.57242904


--------------------------------------------------------------------------------------------------------




--------------------------------------- Iteration      3(   2)  ---------------------------------------


    POTLOK:  cpu time    2.2167: real time    2.2170
    SETDIJ:  cpu time    0.0505: real time    0.0505
     EDDAV:  cpu time   40.7171: real time   40.7273
       DOS:  cpu time    0.0010: real time    0.0010
    CHARGE:  cpu time    1.8041: real time    1.8078
    MIXING:  cpu time    0.0504: real time    0.0504
    --------------------------------------------
      LOOP:  cpu time   44.8398: real time   44.8540

 eigenvalue-minimisations  :   768
 total energy-change (2. order) :-0.6364023E-05  (-0.8252676E-05)
 number of electron      47.9999998 magnetization 
 augmentation part       -0.7501085 magnetization 

 Broyden mixing:
  rms(total) = 0.49041E-03    rms(broyden)= 0.49008E-03
  rms(prec ) = 0.59755E-03
  weight for this iteration     100.00

 eigenvalues of (default mixing * dielectric matrix)
  average eigenvalue GAMMA=   0.8803
  0.8803

 Free energy of the ion-electron system (eV)
  ---------------------------------------------------
  alpha Z        PSCENC =        14.13034224
  Ewald energy   TEWEN  =      1491.17637808
  -Hartree energ DENC   =     -2677.35599102
  -exchange      EXHF   =         0.00000000
  -V(xc)+E(xc)   XCENC  =      -140.53502735
  PAW double counting   =      1740.59237862    -1483.05233619
  entropy T*S    EENTRO =        -0.00000000
  eigenvalues    EBANDS =      -335.17007255
  atomic energy  EATOM  =      1318.64189276
  Solvation  Ediel_sol  =         0.00000000
  ---------------------------------------------------
  free energy    TOTEN  =       -71.57243541 eV

  energy without entropy =      -71.57243541  energy(sigma->0) =      -71.57243541


--------------------------------------------------------------------------------------------------------




--------------------------------------- Iteration      3(   3)  ---------------------------------------


    POTLOK:  cpu time    2.1761: real time    2.1786
    SETDIJ:  cpu time    0.0610: real time    0.0610
     EDDAV:  cpu time   30.7325: real time   30.7816
       DOS:  cpu time    0.0006: real time    0.0006
    --------------------------------------------
      LOOP:  cpu time   32.9701: real time   33.0218

 eigenvalue-minimisations  :   560
 total energy-change (2. order) : 0.5067693E-06  (-0.2301994E-06)
 number of electron      47.9999998 magnetization 
 augmentation part       -0.7501085 magnetization 

 Free energy of the ion-electron system (eV)
  ---------------------------------------------------
  alpha Z        PSCENC =        14.13034224
  Ewald energy   TEWEN  =      1491.17637808
  -Hartree energ DENC   =     -2677.35324236
  -exchange      EXHF   =         0.00000000
  -V(xc)+E(xc)   XCENC  =      -140.53510801
  PAW double counting   =      1740.57370694    -1483.03360756
  entropy T*S    EENTRO =        -0.00000000
  eigenvalues    EBANDS =      -335.17279700
  atomic energy  EATOM  =      1318.64189276
  Solvation  Ediel_sol  =         0.00000000
  ---------------------------------------------------
  free energy    TOTEN  =       -71.57243490 eV

  energy without entropy =      -71.57243490  energy(sigma->0) =      -71.57243490


--------------------------------------------------------------------------------------------------------




 average (electrostatic) potential at core
  the test charge radii are     1.0406  0.6991  1.0339  0.5883
  (the norm of the test charge is              1.0000)
       1 -59.0520       2 -59.1689       3 -59.2934       4 -59.3305       5 -59.2110
       6 -59.2357       7 -59.1542       8 -59.1315       9 -55.0317      10 -55.0298
      11 -55.2848      12 -55.1411      13 -97.6227      14 -38.9052      15 -37.7775



 E-fermi :  -1.9360     XC(G=0):  -3.2379     alpha+bet : -2.6874


 k-point     1 :       0.0000    0.0000    0.0000
  band No.  band energies     occupation 
      1     -16.4636      2.00000
      2     -13.7704      2.00000
      3     -13.5561      2.00000
      4     -11.7374      2.00000
      5     -11.4551      2.00000
      6      -9.1944      2.00000
      7      -8.5515      2.00000
      8      -8.4720      2.00000
      9      -8.1486      2.00000
     10      -7.2510      2.00000
     11      -6.4347      2.00000
     12      -6.0363      2.00000
     13      -5.4623      2.00000
     14      -5.3854      2.00000
     15      -4.7311      2.00000
     16      -4.6685      2.00000
     17      -4.2321      2.00000
     18      -4.1465      2.00000
     19      -3.2416      2.00000
     20      -2.8864      2.00000
     21      -2.7093      2.00000
     22      -2.6548      2.00000
     23      -2.2385      2.00000
     24      -2.1781      2.00000
     25      -1.3214      0.00000
     26      -0.8141      0.00000
     27      -0.1772      0.00000
     28       0.1376      0.00000
     29       0.3340      0.00000
     30       0.4407      0.00000
     31       0.6519      0.00000
     32       0.9356      0.00000

 k-point     2 :       0.2000    0.0000    0.0000
  band No.  band energies     occupation 
      1     -16.4614      2.00000
      2     -13.6517      2.00000
      3     -13.4332      2.00000
      4     -12.0896      2.00000
      5     -11.8324      2.00000
      6      -9.0313      2.00000
      7      -8.3518      2.00000
      8      -7.9672      2.00000
      9      -7.7505      2.00000
     10      -7.2346      2.00000
     11      -6.3594      2.00000
     12      -6.2517      2.00000
     13      -5.9160      2.00000
     14      -5.1713      2.00000
     15      -4.9040      2.00000
     16      -4.5656      2.00000
     17      -4.1661      2.00000
     18      -3.7809      2.00000
     19      -3.5514      2.00000
     20      -3.4772      2.00000
     21      -3.4092      2.00000
     22      -2.8410      2.00000
     23      -2.6218      2.00000
     24      -2.2000      2.00000
     25      -1.3325      0.00000
     26       0.0032      0.00000
     27       0.0800      0.00000
     28       0.2446      0.00000
     29       0.5029      0.00000
     30       0.6226      0.00000
     31       0.8353      0.00000
     32       1.1507      0.00000

 k-point     3 :       0.4000    0.0000    0.0000
  band No.  band energies     occupation 
      1     -16.4577      2.00000
      2     -13.3091      2.00000
      3     -13.0737      2.00000
      4     -12.7195      2.00000
      5     -12.4988      2.00000
      6      -8.9104      2.00000
      7      -7.9353      2.00000
      8      -7.4594      2.00000
      9      -7.1566      2.00000
     10      -6.7004      2.00000
     11      -6.4586      2.00000
     12      -6.0140      2.00000
     13      -5.7629      2.00000
     14      -5.4701      2.00000
     15      -5.0601      2.00000
     16      -4.9133      2.00000
     17      -4.7136      2.00000
     18      -4.4757      2.00000
     19      -4.1715      2.00000
     20      -3.8471      2.00000
     21      -3.5044      2.00000
     22      -3.1940      2.00000
     23      -2.6681      2.00000
     24      -2.2726      2.00000
     25      -0.9948      0.00000
     26      -0.2780      0.00000
     27       0.1982      0.00000
     28       0.7698      0.00000
     29       0.9227      0.00000
     30       1.2146      0.00000
     31       1.3973      0.00000
     32       1.6757      0.00000

 k-point     4 :       0.0000    0.3333    0.0000
  band No.  band energies     occupation 
      1     -16.4637      2.00000
      2     -13.7492      2.00000
      3     -13.5819      2.00000
      4     -11.7350      2.00000
      5     -11.4583      2.00000
      6      -9.1888      2.00000
      7      -8.5003      2.00000
      8      -8.2739      2.00000
      9      -8.1395      2.00000
     10      -7.4646      2.00000
     11      -7.1825      2.00000
     12      -5.4528      2.00000
     13      -5.3013      2.00000
     14      -4.9338      2.00000
     15      -4.7845      2.00000
     16      -4.6964      2.00000
     17      -4.2270      2.00000
     18      -3.9528      2.00000
     19      -3.4949      2.00000
     20      -3.1167      2.00000
     21      -2.8761      2.00000
     22      -2.7096      2.00000
     23      -2.6445      2.00000
     24      -2.1796      2.00000
     25      -1.1273      0.00000
     26      -0.4566      0.00000
     27      -0.2671      0.00000
     28      -0.0575      0.00000
     29       0.3682      0.00000
     30       0.6391      0.00000
     31       0.8486      0.00000
     32       0.9316      0.00000

 k-point     5 :       0.2000    0.3333    0.0000
  band No.  band energies     occupation 
      1     -16.4614      2.00000
      2     -13.6320      2.00000
      3     -13.4572      2.00000
      4     -12.0842      2.00000
      5     -11.8395      2.00000
      6      -9.0274      2.00000
      7      -8.0809      2.00000
      8      -7.9253      2.00000
      9      -7.8129      2.00000
     10      -7.3643      2.00000
     11      -7.1328      2.00000
     12      -6.0648      2.00000
     13      -5.4952      2.00000
     14      -5.1478      2.00000
     15      -4.6322      2.00000
     16      -4.5490      2.00000
     17      -4.1806      2.00000
     18      -3.6376      2.00000
     19      -3.4912      2.00000
     20      -3.4384      2.00000
     21      -3.3879      2.00000
     22      -3.0280      2.00000
     23      -2.7761      2.00000
     24      -2.6272      2.00000
     25      -0.9694      0.00000
     26      -0.3893      0.00000
     27      -0.0020      0.00000
     28       0.1583      0.00000
     29       0.5669      0.00000
     30       0.7602      0.00000
     31       0.8922      0.00000
     32       1.0521      0.00000

 k-point     6 :       0.4000    0.3333    0.0000
  band No.  band energies     occupation 
      1     -16.4577      2.00000
      2     -13.2944      2.00000
      3     -13.0914      2.00000
      4     -12.7080      2.00000
      5     -12.5139      2.00000
      6      -8.9095      2.00000
      7      -7.6991      2.00000
      8      -7.4156      2.00000
      9      -6.9780      2.00000
     10      -6.9115      2.00000
     11      -6.7076      2.00000
     12      -6.4406      2.00000
     13      -6.0772      2.00000
     14      -5.2907      2.00000
     15      -4.9783      2.00000
     16      -4.8934      2.00000
     17      -4.1825      2.00000
     18      -4.1485      2.00000
     19      -3.9521      2.00000
     20      -3.7296      2.00000
     21      -3.5006      2.00000
     22      -3.2231      2.00000
     23      -2.9351      2.00000
     24      -2.8113      2.00000
     25      -0.6532      0.00000
     26      -0.3125      0.00000
     27       0.0665      0.00000
     28       0.5535      0.00000
     29       0.9572      0.00000
     30       0.9727      0.00000
     31       1.2331      0.00000
     32       1.3329      0.00000

 k-point     7 :      -0.4000    0.3333    0.0000
  band No.  band energies     occupation 
      1     -16.4577      2.00000
      2     -13.2942      2.00000
      3     -13.0916      2.00000
      4     -12.7078      2.00000
      5     -12.5140      2.00000
      6      -8.9105      2.00000
      7      -7.6848      2.00000
      8      -7.4270      2.00000
      9      -7.0255      2.00000
     10      -6.8696      2.00000
     11      -6.7004      2.00000
     12      -6.4266      2.00000
     13      -6.0958      2.00000
     14      -5.3042      2.00000
     15      -4.9694      2.00000
     16      -4.8928      2.00000
     17      -4.2224      2.00000
     18      -4.1434      2.00000
     19      -3.8814      2.00000
     20      -3.7351      2.00000
     21      -3.4870      2.00000
     22      -3.2709      2.00000
     23      -2.9227      2.00000
     24      -2.8076      2.00000
     25      -0.7761      0.00000
     26      -0.0971      0.00000
     27       0.0433      0.00000
     28       0.4923      0.00000
     29       0.9033      0.00000
     30       0.9983      0.00000
     31       1.1918      0.00000
     32       1.3934      0.00000

 k-point     8 :      -0.2000    0.3333    0.0000
  band No.  band energies     occupation 
      1     -16.4614      2.00000
      2     -13.6319      2.00000
      3     -13.4573      2.00000
      4     -12.0841      2.00000
      5     -11.8396      2.00000
      6      -9.0285      2.00000
      7      -8.0818      2.00000
      8      -7.9225      2.00000
      9      -7.8073      2.00000
     10      -7.3625      2.00000
     11      -7.1446      2.00000
     12      -6.0465      2.00000
     13      -5.5128      2.00000
     14      -5.1600      2.00000
     15      -4.6531      2.00000
     16      -4.5454      2.00000
     17      -4.1446      2.00000
     18      -3.6397      2.00000
     19      -3.4882      2.00000
     20      -3.4364      2.00000
     21      -3.3670      2.00000
     22      -3.0306      2.00000
     23      -2.7603      2.00000
     24      -2.6497      2.00000
     25      -1.0812      0.00000
     26      -0.2619      0.00000
     27       0.0094      0.00000
     28       0.1681      0.00000
     29       0.5416      0.00000
     30       0.7065      0.00000
     31       0.8796      0.00000
     32       1.0822      0.00000


--------------------------------------------------------------------------------------------------------


 soft charge-density along one line, spin component           1
         0         1         2         3         4         5         6         7         8         9
 total charge-density along one line

 pseudopotential strength for first ion, spin component:           1
  7.445 -17.441  -0.004   0.001  -0.000   0.023  -0.003   0.000
-17.441  50.460   0.011  -0.002   0.000  -0.050   0.008  -0.000
 -0.004   0.011   1.743   0.000   0.000  -6.878  -0.002  -0.000
  0.001  -0.002   0.000   1.747   0.000  -0.002  -6.895  -0.000
 -0.000   0.000   0.000   0.000   1.743  -0.000  -0.000  -6.880
  0.023  -0.050  -6.878  -0.002  -0.000  29.267   0.010   0.001
 -0.003   0.008  -0.002  -6.895  -0.000   0.010  29.337   0.001
  0.000  -0.000  -0.000  -0.000  -6.880   0.001   0.001  29.273
  0.000  -0.000  -0.000   0.000  -0.003   0.000  -0.000   0.009
  0.002  -0.003   0.000  -0.003   0.000  -0.001   0.009  -0.000
  0.009  -0.011   0.001   0.001   0.000  -0.004  -0.002  -0.000
  0.000  -0.000   0.000  -0.000   0.000  -0.000   0.000  -0.001
  0.001  -0.001   0.002   0.000  -0.000  -0.006  -0.000   0.000
 -0.001   0.001   0.000  -0.000   0.012  -0.001   0.000  -0.043
 -0.010   0.017  -0.000   0.012  -0.000   0.002  -0.044   0.000
 -0.037   0.065  -0.005  -0.002  -0.000   0.019   0.008   0.000
 -0.001   0.002  -0.000   0.000  -0.001   0.000  -0.000   0.005
 -0.003   0.006  -0.009  -0.000   0.000   0.033   0.001  -0.000
 total augmentation occupancy for first ion, spin component:           1
  1.391   0.018  -0.030   0.012   0.001   0.005  -0.001  -0.000  -0.003  -0.028  -0.091  -0.003  -0.025  -0.000  -0.001  -0.005
  0.018   0.000   0.008  -0.002  -0.000   0.000  -0.000  -0.000  -0.000  -0.001  -0.002  -0.000   0.000  -0.000  -0.000  -0.000
 -0.030   0.008   1.298  -0.130  -0.007   0.019  -0.002  -0.000   0.002  -0.006  -0.072  -0.005   0.058   0.000  -0.001  -0.002
  0.012  -0.002  -0.130   0.419  -0.017  -0.002   0.005  -0.000  -0.005   0.057  -0.006   0.001  -0.017  -0.000   0.001   0.000
  0.001  -0.000  -0.007  -0.017   1.135  -0.000  -0.000   0.018   0.228  -0.005   0.002  -0.039  -0.003   0.007  -0.000   0.000
  0.005   0.000   0.019  -0.002  -0.000   0.000  -0.000  -0.000   0.000  -0.000  -0.001  -0.000   0.000   0.000  -0.000  -0.000
 -0.001  -0.000  -0.002   0.005  -0.000  -0.000   0.000  -0.000  -0.000   0.001   0.000   0.000  -0.000  -0.000   0.000   0.000
 -0.000  -0.000  -0.000  -0.000   0.018  -0.000  -0.000   0.000   0.004  -0.000   0.000  -0.001  -0.000   0.000  -0.000   0.000
 -0.003  -0.000   0.002  -0.005   0.228   0.000  -0.000   0.004   0.065  -0.001   0.000  -0.009  -0.000   0.002  -0.000   0.000
 -0.028  -0.001  -0.006   0.057  -0.005  -0.000   0.001  -0.000  -0.001   0.011  -0.000   0.000   0.004  -0.000   0.000   0.000
 -0.091  -0.002  -0.072  -0.006   0.002  -0.001   0.000   0.000   0.000  -0.000   0.012  -0.000  -0.004   0.000   0.000   0.001
 -0.003  -0.000  -0.005   0.001  -0.039  -0.000   0.000  -0.001  -0.009   0.000  -0.000   0.021  -0.001  -0.000   0.000   0.000
 -0.025   0.000   0.058  -0.017  -0.003   0.000  -0.000  -0.000  -0.000   0.004  -0.004  -0.001   0.042  -0.000   0.000  -0.000
 -0.000  -0.000   0.000  -0.000   0.007   0.000  -0.000   0.000   0.002  -0.000   0.000  -0.000  -0.000   0.000  -0.000   0.000
 -0.001  -0.000  -0.001   0.001  -0.000  -0.000   0.000  -0.000  -0.000   0.000   0.000   0.000   0.000  -0.000   0.000   0.000
 -0.005  -0.000  -0.002   0.000   0.000  -0.000   0.000   0.000   0.000   0.000   0.001   0.000  -0.000   0.000   0.000   0.000
 -0.000  -0.000  -0.000   0.000  -0.001  -0.000   0.000  -0.000  -0.000   0.000   0.000   0.000  -0.000  -0.000   0.000   0.000
 -0.001   0.000   0.001  -0.000  -0.000  -0.000  -0.000  -0.000  -0.000   0.000  -0.000  -0.000   0.001  -0.000   0.000  -0.000


------------------------ aborting loop because EDIFF is reached ----------------------------------------


    CHARGE:  cpu time    1.7146: real time    1.7168
    FORLOC:  cpu time    0.3131: real time    0.3136
    FORNL :  cpu time    7.5586: real time    7.5699
    STRESS:  cpu time   23.1568: real time   23.2112
    FORCOR:  cpu time    1.8540: real time    1.8561
    FORHAR:  cpu time    0.6968: real time    0.6972
    MIXING:  cpu time    0.0380: real time    0.0381
    OFIELD:  cpu time    0.0000: real time    0.0000

  FORCE on cell =-STRESS in cart. coord.  units (eV):
  Direction    XX          YY          ZZ          XY          YZ          ZX
  --------------------------------------------------------------------------------------
  Alpha Z    14.13034    14.13034    14.13034
  Ewald    2450.03553  2038.16193 -2997.02255    -2.16022    66.52281    15.82380
  Hartree  2493.64033  2191.32199 -2007.62656     3.31622    36.19447     8.64321
  E(xc)    -153.67428  -154.58535  -153.92599    -0.03185     0.17074     0.08923
  Local   -5440.59363 -4728.04205  4516.09622    -6.18061   -96.45638   -24.56584
  n-local   198.94858   209.82319   168.99116     0.13373    -0.30252     0.10582
  augment   -24.37317   -24.88137   -22.79821    -0.34783     0.40413    -0.02155
  Kinetic   463.42930   450.78940   481.07923     5.59112    -6.64990    -0.19830
  Fock        0.00000     0.00000     0.00000     0.00000     0.00000     0.00000
  -------------------------------------------------------------------------------------
  Total       1.54301    -3.28190    -1.07635     0.32056    -0.11666    -0.12363
  in kB       2.70029    -5.74339    -1.88364     0.56099    -0.20415    -0.21636
  external pressure =       -1.64 kB  Pullay stress =        0.00 kB


 VOLUME and BASIS-vectors are now :
 -----------------------------------------------------------------------------
  energy-cutoff  :      450.00
  volume of cell :      915.52
      direct lattice vectors                 reciprocal lattice vectors
     6.019200000  0.000000000  0.000000000     0.166135035  0.000000000  0.000000000
     0.000000000 10.140000000  0.000000000     0.000000000  0.098619329  0.000000000
     0.000000000  0.000000000 15.000000000     0.000000000  0.000000000  0.066666667

  length of vectors
     6.019200000 10.140000000 15.000000000     0.166135035  0.098619329  0.066666667


 FORCES acting on ions
    electron-ion (+dipol)            ewald-force                    non-local-force                 convergence-correction
 -----------------------------------------------------------------------------------------------
   -.806E+00 0.373E+02 0.374E+01   0.827E+00 -.349E+02 -.406E+01   -.178E-01 -.239E+01 0.321E+00   0.326E-04 0.313E-03 -.116E-02
   0.379E+00 0.438E+02 0.414E+02   -.308E+00 -.406E+02 -.404E+02   -.677E-01 -.322E+01 -.951E+00   -.243E-04 0.365E-05 -.766E-03
   -.655E+01 -.530E+02 0.105E+02   0.703E+01 0.514E+02 -.128E+02   -.461E+00 0.158E+01 0.238E+01   -.622E-04 -.126E-02 -.219E-02
   -.733E+00 -.496E+02 0.492E+02   0.160E+00 0.472E+02 -.482E+02   0.580E+00 0.248E+01 -.101E+01   0.455E-03 -.983E-03 -.110E-02
   0.190E+01 0.579E+02 0.551E+02   -.119E+01 -.554E+02 -.536E+02   -.705E+00 -.248E+01 -.148E+01   -.352E-03 0.280E-03 -.811E-03
   0.186E+01 0.608E+02 -.379E+01   -.211E+01 -.582E+02 0.295E+01   0.249E+00 -.261E+01 0.863E+00   0.192E-03 0.277E-03 -.114E-02
   0.110E+00 -.494E+02 0.398E+02   -.104E+00 0.463E+02 -.387E+02   -.420E-02 0.312E+01 -.102E+01   -.454E-05 0.645E-03 -.515E-03
   0.264E+00 -.484E+02 -.450E+01   -.303E+00 0.454E+02 0.390E+01   0.418E-01 0.304E+01 0.609E+00   0.206E-04 0.565E-03 -.623E-03
   0.496E+00 -.598E+01 0.222E+02   -.392E+00 0.589E+01 -.223E+02   -.100E+00 0.891E-01 0.534E-01   -.451E-03 0.703E-03 -.156E-02
   -.463E+00 -.587E+01 0.327E+02   0.354E+00 0.585E+01 -.332E+02   0.112E+00 0.318E-01 0.490E+00   0.264E-03 0.498E-03 -.185E-02
   0.115E+02 0.153E+02 0.185E+02   -.114E+02 -.153E+02 -.178E+02   -.882E-01 -.147E-01 -.637E+00   -.724E-03 -.412E-03 -.669E-02
   -.601E+01 0.904E+01 0.498E+02   0.582E+01 -.917E+01 -.505E+02   0.192E+00 0.140E+00 0.669E+00   -.286E-03 -.864E-03 0.394E-04
   -.460E+02 0.201E+01 -.243E+03   0.531E+02 -.573E+01 0.245E+03   -.704E+01 0.371E+01 -.218E+01   -.208E-02 -.767E-02 -.164E-02
   0.296E+02 -.334E+02 -.433E+02   -.326E+02 0.363E+02 0.441E+02   0.306E+01 -.288E+01 -.759E+00   -.602E-03 -.396E-03 -.110E-03
   0.173E+02 0.177E+02 -.266E+02   -.188E+02 -.189E+02 0.254E+02   0.143E+01 0.120E+01 0.112E+01   0.151E-03 -.292E-03 0.156E-03
 -----------------------------------------------------------------------------------------------
   0.282E+01 -.180E+01 0.157E+01   -.355E-14 0.107E-13 -.426E-13   -.281E+01 0.181E+01 -.155E+01   -.347E-02 -.860E-02 -.199E-01


 POSITION                                       TOTAL-FORCE (eV/Angst)
 -----------------------------------------------------------------------------------
      2.64665      8.91037      3.84859         0.003858      0.002713      0.007022
      5.64891      8.90757      3.47852         0.002782      0.003340      0.002242
      2.70268      6.32770      4.26731         0.016163      0.009412      0.049501
      5.66424      6.28397      3.67609         0.007276      0.003196      0.021696
      2.62181      3.86844      3.59361         0.001857      0.006541      0.013074
      5.62877      3.82164      4.07488        -0.000494     -0.000433      0.021850
      2.63069      1.23176      3.44815         0.001756      0.003173      0.000038
      5.64576      1.21998      3.83839         0.002896      0.001723      0.004624
      1.13448     10.13601      3.65818         0.002819      0.002627      0.004218
      4.14237      0.00470      3.58493         0.002945      0.003848     -0.001736
      1.13708      5.05958      4.13943         0.004566      0.000427      0.071881
      4.14419      5.06059      3.79118         0.004941      0.003389      0.001926
      2.47663      6.05611      6.83102        -0.012366     -0.019022     -0.034541
      1.50049      6.96932      7.06137        -0.012121     -0.013927     -0.031872
      1.60121      5.34473      5.80835        -0.026877     -0.007006     -0.129923
 -----------------------------------------------------------------------------------
    total drift:                                0.000915     -0.001979      0.003699


--------------------------------------------------------------------------------------------------------



  FREE ENERGIE OF THE ION-ELECTRON SYSTEM (eV)
  ---------------------------------------------------
  free  energy   TOTEN  =       -71.57243490 eV

  energy  without entropy=      -71.57243490  energy(sigma->0) =      -71.57243490

 d Force = 0.1266629E-03[ 0.126E-03, 0.127E-03]  d Energy = 0.1259258E-03 0.737E-06
 d Force =-0.3426302E-01[-0.343E-01,-0.343E-01]  d Ewald  =-0.3426302E-01-0.470E-08


--------------------------------------------------------------------------------------------------------


    POTLOK:  cpu time    1.7401: real time    1.7407


--------------------------------------------------------------------------------------------------------


 NEB: the previous image is higher in energy: F
 NEB: the next image is higher in energy    : F
 NEB: image is at an extrema
 NEB: diff energy (min, max):     0.690428   71.572435

 NEB: Tangent
 ----------------------------------------------
      0.02227      0.02290      0.04531
      0.01592      0.01845      0.01961
      0.09135      0.05210      0.25954
      0.03842      0.01829      0.14504
      0.00668      0.03399      0.09757
     -0.00131      0.00081      0.15061
      0.00973      0.02086     -0.00082
      0.01573      0.01339      0.02867
      0.01692      0.01712      0.01938
      0.01580      0.02447     -0.02159
      0.02398      0.01083      0.38565
      0.02541      0.01633      0.02737
     -0.09372     -0.15620     -0.18475
     -0.05514     -0.10345     -0.22544
     -0.13206      0.01012     -0.74614

 NEB: forces: par spring, perp REAL, dneb     0.009000    0.019128    0.000000
 NEB: distance to prev, next image, angle between     0.515039    0.516839  136.092000
 NEB: projections on to tangent (spring, REAL)     0.009000    0.172647

 stress matrix after NEB project (eV)
      1.54301      0.32056     -0.12363
      0.32056     -3.28190     -0.11666
     -0.12363     -0.11666     -1.07635
  FORCES: max atom, RMS     0.012802    0.005458
  FORCE total and by dimension    0.021140    0.008771
  Stress total and by dimension    3.817539    3.281904
 Quasi-Newton relaxation of ions (Broydens 2nd method)
  g(Force)  = 0.728E-04   g(Stress)= 0.000E+00

 retain information from N=  2 steps
 eigenvalues of (default step * inverse Hessian matrix)
  average eigenvalue of G=   2.7219
 eigenvalue spectrum of G is  2.7219  2.7219


--------------------------------------------------------------------------------------------------------


    WAVPRE:  cpu time    0.7085: real time    1.3788
    FEWALD:  cpu time    0.0040: real time    0.0040
    ORTHCH:  cpu time    3.4691: real time    3.4694
     LOOP+:  cpu time  155.5650: real time  158.7246


--------------------------------------- Iteration      4(   1)  ---------------------------------------


    POTLOK:  cpu time    2.3756: real time    2.3763
    SETDIJ:  cpu time    0.0632: real time    0.0632
     EDDAV:  cpu time   30.4921: real time   30.4941
       DOS:  cpu time    0.0008: real time    0.0008
    CHARGE:  cpu time    2.1170: real time    2.1172
    MIXING:  cpu time    0.0539: real time    0.0539
    --------------------------------------------
      LOOP:  cpu time   35.1026: real time   35.1055

 eigenvalue-minimisations  :   528
 total energy-change (2. order) :-0.2007261E-03  (-0.4872950E-03)
 number of electron      47.9999998 magnetization 
 augmentation part       -0.7501314 magnetization 

 Broyden mixing:
  rms(total) = 0.14063E-02    rms(broyden)= 0.14041E-02
  rms(prec ) = 0.16636E-02
  weight for this iteration     100.00

 Free energy of the ion-electron system (eV)
  ---------------------------------------------------
  alpha Z        PSCENC =        14.13034224
  Ewald energy   TEWEN  =      1491.22612991
  -Hartree energ DENC   =     -2677.42202681
  -exchange      EXHF   =         0.00000000
  -V(xc)+E(xc)   XCENC  =      -140.53615667
  PAW double counting   =      1740.54893458    -1483.00878350
  entropy T*S    EENTRO =        -0.00000000
  eigenvalues    EBANDS =      -335.15296863
  atomic energy  EATOM  =      1318.64189276
  Solvation  Ediel_sol  =         0.00000000
  ---------------------------------------------------
  free energy    TOTEN  =       -71.57263613 eV

  energy without entropy =      -71.57263613  energy(sigma->0) =      -71.57263613


--------------------------------------------------------------------------------------------------------




--------------------------------------- Iteration      4(   2)  ---------------------------------------


    POTLOK:  cpu time    2.2271: real time    2.2272
    SETDIJ:  cpu time    0.0759: real time    0.0759
     EDDAV:  cpu time   41.0429: real time   41.0456
       DOS:  cpu time    0.0005: real time    0.0005
    CHARGE:  cpu time    1.9895: real time    1.9896
    MIXING:  cpu time    0.0511: real time    0.0511
    --------------------------------------------
      LOOP:  cpu time   45.3870: real time   45.3899

 eigenvalue-minimisations  :   768
 total energy-change (2. order) :-0.1920156E-04  (-0.2528216E-04)
 number of electron      47.9999998 magnetization 
 augmentation part       -0.7501375 magnetization 

 Broyden mixing:
  rms(total) = 0.87163E-03    rms(broyden)= 0.87109E-03
  rms(prec ) = 0.10647E-02
  weight for this iteration     100.00

 eigenvalues of (default mixing * dielectric matrix)
  average eigenvalue GAMMA=   0.8881
  0.8881

 Free energy of the ion-electron system (eV)
  ---------------------------------------------------
  alpha Z        PSCENC =        14.13034224
  Ewald energy   TEWEN  =      1491.22612991
  -Hartree energ DENC   =     -2677.41297887
  -exchange      EXHF   =         0.00000000
  -V(xc)+E(xc)   XCENC  =      -140.53651147
  PAW double counting   =      1740.48814025    -1482.94788370
  entropy T*S    EENTRO =        -0.00000000
  eigenvalues    EBANDS =      -335.16178645
  atomic energy  EATOM  =      1318.64189276
  Solvation  Ediel_sol  =         0.00000000
  ---------------------------------------------------
  free energy    TOTEN  =       -71.57265534 eV

  energy without entropy =      -71.57265534  energy(sigma->0) =      -71.57265534


--------------------------------------------------------------------------------------------------------




--------------------------------------- Iteration      4(   3)  ---------------------------------------


    POTLOK:  cpu time    2.2235: real time    2.2236
    SETDIJ:  cpu time    0.0567: real time    0.0567
     EDDAV:  cpu time   34.6333: real time   34.6354
       DOS:  cpu time    0.0005: real time    0.0006
    CHARGE:  cpu time    1.8047: real time    1.8048
    MIXING:  cpu time    0.0393: real time    0.0393
    --------------------------------------------
      LOOP:  cpu time   38.7579: real time   38.7603

 eigenvalue-minimisations  :   664
 total energy-change (2. order) : 0.1666033E-05  (-0.7606688E-06)
 number of electron      47.9999998 magnetization 
 augmentation part       -0.7501141 magnetization 

 Broyden mixing:
  rms(total) = 0.53484E-03    rms(broyden)= 0.53477E-03
  rms(prec ) = 0.65170E-03
  weight for this iteration     100.00

 eigenvalues of (default mixing * dielectric matrix)
  average eigenvalue GAMMA=   1.4737
  1.0317  1.9158

 Free energy of the ion-electron system (eV)
  ---------------------------------------------------
  alpha Z        PSCENC =        14.13034224
  Ewald energy   TEWEN  =      1491.22612991
  -Hartree energ DENC   =     -2677.40746304
  -exchange      EXHF   =         0.00000000
  -V(xc)+E(xc)   XCENC  =      -140.53669987
  PAW double counting   =      1740.44962117    -1482.90924163
  entropy T*S    EENTRO =        -0.00000000
  eigenvalues    EBANDS =      -335.16723519
  atomic energy  EATOM  =      1318.64189276
  Solvation  Ediel_sol  =         0.00000000
  ---------------------------------------------------
  free energy    TOTEN  =       -71.57265367 eV

  energy without entropy =      -71.57265367  energy(sigma->0) =      -71.57265367


--------------------------------------------------------------------------------------------------------




--------------------------------------- Iteration      4(   4)  ---------------------------------------


    POTLOK:  cpu time    1.8508: real time    1.8509
    SETDIJ:  cpu time    0.0519: real time    0.0519
     EDDAV:  cpu time   28.9491: real time   28.9506
       DOS:  cpu time    0.0005: real time    0.0006
    CHARGE:  cpu time    1.6222: real time    1.6223
    MIXING:  cpu time    0.0423: real time    0.0423
    --------------------------------------------
      LOOP:  cpu time   32.5168: real time   32.5186

 eigenvalue-minimisations  :   648
 total energy-change (2. order) : 0.1052669E-05  (-0.3885984E-06)
 number of electron      47.9999998 magnetization 
 augmentation part       -0.7501107 magnetization 

 Broyden mixing:
  rms(total) = 0.12616E-03    rms(broyden)= 0.12613E-03
  rms(prec ) = 0.17162E-03
  weight for this iteration     100.00

 eigenvalues of (default mixing * dielectric matrix)
  average eigenvalue GAMMA=   1.4255
  2.1800  1.0482  1.0482

 Free energy of the ion-electron system (eV)
  ---------------------------------------------------
  alpha Z        PSCENC =        14.13034224
  Ewald energy   TEWEN  =      1491.22612991
  -Hartree energ DENC   =     -2677.40119188
  -exchange      EXHF   =         0.00000000
  -V(xc)+E(xc)   XCENC  =      -140.53678149
  PAW double counting   =      1740.40266675    -1482.86217156
  entropy T*S    EENTRO =        -0.00000000
  eigenvalues    EBANDS =      -335.17353934
  atomic energy  EATOM  =      1318.64189276
  Solvation  Ediel_sol  =         0.00000000
  ---------------------------------------------------
  free energy    TOTEN  =       -71.57265262 eV

  energy without entropy =      -71.57265262  energy(sigma->0) =      -71.57265262


--------------------------------------------------------------------------------------------------------




--------------------------------------- Iteration      4(   5)  ---------------------------------------


    POTLOK:  cpu time    1.9279: real time    1.9285
    SETDIJ:  cpu time    0.0662: real time    0.0662
     EDDAV:  cpu time   20.8169: real time   20.8179
       DOS:  cpu time    0.0005: real time    0.0005
    --------------------------------------------
      LOOP:  cpu time   22.8114: real time   22.8130

 eigenvalue-minimisations  :   488
 total energy-change (2. order) :-0.3539594E-07  (-0.1157015E-06)
 number of electron      47.9999998 magnetization 
 augmentation part       -0.7501107 magnetization 

 Free energy of the ion-electron system (eV)
  ---------------------------------------------------
  alpha Z        PSCENC =        14.13034224
  Ewald energy   TEWEN  =      1491.22612991
  -Hartree energ DENC   =     -2677.39771389
  -exchange      EXHF   =         0.00000000
  -V(xc)+E(xc)   XCENC  =      -140.53687728
  PAW double counting   =      1740.39429110    -1482.85377563
  entropy T*S    EENTRO =        -0.00000000
  eigenvalues    EBANDS =      -335.17694186
  atomic energy  EATOM  =      1318.64189276
  Solvation  Ediel_sol  =         0.00000000
  ---------------------------------------------------
  free energy    TOTEN  =       -71.57265265 eV

  energy without entropy =      -71.57265265  energy(sigma->0) =      -71.57265265


--------------------------------------------------------------------------------------------------------




 average (electrostatic) potential at core
  the test charge radii are     1.0406  0.6991  1.0339  0.5883
  (the norm of the test charge is              1.0000)
       1 -59.0522       2 -59.1698       3 -59.2942       4 -59.3326       5 -59.2129
       6 -59.2371       7 -59.1550       8 -59.1320       9 -55.0322      10 -55.0304
      11 -55.2874      12 -55.1428      13 -97.6187      14 -38.9010      15 -37.7690



 E-fermi :  -1.9354     XC(G=0):  -3.2367     alpha+bet : -2.6874


 k-point     1 :       0.0000    0.0000    0.0000
  band No.  band energies     occupation 
      1     -16.4578      2.00000
      2     -13.7718      2.00000
      3     -13.5569      2.00000
      4     -11.7395      2.00000
      5     -11.4557      2.00000
      6      -9.1932      2.00000
      7      -8.5522      2.00000
      8      -8.4723      2.00000
      9      -8.1471      2.00000
     10      -7.2474      2.00000
     11      -6.4353      2.00000
     12      -6.0370      2.00000
     13      -5.4630      2.00000
     14      -5.3850      2.00000
     15      -4.7315      2.00000
     16      -4.6688      2.00000
     17      -4.2324      2.00000
     18      -4.1467      2.00000
     19      -3.2421      2.00000
     20      -2.8884      2.00000
     21      -2.7099      2.00000
     22      -2.6574      2.00000
     23      -2.2394      2.00000
     24      -2.1787      2.00000
     25      -1.3216      0.00000
     26      -0.8147      0.00000
     27      -0.1774      0.00000
     28       0.1364      0.00000
     29       0.3325      0.00000
     30       0.4415      0.00000
     31       0.6517      0.00000
     32       0.9346      0.00000

 k-point     2 :       0.2000    0.0000    0.0000
  band No.  band energies     occupation 
      1     -16.4555      2.00000
      2     -13.6531      2.00000
      3     -13.4340      2.00000
      4     -12.0915      2.00000
      5     -11.8330      2.00000
      6      -9.0292      2.00000
      7      -8.3523      2.00000
      8      -7.9672      2.00000
      9      -7.7505      2.00000
     10      -7.2312      2.00000
     11      -6.3600      2.00000
     12      -6.2523      2.00000
     13      -5.9167      2.00000
     14      -5.1706      2.00000
     15      -4.9046      2.00000
     16      -4.5658      2.00000
     17      -4.1667      2.00000
     18      -3.7820      2.00000
     19      -3.5524      2.00000
     20      -3.4774      2.00000
     21      -3.4097      2.00000
     22      -2.8422      2.00000
     23      -2.6228      2.00000
     24      -2.2009      2.00000
     25      -1.3328      0.00000
     26       0.0014      0.00000
     27       0.0794      0.00000
     28       0.2438      0.00000
     29       0.5023      0.00000
     30       0.6227      0.00000
     31       0.8357      0.00000
     32       1.1494      0.00000

 k-point     3 :       0.4000    0.0000    0.0000
  band No.  band energies     occupation 
      1     -16.4518      2.00000
      2     -13.3108      2.00000
      3     -13.0745      2.00000
      4     -12.7210      2.00000
      5     -12.4994      2.00000
      6      -8.9074      2.00000
      7      -7.9356      2.00000
      8      -7.4578      2.00000
      9      -7.1568      2.00000
     10      -6.7004      2.00000
     11      -6.4590      2.00000
     12      -6.0146      2.00000
     13      -5.7634      2.00000
     14      -5.4707      2.00000
     15      -5.0599      2.00000
     16      -4.9140      2.00000
     17      -4.7144      2.00000
     18      -4.4757      2.00000
     19      -4.1717      2.00000
     20      -3.8477      2.00000
     21      -3.5048      2.00000
     22      -3.1949      2.00000
     23      -2.6687      2.00000
     24      -2.2733      2.00000
     25      -0.9954      0.00000
     26      -0.2786      0.00000
     27       0.1955      0.00000
     28       0.7692      0.00000
     29       0.9223      0.00000
     30       1.2151      0.00000
     31       1.3967      0.00000
     32       1.6749      0.00000

 k-point     4 :       0.0000    0.3333    0.0000
  band No.  band energies     occupation 
      1     -16.4578      2.00000
      2     -13.7506      2.00000
      3     -13.5825      2.00000
      4     -11.7372      2.00000
      5     -11.4589      2.00000
      6      -9.1875      2.00000
      7      -8.5008      2.00000
      8      -8.2744      2.00000
      9      -8.1381      2.00000
     10      -7.4646      2.00000
     11      -7.1795      2.00000
     12      -5.4522      2.00000
     13      -5.3020      2.00000
     14      -4.9347      2.00000
     15      -4.7852      2.00000
     16      -4.6966      2.00000
     17      -4.2272      2.00000
     18      -3.9531      2.00000
     19      -3.4952      2.00000
     20      -3.1174      2.00000
     21      -2.8778      2.00000
     22      -2.7102      2.00000
     23      -2.6471      2.00000
     24      -2.1801      2.00000
     25      -1.1279      0.00000
     26      -0.4577      0.00000
     27      -0.2676      0.00000
     28      -0.0578      0.00000
     29       0.3686      0.00000
     30       0.6387      0.00000
     31       0.8479      0.00000
     32       0.9304      0.00000

 k-point     5 :       0.2000    0.3333    0.0000
  band No.  band energies     occupation 
      1     -16.4555      2.00000
      2     -13.6335      2.00000
      3     -13.4578      2.00000
      4     -12.0861      2.00000
      5     -11.8401      2.00000
      6      -9.0251      2.00000
      7      -8.0814      2.00000
      8      -7.9256      2.00000
      9      -7.8128      2.00000
     10      -7.3635      2.00000
     11      -7.1306      2.00000
     12      -6.0654      2.00000
     13      -5.4955      2.00000
     14      -5.1474      2.00000
     15      -4.6329      2.00000
     16      -4.5493      2.00000
     17      -4.1812      2.00000
     18      -3.6392      2.00000
     19      -3.4920      2.00000
     20      -3.4390      2.00000
     21      -3.3881      2.00000
     22      -3.0286      2.00000
     23      -2.7774      2.00000
     24      -2.6278      2.00000
     25      -0.9698      0.00000
     26      -0.3909      0.00000
     27      -0.0027      0.00000
     28       0.1574      0.00000
     29       0.5672      0.00000
     30       0.7596      0.00000
     31       0.8921      0.00000
     32       1.0515      0.00000

 k-point     6 :       0.4000    0.3333    0.0000
  band No.  band energies     occupation 
      1     -16.4518      2.00000
      2     -13.2961      2.00000
      3     -13.0920      2.00000
      4     -12.7095      2.00000
      5     -12.5145      2.00000
      6      -8.9065      2.00000
      7      -7.6992      2.00000
      8      -7.4139      2.00000
      9      -6.9787      2.00000
     10      -6.9122      2.00000
     11      -6.7076      2.00000
     12      -6.4409      2.00000
     13      -6.0776      2.00000
     14      -5.2908      2.00000
     15      -4.9787      2.00000
     16      -4.8934      2.00000
     17      -4.1834      2.00000
     18      -4.1489      2.00000
     19      -3.9528      2.00000
     20      -3.7300      2.00000
     21      -3.5011      2.00000
     22      -3.2238      2.00000
     23      -2.9360      2.00000
     24      -2.8114      2.00000
     25      -0.6538      0.00000
     26      -0.3146      0.00000
     27       0.0657      0.00000
     28       0.5536      0.00000
     29       0.9559      0.00000
     30       0.9722      0.00000
     31       1.2331      0.00000
     32       1.3333      0.00000

 k-point     7 :      -0.4000    0.3333    0.0000
  band No.  band energies     occupation 
      1     -16.4518      2.00000
      2     -13.2960      2.00000
      3     -13.0922      2.00000
      4     -12.7093      2.00000
      5     -12.5146      2.00000
      6      -8.9074      2.00000
      7      -7.6847      2.00000
      8      -7.4258      2.00000
      9      -7.0261      2.00000
     10      -6.8703      2.00000
     11      -6.7003      2.00000
     12      -6.4269      2.00000
     13      -6.0964      2.00000
     14      -5.3041      2.00000
     15      -4.9698      2.00000
     16      -4.8928      2.00000
     17      -4.2234      2.00000
     18      -4.1438      2.00000
     19      -3.8816      2.00000
     20      -3.7359      2.00000
     21      -3.4874      2.00000
     22      -3.2718      2.00000
     23      -2.9234      2.00000
     24      -2.8078      2.00000
     25      -0.7775      0.00000
     26      -0.0983      0.00000
     27       0.0424      0.00000
     28       0.4922      0.00000
     29       0.9019      0.00000
     30       0.9978      0.00000
     31       1.1918      0.00000
     32       1.3928      0.00000

 k-point     8 :      -0.2000    0.3333    0.0000
  band No.  band energies     occupation 
      1     -16.4555      2.00000
      2     -13.6334      2.00000
      3     -13.4579      2.00000
      4     -12.0860      2.00000
      5     -11.8402      2.00000
      6      -9.0263      2.00000
      7      -8.0824      2.00000
      8      -7.9226      2.00000
      9      -7.8071      2.00000
     10      -7.3620      2.00000
     11      -7.1423      2.00000
     12      -6.0469      2.00000
     13      -5.5132      2.00000
     14      -5.1597      2.00000
     15      -4.6539      2.00000
     16      -4.5456      2.00000
     17      -4.1451      2.00000
     18      -3.6413      2.00000
     19      -3.4889      2.00000
     20      -3.4370      2.00000
     21      -3.3672      2.00000
     22      -3.0312      2.00000
     23      -2.7618      2.00000
     24      -2.6503      2.00000
     25      -1.0822      0.00000
     26      -0.2626      0.00000
     27       0.0088      0.00000
     28       0.1669      0.00000
     29       0.5418      0.00000
     30       0.7054      0.00000
     31       0.8797      0.00000
     32       1.0810      0.00000


--------------------------------------------------------------------------------------------------------


 soft charge-density along one line, spin component           1
         0         1         2         3         4         5         6         7         8         9
 total charge-density along one line

 pseudopotential strength for first ion, spin component:           1
  7.445 -17.441  -0.004   0.001  -0.000   0.023  -0.003   0.000
-17.441  50.460   0.011  -0.002   0.000  -0.050   0.008  -0.000
 -0.004   0.011   1.743   0.000   0.000  -6.878  -0.002  -0.000
  0.001  -0.002   0.000   1.747   0.000  -0.002  -6.895  -0.000
 -0.000   0.000   0.000   0.000   1.743  -0.000  -0.000  -6.880
  0.023  -0.050  -6.878  -0.002  -0.000  29.267   0.010   0.001
 -0.003   0.008  -0.002  -6.895  -0.000   0.010  29.337   0.001
  0.000  -0.000  -0.000  -0.000  -6.880   0.001   0.001  29.273
  0.000  -0.000  -0.000   0.000  -0.003   0.000  -0.000   0.009
  0.002  -0.003   0.000  -0.003   0.000  -0.001   0.009  -0.000
  0.009  -0.011   0.001   0.001   0.000  -0.004  -0.002  -0.000
  0.000  -0.000   0.000  -0.000   0.000  -0.000   0.000  -0.001
  0.001  -0.001   0.002   0.000  -0.000  -0.006  -0.000   0.000
 -0.001   0.001   0.000  -0.000   0.012  -0.001   0.000  -0.043
 -0.010   0.017  -0.000   0.012  -0.000   0.002  -0.044   0.000
 -0.037   0.065  -0.005  -0.002  -0.000   0.019   0.008   0.000
 -0.001   0.002  -0.000   0.000  -0.001   0.000  -0.001   0.005
 -0.003   0.006  -0.009  -0.000   0.000   0.033   0.001  -0.000
 total augmentation occupancy for first ion, spin component:           1
  1.391   0.018  -0.030   0.012   0.001   0.005  -0.001  -0.000  -0.003  -0.028  -0.091  -0.003  -0.025  -0.000  -0.001  -0.005
  0.018   0.000   0.008  -0.002  -0.000   0.000  -0.000  -0.000  -0.000  -0.001  -0.002  -0.000   0.000  -0.000  -0.000  -0.000
 -0.030   0.008   1.298  -0.130  -0.007   0.019  -0.002  -0.000   0.002  -0.006  -0.072  -0.005   0.058   0.000  -0.001  -0.002
  0.012  -0.002  -0.130   0.419  -0.017  -0.002   0.005  -0.000  -0.005   0.057  -0.006   0.001  -0.017  -0.000   0.001   0.000
  0.001  -0.000  -0.007  -0.017   1.135  -0.000  -0.000   0.018   0.228  -0.005   0.002  -0.039  -0.003   0.007  -0.000   0.000
  0.005   0.000   0.019  -0.002  -0.000   0.000  -0.000  -0.000   0.000  -0.000  -0.001  -0.000   0.000   0.000  -0.000  -0.000
 -0.001  -0.000  -0.002   0.005  -0.000  -0.000   0.000  -0.000  -0.000   0.001   0.000   0.000  -0.000  -0.000   0.000   0.000
 -0.000  -0.000  -0.000  -0.000   0.018  -0.000  -0.000   0.000   0.004  -0.000   0.000  -0.001  -0.000   0.000  -0.000   0.000
 -0.003  -0.000   0.002  -0.005   0.228   0.000  -0.000   0.004   0.065  -0.001   0.000  -0.009  -0.000   0.002  -0.000   0.000
 -0.028  -0.001  -0.006   0.057  -0.005  -0.000   0.001  -0.000  -0.001   0.011  -0.000   0.000   0.004  -0.000   0.000   0.000
 -0.091  -0.002  -0.072  -0.006   0.002  -0.001   0.000   0.000   0.000  -0.000   0.012  -0.000  -0.004   0.000   0.000   0.001
 -0.003  -0.000  -0.005   0.001  -0.039  -0.000   0.000  -0.001  -0.009   0.000  -0.000   0.021  -0.001  -0.000   0.000   0.000
 -0.025   0.000   0.058  -0.017  -0.003   0.000  -0.000  -0.000  -0.000   0.004  -0.004  -0.001   0.042  -0.000   0.000  -0.000
 -0.000  -0.000   0.000  -0.000   0.007   0.000  -0.000   0.000   0.002  -0.000   0.000  -0.000  -0.000   0.000  -0.000   0.000
 -0.001  -0.000  -0.001   0.001  -0.000  -0.000   0.000  -0.000  -0.000   0.000   0.000   0.000   0.000  -0.000   0.000   0.000
 -0.005  -0.000  -0.002   0.000   0.000  -0.000   0.000   0.000   0.000   0.000   0.001   0.000  -0.000   0.000   0.000   0.000
 -0.000  -0.000  -0.000   0.000  -0.001  -0.000   0.000  -0.000  -0.000   0.000   0.000   0.000  -0.000  -0.000   0.000   0.000
 -0.001   0.000   0.001  -0.000  -0.000  -0.000  -0.000  -0.000  -0.000   0.000  -0.000  -0.000   0.001  -0.000   0.000  -0.000


------------------------ aborting loop because EDIFF is reached ----------------------------------------


    CHARGE:  cpu time    1.5338: real time    1.5338
    FORLOC:  cpu time    0.3021: real time    0.3021
    FORNL :  cpu time    6.7910: real time    6.7912
    STRESS:  cpu time   19.7907: real time   19.7912
    FORCOR:  cpu time    1.7696: real time    1.7696
    FORHAR:  cpu time    0.6962: real time    0.6962
    MIXING:  cpu time    0.0390: real time    0.0390
    OFIELD:  cpu time    0.0000: real time    0.0000

  FORCE on cell =-STRESS in cart. coord.  units (eV):
  Direction    XX          YY          ZZ          XY          YZ          ZX
  --------------------------------------------------------------------------------------
  Alpha Z    14.13034    14.13034    14.13034
  Ewald    2450.03458  2038.18422 -2996.99414    -2.08333    66.61037    15.76910
  Hartree  2493.67660  2191.39114 -2007.68422     3.34603    36.23575     8.64835
  E(xc)    -153.67134  -154.58274  -153.92353    -0.03169     0.17117     0.08920
  Local   -5440.62017 -4728.14525  4516.13267    -6.28493   -96.59225   -24.54408
  n-local   198.93958   209.81705   169.00009     0.13444    -0.30103     0.10360
  augment   -24.37176   -24.88148   -22.79863    -0.34773     0.40335    -0.02314
  Kinetic   463.40938   450.79811   481.04593     5.59147    -6.65010    -0.16739
  Fock        0.00000     0.00000     0.00000     0.00000     0.00000     0.00000
  -------------------------------------------------------------------------------------
  Total       1.52721    -3.28861    -1.09147     0.32425    -0.12274    -0.12436
  in kB       2.67265    -5.75513    -1.91010     0.56745    -0.21479    -0.21763
  external pressure =       -1.66 kB  Pullay stress =        0.00 kB


 VOLUME and BASIS-vectors are now :
 -----------------------------------------------------------------------------
  energy-cutoff  :      450.00
  volume of cell :      915.52
      direct lattice vectors                 reciprocal lattice vectors
     6.019200000  0.000000000  0.000000000     0.166135035  0.000000000  0.000000000
     0.000000000 10.140000000  0.000000000     0.000000000  0.098619329  0.000000000
     0.000000000  0.000000000 15.000000000     0.000000000  0.000000000  0.066666667

  length of vectors
     6.019200000 10.140000000 15.000000000     0.166135035  0.098619329  0.066666667


 FORCES acting on ions
    electron-ion (+dipol)            ewald-force                    non-local-force                 convergence-correction
 -----------------------------------------------------------------------------------------------
   -.805E+00 0.373E+02 0.377E+01   0.827E+00 -.349E+02 -.408E+01   -.180E-01 -.239E+01 0.319E+00   -.146E-04 0.136E-03 -.202E-03
   0.379E+00 0.438E+02 0.414E+02   -.308E+00 -.406E+02 -.404E+02   -.679E-01 -.322E+01 -.952E+00   0.117E-04 0.104E-03 -.140E-03
   -.657E+01 -.529E+02 0.105E+02   0.704E+01 0.514E+02 -.128E+02   -.460E+00 0.158E+01 0.238E+01   0.598E-04 0.164E-03 -.379E-03
   -.756E+00 -.496E+02 0.492E+02   0.178E+00 0.471E+02 -.482E+02   0.585E+00 0.248E+01 -.101E+01   -.796E-04 0.124E-03 -.320E-03
   0.192E+01 0.579E+02 0.552E+02   -.121E+01 -.554E+02 -.537E+02   -.709E+00 -.248E+01 -.148E+01   0.543E-04 -.218E-03 -.325E-03
   0.186E+01 0.608E+02 -.374E+01   -.211E+01 -.582E+02 0.291E+01   0.251E+00 -.261E+01 0.861E+00   -.529E-04 -.230E-03 -.352E-03
   0.111E+00 -.494E+02 0.398E+02   -.105E+00 0.463E+02 -.387E+02   -.419E-02 0.313E+01 -.102E+01   -.130E-04 -.306E-04 -.110E-03
   0.263E+00 -.484E+02 -.450E+01   -.302E+00 0.454E+02 0.390E+01   0.418E-01 0.304E+01 0.609E+00   0.126E-04 -.229E-04 -.207E-03
   0.494E+00 -.598E+01 0.222E+02   -.391E+00 0.589E+01 -.223E+02   -.100E+00 0.902E-01 0.512E-01   0.402E-05 0.325E-05 0.355E-05
   -.461E+00 -.588E+01 0.327E+02   0.352E+00 0.585E+01 -.332E+02   0.112E+00 0.321E-01 0.487E+00   0.131E-04 0.301E-04 0.743E-04
   0.115E+02 0.154E+02 0.184E+02   -.114E+02 -.154E+02 -.177E+02   -.867E-01 -.152E-01 -.633E+00   -.635E-05 -.133E-03 0.267E-03
   -.600E+01 0.903E+01 0.499E+02   0.581E+01 -.916E+01 -.505E+02   0.194E+00 0.138E+00 0.668E+00   0.123E-03 -.311E-04 -.575E-03
   -.460E+02 0.195E+01 -.243E+03   0.530E+02 -.570E+01 0.245E+03   -.704E+01 0.372E+01 -.218E+01   0.450E-03 0.152E-02 -.164E-02
   0.296E+02 -.334E+02 -.434E+02   -.326E+02 0.363E+02 0.441E+02   0.307E+01 -.288E+01 -.762E+00   0.203E-03 0.117E-04 -.290E-03
   0.173E+02 0.177E+02 -.267E+02   -.187E+02 -.189E+02 0.255E+02   0.142E+01 0.120E+01 0.110E+01   -.277E-04 0.208E-04 -.396E-03
 -----------------------------------------------------------------------------------------------
   0.282E+01 -.182E+01 0.158E+01   0.000E+00 -.355E-13 0.000E+00   -.282E+01 0.181E+01 -.157E+01   0.737E-03 0.145E-02 -.459E-02


 POSITION                                       TOTAL-FORCE (eV/Angst)
 -----------------------------------------------------------------------------------
      2.64667      8.91027      3.84855         0.003890      0.002795      0.007439
      5.64894      8.90760      3.47842         0.002809      0.003283      0.002470
      2.70282      6.32780      4.26815         0.016565      0.009430      0.050225
      5.66436      6.28401      3.67585         0.007884      0.002826      0.023852
      2.62190      3.86855      3.59329         0.001590      0.006760      0.014670
      5.62875      3.82156      4.07456        -0.000714     -0.000303      0.023885
      2.63070      1.23171      3.44818         0.001798      0.003372     -0.000164
      5.64580      1.21994      3.83840         0.002741      0.001822      0.004479
      1.13452     10.13598      3.65832         0.003193      0.003092      0.003809
      4.14239      0.00469      3.58514         0.002942      0.003851     -0.002652
      1.13715      5.05946      4.14036         0.004339      0.000263      0.073458
      4.14428      5.06067      3.79093         0.004181      0.003645      0.001629
      2.47688      6.05699      6.83053        -0.014260     -0.021946     -0.035283
      1.50023      6.96957      7.06190        -0.010901     -0.015848     -0.034301
      1.60057      5.34366      5.80742        -0.026057     -0.003042     -0.133514
 -----------------------------------------------------------------------------------
    total drift:                                0.001606     -0.001681      0.003020


--------------------------------------------------------------------------------------------------------



  FREE ENERGIE OF THE ION-ELECTRON SYSTEM (eV)
  ---------------------------------------------------
  free  energy   TOTEN  =       -71.57265265 eV

  energy  without entropy=      -71.57265265  energy(sigma->0) =      -71.57265265

 d Force = 0.2199509E-03[ 0.217E-03, 0.223E-03]  d Energy = 0.2177511E-03 0.220E-05
 d Force =-0.4975183E-01[-0.497E-01,-0.498E-01]  d Ewald  =-0.4975183E-01-0.398E-08


--------------------------------------------------------------------------------------------------------


    POTLOK:  cpu time    1.7352: real time    1.7353


--------------------------------------------------------------------------------------------------------


 NEB: the previous image is higher in energy: F
 NEB: the next image is higher in energy    : F
 NEB: image is at an extrema
 NEB: diff energy (min, max):     0.694745   71.572653

 NEB: Tangent
 ----------------------------------------------
      0.02227      0.02266      0.04514
      0.01594      0.01847      0.01938
      0.09144      0.05218      0.26064
      0.03856      0.01833      0.14429
      0.00684      0.03414      0.09675
     -0.00135      0.00065      0.14969
      0.00975      0.02073     -0.00076
      0.01578      0.01330      0.02864
      0.01695      0.01704      0.01962
      0.01580      0.02441     -0.02113
      0.02408      0.01058      0.38662
      0.02552      0.01646      0.02684
     -0.09301     -0.15417     -0.18529
     -0.05553     -0.10278     -0.22398
     -0.13304      0.00801     -0.74644

 NEB: forces: par spring, perp REAL, dneb     0.007358    0.013383    0.000000
 NEB: distance to prev, next image, angle between     0.516080    0.517552  136.263204
 NEB: projections on to tangent (spring, REAL)     0.007358    0.178417

 stress matrix after NEB project (eV)
      1.52721      0.32425     -0.12436
      0.32425     -3.28861     -0.12274
     -0.12436     -0.12274     -1.09147
  FORCES: max atom, RMS     0.008020    0.003943
  FORCE total and by dimension    0.015272    0.007322
  Stress total and by dimension    3.822303    3.288611
 Quasi-Newton relaxation of ions (Broydens 2nd method)
  g(Force)  = 0.472E-04   g(Stress)= 0.000E+00

 retain information from N=  3 steps
 eigenvalues of (default step * inverse Hessian matrix)
  average eigenvalue of G=   5.9495
 eigenvalue spectrum of G is  2.0450  7.9018  7.9018


--------------------------------------------------------------------------------------------------------


    WAVPRE:  cpu time    0.7260: real time    1.6166
    FEWALD:  cpu time    0.0036: real time    0.0036
    ORTHCH:  cpu time    3.4961: real time    3.4962
     LOOP+:  cpu time  211.5676: real time  214.2903


--------------------------------------- Iteration      5(   1)  ---------------------------------------


    POTLOK:  cpu time    2.4675: real time    2.4684
    SETDIJ:  cpu time    0.0650: real time    0.0650
     EDDAV:  cpu time   29.7204: real time   29.7940
       DOS:  cpu time    0.0007: real time    0.0008
    CHARGE:  cpu time    2.1700: real time    2.1731
    MIXING:  cpu time    0.0411: real time    0.0411
    --------------------------------------------
      LOOP:  cpu time   34.4649: real time   34.5425

 eigenvalue-minimisations  :   512
 total energy-change (2. order) :-0.1818058E-03  (-0.4108270E-03)
 number of electron      47.9999998 magnetization 
 augmentation part       -0.7501210 magnetization 

 Broyden mixing:
  rms(total) = 0.11887E-02    rms(broyden)= 0.11866E-02
  rms(prec ) = 0.14094E-02
  weight for this iteration     100.00

 Free energy of the ion-electron system (eV)
  ---------------------------------------------------
  alpha Z        PSCENC =        14.13034224
  Ewald energy   TEWEN  =      1491.27870155
  -Hartree energ DENC   =     -2677.46585437
  -exchange      EXHF   =         0.00000000
  -V(xc)+E(xc)   XCENC  =      -140.53767083
  PAW double counting   =      1740.39128112    -1482.85076537
  entropy T*S    EENTRO =        -0.00000000
  eigenvalues    EBANDS =      -335.16076152
  atomic energy  EATOM  =      1318.64189276
  Solvation  Ediel_sol  =         0.00000000
  ---------------------------------------------------
  free energy    TOTEN  =       -71.57283442 eV

  energy without entropy =      -71.57283442  energy(sigma->0) =      -71.57283442


--------------------------------------------------------------------------------------------------------




--------------------------------------- Iteration      5(   2)  ---------------------------------------


    POTLOK:  cpu time    2.1583: real time    2.1600
    SETDIJ:  cpu time    0.0590: real time    0.0590
     EDDAV:  cpu time   41.0108: real time   41.0593
       DOS:  cpu time    0.0008: real time    0.0009
    CHARGE:  cpu time    2.0584: real time    2.0603
    MIXING:  cpu time    0.0430: real time    0.0430
    --------------------------------------------
      LOOP:  cpu time   45.3303: real time   45.3825

 eigenvalue-minimisations  :   768
 total energy-change (2. order) :-0.1532639E-04  (-0.1984971E-04)
 number of electron      47.9999998 magnetization 
 augmentation part       -0.7501411 magnetization 

 Broyden mixing:
  rms(total) = 0.75116E-03    rms(broyden)= 0.75069E-03
  rms(prec ) = 0.92414E-03
  weight for this iteration     100.00

 eigenvalues of (default mixing * dielectric matrix)
  average eigenvalue GAMMA=   0.8520
  0.8520

 Free energy of the ion-electron system (eV)
  ---------------------------------------------------
  alpha Z        PSCENC =        14.13034224
  Ewald energy   TEWEN  =      1491.27870155
  -Hartree energ DENC   =     -2677.45813240
  -exchange      EXHF   =         0.00000000
  -V(xc)+E(xc)   XCENC  =      -140.53797036
  PAW double counting   =      1740.34152183    -1482.80092326
  entropy T*S    EENTRO =        -0.00000000
  eigenvalues    EBANDS =      -335.16828210
  atomic energy  EATOM  =      1318.64189276
  Solvation  Ediel_sol  =         0.00000000
  ---------------------------------------------------
  free energy    TOTEN  =       -71.57284975 eV

  energy without entropy =      -71.57284975  energy(sigma->0) =      -71.57284975


--------------------------------------------------------------------------------------------------------




--------------------------------------- Iteration      5(   3)  ---------------------------------------


    POTLOK:  cpu time    2.1617: real time    2.1638
    SETDIJ:  cpu time    0.0664: real time    0.0664
     EDDAV:  cpu time   34.6810: real time   34.7343
       DOS:  cpu time    0.0005: real time    0.0006
    CHARGE:  cpu time    1.7475: real time    1.7482
    MIXING:  cpu time    0.0431: real time    0.0431
    --------------------------------------------
      LOOP:  cpu time   38.7003: real time   38.7563

 eigenvalue-minimisations  :   656
 total energy-change (2. order) : 0.1357798E-05  (-0.5659648E-06)
 number of electron      47.9999998 magnetization 
 augmentation part       -0.7501250 magnetization 

 Broyden mixing:
  rms(total) = 0.46396E-03    rms(broyden)= 0.46390E-03
  rms(prec ) = 0.56898E-03
  weight for this iteration     100.00

 eigenvalues of (default mixing * dielectric matrix)
  average eigenvalue GAMMA=   1.4539
  1.0316  1.8761

 Free energy of the ion-electron system (eV)
  ---------------------------------------------------
  alpha Z        PSCENC =        14.13034224
  Ewald energy   TEWEN  =      1491.27870155
  -Hartree energ DENC   =     -2677.45358140
  -exchange      EXHF   =         0.00000000
  -V(xc)+E(xc)   XCENC  =      -140.53813094
  PAW double counting   =      1740.31252969    -1482.77183915
  entropy T*S    EENTRO =        -0.00000000
  eigenvalues    EBANDS =      -335.17276315
  atomic energy  EATOM  =      1318.64189276
  Solvation  Ediel_sol  =         0.00000000
  ---------------------------------------------------
  free energy    TOTEN  =       -71.57284839 eV

  energy without entropy =      -71.57284839  energy(sigma->0) =      -71.57284839


--------------------------------------------------------------------------------------------------------




--------------------------------------- Iteration      5(   4)  ---------------------------------------


    POTLOK:  cpu time    1.9226: real time    1.9241
    SETDIJ:  cpu time    0.0485: real time    0.0486
     EDDAV:  cpu time   27.5368: real time   27.5587
       DOS:  cpu time    0.0005: real time    0.0005
    --------------------------------------------
      LOOP:  cpu time   29.5084: real time   29.5318

 eigenvalue-minimisations  :   632
 total energy-change (2. order) : 0.8230468E-06  (-0.3287046E-06)
 number of electron      47.9999998 magnetization 
 augmentation part       -0.7501250 magnetization 

 Free energy of the ion-electron system (eV)
  ---------------------------------------------------
  alpha Z        PSCENC =        14.13034224
  Ewald energy   TEWEN  =      1491.27870155
  -Hartree energ DENC   =     -2677.44772377
  -exchange      EXHF   =         0.00000000
  -V(xc)+E(xc)   XCENC  =      -140.53823128
  PAW double counting   =      1740.27418906    -1482.73340068
  entropy T*S    EENTRO =        -0.00000000
  eigenvalues    EBANDS =      -335.17861745
  atomic energy  EATOM  =      1318.64189276
  Solvation  Ediel_sol  =         0.00000000
  ---------------------------------------------------
  free energy    TOTEN  =       -71.57284757 eV

  energy without entropy =      -71.57284757  energy(sigma->0) =      -71.57284757


--------------------------------------------------------------------------------------------------------




 average (electrostatic) potential at core
  the test charge radii are     1.0406  0.6991  1.0339  0.5883
  (the norm of the test charge is              1.0000)
       1 -59.0523       2 -59.1703       3 -59.2948       4 -59.3342       5 -59.2141
       6 -59.2381       7 -59.1555       8 -59.1323       9 -55.0324      10 -55.0306
      11 -55.2895      12 -55.1440      13 -97.6160      14 -38.8983      15 -37.7625



 E-fermi :  -1.9351     XC(G=0):  -3.2353     alpha+bet : -2.6874


 k-point     1 :       0.0000    0.0000    0.0000
  band No.  band energies     occupation 
      1     -16.4536      2.00000
      2     -13.7727      2.00000
      3     -13.5573      2.00000
      4     -11.7412      2.00000
      5     -11.4560      2.00000
      6      -9.1926      2.00000
      7      -8.5525      2.00000
      8      -8.4724      2.00000
      9      -8.1459      2.00000
     10      -7.2449      2.00000
     11      -6.4357      2.00000
     12      -6.0375      2.00000
     13      -5.4633      2.00000
     14      -5.3848      2.00000
     15      -4.7319      2.00000
     16      -4.6689      2.00000
     17      -4.2326      2.00000
     18      -4.1467      2.00000
     19      -3.2424      2.00000
     20      -2.8900      2.00000
     21      -2.7102      2.00000
     22      -2.6596      2.00000
     23      -2.2400      2.00000
     24      -2.1789      2.00000
     25      -1.3216      0.00000
     26      -0.8150      0.00000
     27      -0.1773      0.00000
     28       0.1355      0.00000
     29       0.3314      0.00000
     30       0.4420      0.00000
     31       0.6517      0.00000
     32       0.9338      0.00000

 k-point     2 :       0.2000    0.0000    0.0000
  band No.  band energies     occupation 
      1     -16.4513      2.00000
      2     -13.6541      2.00000
      3     -13.4344      2.00000
      4     -12.0930      2.00000
      5     -11.8334      2.00000
      6      -9.0280      2.00000
      7      -8.3525      2.00000
      8      -7.9672      2.00000
      9      -7.7505      2.00000
     10      -7.2288      2.00000
     11      -6.3604      2.00000
     12      -6.2526      2.00000
     13      -5.9172      2.00000
     14      -5.1701      2.00000
     15      -4.9050      2.00000
     16      -4.5659      2.00000
     17      -4.1672      2.00000
     18      -3.7829      2.00000
     19      -3.5532      2.00000
     20      -3.4775      2.00000
     21      -3.4099      2.00000
     22      -2.8430      2.00000
     23      -2.6235      2.00000
     24      -2.2014      2.00000
     25      -1.3330      0.00000
     26      -0.0000      0.00000
     27       0.0790      0.00000
     28       0.2434      0.00000
     29       0.5018      0.00000
     30       0.6228      0.00000
     31       0.8358      0.00000
     32       1.1485      0.00000

 k-point     3 :       0.4000    0.0000    0.0000
  band No.  band energies     occupation 
      1     -16.4476      2.00000
      2     -13.3120      2.00000
      3     -13.0749      2.00000
      4     -12.7220      2.00000
      5     -12.4998      2.00000
      6      -8.9055      2.00000
      7      -7.9357      2.00000
      8      -7.4568      2.00000
      9      -7.1570      2.00000
     10      -6.7003      2.00000
     11      -6.4592      2.00000
     12      -6.0151      2.00000
     13      -5.7637      2.00000
     14      -5.4710      2.00000
     15      -5.0597      2.00000
     16      -4.9146      2.00000
     17      -4.7148      2.00000
     18      -4.4756      2.00000
     19      -4.1718      2.00000
     20      -3.8480      2.00000
     21      -3.5050      2.00000
     22      -3.1955      2.00000
     23      -2.6691      2.00000
     24      -2.2738      2.00000
     25      -0.9956      0.00000
     26      -0.2789      0.00000
     27       0.1932      0.00000
     28       0.7688      0.00000
     29       0.9221      0.00000
     30       1.2153      0.00000
     31       1.3962      0.00000
     32       1.6743      0.00000

 k-point     4 :       0.0000    0.3333    0.0000
  band No.  band energies     occupation 
      1     -16.4536      2.00000
      2     -13.7516      2.00000
      3     -13.5829      2.00000
      4     -11.7390      2.00000
      5     -11.4592      2.00000
      6      -9.1869      2.00000
      7      -8.5010      2.00000
      8      -8.2746      2.00000
      9      -8.1369      2.00000
     10      -7.4645      2.00000
     11      -7.1773      2.00000
     12      -5.4522      2.00000
     13      -5.3024      2.00000
     14      -4.9352      2.00000
     15      -4.7856      2.00000
     16      -4.6967      2.00000
     17      -4.2274      2.00000
     18      -3.9532      2.00000
     19      -3.4954      2.00000
     20      -3.1179      2.00000
     21      -2.8792      2.00000
     22      -2.7105      2.00000
     23      -2.6493      2.00000
     24      -2.1804      2.00000
     25      -1.1282      0.00000
     26      -0.4585      0.00000
     27      -0.2678      0.00000
     28      -0.0578      0.00000
     29       0.3690      0.00000
     30       0.6382      0.00000
     31       0.8474      0.00000
     32       0.9297      0.00000

 k-point     5 :       0.2000    0.3333    0.0000
  band No.  band energies     occupation 
      1     -16.4513      2.00000
      2     -13.6346      2.00000
      3     -13.4581      2.00000
      4     -12.0876      2.00000
      5     -11.8404      2.00000
      6      -9.0239      2.00000
      7      -8.0817      2.00000
      8      -7.9257      2.00000
      9      -7.8127      2.00000
     10      -7.3629      2.00000
     11      -7.1289      2.00000
     12      -6.0658      2.00000
     13      -5.4957      2.00000
     14      -5.1472      2.00000
     15      -4.6333      2.00000
     16      -4.5494      2.00000
     17      -4.1816      2.00000
     18      -3.6407      2.00000
     19      -3.4924      2.00000
     20      -3.4393      2.00000
     21      -3.3882      2.00000
     22      -3.0289      2.00000
     23      -2.7783      2.00000
     24      -2.6282      2.00000
     25      -0.9699      0.00000
     26      -0.3922      0.00000
     27      -0.0030      0.00000
     28       0.1567      0.00000
     29       0.5674      0.00000
     30       0.7591      0.00000
     31       0.8920      0.00000
     32       1.0510      0.00000

 k-point     6 :       0.4000    0.3333    0.0000
  band No.  band energies     occupation 
      1     -16.4476      2.00000
      2     -13.2975      2.00000
      3     -13.0923      2.00000
      4     -12.7107      2.00000
      5     -12.5148      2.00000
      6      -8.9046      2.00000
      7      -7.6992      2.00000
      8      -7.4130      2.00000
      9      -6.9791      2.00000
     10      -6.9126      2.00000
     11      -6.7074      2.00000
     12      -6.4410      2.00000
     13      -6.0778      2.00000
     14      -5.2909      2.00000
     15      -4.9788      2.00000
     16      -4.8935      2.00000
     17      -4.1840      2.00000
     18      -4.1491      2.00000
     19      -3.9533      2.00000
     20      -3.7302      2.00000
     21      -3.5013      2.00000
     22      -3.2243      2.00000
     23      -2.9365      2.00000
     24      -2.8114      2.00000
     25      -0.6542      0.00000
     26      -0.3164      0.00000
     27       0.0652      0.00000
     28       0.5537      0.00000
     29       0.9550      0.00000
     30       0.9718      0.00000
     31       1.2330      0.00000
     32       1.3332      0.00000

 k-point     7 :      -0.4000    0.3333    0.0000
  band No.  band energies     occupation 
      1     -16.4476      2.00000
      2     -13.2973      2.00000
      3     -13.0925      2.00000
      4     -12.7104      2.00000
      5     -12.5149      2.00000
      6      -8.9056      2.00000
      7      -7.6845      2.00000
      8      -7.4251      2.00000
      9      -7.0265      2.00000
     10      -6.8706      2.00000
     11      -6.7001      2.00000
     12      -6.4269      2.00000
     13      -6.0967      2.00000
     14      -5.3043      2.00000
     15      -4.9700      2.00000
     16      -4.8929      2.00000
     17      -4.2241      2.00000
     18      -4.1440      2.00000
     19      -3.8816      2.00000
     20      -3.7363      2.00000
     21      -3.4876      2.00000
     22      -3.2725      2.00000
     23      -2.9238      2.00000
     24      -2.8078      2.00000
     25      -0.7785      0.00000
     26      -0.0990      0.00000
     27       0.0417      0.00000
     28       0.4921      0.00000
     29       0.9009      0.00000
     30       0.9973      0.00000
     31       1.1917      0.00000
     32       1.3923      0.00000

 k-point     8 :      -0.2000    0.3333    0.0000
  band No.  band energies     occupation 
      1     -16.4513      2.00000
      2     -13.6345      2.00000
      3     -13.4582      2.00000
      4     -12.0875      2.00000
      5     -11.8405      2.00000
      6      -9.0251      2.00000
      7      -8.0828      2.00000
      8      -7.9226      2.00000
      9      -7.8069      2.00000
     10      -7.3617      2.00000
     11      -7.1406      2.00000
     12      -6.0472      2.00000
     13      -5.5135      2.00000
     14      -5.1596      2.00000
     15      -4.6544      2.00000
     16      -4.5456      2.00000
     17      -4.1454      2.00000
     18      -3.6426      2.00000
     19      -3.4893      2.00000
     20      -3.4373      2.00000
     21      -3.3672      2.00000
     22      -3.0315      2.00000
     23      -2.7629      2.00000
     24      -2.6506      2.00000
     25      -1.0829      0.00000
     26      -0.2630      0.00000
     27       0.0084      0.00000
     28       0.1661      0.00000
     29       0.5419      0.00000
     30       0.7046      0.00000
     31       0.8795      0.00000
     32       1.0803      0.00000


--------------------------------------------------------------------------------------------------------


 soft charge-density along one line, spin component           1
         0         1         2         3         4         5         6         7         8         9
 total charge-density along one line

 pseudopotential strength for first ion, spin component:           1
  7.445 -17.441  -0.004   0.001  -0.000   0.023  -0.003   0.000
-17.441  50.460   0.011  -0.002   0.000  -0.050   0.007  -0.000
 -0.004   0.011   1.743   0.000   0.000  -6.878  -0.002  -0.000
  0.001  -0.002   0.000   1.747   0.000  -0.002  -6.895  -0.000
 -0.000   0.000   0.000   0.000   1.743  -0.000  -0.000  -6.880
  0.023  -0.050  -6.878  -0.002  -0.000  29.267   0.010   0.001
 -0.003   0.007  -0.002  -6.895  -0.000   0.010  29.337   0.001
  0.000  -0.000  -0.000  -0.000  -6.880   0.001   0.001  29.273
  0.000  -0.000  -0.000   0.000  -0.003   0.000  -0.000   0.009
  0.002  -0.003   0.000  -0.003   0.000  -0.001   0.009  -0.000
  0.009  -0.011   0.001   0.001   0.000  -0.004  -0.002  -0.000
  0.000  -0.000   0.000  -0.000   0.000  -0.000   0.000  -0.001
  0.001  -0.001   0.002   0.000  -0.000  -0.006  -0.000   0.000
 -0.001   0.001   0.000  -0.000   0.012  -0.001   0.000  -0.043
 -0.010   0.017  -0.000   0.012  -0.000   0.002  -0.044   0.000
 -0.037   0.065  -0.005  -0.002  -0.000   0.019   0.008   0.000
 -0.001   0.002  -0.000   0.000  -0.001   0.000  -0.001   0.005
 -0.003   0.006  -0.009  -0.000   0.000   0.033   0.001  -0.000
 total augmentation occupancy for first ion, spin component:           1
  1.391   0.018  -0.031   0.012   0.001   0.005  -0.001  -0.000  -0.003  -0.028  -0.091  -0.003  -0.025  -0.000  -0.001  -0.005
  0.018   0.000   0.008  -0.002  -0.000   0.000  -0.000  -0.000  -0.000  -0.001  -0.002  -0.000   0.000  -0.000  -0.000  -0.000
 -0.031   0.008   1.298  -0.130  -0.007   0.019  -0.002  -0.000   0.002  -0.006  -0.072  -0.005   0.058   0.000  -0.001  -0.002
  0.012  -0.002  -0.130   0.419  -0.017  -0.002   0.005  -0.000  -0.005   0.057  -0.006   0.001  -0.017  -0.000   0.001   0.000
  0.001  -0.000  -0.007  -0.017   1.134  -0.000  -0.000   0.018   0.228  -0.005   0.002  -0.039  -0.003   0.007  -0.000   0.000
  0.005   0.000   0.019  -0.002  -0.000   0.000  -0.000  -0.000   0.000  -0.000  -0.001  -0.000   0.000   0.000  -0.000  -0.000
 -0.001  -0.000  -0.002   0.005  -0.000  -0.000   0.000  -0.000  -0.000   0.001   0.000   0.000  -0.000  -0.000   0.000   0.000
 -0.000  -0.000  -0.000  -0.000   0.018  -0.000  -0.000   0.000   0.004  -0.000   0.000  -0.001  -0.000   0.000  -0.000   0.000
 -0.003  -0.000   0.002  -0.005   0.228   0.000  -0.000   0.004   0.065  -0.001   0.000  -0.008  -0.000   0.002  -0.000   0.000
 -0.028  -0.001  -0.006   0.057  -0.005  -0.000   0.001  -0.000  -0.001   0.011  -0.000   0.000   0.004  -0.000   0.000   0.000
 -0.091  -0.002  -0.072  -0.006   0.002  -0.001   0.000   0.000   0.000  -0.000   0.012  -0.000  -0.004   0.000   0.000   0.001
 -0.003  -0.000  -0.005   0.001  -0.039  -0.000   0.000  -0.001  -0.008   0.000  -0.000   0.021  -0.001  -0.000   0.000   0.000
 -0.025   0.000   0.058  -0.017  -0.003   0.000  -0.000  -0.000  -0.000   0.004  -0.004  -0.001   0.042  -0.000   0.000  -0.000
 -0.000  -0.000   0.000  -0.000   0.007   0.000  -0.000   0.000   0.002  -0.000   0.000  -0.000  -0.000   0.000  -0.000   0.000
 -0.001  -0.000  -0.001   0.001  -0.000  -0.000   0.000  -0.000  -0.000   0.000   0.000   0.000   0.000  -0.000   0.000   0.000
 -0.005  -0.000  -0.002   0.000   0.000  -0.000   0.000   0.000   0.000   0.000   0.001   0.000  -0.000   0.000   0.000   0.000
 -0.000  -0.000  -0.000   0.000  -0.001  -0.000   0.000  -0.000  -0.000   0.000   0.000   0.000  -0.000  -0.000   0.000   0.000
 -0.001   0.000   0.001  -0.000  -0.000  -0.000  -0.000  -0.000  -0.000   0.000  -0.000  -0.000   0.001  -0.000   0.000  -0.000


------------------------ aborting loop because EDIFF is reached ----------------------------------------


    CHARGE:  cpu time    1.7088: real time    1.7101
    FORLOC:  cpu time    0.3227: real time    0.3232
    FORNL :  cpu time    6.7818: real time    6.7848
    STRESS:  cpu time   19.7354: real time   19.7477
    FORCOR:  cpu time    1.7646: real time    1.7656
    FORHAR:  cpu time    0.6950: real time    0.6952
    MIXING:  cpu time    0.0385: real time    0.0385
    OFIELD:  cpu time    0.0000: real time    0.0000

  FORCE on cell =-STRESS in cart. coord.  units (eV):
  Direction    XX          YY          ZZ          XY          YZ          ZX
  --------------------------------------------------------------------------------------
  Alpha Z    14.13034    14.13034    14.13034
  Ewald    2450.03335  2038.19269 -2996.94880    -2.00949    66.69328    15.72632
  Hartree  2493.70497  2191.44664 -2007.72217     3.37376    36.27325     8.65412
  E(xc)    -153.66886  -154.58060  -153.92157    -0.03163     0.17153     0.08910
  Local   -5440.63912 -4728.22103  4516.13015    -6.38417   -96.71740   -24.53085
  n-local   198.93246   209.81220   169.01065     0.13610    -0.29975     0.10268
  augment   -24.37104   -24.88200   -22.79940    -0.34786     0.40270    -0.02459
  Kinetic   463.39299   450.80740   481.01758     5.59289    -6.65136    -0.14019
  Fock        0.00000     0.00000     0.00000     0.00000     0.00000     0.00000
  -------------------------------------------------------------------------------------
  Total       1.51509    -3.29436    -1.10322     0.32959    -0.12775    -0.12341
  in kB       2.65144    -5.76518    -1.93065     0.57678    -0.22357    -0.21596
  external pressure =       -1.68 kB  Pullay stress =        0.00 kB


 VOLUME and BASIS-vectors are now :
 -----------------------------------------------------------------------------
  energy-cutoff  :      450.00
  volume of cell :      915.52
      direct lattice vectors                 reciprocal lattice vectors
     6.019200000  0.000000000  0.000000000     0.166135035  0.000000000  0.000000000
     0.000000000 10.140000000  0.000000000     0.000000000  0.098619329  0.000000000
     0.000000000  0.000000000 15.000000000     0.000000000  0.000000000  0.066666667

  length of vectors
     6.019200000 10.140000000 15.000000000     0.166135035  0.098619329  0.066666667


 FORCES acting on ions
    electron-ion (+dipol)            ewald-force                    non-local-force                 convergence-correction
 -----------------------------------------------------------------------------------------------
   -.803E+00 0.373E+02 0.379E+01   0.825E+00 -.349E+02 -.410E+01   -.183E-01 -.238E+01 0.317E+00   0.308E-04 0.224E-03 -.164E-03
   0.377E+00 0.438E+02 0.414E+02   -.306E+00 -.406E+02 -.404E+02   -.674E-01 -.322E+01 -.953E+00   -.355E-04 0.166E-03 -.632E-04
   -.658E+01 -.529E+02 0.104E+02   0.706E+01 0.514E+02 -.128E+02   -.460E+00 0.157E+01 0.238E+01   0.206E-03 0.138E-04 -.463E-03
   -.775E+00 -.496E+02 0.493E+02   0.194E+00 0.471E+02 -.482E+02   0.590E+00 0.247E+01 -.101E+01   -.195E-03 0.123E-04 -.234E-03
   0.193E+01 0.579E+02 0.552E+02   -.122E+01 -.554E+02 -.537E+02   -.712E+00 -.248E+01 -.148E+01   0.150E-03 -.124E-03 -.249E-03
   0.186E+01 0.608E+02 -.370E+01   -.212E+01 -.582E+02 0.287E+01   0.251E+00 -.260E+01 0.859E+00   -.146E-03 -.130E-03 -.323E-03
   0.109E+00 -.494E+02 0.398E+02   -.103E+00 0.463E+02 -.387E+02   -.355E-02 0.313E+01 -.102E+01   0.620E-05 -.640E-04 -.405E-04
   0.263E+00 -.484E+02 -.449E+01   -.302E+00 0.454E+02 0.389E+01   0.419E-01 0.304E+01 0.609E+00   -.331E-05 -.686E-04 -.170E-03
   0.493E+00 -.598E+01 0.222E+02   -.389E+00 0.589E+01 -.222E+02   -.101E+00 0.903E-01 0.488E-01   -.358E-04 0.642E-04 0.430E-04
   -.458E+00 -.588E+01 0.327E+02   0.348E+00 0.585E+01 -.332E+02   0.113E+00 0.322E-01 0.484E+00   0.480E-04 0.386E-04 0.101E-03
   0.116E+02 0.154E+02 0.183E+02   -.115E+02 -.154E+02 -.176E+02   -.863E-01 -.138E-01 -.634E+00   -.348E-04 -.101E-03 0.223E-04
   -.600E+01 0.902E+01 0.499E+02   0.581E+01 -.915E+01 -.506E+02   0.195E+00 0.137E+00 0.669E+00   0.126E-04 -.242E-04 -.234E-03
   -.460E+02 0.192E+01 -.243E+03   0.530E+02 -.567E+01 0.245E+03   -.705E+01 0.372E+01 -.218E+01   0.614E-03 0.107E-02 -.221E-02
   0.296E+02 -.334E+02 -.434E+02   -.326E+02 0.362E+02 0.441E+02   0.306E+01 -.288E+01 -.765E+00   0.108E-03 0.101E-03 -.341E-03
   0.173E+02 0.177E+02 -.268E+02   -.187E+02 -.189E+02 0.256E+02   0.141E+01 0.119E+01 0.109E+01   -.398E-04 -.157E-04 -.522E-03
 -----------------------------------------------------------------------------------------------
   0.283E+01 -.182E+01 0.160E+01   0.355E-14 0.000E+00 0.355E-14   -.283E+01 0.181E+01 -.160E+01   0.685E-03 0.116E-02 -.485E-02


 POSITION                                       TOTAL-FORCE (eV/Angst)
 -----------------------------------------------------------------------------------
      2.64669      8.91016      3.84851         0.003876      0.003657      0.007752
      5.64896      8.90762      3.47832         0.003279      0.003093      0.002776
      2.70294      6.32787      4.26890         0.016769      0.009587      0.050290
      5.66449      6.28400      3.67568         0.008121      0.003091      0.025419
      2.62196      3.86867      3.59302         0.001208      0.006337      0.015761
      5.62871      3.82149      4.07431        -0.001240     -0.000719      0.025504
      2.63072      1.23168      3.44819         0.002094      0.003329     -0.000265
      5.64583      1.21990      3.83838         0.002849      0.002213      0.004493
      1.13455     10.13598      3.65842         0.003214      0.002635      0.003415
      4.14241      0.00467      3.58530         0.002636      0.003684     -0.003206
      1.13720      5.05931      4.14126         0.003735      0.000909      0.074260
      4.14430      5.06076      3.79062         0.004767      0.003875      0.001936
      2.47710      6.05768      6.83008        -0.016709     -0.022184     -0.034085
      1.50002      6.96979      7.06241        -0.008317     -0.018725     -0.036660
      1.60007      5.34288      5.80661        -0.026280     -0.000780     -0.137390
 -----------------------------------------------------------------------------------
    total drift:                                0.000909     -0.001814      0.001665


--------------------------------------------------------------------------------------------------------



  FREE ENERGIE OF THE ION-ELECTRON SYSTEM (eV)
  ---------------------------------------------------
  free  energy   TOTEN  =       -71.57284757 eV

  energy  without entropy=      -71.57284757  energy(sigma->0) =      -71.57284757

 d Force = 0.1951355E-03[ 0.194E-03, 0.197E-03]  d Energy = 0.1949160E-03 0.220E-06
 d Force =-0.5257167E-01[-0.525E-01,-0.526E-01]  d Ewald  =-0.5257165E-01-0.270E-07


--------------------------------------------------------------------------------------------------------


    POTLOK:  cpu time    1.7284: real time    1.7292


--------------------------------------------------------------------------------------------------------


 NEB: the previous image is higher in energy: F
 NEB: the next image is higher in energy    : F
 NEB: image is at an extrema
 NEB: diff energy (min, max):     0.698836   71.572848

 NEB: Tangent
 ----------------------------------------------
      0.02226      0.02240      0.04499
      0.01595      0.01848      0.01915
      0.09150      0.05224      0.26162
      0.03875      0.01829      0.14371
      0.00696      0.03429      0.09605
     -0.00143      0.00052      0.14892
      0.00976      0.02063     -0.00074
      0.01580      0.01318      0.02855
      0.01699      0.01701      0.01976
      0.01582      0.02432     -0.02078
      0.02412      0.01027      0.38761
      0.02553      0.01661      0.02620
     -0.09239     -0.15252     -0.18580
     -0.05582     -0.10218     -0.22261
     -0.13379      0.00646     -0.74662

 NEB: forces: par spring, perp REAL, dneb     0.006973    0.010059    0.000000
 NEB: distance to prev, next image, angle between     0.517038    0.518433  136.324711
 NEB: projections on to tangent (spring, REAL)     0.006973    0.183098

 stress matrix after NEB project (eV)
      1.51509      0.32959     -0.12341
      0.32959     -3.29436     -0.12775
     -0.12341     -0.12775     -1.10322
  FORCES: max atom, RMS     0.006765    0.003160
  FORCE total and by dimension    0.012240    0.005992
  Stress total and by dimension    3.826974    3.294356
 Quasi-Newton relaxation of ions (Broydens 2nd method)
  g(Force)  = 0.285E-04   g(Stress)= 0.000E+00

 retain information from N=  3 steps
 eigenvalues of (default step * inverse Hessian matrix)
  average eigenvalue of G=   5.6054
 eigenvalue spectrum of G is  3.4836  6.6663  6.6663


--------------------------------------------------------------------------------------------------------


    WAVPRE:  cpu time    0.7655: real time    2.4222
    FEWALD:  cpu time    0.0026: real time    0.0026
    ORTHCH:  cpu time    3.4622: real time    3.4648
     LOOP+:  cpu time  185.1148: real time  188.9304


--------------------------------------- Iteration      6(   1)  ---------------------------------------


    POTLOK:  cpu time    2.2723: real time    2.2747
    SETDIJ:  cpu time    0.0609: real time    0.0609
     EDDAV:  cpu time   29.5765: real time   29.6167
       DOS:  cpu time    0.0007: real time    0.0007
    CHARGE:  cpu time    2.1547: real time    2.1564
    MIXING:  cpu time    0.0491: real time    0.0491
    --------------------------------------------
      LOOP:  cpu time   34.1141: real time   34.1586

 eigenvalue-minimisations  :   512
 total energy-change (2. order) :-0.1831584E-03  (-0.3778773E-03)
 number of electron      47.9999998 magnetization 
 augmentation part       -0.7501605 magnetization 

 Broyden mixing:
  rms(total) = 0.11492E-02    rms(broyden)= 0.11472E-02
  rms(prec ) = 0.13740E-02
  weight for this iteration     100.00

 Free energy of the ion-electron system (eV)
  ---------------------------------------------------
  alpha Z        PSCENC =        14.13034224
  Ewald energy   TEWEN  =      1491.32685328
  -Hartree energ DENC   =     -2677.50654941
  -exchange      EXHF   =         0.00000000
  -V(xc)+E(xc)   XCENC  =      -140.53868235
  PAW double counting   =      1740.26803811    -1482.72723445
  entropy T*S    EENTRO =        -0.00000000
  eigenvalues    EBANDS =      -335.16769172
  atomic energy  EATOM  =      1318.64189276
  Solvation  Ediel_sol  =         0.00000000
  ---------------------------------------------------
  free energy    TOTEN  =       -71.57303155 eV

  energy without entropy =      -71.57303155  energy(sigma->0) =      -71.57303155


--------------------------------------------------------------------------------------------------------




--------------------------------------- Iteration      6(   2)  ---------------------------------------


    POTLOK:  cpu time    2.3676: real time    2.3700
    SETDIJ:  cpu time    0.0637: real time    0.0640
     EDDAV:  cpu time   40.8888: real time   40.9289
       DOS:  cpu time    0.0005: real time    0.0006
    CHARGE:  cpu time    2.1275: real time    2.1287
    MIXING:  cpu time    0.0567: real time    0.0567
    --------------------------------------------
      LOOP:  cpu time   45.5049: real time   45.5489

 eigenvalue-minimisations  :   768
 total energy-change (2. order) :-0.1358351E-04  (-0.1784624E-04)
 number of electron      47.9999998 magnetization 
 augmentation part       -0.7501671 magnetization 

 Broyden mixing:
  rms(total) = 0.72703E-03    rms(broyden)= 0.72659E-03
  rms(prec ) = 0.90394E-03
  weight for this iteration     100.00

 eigenvalues of (default mixing * dielectric matrix)
  average eigenvalue GAMMA=   0.8716
  0.8716

 Free energy of the ion-electron system (eV)
  ---------------------------------------------------
  alpha Z        PSCENC =        14.13034224
  Ewald energy   TEWEN  =      1491.32685328
  -Hartree energ DENC   =     -2677.49937717
  -exchange      EXHF   =         0.00000000
  -V(xc)+E(xc)   XCENC  =      -140.53890895
  PAW double counting   =      1740.23134831    -1482.69047734
  entropy T*S    EENTRO =        -0.00000000
  eigenvalues    EBANDS =      -335.17471826
  atomic energy  EATOM  =      1318.64189276
  Solvation  Ediel_sol  =         0.00000000
  ---------------------------------------------------
  free energy    TOTEN  =       -71.57304513 eV

  energy without entropy =      -71.57304513  energy(sigma->0) =      -71.57304513


--------------------------------------------------------------------------------------------------------




--------------------------------------- Iteration      6(   3)  ---------------------------------------


    POTLOK:  cpu time    2.1693: real time    2.1709
    SETDIJ:  cpu time    0.0571: real time    0.0572
     EDDAV:  cpu time   35.3951: real time   35.4679
       DOS:  cpu time    0.0005: real time    0.0006
    CHARGE:  cpu time    1.8750: real time    1.8810
    MIXING:  cpu time    0.0433: real time    0.0434
    --------------------------------------------
      LOOP:  cpu time   39.5403: real time   39.6209

 eigenvalue-minimisations  :   672
 total energy-change (2. order) : 0.1305450E-05  (-0.5744935E-06)
 number of electron      47.9999998 magnetization 
 augmentation part       -0.7501408 magnetization 

 Broyden mixing:
  rms(total) = 0.44295E-03    rms(broyden)= 0.44290E-03
  rms(prec ) = 0.55028E-03
  weight for this iteration     100.00

 eigenvalues of (default mixing * dielectric matrix)
  average eigenvalue GAMMA=   1.4373
  1.0400  1.8346

 Free energy of the ion-electron system (eV)
  ---------------------------------------------------
  alpha Z        PSCENC =        14.13034224
  Ewald energy   TEWEN  =      1491.32685328
  -Hartree energ DENC   =     -2677.49477410
  -exchange      EXHF   =         0.00000000
  -V(xc)+E(xc)   XCENC  =      -140.53902918
  PAW double counting   =      1740.20684103    -1482.66590120
  entropy T*S    EENTRO =        -0.00000000
  eigenvalues    EBANDS =      -335.17926865
  atomic energy  EATOM  =      1318.64189276
  Solvation  Ediel_sol  =         0.00000000
  ---------------------------------------------------
  free energy    TOTEN  =       -71.57304383 eV

  energy without entropy =      -71.57304383  energy(sigma->0) =      -71.57304383


--------------------------------------------------------------------------------------------------------




--------------------------------------- Iteration      6(   4)  ---------------------------------------


    POTLOK:  cpu time    1.8040: real time    1.8066
    SETDIJ:  cpu time    0.0488: real time    0.0488
     EDDAV:  cpu time   27.1377: real time   27.1743
       DOS:  cpu time    0.0004: real time    0.0005
    --------------------------------------------
      LOOP:  cpu time   28.9909: real time   29.0301

 eigenvalue-minimisations  :   640
 total energy-change (2. order) : 0.7847348E-06  (-0.3077355E-06)
 number of electron      47.9999998 magnetization 
 augmentation part       -0.7501408 magnetization 

 Free energy of the ion-electron system (eV)
  ---------------------------------------------------
  alpha Z        PSCENC =        14.13034224
  Ewald energy   TEWEN  =      1491.32685328
  -Hartree energ DENC   =     -2677.48893783
  -exchange      EXHF   =         0.00000000
  -V(xc)+E(xc)   XCENC  =      -140.53908174
  PAW double counting   =      1740.17599470    -1482.63500141
  entropy T*S    EENTRO =        -0.00000000
  eigenvalues    EBANDS =      -335.18510503
  atomic energy  EATOM  =      1318.64189276
  Solvation  Ediel_sol  =         0.00000000
  ---------------------------------------------------
  free energy    TOTEN  =       -71.57304304 eV

  energy without entropy =      -71.57304304  energy(sigma->0) =      -71.57304304


--------------------------------------------------------------------------------------------------------




 average (electrostatic) potential at core
  the test charge radii are     1.0406  0.6991  1.0339  0.5883
  (the norm of the test charge is              1.0000)
       1 -59.0524       2 -59.1709       3 -59.2956       4 -59.3356       5 -59.2156
       6 -59.2393       7 -59.1561       8 -59.1328       9 -55.0328      10 -55.0311
      11 -55.2915      12 -55.1454      13 -97.6128      14 -38.8973      15 -37.7561



 E-fermi :  -1.9348     XC(G=0):  -3.2348     alpha+bet : -2.6874


 k-point     1 :       0.0000    0.0000    0.0000
  band No.  band energies     occupation 
      1     -16.4499      2.00000
      2     -13.7738      2.00000
      3     -13.5578      2.00000
      4     -11.7430      2.00000
      5     -11.4564      2.00000
      6      -9.1924      2.00000
      7      -8.5530      2.00000
      8      -8.4725      2.00000
      9      -8.1448      2.00000
     10      -7.2424      2.00000
     11      -6.4361      2.00000
     12      -6.0380      2.00000
     13      -5.4638      2.00000
     14      -5.3844      2.00000
     15      -4.7323      2.00000
     16      -4.6691      2.00000
     17      -4.2328      2.00000
     18      -4.1469      2.00000
     19      -3.2427      2.00000
     20      -2.8916      2.00000
     21      -2.7107      2.00000
     22      -2.6617      2.00000
     23      -2.2406      2.00000
     24      -2.1793      2.00000
     25      -1.3218      0.00000
     26      -0.8155      0.00000
     27      -0.1774      0.00000
     28       0.1345      0.00000
     29       0.3302      0.00000
     30       0.4426      0.00000
     31       0.6516      0.00000
     32       0.9331      0.00000

 k-point     2 :       0.2000    0.0000    0.0000
  band No.  band energies     occupation 
      1     -16.4476      2.00000
      2     -13.6552      2.00000
      3     -13.4349      2.00000
      4     -12.0945      2.00000
      5     -11.8338      2.00000
      6      -9.0272      2.00000
      7      -8.3528      2.00000
      8      -7.9672      2.00000
      9      -7.7505      2.00000
     10      -7.2264      2.00000
     11      -6.3608      2.00000
     12      -6.2530      2.00000
     13      -5.9177      2.00000
     14      -5.1695      2.00000
     15      -4.9054      2.00000
     16      -4.5661      2.00000
     17      -4.1676      2.00000
     18      -3.7839      2.00000
     19      -3.5541      2.00000
     20      -3.4777      2.00000
     21      -3.4102      2.00000
     22      -2.8439      2.00000
     23      -2.6243      2.00000
     24      -2.2021      2.00000
     25      -1.3332      0.00000
     26      -0.0015      0.00000
     27       0.0785      0.00000
     28       0.2428      0.00000
     29       0.5013      0.00000
     30       0.6229      0.00000
     31       0.8362      0.00000
     32       1.1477      0.00000

 k-point     3 :       0.4000    0.0000    0.0000
  band No.  band energies     occupation 
      1     -16.4439      2.00000
      2     -13.3133      2.00000
      3     -13.0754      2.00000
      4     -12.7231      2.00000
      5     -12.5003      2.00000
      6      -8.9041      2.00000
      7      -7.9359      2.00000
      8      -7.4559      2.00000
      9      -7.1571      2.00000
     10      -6.7003      2.00000
     11      -6.4594      2.00000
     12      -6.0156      2.00000
     13      -5.7641      2.00000
     14      -5.4715      2.00000
     15      -5.0596      2.00000
     16      -4.9151      2.00000
     17      -4.7154      2.00000
     18      -4.4755      2.00000
     19      -4.1719      2.00000
     20      -3.8483      2.00000
     21      -3.5053      2.00000
     22      -3.1961      2.00000
     23      -2.6696      2.00000
     24      -2.2744      2.00000
     25      -0.9960      0.00000
     26      -0.2794      0.00000
     27       0.1910      0.00000
     28       0.7683      0.00000
     29       0.9219      0.00000
     30       1.2159      0.00000
     31       1.3957      0.00000
     32       1.6737      0.00000

 k-point     4 :       0.0000    0.3333    0.0000
  band No.  band energies     occupation 
      1     -16.4499      2.00000
      2     -13.7527      2.00000
      3     -13.5833      2.00000
      4     -11.7407      2.00000
      5     -11.4596      2.00000
      6      -9.1866      2.00000
      7      -8.5014      2.00000
      8      -8.2750      2.00000
      9      -8.1359      2.00000
     10      -7.4645      2.00000
     11      -7.1750      2.00000
     12      -5.4518      2.00000
     13      -5.3029      2.00000
     14      -4.9359      2.00000
     15      -4.7861      2.00000
     16      -4.6968      2.00000
     17      -4.2276      2.00000
     18      -3.9534      2.00000
     19      -3.4956      2.00000
     20      -3.1185      2.00000
     21      -2.8806      2.00000
     22      -2.7109      2.00000
     23      -2.6515      2.00000
     24      -2.1807      2.00000
     25      -1.1287      0.00000
     26      -0.4593      0.00000
     27      -0.2682      0.00000
     28      -0.0580      0.00000
     29       0.3694      0.00000
     30       0.6381      0.00000
     31       0.8468      0.00000
     32       0.9289      0.00000

 k-point     5 :       0.2000    0.3333    0.0000
  band No.  band energies     occupation 
      1     -16.4476      2.00000
      2     -13.6358      2.00000
      3     -13.4586      2.00000
      4     -12.0892      2.00000
      5     -11.8408      2.00000
      6      -9.0230      2.00000
      7      -8.0820      2.00000
      8      -7.9259      2.00000
      9      -7.8127      2.00000
     10      -7.3625      2.00000
     11      -7.1272      2.00000
     12      -6.0663      2.00000
     13      -5.4959      2.00000
     14      -5.1469      2.00000
     15      -4.6337      2.00000
     16      -4.5496      2.00000
     17      -4.1821      2.00000
     18      -3.6421      2.00000
     19      -3.4930      2.00000
     20      -3.4398      2.00000
     21      -3.3883      2.00000
     22      -3.0293      2.00000
     23      -2.7793      2.00000
     24      -2.6286      2.00000
     25      -0.9702      0.00000
     26      -0.3935      0.00000
     27      -0.0035      0.00000
     28       0.1559      0.00000
     29       0.5676      0.00000
     30       0.7587      0.00000
     31       0.8920      0.00000
     32       1.0507      0.00000

 k-point     6 :       0.4000    0.3333    0.0000
  band No.  band energies     occupation 
      1     -16.4438      2.00000
      2     -13.2989      2.00000
      3     -13.0928      2.00000
      4     -12.7118      2.00000
      5     -12.5152      2.00000
      6      -8.9031      2.00000
      7      -7.6993      2.00000
      8      -7.4119      2.00000
      9      -6.9797      2.00000
     10      -6.9131      2.00000
     11      -6.7073      2.00000
     12      -6.4412      2.00000
     13      -6.0780      2.00000
     14      -5.2910      2.00000
     15      -4.9790      2.00000
     16      -4.8936      2.00000
     17      -4.1847      2.00000
     18      -4.1494      2.00000
     19      -3.9538      2.00000
     20      -3.7305      2.00000
     21      -3.5017      2.00000
     22      -3.2248      2.00000
     23      -2.9371      2.00000
     24      -2.8115      2.00000
     25      -0.6546      0.00000
     26      -0.3181      0.00000
     27       0.0645      0.00000
     28       0.5537      0.00000
     29       0.9540      0.00000
     30       0.9715      0.00000
     31       1.2330      0.00000
     32       1.3337      0.00000

 k-point     7 :      -0.4000    0.3333    0.0000
  band No.  band energies     occupation 
      1     -16.4438      2.00000
      2     -13.2987      2.00000
      3     -13.0930      2.00000
      4     -12.7116      2.00000
      5     -12.5153      2.00000
      6      -8.9041      2.00000
      7      -7.6844      2.00000
      8      -7.4244      2.00000
      9      -7.0269      2.00000
     10      -6.8711      2.00000
     11      -6.7000      2.00000
     12      -6.4270      2.00000
     13      -6.0971      2.00000
     14      -5.3043      2.00000
     15      -4.9703      2.00000
     16      -4.8929      2.00000
     17      -4.2248      2.00000
     18      -4.1443      2.00000
     19      -3.8816      2.00000
     20      -3.7368      2.00000
     21      -3.4879      2.00000
     22      -3.2732      2.00000
     23      -2.9243      2.00000
     24      -2.8079      2.00000
     25      -0.7796      0.00000
     26      -0.0999      0.00000
     27       0.0411      0.00000
     28       0.4919      0.00000
     29       0.8999      0.00000
     30       0.9969      0.00000
     31       1.1918      0.00000
     32       1.3919      0.00000

 k-point     8 :      -0.2000    0.3333    0.0000
  band No.  band energies     occupation 
      1     -16.4476      2.00000
      2     -13.6357      2.00000
      3     -13.4587      2.00000
      4     -12.0891      2.00000
      5     -11.8409      2.00000
      6      -9.0242      2.00000
      7      -8.0832      2.00000
      8      -7.9227      2.00000
      9      -7.8068      2.00000
     10      -7.3614      2.00000
     11      -7.1388      2.00000
     12      -6.0475      2.00000
     13      -5.5138      2.00000
     14      -5.1594      2.00000
     15      -4.6550      2.00000
     16      -4.5457      2.00000
     17      -4.1458      2.00000
     18      -3.6440      2.00000
     19      -3.4899      2.00000
     20      -3.4377      2.00000
     21      -3.3673      2.00000
     22      -3.0319      2.00000
     23      -2.7641      2.00000
     24      -2.6510      2.00000
     25      -1.0836      0.00000
     26      -0.2636      0.00000
     27       0.0080      0.00000
     28       0.1652      0.00000
     29       0.5421      0.00000
     30       0.7038      0.00000
     31       0.8795      0.00000
     32       1.0794      0.00000


--------------------------------------------------------------------------------------------------------


 soft charge-density along one line, spin component           1
         0         1         2         3         4         5         6         7         8         9
 total charge-density along one line

 pseudopotential strength for first ion, spin component:           1
  7.445 -17.441  -0.004   0.001  -0.000   0.023  -0.003   0.000
-17.441  50.460   0.011  -0.002   0.000  -0.050   0.007  -0.000
 -0.004   0.011   1.743   0.000   0.000  -6.878  -0.002  -0.000
  0.001  -0.002   0.000   1.747   0.000  -0.002  -6.895  -0.000
 -0.000   0.000   0.000   0.000   1.743  -0.000  -0.000  -6.880
  0.023  -0.050  -6.878  -0.002  -0.000  29.267   0.010   0.001
 -0.003   0.007  -0.002  -6.895  -0.000   0.010  29.337   0.001
  0.000  -0.000  -0.000  -0.000  -6.880   0.001   0.001  29.273
  0.000  -0.000  -0.000   0.000  -0.003   0.000  -0.000   0.009
  0.002  -0.003   0.000  -0.003   0.000  -0.001   0.009  -0.000
  0.009  -0.011   0.001   0.001   0.000  -0.004  -0.002  -0.000
  0.000  -0.000   0.000  -0.000   0.000  -0.000   0.000  -0.001
  0.001  -0.001   0.002   0.000  -0.000  -0.006  -0.000   0.000
 -0.001   0.001   0.000  -0.000   0.012  -0.001   0.000  -0.043
 -0.010   0.017  -0.000   0.012  -0.000   0.002  -0.044   0.000
 -0.037   0.065  -0.005  -0.002  -0.000   0.019   0.008   0.000
 -0.001   0.002  -0.000   0.000  -0.001   0.000  -0.001   0.005
 -0.003   0.006  -0.009  -0.000   0.000   0.033   0.001  -0.000
 total augmentation occupancy for first ion, spin component:           1
  1.391   0.018  -0.031   0.013   0.001   0.005  -0.001  -0.000  -0.003  -0.028  -0.091  -0.003  -0.025  -0.000  -0.001  -0.005
  0.018   0.000   0.008  -0.002  -0.000   0.000  -0.000  -0.000  -0.000  -0.001  -0.002  -0.000   0.000  -0.000  -0.000  -0.000
 -0.031   0.008   1.298  -0.130  -0.007   0.019  -0.002  -0.000   0.002  -0.006  -0.072  -0.005   0.058   0.000  -0.001  -0.002
  0.013  -0.002  -0.130   0.419  -0.017  -0.002   0.005  -0.000  -0.005   0.057  -0.006   0.001  -0.017  -0.000   0.001   0.000
  0.001  -0.000  -0.007  -0.017   1.134  -0.000  -0.000   0.018   0.228  -0.005   0.002  -0.039  -0.003   0.007  -0.000   0.000
  0.005   0.000   0.019  -0.002  -0.000   0.000  -0.000  -0.000   0.000  -0.000  -0.001  -0.000   0.000   0.000  -0.000  -0.000
 -0.001  -0.000  -0.002   0.005  -0.000  -0.000   0.000  -0.000  -0.000   0.001   0.000   0.000  -0.000  -0.000   0.000   0.000
 -0.000  -0.000  -0.000  -0.000   0.018  -0.000  -0.000   0.000   0.004  -0.000   0.000  -0.001  -0.000   0.000  -0.000   0.000
 -0.003  -0.000   0.002  -0.005   0.228   0.000  -0.000   0.004   0.065  -0.001   0.000  -0.008  -0.000   0.002  -0.000   0.000
 -0.028  -0.001  -0.006   0.057  -0.005  -0.000   0.001  -0.000  -0.001   0.011  -0.000   0.000   0.004  -0.000   0.000   0.000
 -0.091  -0.002  -0.072  -0.006   0.002  -0.001   0.000   0.000   0.000  -0.000   0.012  -0.000  -0.004   0.000   0.000   0.001
 -0.003  -0.000  -0.005   0.001  -0.039  -0.000   0.000  -0.001  -0.008   0.000  -0.000   0.021  -0.001  -0.000   0.000   0.000
 -0.025   0.000   0.058  -0.017  -0.003   0.000  -0.000  -0.000  -0.000   0.004  -0.004  -0.001   0.042  -0.000   0.000  -0.000
 -0.000  -0.000   0.000  -0.000   0.007   0.000  -0.000   0.000   0.002  -0.000   0.000  -0.000  -0.000   0.000  -0.000   0.000
 -0.001  -0.000  -0.001   0.001  -0.000  -0.000   0.000  -0.000  -0.000   0.000   0.000   0.000   0.000  -0.000   0.000   0.000
 -0.005  -0.000  -0.002   0.000   0.000  -0.000   0.000   0.000   0.000   0.000   0.001   0.000  -0.000   0.000   0.000   0.000
 -0.000  -0.000  -0.000   0.000  -0.001  -0.000   0.000  -0.000  -0.000   0.000   0.000   0.000  -0.000  -0.000   0.000   0.000
 -0.001   0.000   0.001  -0.000  -0.000  -0.000  -0.000  -0.000  -0.000   0.000  -0.000  -0.000   0.001  -0.000   0.000  -0.000


------------------------ aborting loop because EDIFF is reached ----------------------------------------


    CHARGE:  cpu time    1.5762: real time    1.5772
    FORLOC:  cpu time    0.3287: real time    0.3289
    FORNL :  cpu time    6.9417: real time    6.9526
    STRESS:  cpu time   19.7204: real time   19.7380
    FORCOR:  cpu time    1.7732: real time    1.7834
    FORHAR:  cpu time    0.6947: real time    0.6950
    MIXING:  cpu time    0.0383: real time    0.0383
    OFIELD:  cpu time    0.0000: real time    0.0000

  FORCE on cell =-STRESS in cart. coord.  units (eV):
  Direction    XX          YY          ZZ          XY          YZ          ZX
  --------------------------------------------------------------------------------------
  Alpha Z    14.13034    14.13034    14.13034
  Ewald    2450.02075  2038.20016 -2996.89552    -1.95035    66.76915    15.68665
  Hartree  2493.72055  2191.49037 -2007.74198     3.40110    36.30731     8.66165
  E(xc)    -153.66708  -154.57913  -153.92015    -0.03142     0.17187     0.08904
  Local   -5440.63511 -4728.28299  4516.10122    -6.47103   -96.83248   -24.52168
  n-local   198.92601   209.80796   169.01727     0.13515    -0.29808     0.10151
  augment   -24.37018   -24.88226   -22.79960    -0.34778     0.40200    -0.02590
  Kinetic   463.38185   450.81922   480.99232     5.59407    -6.65219    -0.11449
  Fock        0.00000     0.00000     0.00000     0.00000     0.00000     0.00000
  -------------------------------------------------------------------------------------
  Total       1.50714    -3.29634    -1.11610     0.32975    -0.13242    -0.12322
  in kB       2.63752    -5.76865    -1.95320     0.57706    -0.23173    -0.21563
  external pressure =       -1.69 kB  Pullay stress =        0.00 kB


 VOLUME and BASIS-vectors are now :
 -----------------------------------------------------------------------------
  energy-cutoff  :      450.00
  volume of cell :      915.52
      direct lattice vectors                 reciprocal lattice vectors
     6.019200000  0.000000000  0.000000000     0.166135035  0.000000000  0.000000000
     0.000000000 10.140000000  0.000000000     0.000000000  0.098619329  0.000000000
     0.000000000  0.000000000 15.000000000     0.000000000  0.000000000  0.066666667

  length of vectors
     6.019200000 10.140000000 15.000000000     0.166135035  0.098619329  0.066666667


 FORCES acting on ions
    electron-ion (+dipol)            ewald-force                    non-local-force                 convergence-correction
 -----------------------------------------------------------------------------------------------
   -.802E+00 0.373E+02 0.381E+01   0.824E+00 -.349E+02 -.412E+01   -.185E-01 -.238E+01 0.316E+00   -.185E-05 0.288E-03 -.222E-03
   0.378E+00 0.438E+02 0.414E+02   -.307E+00 -.406E+02 -.405E+02   -.678E-01 -.322E+01 -.953E+00   -.389E-05 0.197E-03 -.915E-04
   -.659E+01 -.529E+02 0.104E+02   0.707E+01 0.513E+02 -.127E+02   -.460E+00 0.156E+01 0.238E+01   0.174E-03 0.771E-04 -.590E-03
   -.792E+00 -.496E+02 0.493E+02   0.206E+00 0.471E+02 -.483E+02   0.594E+00 0.247E+01 -.101E+01   -.166E-03 0.591E-04 -.295E-03
   0.194E+01 0.579E+02 0.552E+02   -.122E+01 -.554E+02 -.537E+02   -.715E+00 -.247E+01 -.148E+01   0.150E-03 -.183E-03 -.325E-03
   0.186E+01 0.608E+02 -.367E+01   -.212E+01 -.582E+02 0.284E+01   0.251E+00 -.260E+01 0.858E+00   -.150E-03 -.177E-03 -.383E-03
   0.109E+00 -.494E+02 0.398E+02   -.103E+00 0.463E+02 -.387E+02   -.353E-02 0.313E+01 -.102E+01   -.328E-05 -.117E-03 -.647E-04
   0.263E+00 -.484E+02 -.449E+01   -.302E+00 0.454E+02 0.388E+01   0.419E-01 0.304E+01 0.609E+00   0.858E-05 -.106E-03 -.206E-03
   0.493E+00 -.599E+01 0.222E+02   -.389E+00 0.590E+01 -.222E+02   -.102E+00 0.912E-01 0.469E-01   0.968E-06 0.981E-06 -.884E-05
   -.459E+00 -.589E+01 0.327E+02   0.348E+00 0.586E+01 -.332E+02   0.114E+00 0.331E-01 0.481E+00   -.943E-05 0.228E-04 0.280E-04
   0.116E+02 0.154E+02 0.183E+02   -.115E+02 -.154E+02 -.176E+02   -.844E-01 -.135E-01 -.632E+00   -.103E-03 -.304E-04 -.166E-03
   -.599E+01 0.901E+01 0.500E+02   0.580E+01 -.914E+01 -.506E+02   0.196E+00 0.135E+00 0.669E+00   0.565E-04 -.343E-04 -.328E-03
   -.460E+02 0.191E+01 -.243E+03   0.530E+02 -.566E+01 0.245E+03   -.704E+01 0.373E+01 -.218E+01   0.161E-03 0.120E-02 -.203E-02
   0.296E+02 -.334E+02 -.434E+02   -.327E+02 0.362E+02 0.441E+02   0.307E+01 -.288E+01 -.769E+00   0.917E-04 0.821E-04 -.351E-03
   0.172E+02 0.177E+02 -.269E+02   -.186E+02 -.189E+02 0.257E+02   0.140E+01 0.119E+01 0.108E+01   -.805E-04 0.898E-05 -.505E-03
 -----------------------------------------------------------------------------------------------
   0.283E+01 -.181E+01 0.163E+01   0.711E-14 -.142E-13 0.107E-13   -.283E+01 0.181E+01 -.162E+01   0.125E-03 0.129E-02 -.554E-02


 POSITION                                       TOTAL-FORCE (eV/Angst)
 -----------------------------------------------------------------------------------
      2.64670      8.91008      3.84847         0.003919      0.003590      0.008066
      5.64899      8.90763      3.47822         0.003307      0.002999      0.003002
      2.70306      6.32795      4.26961         0.017029      0.009806      0.050380
      5.66463      6.28401      3.67556         0.008136      0.003330      0.026757
      2.62201      3.86875      3.59277         0.001086      0.006576      0.016946
      5.62865      3.82141      4.07409        -0.001611     -0.000575      0.026953
      2.63075      1.23164      3.44820         0.002091      0.003388     -0.000490
      5.64585      1.21986      3.83835         0.002786      0.001875      0.004350
      1.13459     10.13596      3.65849         0.003010      0.003052      0.003072
      4.14242      0.00463      3.58545         0.002929      0.004048     -0.003596
      1.13722      5.05919      4.14212         0.004241      0.000707      0.076191
      4.14435      5.06086      3.79032         0.004484      0.003719      0.001883
      2.47723      6.05841      6.82971        -0.013994     -0.027055     -0.034518
      1.49994      6.96990      7.06286        -0.010841     -0.016854     -0.037890
      1.59957      5.34218      5.80577        -0.026572      0.001396     -0.141106
 -----------------------------------------------------------------------------------
    total drift:                                0.000497     -0.001348      0.001655


--------------------------------------------------------------------------------------------------------



  FREE ENERGIE OF THE ION-ELECTRON SYSTEM (eV)
  ---------------------------------------------------
  free  energy   TOTEN  =       -71.57304304 eV

  energy  without entropy=      -71.57304304  energy(sigma->0) =      -71.57304304

 d Force = 0.1950660E-03[ 0.195E-03, 0.195E-03]  d Energy = 0.1954748E-03-0.409E-06
 d Force =-0.4815174E-01[-0.481E-01,-0.482E-01]  d Ewald  =-0.4815172E-01-0.158E-07


--------------------------------------------------------------------------------------------------------


    POTLOK:  cpu time    1.7260: real time    1.7284


--------------------------------------------------------------------------------------------------------


 NEB: the previous image is higher in energy: F
 NEB: the next image is higher in energy    : F
 NEB: image is at an extrema
 NEB: diff energy (min, max):     0.702472   71.573043

 NEB: Tangent
 ----------------------------------------------
      0.02223      0.02220      0.04484
      0.01599      0.01846      0.01893
      0.09155      0.05228      0.26250
      0.03894      0.01826      0.14320
      0.00704      0.03439      0.09540
     -0.00155      0.00036      0.14822
      0.00980      0.02051     -0.00072
      0.01581      0.01310      0.02845
      0.01703      0.01694      0.01987
      0.01580      0.02421     -0.02047
      0.02411      0.01001      0.38851
      0.02558      0.01677      0.02559
     -0.09194     -0.15080     -0.18615
     -0.05587     -0.10177     -0.22134
     -0.13452      0.00508     -0.74682

 NEB: forces: par spring, perp REAL, dneb     0.005435    0.008012    0.000000
 NEB: distance to prev, next image, angle between     0.518013    0.519100  136.384832
 NEB: projections on to tangent (spring, REAL)     0.005435    0.188109

 stress matrix after NEB project (eV)
      1.50714      0.32975     -0.12322
      0.32975     -3.29634     -0.13242
     -0.12322     -0.13242     -1.11610
  FORCES: max atom, RMS     0.005342    0.002500
  FORCE total and by dimension    0.009682    0.005221
  Stress total and by dimension    3.829604    3.296336
 Quasi-Newton relaxation of ions (Broydens 2nd method)
  g(Force)  = 0.206E-04   g(Stress)= 0.000E+00

 retain information from N=  2 steps
 eigenvalues of (default step * inverse Hessian matrix)
  average eigenvalue of G=   5.5641
 eigenvalue spectrum of G is  5.5641  5.5641


--------------------------------------------------------------------------------------------------------


  
 reached required accuracy - stopping structural energy minimisation
     LOOP+:  cpu time  181.1274: real time  184.6069
    4ORBIT:  cpu time    0.0000: real time    0.0000

 total amount of memory used by VASP MPI-rank0   231929. kBytes
=======================================================================

   base      :      30000. kBytes
   nonlr-proj:      11425. kBytes
   fftplans  :      44247. kBytes
   grid      :     104852. kBytes
   one-center:        233. kBytes
   wavefun   :      41172. kBytes

  
  
 General timing and accounting informations for this job:
 ========================================================
  
                  Total CPU time used (sec):     2050.017
                            User time (sec):     1964.669
                          System time (sec):       85.348
                         Elapsed time (sec):     2074.444
  
                   Maximum memory used (kb):      291764.
                   Average memory used (kb):           0.
  
                          Minor page faults:      9688127
                          Major page faults:            8
                 Voluntary context switches:         1624
