Al   C    S    H                        
   1.0000000000000000     
     6.0191999999999997    0.0000000000000000    0.0000000000000000
     0.0000000000000000   10.1400000000000006    0.0000000000000000
     0.0000000000000000    0.0000000000000000   15.0000000000000000
   Al   C    S    H 
     8     4     1     2
Selective dynamics
Direct
  0.4396990960410625  0.8787433406969548  0.2565751456088923   T   T   T
  0.9384760844614325  0.8784550674927113  0.2319071393396930   T   T   T
  0.4489869704642740  0.6240241415536978  0.2844324501167993   T   T   T
  0.9410094674042425  0.6197176592919591  0.2450867182684437   T   T   T
  0.4355618134730314  0.3814925127716404  0.2395926859375503   T   T   T
  0.9351363045426766  0.3768971582917247  0.2716769336384278   T   T   T
  0.4370462847080082  0.1214794090739991  0.2298743926793189   T   T   T
  0.9379513719146769  0.1203153543554135  0.2558902451483547   T   T   T
  0.1884740741531117  0.9996089044441104  0.2438690416416236   T   T   T
  0.6881873176964883  0.0004617176170092  0.2389815685673669   T   T   T
  0.1888976594821782  0.4989769888175286  0.2759113347518269   T   T   T
  0.6884848154813877  0.4990651560929472  0.2527579690098740   T   T   T
  0.4114179993291892  0.5971647380823967  0.4554318054504214   T   T   T
  0.2493220458956245  0.6872919982206422  0.4707281551420874   T   T   T
  0.2661195880928907  0.5271993525770028  0.3872844323945608   T   T   T

  0.00000000E+00  0.00000000E+00  0.00000000E+00
  0.00000000E+00  0.00000000E+00  0.00000000E+00
  0.00000000E+00  0.00000000E+00  0.00000000E+00
  0.00000000E+00  0.00000000E+00  0.00000000E+00
  0.00000000E+00  0.00000000E+00  0.00000000E+00
  0.00000000E+00  0.00000000E+00  0.00000000E+00
  0.00000000E+00  0.00000000E+00  0.00000000E+00
  0.00000000E+00  0.00000000E+00  0.00000000E+00
  0.00000000E+00  0.00000000E+00  0.00000000E+00
  0.00000000E+00  0.00000000E+00  0.00000000E+00
  0.00000000E+00  0.00000000E+00  0.00000000E+00
  0.00000000E+00  0.00000000E+00  0.00000000E+00
  0.00000000E+00  0.00000000E+00  0.00000000E+00
  0.00000000E+00  0.00000000E+00  0.00000000E+00
  0.00000000E+00  0.00000000E+00  0.00000000E+00
