Al2C                                    
           1
     6.019200    0.000000    0.000000
     0.000000   10.140000    0.000000
     0.000000    0.000000   15.000000
   Al   C    S    H 
   8   4   1   2
Direct configuration=     1
   0.43969910  0.87874334  0.25657515
   0.93847608  0.87845507  0.23190714
   0.44898697  0.62402414  0.28443245
   0.94100947  0.61971766  0.24508672
   0.43556181  0.38149251  0.23959269
   0.93513630  0.37689716  0.27167693
   0.43704628  0.12147941  0.22987439
   0.93795137  0.12031535  0.25589025
   0.18847407  0.99960890  0.24386904
   0.68818732  0.00046172  0.23898157
   0.18889766  0.49897699  0.27591133
   0.68848482  0.49906516  0.25275797
   0.41141800  0.59716474  0.45543181
   0.24932205  0.68729200  0.47072816
   0.26611959  0.52719935  0.38728443
Direct configuration=     2
   0.43969964  0.87873936  0.25657441
   0.93847926  0.87845744  0.23190518
   0.44899676  0.62402786  0.28445458
   0.94101805  0.61971901  0.24508136
   0.43556776  0.38149694  0.23958579
   0.93513703  0.37689253  0.27167010
   0.43704745  0.12147833  0.22987534
   0.93795463  0.12031448  0.25589141
   0.18847177  0.99960778  0.24387306
   0.68819347  0.00046289  0.23898674
   0.18890142  0.49897631  0.27593030
   0.68848767  0.49906754  0.25275362
   0.41143818  0.59719464  0.45541897
   0.24930044  0.68730172  0.47073979
   0.26607737  0.52715668  0.38725936
Direct configuration=     3
   0.43970138  0.87873496  0.25657280
   0.93848216  0.87845857  0.23190155
   0.44900975  0.62403317  0.28448701
   0.94102887  0.61972133  0.24507236
   0.43557526  0.38150313  0.23957402
   0.93513628  0.37688736  0.27165850
   0.43704895  0.12147496  0.22987670
   0.93795896  0.12031332  0.25589249
   0.18847729  0.99960624  0.24387895
   0.68819315  0.00046316  0.23899507
   0.18890855  0.49897201  0.27596232
   0.68849531  0.49907206  0.25274549
   0.41145453  0.59724930  0.45540127
   0.24928397  0.68731009  0.47075818
   0.26601647  0.52709384  0.38722331
Direct configuration=     4
   0.43970495  0.87872529  0.25656986
   0.93848648  0.87846135  0.23189464
   0.44903293  0.62404291  0.28454303
   0.94104798  0.61972461  0.24505649
   0.43558921  0.38151421  0.23955247
   0.93513308  0.37687946  0.27163745
   0.43705184  0.12147048  0.22987861
   0.93796595  0.12030974  0.25589327
   0.18848299  0.99960384  0.24388830
   0.68819606  0.00046259  0.23900944
   0.18892106  0.49896079  0.27602419
   0.68850956  0.49908016  0.25272862
   0.41149660  0.59733596  0.45536899
   0.24924067  0.68733396  0.47079366
   0.26591153  0.52698816  0.38716100
Direct configuration=     5
   0.43970743  0.87871396  0.25656729
   0.93848936  0.87846338  0.23188781
   0.44905354  0.62405058  0.28459321
   0.94107072  0.61972412  0.24504566
   0.43560011  0.38152520  0.23953448
   0.93512641  0.37687314  0.27162038
   0.43705457  0.12146727  0.22987934
   0.93796958  0.12030524  0.25589182
   0.18848893  0.99960389  0.24389457
   0.68819987  0.00046026  0.23902019
   0.18892915  0.49894580  0.27608418
   0.68851397  0.49908922  0.25270806
   0.41153324  0.59740431  0.45533866
   0.24920622  0.68735571  0.47082724
   0.26582780  0.52691143  0.38710714
Direct configuration=     6
   0.43970905  0.87870598  0.25656498
   0.93849532  0.87846417  0.23188157
   0.44907273  0.62405797  0.28464071
   0.94109408  0.61972455  0.24503722
   0.43560806  0.38153372  0.23951812
   0.93511594  0.37686478  0.27160576
   0.43705920  0.12146328  0.22987984
   0.93797363  0.12030225  0.25589010
   0.18849470  0.99960146  0.24389958
   0.68820065  0.00045675  0.23902981
   0.18893206  0.49893355  0.27614160
   0.68852211  0.49909903  0.25268801
   0.41155467  0.59747668  0.45531419
   0.24919325  0.68736666  0.47085723
   0.26574545  0.52684268  0.38705130
