Al2C                                    
   1.0000000000000000     
     6.0191999999999997    0.0000000000000000    0.0000000000000000
     0.0000000000000000   10.1400000000000006    0.0000000000000000
     0.0000000000000000    0.0000000000000000   15.0000000000000000
   Al   C 
     8     4
Selective dynamics
Direct
  0.4208993717369177  0.8547187619164366  0.2666655685169207   T   T   T
  0.9209012787631485  0.8547220538253130  0.2666649138495069   T   T   T
  0.4209010943809071  0.5989338451569020  0.2666645576922724   T   T   T
  0.9209047644897619  0.5989314091743789  0.2666646198289642   T   T   T
  0.4208983558304841  0.3547188516692804  0.2666646944417927   T   T   T
  0.9209028202882634  0.3547222497828466  0.2666639629413061   T   T   T
  0.4208990087989929  0.0989336947091900  0.2666653328904725   T   T   T
  0.9209067172995853  0.0989313380427808  0.2666654266315357   T   T   T
  0.1708926673383735  0.9768190829853943  0.2666716333895486   T   T   T
  0.6708852761688114  0.9768213580703734  0.2666713028323373   T   T   T
  0.1708939577151626  0.4768207284048700  0.2666682510265310   T   T   T
  0.6708855537499331  0.4768201173865037  0.2666697359587936   T   T   T

  0.00000000E+00  0.00000000E+00  0.00000000E+00
  0.00000000E+00  0.00000000E+00  0.00000000E+00
  0.00000000E+00  0.00000000E+00  0.00000000E+00
  0.00000000E+00  0.00000000E+00  0.00000000E+00
  0.00000000E+00  0.00000000E+00  0.00000000E+00
  0.00000000E+00  0.00000000E+00  0.00000000E+00
  0.00000000E+00  0.00000000E+00  0.00000000E+00
  0.00000000E+00  0.00000000E+00  0.00000000E+00
  0.00000000E+00  0.00000000E+00  0.00000000E+00
  0.00000000E+00  0.00000000E+00  0.00000000E+00
  0.00000000E+00  0.00000000E+00  0.00000000E+00
  0.00000000E+00  0.00000000E+00  0.00000000E+00
