  12  12   0   0
  0.7629336E+02  0.6019200E-09  0.1014000E-08  0.1500000E-08  0.3500000E-15
   1.0000000000000000E-004
  CAR 
 Al2C                                    
      2.03832700    -14.80505450  301     -2.23566611      1.00000000
    -14.805  0.0000E+00  0.0000E+00
    -14.749  0.0000E+00  0.0000E+00
    -14.693  0.0000E+00  0.0000E+00
    -14.637  0.0000E+00  0.0000E+00
    -14.580  0.0000E+00  0.0000E+00
    -14.524  0.0000E+00  0.0000E+00
    -14.468  0.0000E+00  0.0000E+00
    -14.412  0.0000E+00  0.0000E+00
    -14.356  0.0000E+00  0.0000E+00
    -14.300  0.5356E-15  0.3007E-16
    -14.244  0.2293E-10  0.1287E-11
    -14.187  0.8459E-07  0.4751E-08
    -14.131  0.2874E-04  0.1618E-05
    -14.075  0.1078E-02  0.6215E-04
    -14.019  0.6534E-02  0.4290E-03
    -13.963  0.1022E-01  0.1003E-02
    -13.907  0.1818E-01  0.2024E-02
    -13.851  0.2707E-01  0.3544E-02
    -13.794  0.1888E-01  0.4604E-02
    -13.738  0.1776E-01  0.5601E-02
    -13.682  0.6578E-02  0.5970E-02
    -13.626  0.6488E-03  0.6007E-02
    -13.570  0.3487E-02  0.6203E-02
    -13.514  0.1607E-01  0.7105E-02
    -13.458  0.1888E-01  0.8165E-02
    -13.401  0.1929E-01  0.9248E-02
    -13.345  0.1168E-01  0.9904E-02
    -13.289  0.1678E-02  0.9998E-02
    -13.233  0.3753E-04  0.1000E-01
    -13.177  0.9011E-07  0.1000E-01
    -13.121  0.5574E-07  0.1000E-01
    -13.065  0.2819E-04  0.1000E-01
    -13.008  0.1564E-02  0.1009E-01
    -12.952  0.1269E-01  0.1080E-01
    -12.896  0.2199E-01  0.1204E-01
    -12.840  0.2161E-01  0.1325E-01
    -12.784  0.1188E-01  0.1392E-01
    -12.728  0.1450E-02  0.1400E-01
    -12.672  0.2631E-04  0.1400E-01
    -12.615  0.5168E-07  0.1400E-01
    -12.559  0.9315E-11  0.1400E-01
    -12.503  0.3573E-11  0.1400E-01
    -12.447  0.2602E-07  0.1400E-01
    -12.391  0.1783E-04  0.1400E-01
    -12.335  0.1324E-02  0.1408E-01
    -12.279  0.1336E-01  0.1483E-01
    -12.222  0.2806E-01  0.1640E-01
    -12.166  0.2270E-01  0.1768E-01
    -12.110  0.5550E-02  0.1799E-01
    -12.054  0.2265E-03  0.1800E-01
    -11.998  0.2417E-04  0.1800E-01
    -11.942  0.1317E-02  0.1808E-01
    -11.886  0.1057E-01  0.1867E-01
    -11.829  0.1698E-01  0.1962E-01
    -11.773  0.6307E-02  0.1998E-01
    -11.717  0.4206E-03  0.2000E-01
    -11.661  0.3587E-05  0.2000E-01
    -11.605  0.3186E-08  0.2000E-01
    -11.549  0.2647E-12  0.2000E-01
    -11.493  0.1977E-17  0.2000E-01
    -11.436  0.0000E+00  0.2000E-01
    -11.380  0.0000E+00  0.2000E-01
    -11.324  0.0000E+00  0.2000E-01
    -11.268  0.0000E+00  0.2000E-01
    -11.212  0.0000E+00  0.2000E-01
    -11.156  0.0000E+00  0.2000E-01
    -11.100  0.0000E+00  0.2000E-01
    -11.043  0.0000E+00  0.2000E-01
    -10.987  0.0000E+00  0.2000E-01
    -10.931  0.0000E+00  0.2000E-01
    -10.875  0.0000E+00  0.2000E-01
    -10.819  0.0000E+00  0.2000E-01
    -10.763  0.0000E+00  0.2000E-01
    -10.706  0.0000E+00  0.2000E-01
    -10.650  0.0000E+00  0.2000E-01
    -10.594  0.0000E+00  0.2000E-01
    -10.538  0.0000E+00  0.2000E-01
    -10.482  0.0000E+00  0.2000E-01
    -10.426  0.0000E+00  0.2000E-01
    -10.370  0.0000E+00  0.2000E-01
    -10.313  0.0000E+00  0.2000E-01
    -10.257  0.0000E+00  0.2000E-01
    -10.201  0.0000E+00  0.2000E-01
    -10.145  0.0000E+00  0.2000E-01
    -10.089  0.0000E+00  0.2000E-01
    -10.033  0.0000E+00  0.2000E-01
     -9.977  0.0000E+00  0.2000E-01
     -9.920  0.0000E+00  0.2000E-01
     -9.864  0.0000E+00  0.2000E-01
     -9.808  0.0000E+00  0.2000E-01
     -9.752  0.0000E+00  0.2000E-01
     -9.696  0.0000E+00  0.2000E-01
     -9.640  0.0000E+00  0.2000E-01
     -9.584  0.0000E+00  0.2000E-01
     -9.527  0.0000E+00  0.2000E-01
     -9.471  0.0000E+00  0.2000E-01
     -9.415  0.0000E+00  0.2000E-01
     -9.359  0.0000E+00  0.2000E-01
     -9.303  0.0000E+00  0.2000E-01
     -9.247  0.3678E-15  0.2000E-01
     -9.191  0.1705E-10  0.2000E-01
     -9.134  0.6821E-07  0.2000E-01
     -9.078  0.2514E-04  0.2000E-01
     -9.022  0.1003E-02  0.2006E-01
     -8.966  0.6322E-02  0.2041E-01
     -8.910  0.1087E-01  0.2102E-01
     -8.854  0.6167E-02  0.2137E-01
     -8.798  0.8838E-02  0.2187E-01
     -8.741  0.1196E-01  0.2254E-01
     -8.685  0.8204E-02  0.2300E-01
     -8.629  0.9401E-02  0.2353E-01
     -8.573  0.3609E-02  0.2373E-01
     -8.517  0.1020E-01  0.2430E-01
     -8.461  0.1130E-01  0.2494E-01
     -8.405  0.7384E-02  0.2535E-01
     -8.348  0.2047E-01  0.2650E-01
     -8.292  0.1798E-01  0.2751E-01
     -8.236  0.6688E-02  0.2788E-01
     -8.180  0.1406E-01  0.2867E-01
     -8.124  0.1400E-01  0.2946E-01
     -8.068  0.1921E-01  0.3054E-01
     -8.012  0.7773E-02  0.3097E-01
     -7.955  0.4658E-03  0.3100E-01
     -7.899  0.9406E-03  0.3105E-01
     -7.843  0.5859E-02  0.3138E-01
     -7.787  0.5093E-02  0.3167E-01
     -7.731  0.7709E-02  0.3210E-01
     -7.675  0.1489E-01  0.3294E-01
     -7.619  0.9700E-02  0.3348E-01
     -7.562  0.3129E-02  0.3366E-01
     -7.506  0.8577E-03  0.3371E-01
     -7.450  0.8373E-02  0.3418E-01
     -7.394  0.1312E-01  0.3491E-01
     -7.338  0.1110E-01  0.3554E-01
     -7.282  0.1211E-01  0.3622E-01
     -7.226  0.3715E-02  0.3642E-01
     -7.169  0.1363E-01  0.3719E-01
     -7.113  0.1683E-01  0.3813E-01
     -7.057  0.3443E-02  0.3833E-01
     -7.001  0.1051E-03  0.3833E-01
     -6.945  0.3459E-04  0.3834E-01
     -6.889  0.2074E-02  0.3845E-01
     -6.833  0.1654E-01  0.3938E-01
     -6.776  0.1969E-01  0.4049E-01
     -6.720  0.7821E-02  0.4093E-01
     -6.664  0.1360E-01  0.4169E-01
     -6.608  0.5301E-02  0.4199E-01
     -6.552  0.4614E-03  0.4201E-01
     -6.496  0.5865E-02  0.4234E-01
     -6.440  0.2454E-01  0.4372E-01
     -6.383  0.2279E-01  0.4500E-01
     -6.327  0.1552E-01  0.4587E-01
     -6.271  0.7719E-02  0.4630E-01
     -6.215  0.2604E-02  0.4645E-01
     -6.159  0.6750E-02  0.4683E-01
     -6.103  0.2915E-02  0.4699E-01
     -6.046  0.1493E-03  0.4700E-01
     -5.990  0.1018E-05  0.4700E-01
     -5.934  0.7794E-04  0.4700E-01
     -5.878  0.2937E-02  0.4717E-01
     -5.822  0.1727E-01  0.4814E-01
     -5.766  0.1819E-01  0.4916E-01
     -5.710  0.4422E-02  0.4941E-01
     -5.653  0.6459E-02  0.4977E-01
     -5.597  0.3853E-02  0.4999E-01
     -5.541  0.2647E-02  0.5014E-01
     -5.485  0.1242E-01  0.5083E-01
     -5.429  0.8647E-02  0.5132E-01
     -5.373  0.9539E-02  0.5185E-01
     -5.317  0.2971E-01  0.5352E-01
     -5.260  0.1841E-01  0.5456E-01
     -5.204  0.2871E-02  0.5472E-01
     -5.148  0.9980E-02  0.5528E-01
     -5.092  0.2661E-01  0.5677E-01
     -5.036  0.3496E-01  0.5873E-01
     -4.980  0.2216E-01  0.5998E-01
     -4.924  0.1214E-01  0.6066E-01
     -4.867  0.1930E-01  0.6174E-01
     -4.811  0.1661E-01  0.6268E-01
     -4.755  0.6138E-02  0.6302E-01
     -4.699  0.1008E-01  0.6359E-01
     -4.643  0.1651E-01  0.6451E-01
     -4.587  0.1496E-01  0.6535E-01
     -4.531  0.2894E-01  0.6698E-01
     -4.474  0.2071E-01  0.6814E-01
     -4.418  0.8679E-02  0.6863E-01
     -4.362  0.1806E-02  0.6873E-01
     -4.306  0.1518E-01  0.6958E-01
     -4.250  0.3907E-01  0.7178E-01
     -4.194  0.2679E-01  0.7328E-01
     -4.138  0.2351E-01  0.7460E-01
     -4.081  0.2767E-01  0.7615E-01
     -4.025  0.9262E-02  0.7667E-01
     -3.969  0.8900E-02  0.7717E-01
     -3.913  0.2459E-01  0.7855E-01
     -3.857  0.4024E-01  0.8081E-01
     -3.801  0.3096E-01  0.8255E-01
     -3.745  0.7684E-02  0.8298E-01
     -3.688  0.2582E-02  0.8313E-01
     -3.632  0.1612E-01  0.8403E-01
     -3.576  0.1883E-01  0.8509E-01
     -3.520  0.2713E-01  0.8661E-01
     -3.464  0.3002E-01  0.8830E-01
     -3.408  0.1762E-01  0.8929E-01
     -3.352  0.7534E-02  0.8971E-01
     -3.295  0.7508E-02  0.9013E-01
     -3.239  0.1650E-01  0.9106E-01
     -3.183  0.1885E-01  0.9212E-01
     -3.127  0.4170E-02  0.9235E-01
     -3.071  0.5084E-02  0.9264E-01
     -3.015  0.1384E-01  0.9341E-01
     -2.959  0.1382E-01  0.9419E-01
     -2.902  0.6910E-02  0.9458E-01
     -2.846  0.1945E-01  0.9567E-01
     -2.790  0.1771E-01  0.9666E-01
     -2.734  0.1346E-01  0.9742E-01
     -2.678  0.9059E-02  0.9793E-01
     -2.622  0.1273E-02  0.9800E-01
     -2.566  0.3764E-03  0.9802E-01
     -2.509  0.4465E-02  0.9827E-01
     -2.453  0.1062E-01  0.9887E-01
     -2.397  0.1084E-01  0.9948E-01
     -2.341  0.7815E-02  0.9991E-01
     -2.285  0.1472E-02  0.1000E+00
     -2.229  0.4615E-04  0.1000E+00
     -2.173  0.1191E-03  0.1000E+00
     -2.116  0.1792E-02  0.1001E+00
     -2.060  0.3263E-02  0.1003E+00
     -2.004  0.1470E-02  0.1004E+00
     -1.948  0.5436E-02  0.1007E+00
     -1.892  0.5121E-02  0.1010E+00
     -1.836  0.6071E-03  0.1010E+00
     -1.780  0.4524E-03  0.1010E+00
     -1.723  0.4601E-02  0.1013E+00
     -1.667  0.5945E-02  0.1016E+00
     -1.611  0.4014E-02  0.1018E+00
     -1.555  0.1386E-01  0.1026E+00
     -1.499  0.1268E-01  0.1033E+00
     -1.443  0.5399E-02  0.1036E+00
     -1.386  0.5437E-03  0.1037E+00
     -1.330  0.6329E-05  0.1037E+00
     -1.274  0.3285E-05  0.1037E+00
     -1.218  0.4776E-03  0.1037E+00
     -1.162  0.7179E-02  0.1041E+00
     -1.106  0.1302E-01  0.1048E+00
     -1.050  0.3609E-02  0.1050E+00
     -0.993  0.3196E-02  0.1052E+00
     -0.937  0.2049E-02  0.1053E+00
     -0.881  0.9552E-03  0.1054E+00
     -0.825  0.6618E-02  0.1058E+00
     -0.769  0.1159E-01  0.1064E+00
     -0.713  0.1252E-01  0.1071E+00
     -0.657  0.1454E-01  0.1079E+00
     -0.600  0.6209E-02  0.1083E+00
     -0.544  0.4341E-02  0.1085E+00
     -0.488  0.2189E-01  0.1097E+00
     -0.432  0.2008E-01  0.1109E+00
     -0.376  0.5637E-02  0.1112E+00
     -0.320  0.1566E-01  0.1121E+00
     -0.264  0.2374E-01  0.1134E+00
     -0.207  0.1633E-01  0.1143E+00
     -0.151  0.7071E-02  0.1147E+00
     -0.095  0.1354E-01  0.1155E+00
     -0.039  0.3124E-01  0.1172E+00
      0.017  0.2589E-01  0.1187E+00
      0.073  0.2979E-01  0.1204E+00
      0.129  0.4560E-01  0.1229E+00
      0.186  0.2582E-01  0.1244E+00
      0.242  0.1421E-01  0.1252E+00
      0.298  0.2109E-01  0.1263E+00
      0.354  0.1406E-01  0.1271E+00
      0.410  0.1085E-01  0.1277E+00
      0.466  0.1705E-01  0.1287E+00
      0.522  0.2527E-01  0.1301E+00
      0.579  0.2548E-01  0.1315E+00
      0.635  0.2672E-01  0.1330E+00
      0.691  0.4216E-01  0.1354E+00
      0.747  0.2889E-01  0.1370E+00
      0.803  0.2442E-01  0.1384E+00
      0.859  0.4501E-02  0.1387E+00
      0.915  0.1013E-03  0.1387E+00
      0.972  0.2351E-06  0.1387E+00
      1.028  0.9831E-10  0.1387E+00
      1.084  0.1730E-06  0.1387E+00
      1.140  0.5739E-04  0.1387E+00
      1.196  0.1993E-02  0.1388E+00
      1.252  0.9847E-02  0.1393E+00
      1.308  0.9820E-02  0.1399E+00
      1.365  0.1975E-02  0.1400E+00
      1.421  0.5642E-04  0.1400E+00
      1.477  0.1686E-06  0.1400E+00
      1.533  0.4582E-10  0.1400E+00
      1.589  0.1070E-14  0.1400E+00
      1.645  0.0000E+00  0.1400E+00
      1.701  0.0000E+00  0.1400E+00
      1.758  0.0000E+00  0.1400E+00
      1.814  0.0000E+00  0.1400E+00
      1.870  0.0000E+00  0.1400E+00
      1.926  0.0000E+00  0.1400E+00
      1.982  0.0000E+00  0.1400E+00
      2.038  0.0000E+00  0.1400E+00
