   12   12  400    1
  0.7629336E+02  0.6019200E-09  0.1014000E-08  0.1500000E-08  0.3500000E-15
   1.0000000000000000E-004
  CAR 
 Al2C                                    
     40      8     28

  0.3742002E-15  0.3742002E-15  0.1262379E-14  0.6666667E-01
    1      -14.039446   1.000000
    2      -13.865357   1.000000
    3      -11.899217   1.000000
    4      -11.834476   1.000000
    5       -8.984663   1.000000
    6       -8.953092   1.000000
    7       -8.687774   1.000000
    8       -6.813832   1.000000
    9       -6.442357   1.000000
   10       -5.822466   1.000000
   11       -5.133427   1.000000
   12       -5.129888   1.000000
   13       -5.091741   1.000000
   14       -4.686188   1.000000
   15       -3.847625   1.000000
   16       -3.237062   1.000000
   17       -3.217925   1.000000
   18       -2.723439   1.000000
   19       -2.507357   1.000000
   20       -2.371472   0.999939
   21       -2.100036   0.000062
   22       -1.005147   0.000000
   23       -0.631235   0.000000
   24       -0.178198   0.000000
   25       -0.129675   0.000000
   26       -0.042171   0.000000
   27        0.141691   0.000000
   28        0.662163   0.000000

  0.2000000E+00  0.3742002E-15  0.1262379E-14  0.1333333E+00
    1      -13.913483   1.000000
    2      -13.743344   1.000000
    3      -12.284149   1.000000
    4      -12.186704   1.000000
    5       -8.803714   1.000000
    6       -8.392783   1.000000
    7       -8.118566   1.000000
    8       -6.693481   1.000000
    9       -6.686342   1.000000
   10       -6.333569   1.000000
   11       -5.330354   1.000000
   12       -4.988887   1.000000
   13       -4.551075   1.000000
   14       -4.308047   1.000000
   15       -4.232961   1.000000
   16       -3.892289   1.000000
   17       -3.884234   1.000000
   18       -3.062305   1.000000
   19       -2.791060   1.000000
   20       -2.733164   1.000000
   21       -1.949480   0.000000
   22       -0.261177   0.000000
   23       -0.085835   0.000000
   24       -0.069235   0.000000
   25        0.057051   0.000000
   26        0.139202   0.000000
   27        0.139927   0.000000
   28        0.539937   0.000000

  0.4000000E+00  0.3742002E-15  0.1262379E-14  0.1333333E+00
    1      -13.543823   1.000000
    2      -13.385993   1.000000
    3      -12.963915   1.000000
    4      -12.828873   1.000000
    5       -8.360342   1.000000
    6       -7.640168   1.000000
    7       -7.142727   1.000000
    8       -6.844414   1.000000
    9       -6.349710   1.000000
   10       -6.181734   1.000000
   11       -5.844961   1.000000
   12       -5.319441   1.000000
   13       -5.075631   1.000000
   14       -5.024451   1.000000
   15       -4.571598   1.000000
   16       -4.153604   1.000000
   17       -3.901231   1.000000
   18       -3.527956   1.000000
   19       -3.305137   1.000000
   20       -2.846977   1.000000
   21       -1.502189   0.000000
   22       -0.778104   0.000000
   23        0.204835   0.000000
   24        0.376765   0.000000
   25        0.524899   0.000000
   26        0.646358   0.000000
   27        1.231681   0.000000
   28        1.272719   0.000000

  0.3742002E-15  0.3333333E+00  0.1262379E-14  0.1333333E+00
    1      -13.998608   1.000000
    2      -13.911752   1.000000
    3      -11.883404   1.000000
    4      -11.851041   1.000000
    5       -8.918566   1.000000
    6       -8.771358   1.000000
    7       -8.660341   1.000000
    8       -7.849678   1.000000
    9       -5.667738   1.000000
   10       -5.308623   1.000000
   11       -5.148309   1.000000
   12       -5.039573   1.000000
   13       -4.856527   1.000000
   14       -4.822776   1.000000
   15       -4.231421   1.000000
   16       -3.623823   1.000000
   17       -3.232332   1.000000
   18       -3.222955   1.000000
   19       -2.475050   1.000000
   20       -2.407073   0.999999
   21       -1.716706   0.000000
   22       -0.827936   0.000000
   23       -0.500767   0.000000
   24       -0.482641   0.000000
   25       -0.037248   0.000000
   26        0.096790   0.000000
   27        0.291894   0.000000
   28        0.639611   0.000000

  0.2000000E+00  0.3333333E+00  0.1262379E-14  0.1333333E+00
    1      -13.873509   1.000000
    2      -13.788613   1.000000
    3      -12.260577   1.000000
    4      -12.211873   1.000000
    5       -8.514681   1.000000
    6       -8.335840   1.000000
    7       -8.201766   1.000000
    8       -7.714653   1.000000
    9       -6.427541   1.000000
   10       -5.808872   1.000000
   11       -5.077245   1.000000
   12       -4.899433   1.000000
   13       -4.685452   1.000000
   14       -4.135878   1.000000
   15       -4.098653   1.000000
   16       -3.955791   1.000000
   17       -3.864903   1.000000
   18       -3.503552   1.000000
   19       -3.001487   1.000000
   20       -2.866625   1.000000
   21       -1.571620   0.000000
   22       -0.698333   0.000000
   23       -0.270542   0.000000
   24       -0.033540   0.000000
   25        0.079071   0.000000
   26        0.277338   0.000000
   27        0.448119   0.000000
   28        0.525660   0.000000

  0.4000000E+00  0.3333333E+00  0.1262379E-14  0.1333333E+00
    1      -13.506558   1.000000
    2      -13.427779   1.000000
    3      -12.931737   1.000000
    4      -12.864293   1.000000
    5       -8.085363   1.000000
    6       -7.439461   1.000000
    7       -7.329215   1.000000
    8       -7.171989   1.000000
    9       -6.823089   1.000000
   10       -6.467427   1.000000
   11       -5.496307   1.000000
   12       -5.352464   1.000000
   13       -4.565167   1.000000
   14       -4.485254   1.000000
   15       -4.280425   1.000000
   16       -4.272601   1.000000
   17       -3.822271   1.000000
   18       -3.638405   1.000000
   19       -3.528048   1.000000
   20       -3.428130   1.000000
   21       -1.145632   0.000000
   22       -0.489721   0.000000
   23       -0.337425   0.000000
   24        0.088993   0.000000
   25        0.641567   0.000000
   26        0.670932   0.000000
   27        0.748913   0.000000
   28        0.763517   0.000000

 -0.4000000E+00  0.3333333E+00  0.1262379E-14  0.1333333E+00
    1      -13.506558   1.000000
    2      -13.427779   1.000000
    3      -12.931737   1.000000
    4      -12.864293   1.000000
    5       -8.085362   1.000000
    6       -7.439471   1.000000
    7       -7.329218   1.000000
    8       -7.171977   1.000000
    9       -6.823074   1.000000
   10       -6.467449   1.000000
   11       -5.496286   1.000000
   12       -5.352472   1.000000
   13       -4.565190   1.000000
   14       -4.485253   1.000000
   15       -4.280425   1.000000
   16       -4.272585   1.000000
   17       -3.822271   1.000000
   18       -3.638404   1.000000
   19       -3.528060   1.000000
   20       -3.428116   1.000000
   21       -1.145630   0.000000
   22       -0.489726   0.000000
   23       -0.337429   0.000000
   24        0.089001   0.000000
   25        0.641572   0.000000
   26        0.670927   0.000000
   27        0.748911   0.000000
   28        0.763517   0.000000

 -0.2000000E+00  0.3333333E+00  0.1262379E-14  0.1333333E+00
    1      -13.873509   1.000000
    2      -13.788613   1.000000
    3      -12.260577   1.000000
    4      -12.211873   1.000000
    5       -8.514681   1.000000
    6       -8.335838   1.000000
    7       -8.201768   1.000000
    8       -7.714653   1.000000
    9       -6.427533   1.000000
   10       -5.808882   1.000000
   11       -5.077239   1.000000
   12       -4.899433   1.000000
   13       -4.685452   1.000000
   14       -4.135887   1.000000
   15       -4.098639   1.000000
   16       -3.955814   1.000000
   17       -3.864912   1.000000
   18       -3.503525   1.000000
   19       -3.001487   1.000000
   20       -2.866625   1.000000
   21       -1.571619   0.000000
   22       -0.698334   0.000000
   23       -0.270541   0.000000
   24       -0.033534   0.000000
   25        0.079061   0.000000
   26        0.277339   0.000000
   27        0.448115   0.000000
   28        0.525653   0.000000
