Al2C                                    
   1.0000000000000000     
     6.0191999999999997    0.0000000000000000    0.0000000000000000
     0.0000000000000000   10.1400000000000006    0.0000000000000000
     0.0000000000000000    0.0000000000000000   15.0000000000000000
   Al   C 
     8     4
Selective dynamics
Direct
  0.4208950242652889  0.8550234142478026  0.2666658619293376   T   T   T
  0.9209053628476525  0.8550337867720967  0.2666651285414967   T   T   T
  0.4208958202707298  0.5986288878902081  0.2666649440366229   T   T   T
  0.9209090096890208  0.5986196112171531  0.2666650186471675   T   T   T
  0.4208932634932828  0.3550235532769257  0.2666650656452198   T   T   T
  0.9209073940905563  0.3550338829199015  0.2666642866205715   T   T   T
  0.4208940227540078  0.0986287654146209  0.2666656738611060   T   T   T
  0.9209110861293051  0.0986193669276215  0.2666657333601940   T   T   T
  0.1708942258278872  0.9768192735413643  0.2666708633035038   T   T   T
  0.6708851525414338  0.9768216010643590  0.2666705362968826   T   T   T
  0.1708952646291304  0.4768208802560319  0.2666680963495014   T   T   T
  0.6708852400220465  0.4768204675961774  0.2666687914083776   T   T   T

  0.00000000E+00  0.00000000E+00  0.00000000E+00
  0.00000000E+00  0.00000000E+00  0.00000000E+00
  0.00000000E+00  0.00000000E+00  0.00000000E+00
  0.00000000E+00  0.00000000E+00  0.00000000E+00
  0.00000000E+00  0.00000000E+00  0.00000000E+00
  0.00000000E+00  0.00000000E+00  0.00000000E+00
  0.00000000E+00  0.00000000E+00  0.00000000E+00
  0.00000000E+00  0.00000000E+00  0.00000000E+00
  0.00000000E+00  0.00000000E+00  0.00000000E+00
  0.00000000E+00  0.00000000E+00  0.00000000E+00
  0.00000000E+00  0.00000000E+00  0.00000000E+00
  0.00000000E+00  0.00000000E+00  0.00000000E+00
