<?xml version="1.0" encoding="ISO-8859-1"?>
<modeling>
 <generator>
  <i name="program" type="string">vasp </i>
  <i name="version" type="string">5.4.4.18Apr17-6-g9f103f2a35  </i>
  <i name="subversion" type="string">(build Dec  6 2019 17:49:40) complex            parallel </i>
  <i name="platform" type="string">LinuxGNU </i>
  <i name="date" type="string">2022 05 09 </i>
  <i name="time" type="string">11:41:17 </i>
 </generator>
 <incar>
  <i type="string" name="SYSTEM"> Al2C</i>
  <i type="int" name="ISTART">     0</i>
  <i type="string" name="PREC">accurate</i>
  <i type="int" name="NSIM">     4</i>
  <i type="int" name="NELM">   300</i>
  <i type="int" name="NELMDL">    -7</i>
  <i type="int" name="IBRION">     2</i>
  <i name="EDIFF">      0.00001000</i>
  <i name="EDIFFG">     -0.01000000</i>
  <i type="int" name="NSW">   400</i>
  <i type="int" name="ISIF">     2</i>
  <i type="int" name="ISYM">     0</i>
  <i name="ENCUT">    450.00000000</i>
  <i name="POTIM">      0.35000000</i>
  <i type="string" name="LREAL"> auto</i>
  <v name="ROPT">     -0.00020000     -0.00020000</v>
  <i type="logical" name="LPLANE"> T  </i>
  <i type="int" name="ISMEAR">     0</i>
  <i name="SIGMA">      0.05000000</i>
  <i type="int" name="NWRITE">     2</i>
  <i type="logical" name="LWAVE"> F  </i>
  <i type="logical" name="LCHARG"> T  </i>
  <i type="logical" name="LSCALU"> F  </i>
  <i type="logical" name="LASPH"> T  </i>
  <v type="int" name="KPOINT_BSE">    -1     0     0     0</v>
  <i type="int" name="NELM">   300</i>
  <i type="string" name="GGA"> ML</i>
  <i type="logical" name="LUSE_VDW"> T  </i>
  <i name="Zab_VDW">     -1.88670000</i>
  <i name="AGGAC">      0.00000000</i>
  <i type="logical" name="LASPH"> T  </i>
 </incar>
 <structure name="primitive_cell" >
  <crystal>
   <varray name="basis" >
    <v>       6.01920000       0.00000000       0.00000000 </v>
    <v>       0.00000000      10.14000000       0.00000000 </v>
    <v>       0.00000000       0.00000000      15.00000000 </v>
   </varray>
   <i name="volume">    915.52032000 </i>
   <varray name="rec_basis" >
    <v>       0.16613503       0.00000000       0.00000000 </v>
    <v>       0.00000000       0.09861933       0.00000000 </v>
    <v>       0.00000000       0.00000000       0.06666667 </v>
   </varray>
  </crystal>
  <varray name="positions" >
   <v>       0.42089502      -0.14497659       0.26666586 </v>
   <v>      -0.32911485      -0.02317840       0.26667054 </v>
   <v>       0.17089423      -0.02318073       0.26667086 </v>
   <v>       0.42089402       0.09862877       0.26666567 </v>
   <v>       0.42089582      -0.40137111       0.26666494 </v>
   <v>      -0.07909464      -0.14496621       0.26666513 </v>
   <v>      -0.07908891       0.09861937       0.26666573 </v>
   <v>      -0.07909099      -0.40138039       0.26666502 </v>
   <v>      -0.32911476       0.47682047       0.26666879 </v>
   <v>       0.17089526       0.47682088       0.26666810 </v>
   <v>       0.42089326       0.35502355       0.26666507 </v>
   <v>      -0.07909261       0.35503388       0.26666429 </v>
  </varray>
 </structure>
 <varray name="primitive_index" >
  <v type="int" >        1 </v>
  <v type="int" >       10 </v>
  <v type="int" >        9 </v>
  <v type="int" >        7 </v>
  <v type="int" >        3 </v>
  <v type="int" >        2 </v>
  <v type="int" >        8 </v>
  <v type="int" >        4 </v>
  <v type="int" >       12 </v>
  <v type="int" >       11 </v>
  <v type="int" >        5 </v>
  <v type="int" >        6 </v>
 </varray>
 <kpoints>
  <generation param="Gamma">
   <v type="int" name="divisions">       5        3        1 </v>
   <v name="usershift">      0.00000000       0.00000000       0.00000000 </v>
   <v name="genvec1">      0.20000000       0.00000000       0.00000000 </v>
   <v name="genvec2">      0.00000000       0.33333333       0.00000000 </v>
   <v name="genvec3">      0.00000000       0.00000000       1.00000000 </v>
   <v name="shift">      0.00000000       0.00000000       0.00000000 </v>
  </generation>
  <varray name="kpointlist" >
   <v>       0.00000000       0.00000000       0.00000000 </v>
   <v>       0.20000000       0.00000000       0.00000000 </v>
   <v>       0.40000000       0.00000000       0.00000000 </v>
   <v>       0.00000000       0.33333333       0.00000000 </v>
   <v>       0.20000000       0.33333333       0.00000000 </v>
   <v>       0.40000000       0.33333333       0.00000000 </v>
   <v>      -0.40000000       0.33333333       0.00000000 </v>
   <v>      -0.20000000       0.33333333       0.00000000 </v>
  </varray>
  <varray name="weights" >
   <v>       0.06666667 </v>
   <v>       0.13333333 </v>
   <v>       0.13333333 </v>
   <v>       0.13333333 </v>
   <v>       0.13333333 </v>
   <v>       0.13333333 </v>
   <v>       0.13333333 </v>
   <v>       0.13333333 </v>
  </varray>
 </kpoints>
 <parameters>
  <separator name="general" >
   <i type="string" name="SYSTEM">Al2C</i>
   <i type="logical" name="LCOMPAT"> F  </i>
  </separator>
  <separator name="electronic" >
   <i type="string" name="PREC">accura</i>
   <i name="ENMAX">    450.00000000</i>
   <i name="ENAUG">    644.87300000</i>
   <i name="EDIFF">      0.00001000</i>
   <i type="int" name="IALGO">    38</i>
   <i type="int" name="IWAVPR">    11</i>
   <i type="int" name="NBANDS">    28</i>
   <i name="NELECT">     40.00000000</i>
   <i type="int" name="TURBO">     0</i>
   <i type="int" name="IRESTART">     0</i>
   <i type="int" name="NREBOOT">     0</i>
   <i type="int" name="NMIN">     0</i>
   <i name="EREF">      0.00000000</i>
   <separator name="electronic smearing" >
    <i type="int" name="ISMEAR">     0</i>
    <i name="SIGMA">      0.05000000</i>
    <i name="KSPACING">      0.50000000</i>
    <i type="logical" name="KGAMMA"> T  </i>
   </separator>
   <separator name="electronic projectors" >
    <i type="logical" name="LREAL"> T  </i>
    <v name="ROPT">     -0.00020000     -0.00020000</v>
    <i type="int" name="LMAXPAW">  -100</i>
    <i type="int" name="LMAXMIX">     2</i>
    <i type="logical" name="NLSPLINE"> F  </i>
   </separator>
   <separator name="electronic startup" >
    <i type="int" name="ISTART">     0</i>
    <i type="int" name="ICHARG">     2</i>
    <i type="int" name="INIWAV">     1</i>
   </separator>
   <separator name="electronic spin" >
    <i type="int" name="ISPIN">     1</i>
    <i type="logical" name="LNONCOLLINEAR"> F  </i>
    <v name="MAGMOM">      1.00000000      1.00000000      1.00000000      1.00000000      1.00000000      1.00000000      1.00000000      1.00000000      1.00000000      1.00000000      1.00000000      1.00000000</v>
    <i name="NUPDOWN">     -1.00000000</i>
    <i type="logical" name="LSORBIT"> F  </i>
    <v name="SAXIS">      0.00000000      0.00000000      1.00000000</v>
    <i type="logical" name="LSPIRAL"> F  </i>
    <v name="QSPIRAL">      0.00000000      0.00000000      0.00000000</v>
    <i type="logical" name="LZEROZ"> F  </i>
   </separator>
   <separator name="electronic exchange-correlation" >
    <i type="logical" name="LASPH"> T  </i>
    <i type="logical" name="LMETAGGA"> F  </i>
   </separator>
   <separator name="electronic convergence" >
    <i type="int" name="NELM">   300</i>
    <i type="int" name="NELMDL">    -7</i>
    <i type="int" name="NELMIN">     2</i>
    <i name="ENINI">    450.00000000</i>
    <separator name="electronic convergence detail" >
     <i type="logical" name="LDIAG"> T  </i>
     <i type="logical" name="LSUBROT"> F  </i>
     <i name="WEIMIN">      0.00100000</i>
     <i name="EBREAK">      0.00000009</i>
     <i name="DEPER">      0.30000000</i>
     <i type="int" name="NRMM">     4</i>
     <i name="TIME">      0.40000000</i>
    </separator>
   </separator>
   <separator name="electronic mixer" >
    <i name="AMIX">      0.40000000</i>
    <i name="BMIX">      1.00000000</i>
    <i name="AMIN">      0.10000000</i>
    <i name="AMIX_MAG">      1.60000000</i>
    <i name="BMIX_MAG">      1.00000000</i>
    <separator name="electronic mixer details" >
     <i type="int" name="IMIX">     4</i>
     <i type="logical" name="MIXFIRST"> F  </i>
     <i type="int" name="MAXMIX">   -45</i>
     <i name="WC">    100.00000000</i>
     <i type="int" name="INIMIX">     1</i>
     <i type="int" name="MIXPRE">     1</i>
     <i type="int" name="MREMOVE">     5</i>
    </separator>
   </separator>
   <separator name="electronic dipolcorrection" >
    <i type="logical" name="LDIPOL"> F  </i>
    <i type="logical" name="LMONO"> F  </i>
    <i type="int" name="IDIPOL">     0</i>
    <i name="EPSILON">      1.00000000</i>
    <v name="DIPOL">   -100.00000000   -100.00000000   -100.00000000</v>
    <i name="EFIELD">      0.00000000</i>
   </separator>
  </separator>
  <separator name="grids" >
   <i type="int" name="NGX">    42</i>
   <i type="int" name="NGY">    70</i>
   <i type="int" name="NGZ">   108</i>
   <i type="int" name="NGXF">    84</i>
   <i type="int" name="NGYF">   140</i>
   <i type="int" name="NGZF">   216</i>
   <i type="logical" name="ADDGRID"> F  </i>
  </separator>
  <separator name="ionic" >
   <i type="int" name="NSW">   400</i>
   <i type="int" name="IBRION">     2</i>
   <i type="int" name="MDALGO">     0</i>
   <i type="int" name="ISIF">     2</i>
   <i name="PSTRESS">      0.00000000</i>
   <i name="EDIFFG">     -0.01000000</i>
   <i type="int" name="NFREE">     1</i>
   <i name="POTIM">      0.35000000</i>
   <i name="SMASS">     -3.00000000</i>
   <i name="SCALEE">      1.00000000</i>
  </separator>
  <separator name="ionic md" >
   <i name="TEBEG">      0.00010000</i>
   <i name="TEEND">      0.00010000</i>
   <i type="int" name="NBLOCK">     1</i>
   <i type="int" name="KBLOCK">   400</i>
   <i type="int" name="NPACO">   256</i>
   <i name="APACO">     16.00000000</i>
  </separator>
  <separator name="symmetry" >
   <i type="int" name="ISYM">     0</i>
   <i name="SYMPREC">      0.00001000</i>
  </separator>
  <separator name="dos" >
   <i type="int" name="LORBIT">     0</i>
   <v name="RWIGS">     -1.00000000     -1.00000000</v>
   <i type="int" name="NEDOS">   301</i>
   <i name="EMIN">     10.00000000</i>
   <i name="EMAX">    -10.00000000</i>
   <i name="EFERMI">      0.00000000</i>
  </separator>
  <separator name="writing" >
   <i type="int" name="NWRITE">     2</i>
   <i type="logical" name="LWAVE"> F  </i>
   <i type="logical" name="LDOWNSAMPLE"> F  </i>
   <i type="logical" name="LCHARG"> T  </i>
   <i type="logical" name="LPARD"> F  </i>
   <i type="logical" name="LVTOT"> F  </i>
   <i type="logical" name="LVHAR"> F  </i>
   <i type="logical" name="LELF"> F  </i>
   <i type="logical" name="LOPTICS"> F  </i>
   <v name="STM">      0.00000000      0.00000000      0.00000000      0.00000000      0.00000000      0.00000000      0.00000000</v>
  </separator>
  <separator name="performance" >
   <i type="int" name="NPAR">     4</i>
   <i type="int" name="NSIM">     4</i>
   <i type="int" name="NBLK">    -1</i>
   <i type="logical" name="LPLANE"> T  </i>
   <i type="logical" name="LSCALAPACK"> T  </i>
   <i type="logical" name="LSCAAWARE"> F  </i>
   <i type="logical" name="LSCALU"> F  </i>
   <i type="logical" name="LASYNC"> F  </i>
   <i type="logical" name="LORBITALREAL"> F  </i>
  </separator>
  <separator name="miscellaneous" >
   <i type="int" name="IDIOT">     3</i>
   <i type="int" name="ISPECIAL">     0</i>
   <i type="logical" name="LMUSIC"> F  </i>
   <v name="POMASS">     26.98200000     12.01100000</v>
   <v name="DARWINR">      0.00000000      0.00000000</v>
   <v name="DARWINV">      1.00000000      1.00000000</v>
   <i type="logical" name="LCORR"> T  </i>
  </separator>
  <i type="logical" name="GGA_COMPAT"> T  </i>
  <i type="logical" name="LBERRY"> F  </i>
  <i type="int" name="ICORELEVEL">     0</i>
  <i type="logical" name="LDAU"> F  </i>
  <i type="int" name="I_CONSTRAINED_M">     0</i>
  <separator name="electronic exchange-correlation" >
   <i type="string" name="GGA">ML</i>
   <i type="int" name="VOSKOWN">     0</i>
   <i type="logical" name="LHFCALC"> F  </i>
   <i type="string" name="PRECFOCK"></i>
   <i type="logical" name="LSYMGRAD"> F  </i>
   <i type="logical" name="LHFONE"> F  </i>
   <i type="logical" name="LRHFCALC"> F  </i>
   <i type="logical" name="LTHOMAS"> F  </i>
   <i type="logical" name="LMODELHF"> F  </i>
   <i name="ENCUT4O">     -1.00000000</i>
   <i type="int" name="EXXOEP">     0</i>
   <i type="int" name="FOURORBIT">     0</i>
   <i name="AEXX">      0.00000000</i>
   <i name="HFALPHA">      0.00000000</i>
   <i name="MCALPHA">      0.00000000</i>
   <i name="ALDAX">      1.00000000</i>
   <i name="AGGAX">      1.00000000</i>
   <i name="ALDAC">      1.00000000</i>
   <i name="AGGAC">      0.00000000</i>
   <i type="int" name="NKREDX">     1</i>
   <i type="int" name="NKREDY">     1</i>
   <i type="int" name="NKREDZ">     1</i>
   <i type="logical" name="SHIFTRED"> F  </i>
   <i type="logical" name="ODDONLY"> F  </i>
   <i type="logical" name="EVENONLY"> F  </i>
   <i type="int" name="LMAXFOCK">     0</i>
   <i type="int" name="NMAXFOCKAE">     0</i>
   <i type="logical" name="LFOCKAEDFT"> F  </i>
   <i name="HFSCREEN">      0.00000000</i>
   <i name="HFSCREENC">      0.00000000</i>
   <i type="int" name="NBANDSGWLOW">     0</i>
  </separator>
  <separator name="vdW DFT" >
   <i type="logical" name="LUSE_VDW"> T  </i>
   <i name="Zab_VDW">     -1.88670000</i>
   <i name="PARAM1">      0.12340000</i>
   <i name="PARAM2">      1.00000000</i>
   <i name="PARAM3">      0.00000000</i>
  </separator>
  <separator name="model GW" >
   <i type="int" name="MODEL_GW">     0</i>
   <i name="MODEL_EPS0">     45.77601600</i>
   <i name="MODEL_ALPHA">      1.00000000</i>
  </separator>
  <separator name="linear response parameters" >
   <i type="logical" name="LEPSILON"> F  </i>
   <i type="logical" name="LRPA"> F  </i>
   <i type="logical" name="LNABLA"> F  </i>
   <i type="logical" name="LVEL"> F  </i>
   <i type="int" name="KINTER">     0</i>
   <i name="CSHIFT">      0.10000000</i>
   <i name="OMEGAMAX">     -1.00000000</i>
   <i name="DEG_THRESHOLD">      0.00200000</i>
   <i name="RTIME">     -0.10000000</i>
   <i name="WPLASMAI">      0.00000000</i>
   <v name="DFIELD">      0.00000000      0.00000000      0.00000000</v>
   <v name="WPLASMA">      0.00000000      0.00000000      0.00000000      0.00000000      0.00000000      0.00000000      0.00000000      0.00000000      0.00000000</v>
  </separator>
  <separator name="orbital magnetization" >
   <i type="logical" name="NUCIND"> F  </i>
   <v name="MAGPOS">      0.00000000      0.00000000      0.00000000</v>
   <i type="logical" name="LNICSALL"> T  </i>
   <i type="logical" name="ORBITALMAG"> F  </i>
   <i type="logical" name="LMAGBLOCH"> F  </i>
   <i type="logical" name="LCHIMAG"> F  </i>
   <i type="logical" name="LGAUGE"> T  </i>
   <i type="int" name="MAGATOM">     0</i>
   <v name="MAGDIPOL">      0.00000000      0.00000000      0.00000000</v>
   <v name="AVECCONST">      0.00000000      0.00000000      0.00000000</v>
  </separator>
  <separator name="response functions" >
   <i type="logical" name="LADDER"> F  </i>
   <i type="logical" name="LRPAFORCE"> F  </i>
   <i type="logical" name="LFXC"> F  </i>
   <i type="logical" name="LHARTREE"> T  </i>
   <i type="int" name="IBSE">     0</i>
   <v type="int" name="KPOINT">    -1     0     0     0</v>
   <i type="logical" name="LTCTE"> F  </i>
   <i type="logical" name="LTETE"> F  </i>
   <i type="logical" name="LTRIPLET"> F  </i>
   <i type="logical" name="LFXCEPS"> F  </i>
   <i type="logical" name="LFXHEG"> F  </i>
   <i type="int" name="NATURALO">     2</i>
   <i type="logical" name="L2ORDER"> F  </i>
   <i type="logical" name="LMP2LT"> F  </i>
   <i type="logical" name="LUSEW"> F  </i>
   <i name="ENCUTGW">     -2.00000000</i>
   <i name="ENCUTGWSOFT">     -2.00000000</i>
   <i name="ENCUTLF">     -1.00000000</i>
   <i type="int" name="LMAXMP2">    -1</i>
   <i name="SCISSOR">      0.00000000</i>
   <i type="int" name="NOMEGA">     0</i>
   <i type="int" name="NOMEGAR">     0</i>
   <i type="int" name="NBANDSGW">    -1</i>
   <i type="int" name="NBANDSO">    -1</i>
   <i type="int" name="NBANDSV">    -1</i>
   <i type="int" name="NELM">   300</i>
   <i type="int" name="NELMHF">     1</i>
   <i type="int" name="DIM">     3</i>
   <i type="int" name="ANTIRES">     0</i>
   <i name="OMEGAMAX">    -30.00000000</i>
   <i name="OMEGAMIN">    -30.00000000</i>
   <i name="OMEGATL">   -200.00000000</i>
   <i type="int" name="OMEGAGRID">   140</i>
   <i name="CSHIFT">     -0.10000000</i>
   <i type="logical" name="SELFENERGY"> F  </i>
   <i type="logical" name="LSPECTRAL"> F  </i>
   <i type="logical" name="LSPECTRALGW"> F  </i>
   <i type="logical" name="LSINGLES"> F  </i>
   <i type="logical" name="LFERMIGW"> F  </i>
   <i type="logical" name="ODDONLYGW"> F  </i>
   <i type="logical" name="EVENONLYGW"> F  </i>
   <i type="int" name="NKREDLFX">     1</i>
   <i type="int" name="NKREDLFY">     1</i>
   <i type="int" name="NKREDLFZ">     1</i>
   <i type="int" name="MAXMEM">  2800</i>
   <i type="int" name="TELESCOPE">     0</i>
   <i type="int" name="TAUPAR">     1</i>
   <i type="int" name="OMEGAPAR">    -1</i>
   <i name="LAMBDA">      1.00000000</i>
  </separator>
  <separator name="External order field" >
   <i name="OFIELD_KAPPA">      0.00000000</i>
   <v name="OFIELD_K">      0.00000000      0.00000000      0.00000000</v>
   <i name="OFIELD_Q6_NEAR">      0.00000000</i>
   <i name="OFIELD_Q6_FAR">      0.00000000</i>
   <i name="OFIELD_A">      0.00000000</i>
  </separator>
 </parameters>
 <atominfo>
  <atoms>      12 </atoms>
  <types>       2 </types>
  <array name="atoms" >
   <dimension dim="1">ion</dimension>
   <field type="string">element</field>
   <field type="int">atomtype</field>
   <set>
    <rc><c>Al</c><c>   1</c></rc>
    <rc><c>Al</c><c>   1</c></rc>
    <rc><c>Al</c><c>   1</c></rc>
    <rc><c>Al</c><c>   1</c></rc>
    <rc><c>Al</c><c>   1</c></rc>
    <rc><c>Al</c><c>   1</c></rc>
    <rc><c>Al</c><c>   1</c></rc>
    <rc><c>Al</c><c>   1</c></rc>
    <rc><c>C </c><c>   2</c></rc>
    <rc><c>C </c><c>   2</c></rc>
    <rc><c>C </c><c>   2</c></rc>
    <rc><c>C </c><c>   2</c></rc>
   </set>
  </array>
  <array name="atomtypes" >
   <dimension dim="1">type</dimension>
   <field type="int">atomspertype</field>
   <field type="string">element</field>
   <field>mass</field>
   <field>valence</field>
   <field type="string">pseudopotential</field>
   <set>
    <rc><c>   8</c><c>Al</c><c>     26.98200000</c><c>      3.00000000</c><c>  PAW Al_GW 19Mar2012                   </c></rc>
    <rc><c>   4</c><c>C </c><c>     12.01100000</c><c>      4.00000000</c><c>  PAW C_GW 28Sep2005                    </c></rc>
   </set>
  </array>
 </atominfo>
 <structure name="initialpos" >
  <crystal>
   <varray name="basis" >
    <v>       6.01920000       0.00000000       0.00000000 </v>
    <v>       0.00000000      10.14000000       0.00000000 </v>
    <v>       0.00000000       0.00000000      15.00000000 </v>
   </varray>
   <i name="volume">    915.52032000 </i>
   <varray name="rec_basis" >
    <v>       0.16613503       0.00000000       0.00000000 </v>
    <v>       0.00000000       0.09861933       0.00000000 </v>
    <v>       0.00000000       0.00000000       0.06666667 </v>
   </varray>
  </crystal>
  <varray name="positions" >
   <v>       0.42089502       0.85502341       0.26666586 </v>
   <v>       0.92090536       0.85503379       0.26666513 </v>
   <v>       0.42089582       0.59862889       0.26666494 </v>
   <v>       0.92090901       0.59861961       0.26666502 </v>
   <v>       0.42089326       0.35502355       0.26666507 </v>
   <v>       0.92090739       0.35503388       0.26666429 </v>
   <v>       0.42089402       0.09862877       0.26666567 </v>
   <v>       0.92091109       0.09861937       0.26666573 </v>
   <v>       0.17089423       0.97681927       0.26667086 </v>
   <v>       0.67088515       0.97682160       0.26667054 </v>
   <v>       0.17089526       0.47682088       0.26666810 </v>
   <v>       0.67088524       0.47682047       0.26666879 </v>
  </varray>
  <varray name="selective"  type="logical" >
   <v type="logical" >  T  T  T </v>
   <v type="logical" >  T  T  T </v>
   <v type="logical" >  T  T  T </v>
   <v type="logical" >  T  T  T </v>
   <v type="logical" >  T  T  T </v>
   <v type="logical" >  T  T  T </v>
   <v type="logical" >  T  T  T </v>
   <v type="logical" >  T  T  T </v>
   <v type="logical" >  T  T  T </v>
   <v type="logical" >  T  T  T </v>
   <v type="logical" >  T  T  T </v>
   <v type="logical" >  T  T  T </v>
  </varray>
  <nose>
   <v>      -3.00000000       0.00000000       0.00010000       0.00010000 </v>
  </nose>
 </structure>
 <calculation>
  <scstep>
   <time name="dav">   13.97   13.98</time>
   <time name="total">  116.57  116.70</time>
   <energy>
    <i name="alphaZ">     10.51583519 </i>
    <i name="ewald">   1399.21592328 </i>
    <i name="hartreedc">  -2144.94381987 </i>
    <i name="XCdc">   -181.71855595 </i>
    <i name="pawpsdc">    984.49533169 </i>
    <i name="pawaedc">   -717.35426720 </i>
    <i name="eentropy">     -0.00644721 </i>
    <i name="bandstr">   -123.62992061 </i>
    <i name="atom">   1046.08741712 </i>
    <i name="e_fr_energy">    272.66149645 </i>
    <i name="e_wo_entrp">    272.66794365 </i>
    <i name="e_0_energy">    272.66472005 </i>
   </energy>
  </scstep>
  <scstep>
   <time name="dav">   19.67   19.75</time>
   <time name="total">   19.67   19.75</time>
   <energy>
    <i name="e_fr_energy">     17.18154588 </i>
    <i name="e_wo_entrp">     17.18315671 </i>
    <i name="e_0_energy">     17.18235129 </i>
   </energy>
  </scstep>
  <scstep>
   <time name="dav">   20.08   20.20</time>
   <time name="total">   20.08   20.20</time>
   <energy>
    <i name="e_fr_energy">    -60.81442289 </i>
    <i name="e_wo_entrp">    -60.81442289 </i>
    <i name="e_0_energy">    -60.81442289 </i>
   </energy>
  </scstep>
  <scstep>
   <time name="dav">   16.45   16.49</time>
   <time name="total">   16.45   16.49</time>
   <energy>
    <i name="e_fr_energy">    -63.94049621 </i>
    <i name="e_wo_entrp">    -63.94049621 </i>
    <i name="e_0_energy">    -63.94049621 </i>
   </energy>
  </scstep>
  <scstep>
   <time name="dav">   20.73   20.74</time>
   <time name="total">   20.73   20.74</time>
   <energy>
    <i name="e_fr_energy">    -64.05083652 </i>
    <i name="e_wo_entrp">    -64.05083652 </i>
    <i name="e_0_energy">    -64.05083652 </i>
   </energy>
  </scstep>
  <scstep>
   <time name="dav">   18.30   18.30</time>
   <time name="total">   18.30   18.30</time>
   <energy>
    <i name="e_fr_energy">    -64.05254438 </i>
    <i name="e_wo_entrp">    -64.05254438 </i>
    <i name="e_0_energy">    -64.05254438 </i>
   </energy>
  </scstep>
  <scstep>
   <time name="dav">   19.74   19.74</time>
   <time name="total">   20.70   20.70</time>
   <energy>
    <i name="e_fr_energy">    -64.05261483 </i>
    <i name="e_wo_entrp">    -64.05261483 </i>
    <i name="e_0_energy">    -64.05261483 </i>
   </energy>
  </scstep>
  <scstep>
   <time name="dav">   15.29   15.30</time>
   <time name="total">  117.44  117.45</time>
   <energy>
    <i name="e_fr_energy">    -41.96600649 </i>
    <i name="e_wo_entrp">    -41.96600649 </i>
    <i name="e_0_energy">    -41.96600649 </i>
   </energy>
  </scstep>
  <scstep>
   <time name="dav">   16.70   16.70</time>
   <time name="total">  116.32  116.32</time>
   <energy>
    <i name="e_fr_energy">    -41.84634842 </i>
    <i name="e_wo_entrp">    -41.84634842 </i>
    <i name="e_0_energy">    -41.84634842 </i>
   </energy>
  </scstep>
  <scstep>
   <time name="dav">   15.57   15.57</time>
   <time name="total">  120.00  120.01</time>
   <energy>
    <i name="e_fr_energy">    -41.32802348 </i>
    <i name="e_wo_entrp">    -41.32802348 </i>
    <i name="e_0_energy">    -41.32802348 </i>
   </energy>
  </scstep>
  <scstep>
   <time name="dav">   15.55   15.55</time>
   <time name="total">  116.89  116.89</time>
   <energy>
    <i name="e_fr_energy">    -41.25345664 </i>
    <i name="e_wo_entrp">    -41.25345663 </i>
    <i name="e_0_energy">    -41.25345663 </i>
   </energy>
  </scstep>
  <scstep>
   <time name="dav">   14.61   14.69</time>
   <time name="total">  116.70  116.99</time>
   <energy>
    <i name="e_fr_energy">    -41.22104213 </i>
    <i name="e_wo_entrp">    -41.22103782 </i>
    <i name="e_0_energy">    -41.22103997 </i>
   </energy>
  </scstep>
  <scstep>
   <time name="dav">   16.81   16.81</time>
   <time name="total">  119.96  120.00</time>
   <energy>
    <i name="e_fr_energy">    -41.18977583 </i>
    <i name="e_wo_entrp">    -41.18977563 </i>
    <i name="e_0_energy">    -41.18977573 </i>
   </energy>
  </scstep>
  <scstep>
   <time name="dav">   13.05   13.06</time>
   <time name="total">  117.38  117.39</time>
   <energy>
    <i name="e_fr_energy">    -41.18069555 </i>
    <i name="e_wo_entrp">    -41.18069341 </i>
    <i name="e_0_energy">    -41.18069448 </i>
   </energy>
  </scstep>
  <scstep>
   <time name="dav">   13.59   13.59</time>
   <time name="total">  113.83  113.83</time>
   <energy>
    <i name="e_fr_energy">    -41.16457293 </i>
    <i name="e_wo_entrp">    -41.16457262 </i>
    <i name="e_0_energy">    -41.16457278 </i>
   </energy>
  </scstep>
  <scstep>
   <time name="dav">   15.90   15.90</time>
   <time name="total">  116.68  116.70</time>
   <energy>
    <i name="e_fr_energy">    -41.16891770 </i>
    <i name="e_wo_entrp">    -41.16891751 </i>
    <i name="e_0_energy">    -41.16891760 </i>
   </energy>
  </scstep>
  <scstep>
   <time name="dav">   15.74   15.74</time>
   <time name="total">  119.96  119.97</time>
   <energy>
    <i name="e_fr_energy">    -41.18117408 </i>
    <i name="e_wo_entrp">    -41.18117352 </i>
    <i name="e_0_energy">    -41.18117380 </i>
   </energy>
  </scstep>
  <scstep>
   <time name="dav">   14.42   14.48</time>
   <time name="total">  116.10  116.17</time>
   <energy>
    <i name="e_fr_energy">    -41.18603603 </i>
    <i name="e_wo_entrp">    -41.18603545 </i>
    <i name="e_0_energy">    -41.18603574 </i>
   </energy>
  </scstep>
  <scstep>
   <time name="dav">   15.22   15.22</time>
   <time name="total">  114.50  114.60</time>
   <energy>
    <i name="e_fr_energy">    -41.18635360 </i>
    <i name="e_wo_entrp">    -41.18635295 </i>
    <i name="e_0_energy">    -41.18635327 </i>
   </energy>
  </scstep>
  <scstep>
   <time name="dav">   11.41   11.41</time>
   <time name="total">  115.84  116.03</time>
   <energy>
    <i name="e_fr_energy">    -41.18640280 </i>
    <i name="e_wo_entrp">    -41.18640216 </i>
    <i name="e_0_energy">    -41.18640248 </i>
   </energy>
  </scstep>
  <scstep>
   <time name="dav">   12.62   12.62</time>
   <time name="total">  114.63  114.64</time>
   <energy>
    <i name="alphaZ">     10.51583519 </i>
    <i name="ewald">   1399.21592328 </i>
    <i name="hartreedc">  -2314.55553209 </i>
    <i name="XCdc">   -172.98372909 </i>
    <i name="pawpsdc">   1523.54725551 </i>
    <i name="pawaedc">  -1257.74047839 </i>
    <i name="eentropy">     -0.00000063 </i>
    <i name="bandstr">   -275.27309887 </i>
    <i name="atom">   1046.08741712 </i>
    <i name="e_fr_energy">    -41.18640797 </i>
    <i name="e_wo_entrp">    -41.18640734 </i>
    <i name="e_0_energy">    -41.18640766 </i>
   </energy>
  </scstep>
  <structure>
   <crystal>
    <varray name="basis" >
     <v>       6.01920000       0.00000000       0.00000000 </v>
     <v>       0.00000000      10.14000000       0.00000000 </v>
     <v>       0.00000000       0.00000000      15.00000000 </v>
    </varray>
    <i name="volume">    915.52032000 </i>
    <varray name="rec_basis" >
     <v>       0.16613503       0.00000000       0.00000000 </v>
     <v>       0.00000000       0.09861933       0.00000000 </v>
     <v>       0.00000000       0.00000000       0.06666667 </v>
    </varray>
   </crystal>
   <varray name="positions" >
    <v>       0.42089502       0.85502341       0.26666586 </v>
    <v>       0.92090536       0.85503379       0.26666513 </v>
    <v>       0.42089582       0.59862889       0.26666494 </v>
    <v>       0.92090901       0.59861961       0.26666502 </v>
    <v>       0.42089326       0.35502355       0.26666507 </v>
    <v>       0.92090739       0.35503388       0.26666429 </v>
    <v>       0.42089402       0.09862877       0.26666567 </v>
    <v>       0.92091109       0.09861937       0.26666573 </v>
    <v>       0.17089423       0.97681927       0.26667086 </v>
    <v>       0.67088515       0.97682160       0.26667054 </v>
    <v>       0.17089526       0.47682088       0.26666810 </v>
    <v>       0.67088524       0.47682047       0.26666879 </v>
   </varray>
  </structure>
  <varray name="forces" >
   <v>       0.00093189      -0.11001029      -0.00015673 </v>
   <v>      -0.00087544      -0.11256711      -0.00011468 </v>
   <v>       0.00113052       0.11012040      -0.00020637 </v>
   <v>      -0.00090997       0.11259058      -0.00021304 </v>
   <v>       0.00109156      -0.11002808      -0.00019829 </v>
   <v>      -0.00098041      -0.11253107      -0.00017290 </v>
   <v>       0.00106877       0.11011030      -0.00018214 </v>
   <v>      -0.00093647       0.11265311      -0.00016385 </v>
   <v>      -0.00033407      -0.00006881       0.00041136 </v>
   <v>       0.00002650      -0.00008775       0.00040946 </v>
   <v>      -0.00028014      -0.00005483       0.00008262 </v>
   <v>       0.00006725      -0.00012646       0.00050455 </v>
  </varray>
  <varray name="stress" >
   <v>      15.32505286       0.00226663      -0.00326506 </v>
   <v>       0.00226659      -0.59064221      -0.00164521 </v>
   <v>      -0.00326506      -0.00164522      -0.94264303 </v>
  </varray>
  <energy>
   <i name="e_fr_energy">    -41.18640797 </i>
   <i name="e_wo_entrp">    -41.18640766 </i>
   <i name="e_0_energy">     -0.00000063 </i>
  </energy>
  <time name="totalsc"> 2094.45 2101.05</time>
 </calculation>
 <calculation>
  <scstep>
   <time name="dav">   15.25   15.27</time>
   <time name="total">  120.04  120.24</time>
   <energy>
    <i name="alphaZ">     10.51583519 </i>
    <i name="ewald">   1397.79415322 </i>
    <i name="hartreedc">  -2313.67512882 </i>
    <i name="XCdc">   -173.01610471 </i>
    <i name="pawpsdc">   1523.55558657 </i>
    <i name="pawaedc">  -1257.74883986 </i>
    <i name="eentropy">     -0.00000480 </i>
    <i name="bandstr">   -274.70061727 </i>
    <i name="atom">   1046.08741712 </i>
    <i name="e_fr_energy">    -41.18770336 </i>
    <i name="e_wo_entrp">    -41.18769856 </i>
    <i name="e_0_energy">    -41.18770096 </i>
   </energy>
  </scstep>
  <scstep>
   <time name="dav">   13.77   13.80</time>
   <time name="total">  114.96  115.09</time>
   <energy>
    <i name="e_fr_energy">    -41.18775664 </i>
    <i name="e_wo_entrp">    -41.18775291 </i>
    <i name="e_0_energy">    -41.18775477 </i>
   </energy>
  </scstep>
  <scstep>
   <time name="dav">   15.92   15.95</time>
   <time name="total">  115.38  115.51</time>
   <energy>
    <i name="e_fr_energy">    -41.18776968 </i>
    <i name="e_wo_entrp">    -41.18776713 </i>
    <i name="e_0_energy">    -41.18776840 </i>
   </energy>
  </scstep>
  <scstep>
   <time name="dav">   14.95   14.97</time>
   <time name="total">  119.28  119.44</time>
   <energy>
    <i name="e_fr_energy">    -41.18774429 </i>
    <i name="e_wo_entrp">    -41.18774112 </i>
    <i name="e_0_energy">    -41.18774270 </i>
   </energy>
  </scstep>
  <scstep>
   <time name="dav">    9.88    9.90</time>
   <time name="total">  109.79  109.93</time>
   <energy>
    <i name="alphaZ">     10.51583519 </i>
    <i name="ewald">   1397.79415322 </i>
    <i name="hartreedc">  -2313.36798292 </i>
    <i name="XCdc">   -173.03246655 </i>
    <i name="pawpsdc">   1520.37491145 </i>
    <i name="pawaedc">  -1254.56129913 </i>
    <i name="eentropy">     -0.00000327 </i>
    <i name="bandstr">   -274.99831477 </i>
    <i name="atom">   1046.08741712 </i>
    <i name="e_fr_energy">    -41.18774966 </i>
    <i name="e_wo_entrp">    -41.18774639 </i>
    <i name="e_0_energy">    -41.18774802 </i>
   </energy>
  </scstep>
  <structure>
   <crystal>
    <varray name="basis" >
     <v>       6.01920000       0.00000000       0.00000000 </v>
     <v>       0.00000000      10.14000000       0.00000000 </v>
     <v>       0.00000000       0.00000000      15.00000000 </v>
    </varray>
    <i name="volume">    915.52032000 </i>
    <varray name="rec_basis" >
     <v>       0.16613503       0.00000000       0.00000000 </v>
     <v>       0.00000000       0.09861933       0.00000000 </v>
     <v>       0.00000000       0.00000000       0.06666667 </v>
    </varray>
   </crystal>
   <varray name="positions" >
    <v>       0.42090025       0.85465704       0.26666551 </v>
    <v>       0.92090045       0.85465890       0.26666487 </v>
    <v>       0.42090216       0.59899563       0.26666448 </v>
    <v>       0.92090390       0.59899458       0.26666454 </v>
    <v>       0.42089939       0.35465712       0.26666462 </v>
    <v>       0.92090189       0.35465911       0.26666390 </v>
    <v>       0.42090002       0.09899547       0.26666526 </v>
    <v>       0.92090583       0.09899454       0.26666536 </v>
    <v>       0.17089235       0.97681904       0.26667179 </v>
    <v>       0.67088530       0.97682131       0.26667146 </v>
    <v>       0.17089369       0.47682070       0.26666828 </v>
    <v>       0.67088562       0.47682005       0.26666993 </v>
   </varray>
  </structure>
  <varray name="forces" >
   <v>       0.00015989       0.02254891      -0.00027405 </v>
   <v>      -0.00012711       0.02244124      -0.00025673 </v>
   <v>       0.00009083      -0.02263688      -0.00012123 </v>
   <v>      -0.00014984      -0.02263287      -0.00009798 </v>
   <v>       0.00013167       0.02252454      -0.00031916 </v>
   <v>      -0.00002840       0.02243822      -0.00031197 </v>
   <v>       0.00012997      -0.02265234      -0.00005688 </v>
   <v>      -0.00027879      -0.02262276      -0.00006991 </v>
   <v>      -0.00068726       0.00020621       0.00036542 </v>
   <v>       0.00071153       0.00008578       0.00037549 </v>
   <v>      -0.00067969       0.00014536       0.00030836 </v>
   <v>       0.00072719       0.00015458       0.00045865 </v>
  </varray>
  <varray name="stress" >
   <v>      15.02418281       0.00111025      -0.00416604 </v>
   <v>       0.00111026      -1.49774292      -0.00143061 </v>
   <v>      -0.00416602      -0.00143059      -0.92629558 </v>
  </varray>
  <energy>
   <i name="e_fr_energy">    -41.18774966 </i>
   <i name="e_wo_entrp">    -41.18774802 </i>
   <i name="e_0_energy">     -0.00000327 </i>
  </energy>
  <time name="totalsc">  801.33  803.27</time>
 </calculation>
 <calculation>
  <scstep>
   <time name="dav">   14.58   14.59</time>
   <time name="total">  118.66  118.70</time>
   <energy>
    <i name="alphaZ">     10.51583519 </i>
    <i name="ewald">   1398.03289406 </i>
    <i name="hartreedc">  -2313.51011947 </i>
    <i name="XCdc">   -173.02720437 </i>
    <i name="pawpsdc">   1520.38092419 </i>
    <i name="pawaedc">  -1254.56734816 </i>
    <i name="eentropy">     -0.00000233 </i>
    <i name="bandstr">   -275.10020214 </i>
    <i name="atom">   1046.08741712 </i>
    <i name="e_fr_energy">    -41.18780592 </i>
    <i name="e_wo_entrp">    -41.18780359 </i>
    <i name="e_0_energy">    -41.18780475 </i>
   </energy>
  </scstep>
  <scstep>
   <time name="dav">   13.77   13.78</time>
   <time name="total">  114.96  114.98</time>
   <energy>
    <i name="alphaZ">     10.51583519 </i>
    <i name="ewald">   1398.03289406 </i>
    <i name="hartreedc">  -2313.52979632 </i>
    <i name="XCdc">   -173.02594123 </i>
    <i name="pawpsdc">   1520.63210955 </i>
    <i name="pawaedc">  -1254.81915622 </i>
    <i name="eentropy">     -0.00000240 </i>
    <i name="bandstr">   -275.08116906 </i>
    <i name="atom">   1046.08741712 </i>
    <i name="e_fr_energy">    -41.18780932 </i>
    <i name="e_wo_entrp">    -41.18780692 </i>
    <i name="e_0_energy">    -41.18780812 </i>
   </energy>
  </scstep>
  <structure>
   <crystal>
    <varray name="basis" >
     <v>       6.01920000       0.00000000       0.00000000 </v>
     <v>       0.00000000      10.14000000       0.00000000 </v>
     <v>       0.00000000       0.00000000      15.00000000 </v>
    </varray>
    <i name="volume">    915.52032000 </i>
    <varray name="rec_basis" >
     <v>       0.16613503       0.00000000       0.00000000 </v>
     <v>       0.00000000       0.09861933       0.00000000 </v>
     <v>       0.00000000       0.00000000       0.06666667 </v>
    </varray>
   </crystal>
   <varray name="positions" >
    <v>       0.42089937       0.85471876       0.26666557 </v>
    <v>       0.92090128       0.85472205       0.26666491 </v>
    <v>       0.42090109       0.59893385       0.26666456 </v>
    <v>       0.92090476       0.59893141       0.26666462 </v>
    <v>       0.42089836       0.35471885       0.26666469 </v>
    <v>       0.92090282       0.35472225       0.26666396 </v>
    <v>       0.42089901       0.09893369       0.26666533 </v>
    <v>       0.92090672       0.09893134       0.26666543 </v>
    <v>       0.17089267       0.97681908       0.26667163 </v>
    <v>       0.67088528       0.97682136       0.26667130 </v>
    <v>       0.17089396       0.47682073       0.26666825 </v>
    <v>       0.67088555       0.47682012       0.26666974 </v>
   </varray>
  </structure>
  <varray name="forces" >
   <v>       0.00024658       0.00049785      -0.00025127 </v>
   <v>      -0.00023264      -0.00003539      -0.00023574 </v>
   <v>       0.00022617      -0.00053128      -0.00012485 </v>
   <v>      -0.00023053      -0.00011713      -0.00012832 </v>
   <v>       0.00024564       0.00047091      -0.00030184 </v>
   <v>      -0.00014508      -0.00001345      -0.00030392 </v>
   <v>       0.00024594      -0.00054957      -0.00007133 </v>
   <v>      -0.00034095      -0.00010295      -0.00009280 </v>
   <v>      -0.00063720       0.00015041       0.00036626 </v>
   <v>       0.00061625       0.00003654       0.00037713 </v>
   <v>      -0.00062894       0.00009691       0.00030412 </v>
   <v>       0.00063478       0.00009716       0.00046256 </v>
  </varray>
  <varray name="stress" >
   <v>      15.07958986       0.00117764      -0.00415899 </v>
   <v>       0.00117763      -1.31972907      -0.00129752 </v>
   <v>      -0.00415902      -0.00129750      -0.85721323 </v>
  </varray>
  <energy>
   <i name="e_fr_energy">    -41.18780932 </i>
   <i name="e_wo_entrp">    -41.18780812 </i>
   <i name="e_0_energy">     -0.00000240 </i>
  </energy>
  <time name="totalsc">  453.64  454.44</time>
  <eigenvalues>
   <array>
    <dimension dim="1">band</dimension>
    <dimension dim="2">kpoint</dimension>
    <dimension dim="3">spin</dimension>
    <field>eigene</field>
    <field>occ</field>
    <set>
     <set comment="spin 1">
      <set comment="kpoint 1">
       <r>  -14.0394    1.0000 </r>
       <r>  -13.8654    1.0000 </r>
       <r>  -11.8992    1.0000 </r>
       <r>  -11.8345    1.0000 </r>
       <r>   -8.9847    1.0000 </r>
       <r>   -8.9531    1.0000 </r>
       <r>   -8.6878    1.0000 </r>
       <r>   -6.8138    1.0000 </r>
       <r>   -6.4424    1.0000 </r>
       <r>   -5.8225    1.0000 </r>
       <r>   -5.1334    1.0000 </r>
       <r>   -5.1299    1.0000 </r>
       <r>   -5.0917    1.0000 </r>
       <r>   -4.6862    1.0000 </r>
       <r>   -3.8476    1.0000 </r>
       <r>   -3.2371    1.0000 </r>
       <r>   -3.2179    1.0000 </r>
       <r>   -2.7234    1.0000 </r>
       <r>   -2.5074    1.0000 </r>
       <r>   -2.3715    0.9999 </r>
       <r>   -2.1000    0.0001 </r>
       <r>   -1.0051    0.0000 </r>
       <r>   -0.6312    0.0000 </r>
       <r>   -0.1782    0.0000 </r>
       <r>   -0.1297    0.0000 </r>
       <r>   -0.0422    0.0000 </r>
       <r>    0.1417    0.0000 </r>
       <r>    0.6622    0.0000 </r>
      </set>
      <set comment="kpoint 2">
       <r>  -13.9135    1.0000 </r>
       <r>  -13.7433    1.0000 </r>
       <r>  -12.2841    1.0000 </r>
       <r>  -12.1867    1.0000 </r>
       <r>   -8.8037    1.0000 </r>
       <r>   -8.3928    1.0000 </r>
       <r>   -8.1186    1.0000 </r>
       <r>   -6.6935    1.0000 </r>
       <r>   -6.6863    1.0000 </r>
       <r>   -6.3336    1.0000 </r>
       <r>   -5.3304    1.0000 </r>
       <r>   -4.9889    1.0000 </r>
       <r>   -4.5511    1.0000 </r>
       <r>   -4.3080    1.0000 </r>
       <r>   -4.2330    1.0000 </r>
       <r>   -3.8923    1.0000 </r>
       <r>   -3.8842    1.0000 </r>
       <r>   -3.0623    1.0000 </r>
       <r>   -2.7911    1.0000 </r>
       <r>   -2.7332    1.0000 </r>
       <r>   -1.9495    0.0000 </r>
       <r>   -0.2612    0.0000 </r>
       <r>   -0.0858    0.0000 </r>
       <r>   -0.0692    0.0000 </r>
       <r>    0.0571    0.0000 </r>
       <r>    0.1392    0.0000 </r>
       <r>    0.1399    0.0000 </r>
       <r>    0.5399    0.0000 </r>
      </set>
      <set comment="kpoint 3">
       <r>  -13.5438    1.0000 </r>
       <r>  -13.3860    1.0000 </r>
       <r>  -12.9639    1.0000 </r>
       <r>  -12.8289    1.0000 </r>
       <r>   -8.3603    1.0000 </r>
       <r>   -7.6402    1.0000 </r>
       <r>   -7.1427    1.0000 </r>
       <r>   -6.8444    1.0000 </r>
       <r>   -6.3497    1.0000 </r>
       <r>   -6.1817    1.0000 </r>
       <r>   -5.8450    1.0000 </r>
       <r>   -5.3194    1.0000 </r>
       <r>   -5.0756    1.0000 </r>
       <r>   -5.0245    1.0000 </r>
       <r>   -4.5716    1.0000 </r>
       <r>   -4.1536    1.0000 </r>
       <r>   -3.9012    1.0000 </r>
       <r>   -3.5280    1.0000 </r>
       <r>   -3.3051    1.0000 </r>
       <r>   -2.8470    1.0000 </r>
       <r>   -1.5022    0.0000 </r>
       <r>   -0.7781    0.0000 </r>
       <r>    0.2048    0.0000 </r>
       <r>    0.3768    0.0000 </r>
       <r>    0.5249    0.0000 </r>
       <r>    0.6464    0.0000 </r>
       <r>    1.2317    0.0000 </r>
       <r>    1.2727    0.0000 </r>
      </set>
      <set comment="kpoint 4">
       <r>  -13.9986    1.0000 </r>
       <r>  -13.9118    1.0000 </r>
       <r>  -11.8834    1.0000 </r>
       <r>  -11.8510    1.0000 </r>
       <r>   -8.9186    1.0000 </r>
       <r>   -8.7714    1.0000 </r>
       <r>   -8.6603    1.0000 </r>
       <r>   -7.8497    1.0000 </r>
       <r>   -5.6677    1.0000 </r>
       <r>   -5.3086    1.0000 </r>
       <r>   -5.1483    1.0000 </r>
       <r>   -5.0396    1.0000 </r>
       <r>   -4.8565    1.0000 </r>
       <r>   -4.8228    1.0000 </r>
       <r>   -4.2314    1.0000 </r>
       <r>   -3.6238    1.0000 </r>
       <r>   -3.2323    1.0000 </r>
       <r>   -3.2230    1.0000 </r>
       <r>   -2.4750    1.0000 </r>
       <r>   -2.4071    1.0000 </r>
       <r>   -1.7167    0.0000 </r>
       <r>   -0.8279    0.0000 </r>
       <r>   -0.5008    0.0000 </r>
       <r>   -0.4826    0.0000 </r>
       <r>   -0.0372    0.0000 </r>
       <r>    0.0968    0.0000 </r>
       <r>    0.2919    0.0000 </r>
       <r>    0.6396    0.0000 </r>
      </set>
      <set comment="kpoint 5">
       <r>  -13.8735    1.0000 </r>
       <r>  -13.7886    1.0000 </r>
       <r>  -12.2606    1.0000 </r>
       <r>  -12.2119    1.0000 </r>
       <r>   -8.5147    1.0000 </r>
       <r>   -8.3358    1.0000 </r>
       <r>   -8.2018    1.0000 </r>
       <r>   -7.7147    1.0000 </r>
       <r>   -6.4275    1.0000 </r>
       <r>   -5.8089    1.0000 </r>
       <r>   -5.0772    1.0000 </r>
       <r>   -4.8994    1.0000 </r>
       <r>   -4.6855    1.0000 </r>
       <r>   -4.1359    1.0000 </r>
       <r>   -4.0987    1.0000 </r>
       <r>   -3.9558    1.0000 </r>
       <r>   -3.8649    1.0000 </r>
       <r>   -3.5036    1.0000 </r>
       <r>   -3.0015    1.0000 </r>
       <r>   -2.8666    1.0000 </r>
       <r>   -1.5716    0.0000 </r>
       <r>   -0.6983    0.0000 </r>
       <r>   -0.2705    0.0000 </r>
       <r>   -0.0335    0.0000 </r>
       <r>    0.0791    0.0000 </r>
       <r>    0.2773    0.0000 </r>
       <r>    0.4481    0.0000 </r>
       <r>    0.5257    0.0000 </r>
      </set>
      <set comment="kpoint 6">
       <r>  -13.5066    1.0000 </r>
       <r>  -13.4278    1.0000 </r>
       <r>  -12.9317    1.0000 </r>
       <r>  -12.8643    1.0000 </r>
       <r>   -8.0854    1.0000 </r>
       <r>   -7.4395    1.0000 </r>
       <r>   -7.3292    1.0000 </r>
       <r>   -7.1720    1.0000 </r>
       <r>   -6.8231    1.0000 </r>
       <r>   -6.4674    1.0000 </r>
       <r>   -5.4963    1.0000 </r>
       <r>   -5.3525    1.0000 </r>
       <r>   -4.5652    1.0000 </r>
       <r>   -4.4853    1.0000 </r>
       <r>   -4.2804    1.0000 </r>
       <r>   -4.2726    1.0000 </r>
       <r>   -3.8223    1.0000 </r>
       <r>   -3.6384    1.0000 </r>
       <r>   -3.5280    1.0000 </r>
       <r>   -3.4281    1.0000 </r>
       <r>   -1.1456    0.0000 </r>
       <r>   -0.4897    0.0000 </r>
       <r>   -0.3374    0.0000 </r>
       <r>    0.0890    0.0000 </r>
       <r>    0.6416    0.0000 </r>
       <r>    0.6709    0.0000 </r>
       <r>    0.7489    0.0000 </r>
       <r>    0.7635    0.0000 </r>
      </set>
      <set comment="kpoint 7">
       <r>  -13.5066    1.0000 </r>
       <r>  -13.4278    1.0000 </r>
       <r>  -12.9317    1.0000 </r>
       <r>  -12.8643    1.0000 </r>
       <r>   -8.0854    1.0000 </r>
       <r>   -7.4395    1.0000 </r>
       <r>   -7.3292    1.0000 </r>
       <r>   -7.1720    1.0000 </r>
       <r>   -6.8231    1.0000 </r>
       <r>   -6.4674    1.0000 </r>
       <r>   -5.4963    1.0000 </r>
       <r>   -5.3525    1.0000 </r>
       <r>   -4.5652    1.0000 </r>
       <r>   -4.4853    1.0000 </r>
       <r>   -4.2804    1.0000 </r>
       <r>   -4.2726    1.0000 </r>
       <r>   -3.8223    1.0000 </r>
       <r>   -3.6384    1.0000 </r>
       <r>   -3.5281    1.0000 </r>
       <r>   -3.4281    1.0000 </r>
       <r>   -1.1456    0.0000 </r>
       <r>   -0.4897    0.0000 </r>
       <r>   -0.3374    0.0000 </r>
       <r>    0.0890    0.0000 </r>
       <r>    0.6416    0.0000 </r>
       <r>    0.6709    0.0000 </r>
       <r>    0.7489    0.0000 </r>
       <r>    0.7635    0.0000 </r>
      </set>
      <set comment="kpoint 8">
       <r>  -13.8735    1.0000 </r>
       <r>  -13.7886    1.0000 </r>
       <r>  -12.2606    1.0000 </r>
       <r>  -12.2119    1.0000 </r>
       <r>   -8.5147    1.0000 </r>
       <r>   -8.3358    1.0000 </r>
       <r>   -8.2018    1.0000 </r>
       <r>   -7.7147    1.0000 </r>
       <r>   -6.4275    1.0000 </r>
       <r>   -5.8089    1.0000 </r>
       <r>   -5.0772    1.0000 </r>
       <r>   -4.8994    1.0000 </r>
       <r>   -4.6855    1.0000 </r>
       <r>   -4.1359    1.0000 </r>
       <r>   -4.0986    1.0000 </r>
       <r>   -3.9558    1.0000 </r>
       <r>   -3.8649    1.0000 </r>
       <r>   -3.5035    1.0000 </r>
       <r>   -3.0015    1.0000 </r>
       <r>   -2.8666    1.0000 </r>
       <r>   -1.5716    0.0000 </r>
       <r>   -0.6983    0.0000 </r>
       <r>   -0.2705    0.0000 </r>
       <r>   -0.0335    0.0000 </r>
       <r>    0.0791    0.0000 </r>
       <r>    0.2773    0.0000 </r>
       <r>    0.4481    0.0000 </r>
       <r>    0.5257    0.0000 </r>
      </set>
     </set>
    </set>
   </array>
  </eigenvalues>
  <separator name="orbital magnetization" >
   <v name="MAGDIPOLOUT">      0.00000000      0.00000000      0.00000000</v>
  </separator>
  <dos>
   <i name="efermi">     -2.23566611 </i>
   <total>
    <array>
     <dimension dim="1">gridpoints</dimension>
     <dimension dim="2">spin</dimension>
     <field>energy</field>
     <field>total</field>
     <field>integrated</field>
     <set>
      <set comment="spin 1">
       <r>   -14.8051     0.0000     0.0000 </r>
       <r>   -14.7489     0.0000     0.0000 </r>
       <r>   -14.6928     0.0000     0.0000 </r>
       <r>   -14.6366     0.0000     0.0000 </r>
       <r>   -14.5805     0.0000     0.0000 </r>
       <r>   -14.5243     0.0000     0.0000 </r>
       <r>   -14.4682     0.0000     0.0000 </r>
       <r>   -14.4120     0.0000     0.0000 </r>
       <r>   -14.3559     0.0000     0.0000 </r>
       <r>   -14.2998     0.0000     0.0000 </r>
       <r>   -14.2436     0.0000     0.0000 </r>
       <r>   -14.1875     0.0000     0.0000 </r>
       <r>   -14.1313     0.0115     0.0006 </r>
       <r>   -14.0752     0.4313     0.0249 </r>
       <r>   -14.0190     2.6136     0.1716 </r>
       <r>   -13.9629     4.0889     0.4012 </r>
       <r>   -13.9067     7.2736     0.8095 </r>
       <r>   -13.8506    10.8268     1.4174 </r>
       <r>   -13.7945     7.5533     1.8415 </r>
       <r>   -13.7383     7.1059     2.2404 </r>
       <r>   -13.6822     2.6314     2.3882 </r>
       <r>   -13.6260     0.2595     2.4027 </r>
       <r>   -13.5699     1.3949     2.4811 </r>
       <r>   -13.5137     6.4270     2.8419 </r>
       <r>   -13.4576     7.5527     3.2659 </r>
       <r>   -13.4014     7.7160     3.6992 </r>
       <r>   -13.3453     4.6720     3.9615 </r>
       <r>   -13.2892     0.6713     3.9992 </r>
       <r>   -13.2330     0.0150     4.0000 </r>
       <r>   -13.1769     0.0000     4.0000 </r>
       <r>   -13.1207     0.0000     4.0000 </r>
       <r>   -13.0646     0.0113     4.0006 </r>
       <r>   -13.0084     0.6258     4.0358 </r>
       <r>   -12.9523     5.0774     4.3208 </r>
       <r>   -12.8961     8.7942     4.8146 </r>
       <r>   -12.8400     8.6457     5.3000 </r>
       <r>   -12.7838     4.7528     5.5668 </r>
       <r>   -12.7277     0.5800     5.5994 </r>
       <r>   -12.6716     0.0105     5.6000 </r>
       <r>   -12.6154     0.0000     5.6000 </r>
       <r>   -12.5593     0.0000     5.6000 </r>
       <r>   -12.5031     0.0000     5.6000 </r>
       <r>   -12.4470     0.0000     5.6000 </r>
       <r>   -12.3908     0.0071     5.6004 </r>
       <r>   -12.3347     0.5296     5.6301 </r>
       <r>   -12.2785     5.3444     5.9302 </r>
       <r>   -12.2224    11.2248     6.5604 </r>
       <r>   -12.1663     9.0808     7.0702 </r>
       <r>   -12.1101     2.2201     7.1949 </r>
       <r>   -12.0540     0.0906     7.2000 </r>
       <r>   -11.9978     0.0097     7.2005 </r>
       <r>   -11.9417     0.5269     7.2301 </r>
       <r>   -11.8855     4.2282     7.4675 </r>
       <r>   -11.8294     6.7921     7.8488 </r>
       <r>   -11.7732     2.5229     7.9905 </r>
       <r>   -11.7171     0.1682     7.9999 </r>
       <r>   -11.6610     0.0014     8.0000 </r>
       <r>   -11.6048     0.0000     8.0000 </r>
       <r>   -11.5487     0.0000     8.0000 </r>
       <r>   -11.4925     0.0000     8.0000 </r>
       <r>   -11.4364     0.0000     8.0000 </r>
       <r>   -11.3802     0.0000     8.0000 </r>
       <r>   -11.3241     0.0000     8.0000 </r>
       <r>   -11.2679     0.0000     8.0000 </r>
       <r>   -11.2118     0.0000     8.0000 </r>
       <r>   -11.1557     0.0000     8.0000 </r>
       <r>   -11.0995     0.0000     8.0000 </r>
       <r>   -11.0434     0.0000     8.0000 </r>
       <r>   -10.9872     0.0000     8.0000 </r>
       <r>   -10.9311     0.0000     8.0000 </r>
       <r>   -10.8749     0.0000     8.0000 </r>
       <r>   -10.8188     0.0000     8.0000 </r>
       <r>   -10.7626     0.0000     8.0000 </r>
       <r>   -10.7065     0.0000     8.0000 </r>
       <r>   -10.6504     0.0000     8.0000 </r>
       <r>   -10.5942     0.0000     8.0000 </r>
       <r>   -10.5381     0.0000     8.0000 </r>
       <r>   -10.4819     0.0000     8.0000 </r>
       <r>   -10.4258     0.0000     8.0000 </r>
       <r>   -10.3696     0.0000     8.0000 </r>
       <r>   -10.3135     0.0000     8.0000 </r>
       <r>   -10.2573     0.0000     8.0000 </r>
       <r>   -10.2012     0.0000     8.0000 </r>
       <r>   -10.1451     0.0000     8.0000 </r>
       <r>   -10.0889     0.0000     8.0000 </r>
       <r>   -10.0328     0.0000     8.0000 </r>
       <r>    -9.9766     0.0000     8.0000 </r>
       <r>    -9.9205     0.0000     8.0000 </r>
       <r>    -9.8643     0.0000     8.0000 </r>
       <r>    -9.8082     0.0000     8.0000 </r>
       <r>    -9.7520     0.0000     8.0000 </r>
       <r>    -9.6959     0.0000     8.0000 </r>
       <r>    -9.6398     0.0000     8.0000 </r>
       <r>    -9.5836     0.0000     8.0000 </r>
       <r>    -9.5275     0.0000     8.0000 </r>
       <r>    -9.4713     0.0000     8.0000 </r>
       <r>    -9.4152     0.0000     8.0000 </r>
       <r>    -9.3590     0.0000     8.0000 </r>
       <r>    -9.3029     0.0000     8.0000 </r>
       <r>    -9.2467     0.0000     8.0000 </r>
       <r>    -9.1906     0.0000     8.0000 </r>
       <r>    -9.1344     0.0000     8.0000 </r>
       <r>    -9.0783     0.0101     8.0006 </r>
       <r>    -9.0222     0.4012     8.0231 </r>
       <r>    -8.9660     2.5287     8.1651 </r>
       <r>    -8.9099     4.3485     8.4092 </r>
       <r>    -8.8537     2.4667     8.5477 </r>
       <r>    -8.7976     3.5352     8.7462 </r>
       <r>    -8.7414     4.7838     9.0148 </r>
       <r>    -8.6853     3.2816     9.1990 </r>
       <r>    -8.6291     3.7605     9.4101 </r>
       <r>    -8.5730     1.4436     9.4912 </r>
       <r>    -8.5169     4.0804     9.7203 </r>
       <r>    -8.4607     4.5218     9.9742 </r>
       <r>    -8.4046     2.9536    10.1400 </r>
       <r>    -8.3484     8.1888    10.5997 </r>
       <r>    -8.2923     7.1916    11.0035 </r>
       <r>    -8.2361     2.6753    11.1537 </r>
       <r>    -8.1800     5.6245    11.4695 </r>
       <r>    -8.1238     5.5991    11.7839 </r>
       <r>    -8.0677     7.6841    12.2153 </r>
       <r>    -8.0116     3.1092    12.3898 </r>
       <r>    -7.9554     0.1863    12.4003 </r>
       <r>    -7.8993     0.3762    12.4214 </r>
       <r>    -7.8431     2.3437    12.5530 </r>
       <r>    -7.7870     2.0371    12.6674 </r>
       <r>    -7.7308     3.0837    12.8405 </r>
       <r>    -7.6747     5.9567    13.1750 </r>
       <r>    -7.6185     3.8802    13.3928 </r>
       <r>    -7.5624     1.2517    13.4631 </r>
       <r>    -7.5063     0.3431    13.4823 </r>
       <r>    -7.4501     3.3493    13.6704 </r>
       <r>    -7.3940     5.2481    13.9650 </r>
       <r>    -7.3378     4.4397    14.2143 </r>
       <r>    -7.2817     4.8425    14.4862 </r>
       <r>    -7.2255     1.4861    14.5696 </r>
       <r>    -7.1694     5.4516    14.8757 </r>
       <r>    -7.1132     6.7317    15.2537 </r>
       <r>    -7.0571     1.3770    15.3310 </r>
       <r>    -7.0010     0.0420    15.3333 </r>
       <r>    -6.9448     0.0138    15.3341 </r>
       <r>    -6.8887     0.8295    15.3807 </r>
       <r>    -6.8325     6.6163    15.7521 </r>
       <r>    -6.7764     7.8770    16.1944 </r>
       <r>    -6.7202     3.1285    16.3700 </r>
       <r>    -6.6641     5.4380    16.6754 </r>
       <r>    -6.6079     2.1203    16.7944 </r>
       <r>    -6.5518     0.1846    16.8048 </r>
       <r>    -6.4957     2.3461    16.9365 </r>
       <r>    -6.4395     9.8152    17.4876 </r>
       <r>    -6.3834     9.1147    17.9993 </r>
       <r>    -6.3272     6.2062    18.3477 </r>
       <r>    -6.2711     3.0876    18.5211 </r>
       <r>    -6.2149     1.0416    18.5796 </r>
       <r>    -6.1588     2.6999    18.7312 </r>
       <r>    -6.1026     1.1660    18.7966 </r>
       <r>    -6.0465     0.0597    18.8000 </r>
       <r>    -5.9904     0.0004    18.8000 </r>
       <r>    -5.9342     0.0312    18.8018 </r>
       <r>    -5.8781     1.1747    18.8677 </r>
       <r>    -5.8219     6.9068    19.2555 </r>
       <r>    -5.7658     7.2773    19.6641 </r>
       <r>    -5.7096     1.7687    19.7634 </r>
       <r>    -5.6535     2.5836    19.9084 </r>
       <r>    -5.5973     1.5410    19.9949 </r>
       <r>    -5.5412     1.0587    20.0544 </r>
       <r>    -5.4851     4.9673    20.3333 </r>
       <r>    -5.4289     3.4586    20.5275 </r>
       <r>    -5.3728     3.8155    20.7417 </r>
       <r>    -5.3166    11.8824    21.4088 </r>
       <r>    -5.2605     7.3632    21.8222 </r>
       <r>    -5.2043     1.1482    21.8867 </r>
       <r>    -5.1482     3.9919    22.1108 </r>
       <r>    -5.0920    10.6443    22.7084 </r>
       <r>    -5.0359    13.9853    23.4936 </r>
       <r>    -4.9797     8.8643    23.9913 </r>
       <r>    -4.9236     4.8576    24.2640 </r>
       <r>    -4.8675     7.7204    24.6975 </r>
       <r>    -4.8113     6.6437    25.0705 </r>
       <r>    -4.7552     2.4553    25.2084 </r>
       <r>    -4.6990     4.0321    25.4347 </r>
       <r>    -4.6429     6.6049    25.8056 </r>
       <r>    -4.5867     5.9828    26.1415 </r>
       <r>    -4.5306    11.5750    26.7913 </r>
       <r>    -4.4744     8.2844    27.2565 </r>
       <r>    -4.4183     3.4715    27.4514 </r>
       <r>    -4.3622     0.7226    27.4919 </r>
       <r>    -4.3060     6.0736    27.8329 </r>
       <r>    -4.2499    15.6281    28.7104 </r>
       <r>    -4.1937    10.7157    29.3120 </r>
       <r>    -4.1376     9.4026    29.8399 </r>
       <r>    -4.0814    11.0672    30.4613 </r>
       <r>    -4.0253     3.7048    30.6693 </r>
       <r>    -3.9691     3.5602    30.8692 </r>
       <r>    -3.9130     9.8375    31.4215 </r>
       <r>    -3.8569    16.0949    32.3251 </r>
       <r>    -3.8007    12.3827    33.0204 </r>
       <r>    -3.7446     3.0734    33.1929 </r>
       <r>    -3.6884     1.0327    33.2509 </r>
       <r>    -3.6323     6.4466    33.6128 </r>
       <r>    -3.5761     7.5303    34.0356 </r>
       <r>    -3.5200    10.8514    34.6449 </r>
       <r>    -3.4638    12.0086    35.3191 </r>
       <r>    -3.4077     7.0490    35.7148 </r>
       <r>    -3.3516     3.0134    35.8840 </r>
       <r>    -3.2954     3.0034    36.0527 </r>
       <r>    -3.2393     6.6018    36.4233 </r>
       <r>    -3.1831     7.5410    36.8467 </r>
       <r>    -3.1270     1.6681    36.9404 </r>
       <r>    -3.0708     2.0338    37.0545 </r>
       <r>    -3.0147     5.5351    37.3653 </r>
       <r>    -2.9585     5.5289    37.6757 </r>
       <r>    -2.9024     2.7638    37.8309 </r>
       <r>    -2.8463     7.7793    38.2677 </r>
       <r>    -2.7901     7.0824    38.6653 </r>
       <r>    -2.7340     5.3839    38.9676 </r>
       <r>    -2.6778     3.6236    39.1710 </r>
       <r>    -2.6217     0.5091    39.1996 </r>
       <r>    -2.5655     0.1506    39.2081 </r>
       <r>    -2.5094     1.7859    39.3083 </r>
       <r>    -2.4532     4.2492    39.5469 </r>
       <r>    -2.3971     4.3374    39.7904 </r>
       <r>    -2.3410     3.1259    39.9659 </r>
       <r>    -2.2848     0.5888    39.9990 </r>
       <r>    -2.2287     0.0185    40.0000 </r>
       <r>    -2.1725     0.0477    40.0027 </r>
       <r>    -2.1164     0.7168    40.0429 </r>
       <r>    -2.0602     1.3053    40.1162 </r>
       <r>    -2.0041     0.5878    40.1492 </r>
       <r>    -1.9479     2.1744    40.2713 </r>
       <r>    -1.8918     2.0483    40.3863 </r>
       <r>    -1.8357     0.2428    40.3999 </r>
       <r>    -1.7795     0.1810    40.4101 </r>
       <r>    -1.7234     1.8406    40.5134 </r>
       <r>    -1.6672     2.3782    40.6469 </r>
       <r>    -1.6111     1.6056    40.7371 </r>
       <r>    -1.5549     5.5426    41.0483 </r>
       <r>    -1.4988     5.0723    41.3331 </r>
       <r>    -1.4426     2.1596    41.4543 </r>
       <r>    -1.3865     0.2175    41.4665 </r>
       <r>    -1.3303     0.0025    41.4667 </r>
       <r>    -1.2742     0.0013    41.4667 </r>
       <r>    -1.2181     0.1911    41.4775 </r>
       <r>    -1.1619     2.8716    41.6387 </r>
       <r>    -1.1058     5.2077    41.9311 </r>
       <r>    -1.0496     1.4436    42.0121 </r>
       <r>    -0.9935     1.2784    42.0839 </r>
       <r>    -0.9373     0.8197    42.1299 </r>
       <r>    -0.8812     0.3821    42.1514 </r>
       <r>    -0.8250     2.6473    42.3000 </r>
       <r>    -0.7689     4.6362    42.5603 </r>
       <r>    -0.7128     5.0089    42.8415 </r>
       <r>    -0.6566     5.8146    43.1680 </r>
       <r>    -0.6005     2.4838    43.3074 </r>
       <r>    -0.5443     1.7365    43.4049 </r>
       <r>    -0.4882     8.7544    43.8964 </r>
       <r>    -0.4320     8.0313    44.3474 </r>
       <r>    -0.3759     2.2549    44.4740 </r>
       <r>    -0.3197     6.2622    44.8255 </r>
       <r>    -0.2636     9.4976    45.3588 </r>
       <r>    -0.2075     6.5302    45.7254 </r>
       <r>    -0.1513     2.8284    45.8842 </r>
       <r>    -0.0952     5.4154    46.1883 </r>
       <r>    -0.0390    12.4968    46.8899 </r>
       <r>     0.0171    10.3562    47.4713 </r>
       <r>     0.0733    11.9150    48.1403 </r>
       <r>     0.1294    18.2410    49.1644 </r>
       <r>     0.1856    10.3295    49.7444 </r>
       <r>     0.2417     5.6821    50.0634 </r>
       <r>     0.2978     8.4340    50.5369 </r>
       <r>     0.3540     5.6252    50.8527 </r>
       <r>     0.4101     4.3386    51.0963 </r>
       <r>     0.4663     6.8201    51.4792 </r>
       <r>     0.5224    10.1077    52.0467 </r>
       <r>     0.5786    10.1936    52.6191 </r>
       <r>     0.6347    10.6888    53.2192 </r>
       <r>     0.6909    16.8625    54.1659 </r>
       <r>     0.7470    11.5575    54.8148 </r>
       <r>     0.8031     9.7695    55.3633 </r>
       <r>     0.8593     1.8004    55.4644 </r>
       <r>     0.9154     0.0405    55.4667 </r>
       <r>     0.9716     0.0001    55.4667 </r>
       <r>     1.0277     0.0000    55.4667 </r>
       <r>     1.0839     0.0001    55.4667 </r>
       <r>     1.1400     0.0230    55.4680 </r>
       <r>     1.1962     0.7972    55.5127 </r>
       <r>     1.2523     3.9387    55.7339 </r>
       <r>     1.3084     3.9278    55.9544 </r>
       <r>     1.3646     0.7899    55.9987 </r>
       <r>     1.4207     0.0226    56.0000 </r>
       <r>     1.4769     0.0001    56.0000 </r>
       <r>     1.5330     0.0000    56.0000 </r>
       <r>     1.5892     0.0000    56.0000 </r>
       <r>     1.6453     0.0000    56.0000 </r>
       <r>     1.7015     0.0000    56.0000 </r>
       <r>     1.7576     0.0000    56.0000 </r>
       <r>     1.8137     0.0000    56.0000 </r>
       <r>     1.8699     0.0000    56.0000 </r>
       <r>     1.9260     0.0000    56.0000 </r>
       <r>     1.9822     0.0000    56.0000 </r>
       <r>     2.0383     0.0000    56.0000 </r>
      </set>
     </set>
    </array>
   </total>
  </dos>
 </calculation>
 <structure name="finalpos" >
  <crystal>
   <varray name="basis" >
    <v>       6.01920000       0.00000000       0.00000000 </v>
    <v>       0.00000000      10.14000000       0.00000000 </v>
    <v>       0.00000000       0.00000000      15.00000000 </v>
   </varray>
   <i name="volume">    915.52032000 </i>
   <varray name="rec_basis" >
    <v>       0.16613503       0.00000000       0.00000000 </v>
    <v>       0.00000000       0.09861933       0.00000000 </v>
    <v>       0.00000000       0.00000000       0.06666667 </v>
   </varray>
  </crystal>
  <varray name="positions" >
   <v>       0.42089937       0.85471876       0.26666557 </v>
   <v>       0.92090128       0.85472205       0.26666491 </v>
   <v>       0.42090109       0.59893385       0.26666456 </v>
   <v>       0.92090476       0.59893141       0.26666462 </v>
   <v>       0.42089836       0.35471885       0.26666469 </v>
   <v>       0.92090282       0.35472225       0.26666396 </v>
   <v>       0.42089901       0.09893369       0.26666533 </v>
   <v>       0.92090672       0.09893134       0.26666543 </v>
   <v>       0.17089267       0.97681908       0.26667163 </v>
   <v>       0.67088528       0.97682136       0.26667130 </v>
   <v>       0.17089396       0.47682073       0.26666825 </v>
   <v>       0.67088555       0.47682012       0.26666974 </v>
  </varray>
  <varray name="selective"  type="logical" >
   <v type="logical" >  T  T  T </v>
   <v type="logical" >  T  T  T </v>
   <v type="logical" >  T  T  T </v>
   <v type="logical" >  T  T  T </v>
   <v type="logical" >  T  T  T </v>
   <v type="logical" >  T  T  T </v>
   <v type="logical" >  T  T  T </v>
   <v type="logical" >  T  T  T </v>
   <v type="logical" >  T  T  T </v>
   <v type="logical" >  T  T  T </v>
   <v type="logical" >  T  T  T </v>
   <v type="logical" >  T  T  T </v>
  </varray>
  <nose>
   <v>      -3.00000000       0.00000000       0.00010000       0.00010000 </v>
  </nose>
 </structure>
</modeling>
