Al2C                                    
           1
     6.019200    0.000000    0.000000
     0.000000   10.140000    0.000000
     0.000000    0.000000   15.000000
   Al   C 
   8   4
Direct configuration=     1
   0.42089502  0.85502341  0.26666586
   0.92090536  0.85503379  0.26666513
   0.42089582  0.59862889  0.26666494
   0.92090901  0.59861961  0.26666502
   0.42089326  0.35502355  0.26666507
   0.92090739  0.35503388  0.26666429
   0.42089402  0.09862877  0.26666567
   0.92091109  0.09861937  0.26666573
   0.17089423  0.97681927  0.26667086
   0.67088515  0.97682160  0.26667054
   0.17089526  0.47682088  0.26666810
   0.67088524  0.47682047  0.26666879
Direct configuration=     2
   0.42090025  0.85465704  0.26666551
   0.92090045  0.85465890  0.26666487
   0.42090216  0.59899563  0.26666448
   0.92090390  0.59899458  0.26666454
   0.42089939  0.35465712  0.26666462
   0.92090189  0.35465911  0.26666390
   0.42090002  0.09899547  0.26666526
   0.92090583  0.09899454  0.26666536
   0.17089235  0.97681904  0.26667179
   0.67088530  0.97682131  0.26667146
   0.17089369  0.47682070  0.26666828
   0.67088562  0.47682005  0.26666993
Direct configuration=     3
   0.42089937  0.85471876  0.26666557
   0.92090128  0.85472205  0.26666491
   0.42090109  0.59893385  0.26666456
   0.92090476  0.59893141  0.26666462
   0.42089836  0.35471885  0.26666469
   0.92090282  0.35472225  0.26666396
   0.42089901  0.09893369  0.26666533
   0.92090672  0.09893134  0.26666543
   0.17089267  0.97681908  0.26667163
   0.67088528  0.97682136  0.26667130
   0.17089396  0.47682073  0.26666825
   0.67088555  0.47682012  0.26666974
