Al2C                                    
   1.0000000000000000     
     6.0191999999999997    0.0000000000000000    0.0000000000000000
     0.0000000000000000   10.1400000000000006    0.0000000000000000
     0.0000000000000000    0.0000000000000000   15.0000000000000000
   Al   C    S    H 
     8     4     1     2
Selective dynamics
Direct
  0.3888133017662554  0.8700563212517949  0.2440128091006244   T   T   T
  0.8903322939097222  0.8699521139488127  0.2431713542134091   T   T   T
  0.4082271860161626  0.6203218485688637  0.2875940761746918   T   T   T
  0.8728719130871028  0.6203900279815571  0.2871309313042616   T   T   T
  0.3959690643774252  0.3713692279622194  0.2503777250205417   T   T   T
  0.8843266387628006  0.3712787580318064  0.2506624445961734   T   T   T
  0.3899457297830864  0.1142891977038616  0.2333479562974006   T   T   T
  0.8891291478956731  0.1142622305783050  0.2339544435335057   T   T   T
  0.1395425714560403  0.9937140003040241  0.2371734678185717   T   T   T
  0.6395600918125126  0.9928317247121541  0.2336650483067828   T   T   T
  0.1403438632039027  0.4899038291722633  0.2991444187055095   T   T   T
  0.6402768536264816  0.4926642907871610  0.2421727255804171   T   T   T
  0.6421109150029380  0.6358918845558037  0.4218811991950773   T   T   T
  0.6431566293409148  0.7656436336919725  0.4447980825110136   T   T   T
  0.1399264600769854  0.4602972111346162  0.3708383103671480   T   T   T

  0.00000000E+00  0.00000000E+00  0.00000000E+00
  0.00000000E+00  0.00000000E+00  0.00000000E+00
  0.00000000E+00  0.00000000E+00  0.00000000E+00
  0.00000000E+00  0.00000000E+00  0.00000000E+00
  0.00000000E+00  0.00000000E+00  0.00000000E+00
  0.00000000E+00  0.00000000E+00  0.00000000E+00
  0.00000000E+00  0.00000000E+00  0.00000000E+00
  0.00000000E+00  0.00000000E+00  0.00000000E+00
  0.00000000E+00  0.00000000E+00  0.00000000E+00
  0.00000000E+00  0.00000000E+00  0.00000000E+00
  0.00000000E+00  0.00000000E+00  0.00000000E+00
  0.00000000E+00  0.00000000E+00  0.00000000E+00
  0.00000000E+00  0.00000000E+00  0.00000000E+00
  0.00000000E+00  0.00000000E+00  0.00000000E+00
  0.00000000E+00  0.00000000E+00  0.00000000E+00
