   15   15    1    1
  0.6103469E+02  0.6019200E-09  0.1014000E-08  0.1500000E-08  0.3500000E-15
   1.0000000000000000E-004
  CAR 
 Al2C                                    
     48      8     32

  0.3742002E-15  0.3742002E-15  0.1262379E-14  0.6666667E-01
    1      -17.810213   1.000000
    2      -16.264350   1.000000
    3      -15.413769   1.000000
    4      -14.232652   1.000000
    5      -13.128597   1.000000
    6       -9.996932   1.000000
    7       -9.840338   1.000000
    8       -9.536348   1.000000
    9       -9.183890   1.000000
   10       -8.293806   1.000000
   11       -7.418393   1.000000
   12       -7.127722   1.000000
   13       -6.503262   1.000000
   14       -6.486719   1.000000
   15       -5.726452   1.000000
   16       -5.403589   1.000000
   17       -5.166783   1.000000
   18       -4.772068   1.000000
   19       -4.162402   1.000000
   20       -3.978188   1.000000
   21       -3.516273   1.000000
   22       -3.384883   1.000000
   23       -2.850080   1.000000
   24       -2.496234   1.000000
   25       -1.123090   0.000000
   26       -0.589181   0.000000
   27        0.331021   0.000000
   28        0.408177   0.000000
   29        0.744378   0.000000
   30        0.820257   0.000000
   31        1.049172   0.000000
   32        1.583116   0.000000

  0.2000000E+00  0.3742002E-15  0.1262379E-14  0.1333333E+00
    1      -17.798096   1.000000
    2      -16.203785   1.000000
    3      -15.278363   1.000000
    4      -14.429754   1.000000
    5      -13.527950   1.000000
    6       -9.888709   1.000000
    7       -9.531044   1.000000
    8       -9.082549   1.000000
    9       -8.959460   1.000000
   10       -8.166961   1.000000
   11       -7.500780   1.000000
   12       -7.329547   1.000000
   13       -6.931326   1.000000
   14       -6.185026   1.000000
   15       -5.812876   1.000000
   16       -5.426479   1.000000
   17       -5.054952   1.000000
   18       -4.791384   1.000000
   19       -4.348517   1.000000
   20       -4.135988   1.000000
   21       -3.965155   1.000000
   22       -3.692834   1.000000
   23       -2.994181   1.000000
   24       -2.834693   1.000000
   25       -0.863713   0.000000
   26        0.043538   0.000000
   27        0.292593   0.000000
   28        0.636938   0.000000
   29        0.914758   0.000000
   30        1.062838   0.000000
   31        1.288924   0.000000
   32        1.996157   0.000000

  0.4000000E+00  0.3742002E-15  0.1262379E-14  0.1333333E+00
    1      -17.778556   1.000000
    2      -16.077718   1.000000
    3      -14.891481   1.000000
    4      -14.742871   1.000000
    5      -14.248715   1.000000
    6       -9.658627   1.000000
    7       -9.171374   1.000000
    8       -8.899145   1.000000
    9       -8.367988   1.000000
   10       -7.647183   1.000000
   11       -7.412452   1.000000
   12       -7.144340   1.000000
   13       -6.690076   1.000000
   14       -6.638791   1.000000
   15       -6.025427   1.000000
   16       -5.819348   1.000000
   17       -5.613461   1.000000
   18       -5.163319   1.000000
   19       -4.885775   1.000000
   20       -4.589454   1.000000
   21       -3.912583   1.000000
   22       -3.746409   1.000000
   23       -3.301140   1.000000
   24       -2.857495   1.000000
   25       -0.563390   0.000000
   26        0.026203   0.000000
   27        0.456348   0.000000
   28        1.201438   0.000000
   29        1.281353   0.000000
   30        1.578060   0.000000
   31        2.100967   0.000000
   32        2.480129   0.000000

  0.3742002E-15  0.3333333E+00  0.1262379E-14  0.1333333E+00
    1      -17.810057   1.000000
    2      -16.262826   1.000000
    3      -15.417517   1.000000
    4      -14.234207   1.000000
    5      -13.129445   1.000000
    6       -9.836339   1.000000
    7       -9.777566   1.000000
    8       -9.615115   1.000000
    9       -9.148088   1.000000
   10       -8.570888   1.000000
   11       -7.987317   1.000000
   12       -6.670875   1.000000
   13       -6.443566   1.000000
   14       -6.054658   1.000000
   15       -5.790739   1.000000
   16       -5.257810   1.000000
   17       -5.053347   1.000000
   18       -4.647059   1.000000
   19       -4.181536   1.000000
   20       -4.085351   1.000000
   21       -3.756912   1.000000
   22       -3.537417   1.000000
   23       -3.385062   1.000000
   24       -2.491063   1.000000
   25       -0.890250   0.000000
   26       -0.350269   0.000000
   27        0.266056   0.000000
   28        0.438116   0.000000
   29        0.795669   0.000000
   30        1.115862   0.000000
   31        1.592982   0.000000
   32        1.969567   0.000000

  0.2000000E+00  0.3333333E+00  0.1262379E-14  0.1333333E+00
    1      -17.797962   1.000000
    2      -16.202378   1.000000
    3      -15.281338   1.000000
    4      -14.431056   1.000000
    5      -13.529711   1.000000
    6       -9.773489   1.000000
    7       -9.497311   1.000000
    8       -9.033172   1.000000
    9       -8.961028   1.000000
   10       -8.425111   1.000000
   11       -7.940262   1.000000
   12       -7.281911   1.000000
   13       -6.491647   1.000000
   14       -6.230169   1.000000
   15       -5.753751   1.000000
   16       -5.128123   1.000000
   17       -5.018544   1.000000
   18       -4.760682   1.000000
   19       -4.274199   1.000000
   20       -4.146130   1.000000
   21       -3.966313   1.000000
   22       -3.756855   1.000000
   23       -3.379174   1.000000
   24       -2.997114   1.000000
   25       -0.759674   0.000000
   26       -0.020917   0.000000
   27        0.290046   0.000000
   28        0.622987   0.000000
   29        0.884092   0.000000
   30        1.192258   0.000000
   31        1.362923   0.000000
   32        1.923123   0.000000

  0.4000000E+00  0.3333333E+00  0.1262379E-14  0.1333333E+00
    1      -17.778477   1.000000
    2      -16.076796   1.000000
    3      -14.885131   1.000000
    4      -14.750232   1.000000
    5      -14.253539   1.000000
    6       -9.611100   1.000000
    7       -9.208102   1.000000
    8       -8.671623   1.000000
    9       -8.191659   1.000000
   10       -7.947317   1.000000
   11       -7.609262   1.000000
   12       -7.399448   1.000000
   13       -7.148810   1.000000
   14       -6.292960   1.000000
   15       -5.860759   1.000000
   16       -5.775355   1.000000
   17       -5.536085   1.000000
   18       -4.759090   1.000000
   19       -4.606625   1.000000
   20       -4.440855   1.000000
   21       -3.967675   1.000000
   22       -3.791563   1.000000
   23       -3.573291   1.000000
   24       -3.175464   1.000000
   25       -0.595187   0.000000
   26        0.127689   0.000000
   27        0.509289   0.000000
   28        0.979472   0.000000
   29        1.202464   0.000000
   30        1.378811   0.000000
   31        1.516029   0.000000
   32        2.325834   0.000000

 -0.4000000E+00  0.3333333E+00  0.1262379E-14  0.1333333E+00
    1      -17.778474   1.000000
    2      -16.076799   1.000000
    3      -14.885087   1.000000
    4      -14.750273   1.000000
    5      -14.253541   1.000000
    6       -9.611038   1.000000
    7       -9.208287   1.000000
    8       -8.671827   1.000000
    9       -8.191545   1.000000
   10       -7.946352   1.000000
   11       -7.609532   1.000000
   12       -7.398822   1.000000
   13       -7.149661   1.000000
   14       -6.294331   1.000000
   15       -5.859824   1.000000
   16       -5.775699   1.000000
   17       -5.536419   1.000000
   18       -4.759320   1.000000
   19       -4.607735   1.000000
   20       -4.436907   1.000000
   21       -3.965983   1.000000
   22       -3.793800   1.000000
   23       -3.575290   1.000000
   24       -3.174418   1.000000
   25       -0.595264   0.000000
   26        0.126176   0.000000
   27        0.509260   0.000000
   28        0.986334   0.000000
   29        1.259962   0.000000
   30        1.392650   0.000000
   31        1.692605   0.000000
   32        2.384595   0.000000

 -0.2000000E+00  0.3333333E+00  0.1262379E-14  0.1333333E+00
    1      -17.797962   1.000000
    2      -16.202382   1.000000
    3      -15.281327   1.000000
    4      -14.431061   1.000000
    5      -13.529716   1.000000
    6       -9.773742   1.000000
    7       -9.496533   1.000000
    8       -9.032589   1.000000
    9       -8.963541   1.000000
   10       -8.422841   1.000000
   11       -7.940837   1.000000
   12       -7.281188   1.000000
   13       -6.491901   1.000000
   14       -6.232718   1.000000
   15       -5.753014   1.000000
   16       -5.127540   1.000000
   17       -5.019809   1.000000
   18       -4.760227   1.000000
   19       -4.272724   1.000000
   20       -4.146088   1.000000
   21       -3.964303   1.000000
   22       -3.758776   1.000000
   23       -3.378387   1.000000
   24       -2.997310   1.000000
   25       -0.761232   0.000000
   26       -0.027069   0.000000
   27        0.291641   0.000000
   28        0.623397   0.000000
   29        0.884538   0.000000
   30        1.176666   0.000000
   31        1.470115   0.000000
   32        1.877341   0.000000
