--------------------------------------------------------------------------
[[21819,1],2]: A high-performance Open MPI point-to-point messaging module
was unable to find any relevant network interfaces:

Module: OpenFabrics (openib)
  Host: compute-4-0

Another transport will be used instead, although this may result in
lower performance.
--------------------------------------------------------------------------
 running on    4 total cores
 distrk:  each k-point on    4 cores,    1 groups
 distr:  one band on    1 cores,    4 groups
 using from now: INCAR     
 vasp.5.4.4.18Apr17-6-g9f103f2a35 (build Dec  6 2019 17:49:40) complex           
 POSCAR found type information on POSCAR  Al C  S  H 
 POSCAR found :  4 types and      15 ions
 scaLAPACK will be used
 LDA part: xc-table for Pade appr. of Perdew
 POSCAR found type information on POSCAR  Al C  S  H 
 POSCAR found :  4 types and      15 ions
 WARNING: stress and forces are not correct
 POSCAR, INCAR and KPOINTS ok, starting setup
 FFT: planning ...
[compute-4-0.cluster.gsc.inifta.unlp.edu.ar:06925] 3 more processes have sent help message help-mpi-btl-base.txt / btl:no-nics
[compute-4-0.cluster.gsc.inifta.unlp.edu.ar:06925] Set MCA parameter "orte_base_help_aggregate" to 0 to see all help / error messages
 WAVECAR not read
 charge-density read from file: Al2C                                    
 entering main loop

 ----------------------------------------------------------------------------- 
|                                                                             |
|           W    W    AA    RRRRR   N    N  II  N    N   GGGG   !!!           |
|           W    W   A  A   R    R  NN   N  II  NN   N  G    G  !!!           |
|           W    W  A    A  R    R  N N  N  II  N N  N  G       !!!           |
|           W WW W  AAAAAA  RRRRR   N  N N  II  N  N N  G  GGG   !            |
|           WW  WW  A    A  R   R   N   NN  II  N   NN  G    G                |
|           W    W  A    A  R    R  N    N  II  N    N   GGGG   !!!           |
|                                                                             |
|      ALGO=A and IALGO=5X tend to fail with the tetrahedron method           |
|      (e.g. Bloechls method ISMEAR=-5 is not variational)                    |
|      please switch to IMSEAR=0-n, except for DOS calculations               |
|      For DOS calculations use IALGO=53 after preconverging with ISMEAR>=0   |
|          I HOPE YOU KNOW, WHAT YOU ARE  DOING                               |
|                                                                             |
 ----------------------------------------------------------------------------- 

       N       E                     dE             d eps       ncg     rms          ort
DAV:   1     0.450234660989E+03    0.45023E+03   -0.11280E+04   256   0.960E+02
DAV:   2     0.222044127107E+03   -0.22819E+03   -0.21581E+03   256   0.249E+02
DAV:   3     0.125339141547E+03   -0.96705E+02   -0.91464E+02   256   0.162E+02
DAV:   4     0.744271648713E+02   -0.50912E+02   -0.48406E+02   256   0.130E+02
DAV:   5     0.450230435040E+02   -0.29404E+02   -0.28052E+02   256   0.919E+01
DAV:   6     0.269371873411E+02   -0.18086E+02   -0.17247E+02   256   0.726E+01
DAV:   7     0.151594406113E+02   -0.11778E+02   -0.11272E+02   256   0.546E+01
 gam= 0.000 g(H,U,f)=  0.475E+02 0.349E+00 0.204E-01 ort(H,U,f) = 0.000E+00 0.000E+00 0.000E+00
SDA:   8    -0.447517860470E+02   -0.59911E+02   -0.19162E+02   256   0.479E+02 0.000E+00
 gam= 0.382 g(H,U,f)=  0.186E+02 0.150E+01 0.146E+00 ort(H,U,f) = 0.253E+02 0.596E+00 0.458E-01
DMP:   9    -0.597083226898E+02   -0.14957E+02   -0.12049E+02   256   0.202E+02 0.260E+02
 gam= 0.382 g(H,U,f)=  0.777E+01 0.328E+01 0.373E+00 ort(H,U,f) = 0.939E+01 0.249E+01 0.292E+00
DMP:  10    -0.684370609195E+02   -0.87287E+01   -0.64328E+01   256   0.114E+02 0.122E+02
 gam= 0.382 g(H,U,f)=  0.481E+01 0.240E+01 0.228E-01 ort(H,U,f) = 0.426E+01 0.271E+01 0.417E-01
DMP:  11    -0.732409938701E+02   -0.48039E+01   -0.39688E+01   256   0.724E+01 0.702E+01
 gam= 0.382 g(H,U,f)=  0.268E+01 0.175E+01 0.335E-04 ort(H,U,f) = 0.312E+01 0.238E+01 0.993E-04
DMP:  12    -0.765048411683E+02   -0.32638E+01   -0.26122E+01   256   0.443E+01 0.550E+01
 gam= 0.382 g(H,U,f)=  0.144E+01 0.161E+01 0.285E-04 ort(H,U,f) = 0.204E+01 0.250E+01 0.960E-05
DMP:  13    -0.788737098703E+02   -0.23689E+01   -0.19134E+01   256   0.305E+01 0.454E+01
 gam= 0.382 g(H,U,f)=  0.790E+00 0.140E+01 0.352E-02 ort(H,U,f) = 0.129E+01 0.227E+01 0.363E-02
DMP:  14    -0.806515688435E+02   -0.17779E+01   -0.14211E+01   256   0.219E+01 0.357E+01
 gam= 0.382 g(H,U,f)=  0.420E+00 0.883E+00 0.101E-02 ort(H,U,f) = 0.795E+00 0.160E+01 0.112E-02
DMP:  15    -0.819297477770E+02   -0.12782E+01   -0.88746E+00   256   0.130E+01 0.239E+01
 gam= 0.382 g(H,U,f)=  0.203E+00 0.385E+00 0.152E-02 ort(H,U,f) = 0.434E+00 0.791E+00 0.257E-02
DMP:  16    -0.826342842549E+02   -0.70454E+00   -0.42344E+00   256   0.590E+00 0.123E+01
 gam= 0.382 g(H,U,f)=  0.991E-01 0.264E+00 0.150E-02 ort(H,U,f) = 0.229E+00 0.517E+00 0.237E-02
DMP:  17    -0.829971889603E+02   -0.36290E+00   -0.26034E+00   256   0.365E+00 0.748E+00
 gam= 0.382 g(H,U,f)=  0.592E-01 0.491E+00 0.663E-07 ort(H,U,f) = 0.143E+00 0.838E+00 0.103E-06
DMP:  18    -0.833171294128E+02   -0.31994E+00   -0.36984E+00   256   0.550E+00 0.981E+00
 gam= 0.382 g(H,U,f)=  0.423E-01 0.384E+00 0.193E-05 ort(H,U,f) = 0.929E-01 0.716E+00 0.161E-05
DMP:  19    -0.837341576307E+02   -0.41703E+00   -0.29402E+00   256   0.426E+00 0.809E+00
 gam= 0.382 g(H,U,f)=  0.239E-01 0.966E-01 0.160E-03 ort(H,U,f) = 0.462E-01 0.220E+00 0.228E-03
DMP:  20    -0.839252635961E+02   -0.19111E+00   -0.88930E-01   256   0.121E+00 0.266E+00
 gam= 0.382 g(H,U,f)=  0.127E-01 0.306E-01 0.367E-01 ort(H,U,f) = 0.248E-01 0.798E-01 0.840E-01
DMP:  21    -0.839894753159E+02   -0.64212E-01   -0.60815E-01   256   0.800E-01 0.189E+00
 gam= 0.382 g(H,U,f)=  0.778E-02 0.119E-01 0.822E-04 ort(H,U,f) = 0.155E-01 0.333E-01 0.241E-03
DMP:  22    -0.840159321347E+02   -0.26457E-01   -0.15397E-01   256   0.198E-01 0.490E-01
 gam= 0.382 g(H,U,f)=  0.488E-02 0.527E-02 0.457E-05 ort(H,U,f) = 0.105E-01 0.151E-01 0.131E-04
DMP:  23    -0.840287916604E+02   -0.12860E-01   -0.79858E-02   256   0.101E-01 0.257E-01
 gam= 0.382 g(H,U,f)=  0.311E-02 0.253E-02 0.234E-06 ort(H,U,f) = 0.715E-02 0.730E-02 0.631E-06
DMP:  24    -0.840357006166E+02   -0.69090E-02   -0.44664E-02   256   0.564E-02 0.145E-01
 gam= 0.382 g(H,U,f)=  0.211E-02 0.130E-02 0.324E-08 ort(H,U,f) = 0.490E-02 0.369E-02 0.572E-08
DMP:  25    -0.840396624074E+02   -0.39618E-02   -0.26729E-02   256   0.340E-02 0.858E-02
 gam= 0.382 g(H,U,f)=  0.153E-02 0.695E-03 0.334E-08 ort(H,U,f) = 0.350E-02 0.194E-02 0.111E-07
DMP:  26    -0.840420912198E+02   -0.24288E-02   -0.17185E-02   256   0.222E-02 0.543E-02
 gam= 0.382 g(H,U,f)=  0.115E-02 0.386E-03 0.652E-08 ort(H,U,f) = 0.260E-02 0.105E-02 0.190E-07
DMP:  27    -0.840436838518E+02   -0.15926E-02   -0.11739E-02   256   0.154E-02 0.365E-02
 gam= 0.382 g(H,U,f)=  0.895E-03 0.221E-03 0.582E-08 ort(H,U,f) = 0.199E-02 0.589E-03 0.160E-07
DMP:  28    -0.840447876696E+02   -0.11038E-02   -0.84031E-03   256   0.112E-02 0.258E-02
 gam= 0.382 g(H,U,f)=  0.709E-03 0.130E-03 0.420E-08 ort(H,U,f) = 0.155E-02 0.339E-03 0.111E-07
DMP:  29    -0.840455865488E+02   -0.79888E-03   -0.62443E-03   256   0.839E-03 0.189E-02
 gam= 0.382 g(H,U,f)=  0.571E-03 0.781E-04 0.282E-08 ort(H,U,f) = 0.123E-02 0.200E-03 0.722E-08
DMP:  30    -0.840461852882E+02   -0.59874E-03   -0.47824E-03   256   0.649E-03 0.143E-02
 gam= 0.382 g(H,U,f)=  0.466E-03 0.478E-04 0.184E-08 ort(H,U,f) = 0.991E-03 0.120E-03 0.458E-08
DMP:  31    -0.840466469322E+02   -0.46164E-03   -0.37542E-03   256   0.514E-03 0.111E-02
 gam= 0.382 g(H,U,f)=  0.385E-03 0.298E-04 0.119E-08 ort(H,U,f) = 0.809E-03 0.738E-04 0.291E-08
DMP:  32    -0.840470112560E+02   -0.36432E-03   -0.30072E-03   256   0.415E-03 0.883E-03
 gam= 0.382 g(H,U,f)=  0.320E-03 0.189E-04 0.772E-09 ort(H,U,f) = 0.667E-03 0.461E-04 0.186E-08
DMP:  33    -0.840473043417E+02   -0.29309E-03   -0.24473E-03   256   0.339E-03 0.713E-03
 gam= 0.382 g(H,U,f)=  0.269E-03 0.122E-04 0.505E-09 ort(H,U,f) = 0.556E-03 0.293E-04 0.120E-08
DMP:  34    -0.840475436997E+02   -0.23936E-03   -0.20187E-03   256   0.281E-03 0.585E-03
 gam= 0.382 g(H,U,f)=  0.228E-03 0.802E-05 0.331E-09 ort(H,U,f) = 0.467E-03 0.189E-04 0.779E-09
DMP:  35    -0.840477417181E+02   -0.19802E-03   -0.16850E-03   256   0.236E-03 0.485E-03
 gam= 0.382 g(H,U,f)=  0.194E-03 0.537E-05 0.220E-09 ort(H,U,f) = 0.395E-03 0.125E-04 0.510E-09
DMP:  36    -0.840479074082E+02   -0.16569E-03   -0.14206E-03   256   0.200E-03 0.407E-03
 gam= 0.382 g(H,U,f)=  0.167E-03 0.367E-05 0.149E-09 ort(H,U,f) = 0.337E-03 0.835E-05 0.342E-09
DMP:  37    -0.840480473928E+02   -0.13998E-03   -0.12081E-03   256   0.170E-03 0.345E-03
 gam= 0.382 g(H,U,f)=  0.144E-03 0.255E-05 0.101E-09 ort(H,U,f) = 0.289E-03 0.571E-05 0.230E-09
DMP:  38    -0.840481666522E+02   -0.11926E-03   -0.10351E-03   256   0.146E-03 0.294E-03
 gam= 0.382 g(H,U,f)=  0.125E-03 0.181E-05 0.700E-10 ort(H,U,f) = 0.249E-03 0.397E-05 0.157E-09
DMP:  39    -0.840482689842E+02   -0.10233E-03   -0.89248E-04   256   0.127E-03 0.253E-03
 gam= 0.382 g(H,U,f)=  0.109E-03 0.130E-05 0.491E-10 ort(H,U,f) = 0.216E-03 0.281E-05 0.109E-09
DMP:  40    -0.840483573321E+02   -0.88348E-04   -0.77334E-04   256   0.110E-03 0.219E-03
 gam= 0.382 g(H,U,f)=  0.948E-04 0.946E-06 0.352E-10 ort(H,U,f) = 0.188E-03 0.202E-05 0.770E-10
DMP:  41    -0.840484339718E+02   -0.76640E-04   -0.67295E-04   256   0.957E-04 0.190E-03
 gam= 0.382 g(H,U,f)=  0.831E-04 0.697E-06 0.254E-10 ort(H,U,f) = 0.164E-03 0.147E-05 0.548E-10
DMP:  42    -0.840485007287E+02   -0.66757E-04   -0.58803E-04   256   0.838E-04 0.166E-03
 gam= 0.382 g(H,U,f)=  0.730E-04 0.519E-06 0.185E-10 ort(H,U,f) = 0.144E-03 0.109E-05 0.395E-10
DMP:  43    -0.840485591120E+02   -0.58383E-04   -0.51551E-04   256   0.735E-04 0.145E-03
 gam= 0.382 g(H,U,f)=  0.643E-04 0.389E-06 0.137E-10 ort(H,U,f) = 0.126E-03 0.808E-06 0.289E-10
DMP:  44    -0.840486103338E+02   -0.51222E-04   -0.45328E-04   256   0.647E-04 0.127E-03
 gam= 0.382 g(H,U,f)=  0.567E-04 0.293E-06 0.102E-10 ort(H,U,f) = 0.111E-03 0.606E-06 0.213E-10
DMP:  45    -0.840486554021E+02   -0.45068E-04   -0.39922E-04   256   0.570E-04 0.112E-03
 gam= 0.382 g(H,U,f)=  0.501E-04 0.222E-06 0.770E-11 ort(H,U,f) = 0.983E-04 0.457E-06 0.159E-10
DMP:  46    -0.840486951191E+02   -0.39717E-04   -0.35218E-04   256   0.503E-04 0.988E-04
 gam= 0.382 g(H,U,f)=  0.443E-04 0.169E-06 0.585E-11 ort(H,U,f) = 0.869E-04 0.346E-06 0.120E-10
DMP:  47    -0.840487301752E+02   -0.35056E-04   -0.31109E-04   256   0.445E-04 0.872E-04
 gam= 0.382 g(H,U,f)=  0.392E-04 0.129E-06 0.448E-11 ort(H,U,f) = 0.769E-04 0.264E-06 0.913E-11
DMP:  48    -0.840487611560E+02   -0.30981E-04   -0.27523E-04   256   0.393E-04 0.771E-04
 gam= 0.382 g(H,U,f)=  0.348E-04 0.992E-07 0.345E-11 ort(H,U,f) = 0.681E-04 0.201E-06 0.698E-11
DMP:  49    -0.840487885776E+02   -0.27422E-04   -0.24390E-04   256   0.349E-04 0.683E-04
 gam= 0.382 g(H,U,f)=  0.309E-04 0.765E-07 0.267E-11 ort(H,U,f) = 0.604E-04 0.155E-06 0.537E-11
DMP:  50    -0.840488128870E+02   -0.24309E-04   -0.21647E-04   256   0.310E-04 0.606E-04
 gam= 0.382 g(H,U,f)=  0.275E-04 0.592E-07 0.207E-11 ort(H,U,f) = 0.537E-04 0.119E-06 0.416E-11
DMP:  51    -0.840488344696E+02   -0.21583E-04   -0.19239E-04   256   0.276E-04 0.538E-04
 gam= 0.382 g(H,U,f)=  0.245E-04 0.460E-07 0.162E-11 ort(H,U,f) = 0.477E-04 0.924E-07 0.323E-11
DMP:  52    -0.840488536574E+02   -0.19188E-04   -0.17120E-04   256   0.245E-04 0.478E-04
 gam= 0.382 g(H,U,f)=  0.218E-04 0.359E-07 0.127E-11 ort(H,U,f) = 0.425E-04 0.718E-07 0.252E-11
DMP:  53    -0.840488707373E+02   -0.17080E-04   -0.15253E-04   256   0.219E-04 0.426E-04
 gam= 0.382 g(H,U,f)=  0.195E-04 0.281E-07 0.996E-12 ort(H,U,f) = 0.379E-04 0.561E-07 0.198E-11
DMP:  54    -0.840488859578E+02   -0.15221E-04   -0.13603E-04   256   0.195E-04 0.380E-04
 gam= 0.382 g(H,U,f)=  0.174E-04 0.221E-07 0.785E-12 ort(H,U,f) = 0.338E-04 0.439E-07 0.155E-11
DMP:  55    -0.840488995351E+02   -0.13577E-04   -0.12143E-04   256   0.174E-04 0.339E-04
 gam= 0.382 g(H,U,f)=  0.155E-04 0.174E-07 0.621E-12 ort(H,U,f) = 0.302E-04 0.346E-07 0.123E-11
DMP:  56    -0.840489116575E+02   -0.12122E-04   -0.10849E-04   256   0.156E-04 0.303E-04
 gam= 0.382 g(H,U,f)=  0.139E-04 0.138E-07 0.492E-12 ort(H,U,f) = 0.270E-04 0.273E-07 0.969E-12
DMP:  57    -0.840489224896E+02   -0.10832E-04   -0.96993E-05   256   0.139E-04 0.270E-04
 gam= 0.382 g(H,U,f)=  0.124E-04 0.109E-07 0.391E-12 ort(H,U,f) = 0.242E-04 0.216E-07 0.768E-12
DMP:  58    -0.840489321758E+02   -0.96862E-05   -0.86777E-05   256   0.125E-04 0.242E-04
 final diagonalization
   1 F= -.84048932E+02 E0= -.84048932E+02  d E =0.000000E+00
