Al   C    S    H                        
   1.0000000000000000     
     6.0191999999999997    0.0000000000000000    0.0000000000000000
     0.0000000000000000   10.1400000000000006    0.0000000000000000
     0.0000000000000000    0.0000000000000000   15.0000000000000000
   Al   C    S    H 
     8     4     1     2
Selective dynamics
Direct
  0.4107538869218081  0.8716887675903222  0.2448402465989529   T   T   T
  0.9116215037185754  0.8739507057607033  0.2492634031437966   T   T   T
  0.4234301839229488  0.6227630305464985  0.2913659709305287   T   T   T
  0.8933277747300192  0.6225173001704909  0.2831623122276623   T   T   T
  0.4148434752521890  0.3742798020225350  0.2525445540201546   T   T   T
  0.9013781188090969  0.3725866864432498  0.2537214796378740   T   T   T
  0.4122956443798365  0.1165940860344567  0.2379616669632499   T   T   T
  0.9109230808867665  0.1167961669320536  0.2358101231931118   T   T   T
  0.1615615508727589  0.9964121620180889  0.2422017091448939   T   T   T
  0.6613763275970942  0.9954088453608161  0.2359060126617639   T   T   T
  0.1563757665216317  0.4914106655490264  0.2981447405782710   T   T   T
  0.6591747704510484  0.4958724653264278  0.2462493679778757   T   T   T
  0.5958162809676051  0.6374034930474564  0.4307436969386557   T   T   T
  0.5150161560182334  0.7544027320126095  0.4613156493473237   T   T   T
  0.1574701058692538  0.4658850872691582  0.3705069750322010   T   T   T

  0.00000000E+00  0.00000000E+00  0.00000000E+00
  0.00000000E+00  0.00000000E+00  0.00000000E+00
  0.00000000E+00  0.00000000E+00  0.00000000E+00
  0.00000000E+00  0.00000000E+00  0.00000000E+00
  0.00000000E+00  0.00000000E+00  0.00000000E+00
  0.00000000E+00  0.00000000E+00  0.00000000E+00
  0.00000000E+00  0.00000000E+00  0.00000000E+00
  0.00000000E+00  0.00000000E+00  0.00000000E+00
  0.00000000E+00  0.00000000E+00  0.00000000E+00
  0.00000000E+00  0.00000000E+00  0.00000000E+00
  0.00000000E+00  0.00000000E+00  0.00000000E+00
  0.00000000E+00  0.00000000E+00  0.00000000E+00
  0.00000000E+00  0.00000000E+00  0.00000000E+00
  0.00000000E+00  0.00000000E+00  0.00000000E+00
  0.00000000E+00  0.00000000E+00  0.00000000E+00
