   15   15  999    1
  0.6103469E+02  0.6019200E-09  0.1014000E-08  0.1500000E-08  0.3500000E-15
   1.0000000000000000E-004
  CAR 
 Al2C                                    
     48      8     32

  0.3742002E-15  0.3742002E-15  0.1262379E-14  0.6666667E-01
    1      -15.606896   1.000000
    2      -14.532060   1.000000
    3      -13.689262   1.000000
    4      -12.634419   1.000000
    5      -11.563473   1.000000
    6       -8.885109   1.000000
    7       -8.793652   1.000000
    8       -8.503466   1.000000
    9       -7.955634   1.000000
   10       -7.359477   1.000000
   11       -6.577971   1.000000
   12       -6.227416   1.000000
   13       -5.813426   1.000000
   14       -5.356435   1.000000
   15       -4.998663   1.000000
   16       -4.732535   1.000000
   17       -4.399662   1.000000
   18       -4.241922   1.000000
   19       -3.618986   1.000000
   20       -3.533289   1.000000
   21       -3.111342   1.000000
   22       -2.820329   1.000000
   23       -2.479748   1.000000
   24       -2.186977   1.000000
   25       -1.438571   0.000000
   26       -0.945800   0.000000
   27       -0.102745   0.000000
   28        0.029977   0.000000
   29        0.163888   0.000000
   30        0.477380   0.000000
   31        0.643122   0.000000
   32        1.049610   0.000000

  0.2000000E+00  0.3742002E-15  0.1262379E-14  0.1333333E+00
    1      -15.593289   1.000000
    2      -14.476631   1.000000
    3      -13.565120   1.000000
    4      -12.825886   1.000000
    5      -11.943799   1.000000
    6       -8.766726   1.000000
    7       -8.506183   1.000000
    8       -7.978296   1.000000
    9       -7.863620   1.000000
   10       -7.236780   1.000000
   11       -6.595790   1.000000
   12       -6.482339   1.000000
   13       -6.106645   1.000000
   14       -5.306814   1.000000
   15       -4.998083   1.000000
   16       -4.616956   1.000000
   17       -4.378481   1.000000
   18       -4.191286   1.000000
   19       -3.875520   1.000000
   20       -3.540446   1.000000
   21       -3.517012   1.000000
   22       -3.303495   1.000000
   23       -2.650216   1.000000
   24       -2.467617   1.000000
   25       -1.221431   0.000000
   26       -0.306009   0.000000
   27       -0.122173   0.000000
   28        0.206372   0.000000
   29        0.403809   0.000000
   30        0.678913   0.000000
   31        0.852960   0.000000
   32        0.913387   0.000000

  0.4000000E+00  0.3742002E-15  0.1262379E-14  0.1333333E+00
    1      -15.571604   1.000000
    2      -14.359100   1.000000
    3      -13.219868   1.000000
    4      -13.118262   1.000000
    5      -12.616097   1.000000
    6       -8.480419   1.000000
    7       -8.161672   1.000000
    8       -7.843685   1.000000
    9       -7.383041   1.000000
   10       -6.748603   1.000000
   11       -6.554027   1.000000
   12       -6.251679   1.000000
   13       -5.888598   1.000000
   14       -5.777918   1.000000
   15       -5.271503   1.000000
   16       -5.042672   1.000000
   17       -4.886513   1.000000
   18       -4.408441   1.000000
   19       -4.239465   1.000000
   20       -4.027207   1.000000
   21       -3.491889   1.000000
   22       -3.376831   1.000000
   23       -2.918664   1.000000
   24       -2.497943   1.000000
   25       -0.907564   0.000000
   26       -0.403643   0.000000
   27       -0.007527   0.000000
   28        0.720056   0.000000
   29        0.872544   0.000000
   30        1.172282   0.000000
   31        1.310894   0.000000
   32        1.388539   0.000000

  0.3742002E-15  0.3333333E+00  0.1262379E-14  0.1333333E+00
    1      -15.606698   1.000000
    2      -14.530670   1.000000
    3      -13.692982   1.000000
    4      -12.636141   1.000000
    5      -11.564345   1.000000
    6       -8.758736   1.000000
    7       -8.677750   1.000000
    8       -8.558850   1.000000
    9       -8.039188   1.000000
   10       -7.575767   1.000000
   11       -7.066439   1.000000
   12       -5.753917   1.000000
   13       -5.491730   1.000000
   14       -5.212758   1.000000
   15       -4.988305   1.000000
   16       -4.669490   1.000000
   17       -4.380987   1.000000
   18       -4.140824   1.000000
   19       -3.694857   1.000000
   20       -3.615671   1.000000
   21       -3.357376   1.000000
   22       -3.092826   1.000000
   23       -2.820639   1.000000
   24       -2.180115   1.000000
   25       -1.225486   0.000000
   26       -0.671964   0.000000
   27       -0.205363   0.000000
   28        0.043297   0.000000
   29        0.458195   0.000000
   30        0.637088   0.000000
   31        0.795515   0.000000
   32        0.861250   0.000000

  0.2000000E+00  0.3333333E+00  0.1262379E-14  0.1333333E+00
    1      -15.593108   1.000000
    2      -14.475391   1.000000
    3      -13.567806   1.000000
    4      -12.827631   1.000000
    5      -11.945556   1.000000
    6       -8.625228   1.000000
    7       -8.449672   1.000000
    8       -7.994536   1.000000
    9       -7.940930   1.000000
   10       -7.411618   1.000000
   11       -7.028854   1.000000
   12       -6.356795   1.000000
   13       -5.730268   1.000000
   14       -5.353586   1.000000
   15       -4.804992   1.000000
   16       -4.528372   1.000000
   17       -4.328033   1.000000
   18       -4.127016   1.000000
   19       -3.790337   1.000000
   20       -3.587053   1.000000
   21       -3.483841   1.000000
   22       -3.397027   1.000000
   23       -2.972720   1.000000
   24       -2.650988   1.000000
   25       -1.087880   0.000000
   26       -0.487296   0.000000
   27       -0.137345   0.000000
   28        0.207536   0.000000
   29        0.458331   0.000000
   30        0.769339   0.000000
   31        0.832009   0.000000
   32        0.995114   0.000000

  0.4000000E+00  0.3333333E+00  0.1262379E-14  0.1333333E+00
    1      -15.571513   1.000000
    2      -14.358309   1.000000
    3      -13.205589   1.000000
    4      -13.133952   1.000000
    5      -12.620687   1.000000
    6       -8.393002   1.000000
    7       -8.191884   1.000000
    8       -7.690029   1.000000
    9       -7.233947   1.000000
   10       -7.006988   1.000000
   11       -6.714861   1.000000
   12       -6.518094   1.000000
   13       -6.358866   1.000000
   14       -5.432451   1.000000
   15       -5.099594   1.000000
   16       -4.907510   1.000000
   17       -4.647331   1.000000
   18       -4.139950   1.000000
   19       -4.051631   1.000000
   20       -3.944295   1.000000
   21       -3.556261   1.000000
   22       -3.383032   1.000000
   23       -3.191353   1.000000
   24       -2.814112   1.000000
   25       -0.905508   0.000000
   26       -0.349748   0.000000
   27        0.009343   0.000000
   28        0.583062   0.000000
   29        0.750667   0.000000
   30        0.899814   0.000000
   31        1.154495   0.000000
   32        1.261465   0.000000

 -0.4000000E+00  0.3333333E+00  0.1262379E-14  0.1333333E+00
    1      -15.571521   1.000000
    2      -14.358244   1.000000
    3      -13.208719   1.000000
    4      -13.130555   1.000000
    5      -12.620988   1.000000
    6       -8.398573   1.000000
    7       -8.198018   1.000000
    8       -7.645670   1.000000
    9       -7.222348   1.000000
   10       -7.069461   1.000000
   11       -6.726172   1.000000
   12       -6.539565   1.000000
   13       -6.315199   1.000000
   14       -5.411057   1.000000
   15       -5.092295   1.000000
   16       -4.902029   1.000000
   17       -4.624311   1.000000
   18       -4.231870   1.000000
   19       -4.080967   1.000000
   20       -3.903128   1.000000
   21       -3.551607   1.000000
   22       -3.382328   1.000000
   23       -3.145595   1.000000
   24       -2.831950   1.000000
   25       -0.961780   0.000000
   26       -0.266200   0.000000
   27        0.078956   0.000000
   28        0.474533   0.000000
   29        0.757031   0.000000
   30        0.893874   0.000000
   31        1.068243   0.000000
   32        1.406150   0.000000

 -0.2000000E+00  0.3333333E+00  0.1262379E-14  0.1333333E+00
    1      -15.593120   1.000000
    2      -14.475303   1.000000
    3      -13.568097   1.000000
    4      -12.827279   1.000000
    5      -11.945651   1.000000
    6       -8.615412   1.000000
    7       -8.484836   1.000000
    8       -7.997101   1.000000
    9       -7.856629   1.000000
   10       -7.478213   1.000000
   11       -7.023212   1.000000
   12       -6.383674   1.000000
   13       -5.722228   1.000000
   14       -5.287726   1.000000
   15       -4.776012   1.000000
   16       -4.564497   1.000000
   17       -4.362591   1.000000
   18       -4.162590   1.000000
   19       -3.800290   1.000000
   20       -3.573982   1.000000
   21       -3.487917   1.000000
   22       -3.331568   1.000000
   23       -3.010312   1.000000
   24       -2.649927   1.000000
   25       -1.124257   0.000000
   26       -0.323402   0.000000
   27       -0.156892   0.000000
   28        0.099184   0.000000
   29        0.454863   0.000000
   30        0.706284   0.000000
   31        0.900648   0.000000
   32        1.031307   0.000000
