       N       E                     dE             d eps       ncg     rms          rms(c)
DAV:   1     0.304811450157E+03    0.30481E+03   -0.13425E+04   512   0.924E+02
DAV:   2    -0.628470881099E+01   -0.31110E+03   -0.29498E+03   744   0.216E+02
DAV:   3    -0.877343272116E+02   -0.81450E+02   -0.80150E+02   832   0.102E+02
DAV:   4    -0.909188242450E+02   -0.31845E+01   -0.31755E+01   688   0.249E+01
DAV:   5    -0.910629629975E+02   -0.14414E+00   -0.14410E+00   840   0.534E+00
DAV:   6    -0.910651426259E+02   -0.21796E-02   -0.21792E-02   760   0.786E-01
DAV:   7    -0.910652631492E+02   -0.12052E-03   -0.12052E-03   808   0.141E-01    0.185E+01
DAV:   8    -0.738069096934E+02    0.17258E+02   -0.71379E+01   616   0.422E+01    0.556E+00
DAV:   9    -0.735320319314E+02    0.27488E+00   -0.54169E+00   640   0.112E+01    0.377E+00
DAV:  10    -0.730098706717E+02    0.52216E+00   -0.14166E+00   720   0.684E+00    0.949E-01
DAV:  11    -0.729607083262E+02    0.49162E-01   -0.14825E-01   752   0.213E+00    0.478E-01
DAV:  12    -0.729519035819E+02    0.88047E-02   -0.10648E-01   736   0.148E+00    0.329E-01
DAV:  13    -0.729461945119E+02    0.57091E-02   -0.20389E-02   760   0.792E-01    0.172E-01
DAV:  14    -0.729395080373E+02    0.66865E-02   -0.19787E-02   640   0.539E-01    0.113E-01
DAV:  15    -0.729406931768E+02   -0.11851E-02   -0.30964E-03   728   0.300E-01    0.793E-02
DAV:  16    -0.729433784899E+02   -0.26853E-02   -0.25141E-03   688   0.245E-01    0.639E-02
DAV:  17    -0.729443665865E+02   -0.98810E-03   -0.83694E-04   680   0.162E-01    0.320E-02
DAV:  18    -0.729459535408E+02   -0.15870E-02   -0.93246E-04   720   0.138E-01    0.380E-02
DAV:  19    -0.729477383178E+02   -0.17848E-02   -0.47096E-04   728   0.114E-01    0.120E-02
DAV:  20    -0.729488345499E+02   -0.10962E-02   -0.15889E-04   592   0.549E-02    0.649E-03
DAV:  21    -0.729494769291E+02   -0.64238E-03   -0.11716E-04   600   0.327E-02    0.475E-03
DAV:  22    -0.729496094502E+02   -0.13252E-03   -0.16567E-05   680   0.159E-02    0.201E-03
DAV:  23    -0.729496659022E+02   -0.56452E-04   -0.83879E-06   600   0.107E-02    0.205E-03
DAV:  24    -0.729496822164E+02   -0.16314E-04   -0.19904E-06   544   0.720E-03    0.745E-04
DAV:  25    -0.729496908137E+02   -0.85974E-05   -0.10515E-06   368   0.421E-03    0.603E-04
DAV:  26    -0.729496937503E+02   -0.29366E-05   -0.45259E-07   424   0.309E-03    0.317E-04
DAV:  27    -0.729496952936E+02   -0.15433E-05   -0.42355E-07   392   0.320E-03    0.527E-04
DAV:  28    -0.729496956885E+02   -0.39483E-06   -0.18059E-07   432   0.279E-03
   1 F= -.72949696E+02 E0= -.72949696E+02  d E =-.729497E+02
       N       E                     dE             d eps       ncg     rms          rms(c)
DAV:   1    -0.729496893559E+02    0.59378E-05   -0.37861E-05   624   0.384E-02    0.134E-03
DAV:   2    -0.729496894881E+02   -0.13227E-06   -0.13910E-06   512   0.722E-03
   2 F= -.72949689E+02 E0= -.72949689E+02  d E =0.620034E-05
       N       E                     dE             d eps       ncg     rms          rms(c)
DAV:   1    -0.729496743597E+02    0.14996E-04   -0.12832E-04   528   0.733E-02    0.181E-03
DAV:   2    -0.729496746249E+02   -0.26520E-06   -0.36546E-06   552   0.113E-02
   3 F= -.72949675E+02 E0= -.72949675E+02  d E =0.148632E-04
       N       E                     dE             d eps       ncg     rms          rms(c)
DAV:   1    -0.729496422886E+02    0.32071E-04   -0.29167E-04   528   0.109E-01    0.317E-03
DAV:   2    -0.729496431287E+02   -0.84013E-06   -0.10521E-05   768   0.184E-02    0.239E-03
DAV:   3    -0.729496430641E+02    0.64660E-07   -0.28891E-07   392   0.391E-03
   4 F= -.72949643E+02 E0= -.72949643E+02  d E =0.315609E-04
       N       E                     dE             d eps       ncg     rms          rms(c)
DAV:   1    -0.729496014846E+02    0.41644E-04   -0.44584E-04   528   0.138E-01    0.339E-03
DAV:   2    -0.729496024809E+02   -0.99629E-06   -0.13160E-05   752   0.210E-02    0.229E-03
DAV:   3    -0.729496023745E+02    0.10633E-06   -0.33186E-07   320   0.406E-03
   5 F= -.72949602E+02 E0= -.72949602E+02  d E =0.406895E-04
       N       E                     dE             d eps       ncg     rms          rms(c)
DAV:   1    -0.729495636851E+02    0.38796E-04   -0.36172E-04   528   0.124E-01    0.306E-03
DAV:   2    -0.729495646700E+02   -0.98489E-06   -0.11995E-05   704   0.199E-02    0.223E-03
DAV:   3    -0.729495645853E+02    0.84681E-07   -0.25576E-07   280   0.363E-03
   6 F= -.72949565E+02 E0= -.72949565E+02  d E =0.377892E-04
