 vasp.5.4.4.18Apr17-6-g9f103f2a35 (build Dec  6 2019 17:49:40) complex           
 executed on             LinuxGNU date 2022.03.22  22:25:36
 running on   16 total cores
 each image running on    2 cores
 distrk:  each k-point on    2 cores,    1 groups
 distr:  one band on NCORES_PER_BAND=   1 cores,    2 groups


--------------------------------------------------------------------------------------------------------


 INCAR:
 POTCAR:    PAW Al_GW 19Mar2012                   
 POTCAR:    PAW C_GW 28Sep2005                    
 POTCAR:    PAW S_GW 19Mar2012                    
 POTCAR:    PAW H_GW 21Apr2008                    
 POTCAR:    PAW Al_GW 19Mar2012                   
   VRHFIN =Al: s2p1                                                             
   LEXCH  = PE                                                                  
   EATOM  =    53.5387 eV,    3.9350 Ry                                         
                                                                                
   TITEL  = PAW Al_GW 19Mar2012                                                 
   LULTRA =        F    use ultrasoft PP ?                                      
   IUNSCR =        1    unscreen: 0-lin 1-nonlin 2-no                           
   RPACOR =    1.500    partial core radius                                     
   POMASS =   26.982; ZVAL   =    3.000    mass and valenz                      
   RCORE  =    2.000    outmost cutoff radius                                   
   RWIGS  =    2.000; RWIGS  =    1.058    wigner-seitz radius (au A)           
   ENMAX  =  240.300; ENMIN  =  180.225 eV                                      
   ICORE  =        3    local potential                                         
   LCOR   =        T    correct aug charges                                     
   LPAW   =        T    paw PP                                                  
   EAUG   =  482.059                                                            
   DEXC   =    0.000                                                            
   RMAX   =    2.051    core radius for proj-oper                               
   RAUG   =    1.300    factor for augmentation sphere                          
   RDEP   =    2.096    radius for radial grids                                 
   RDEPT  =    1.856    core radius for aug-charge                              
                                                                                
   Atomic configuration                                                         
    7 entries                                                                   
     n  l   j            E        occ.                                          
     1  0  0.50     -1511.1048   2.0000                                         
     2  0  0.50      -108.1629   2.0000                                         
     2  1  1.50       -69.6402   6.0000                                         
     3  0  0.50        -7.7528   2.0000                                         
     3  1  1.50        -2.7121   1.0000                                         
     3  2  2.50        -2.7212   0.0000                                         
     4  3  2.50        -2.7212   0.0000                                         
   Description                                                                  
     l       E           TYP  RCUT    TYP  RCUT                                 
     0     -7.7528455     23  1.900                                             
     0     68.0291300     23  1.900                                             
     1     -2.7120682     23  1.900                                             
     1     68.0291300     23  1.900                                             
     2     -1.3605826     23  1.900                                             
     2     81.6349560     23  1.900                                             
     3     74.8320430     23  2.000                                             
  local pseudopotential read in
  partial core-charges read in
  partial kinetic energy density read in
  kinetic energy density of atom read in
  atomic valenz-charges read in
  non local Contribution for L=           0  read in
    real space projection operators read in
  non local Contribution for L=           0  read in
    real space projection operators read in
  non local Contribution for L=           1  read in
    real space projection operators read in
  non local Contribution for L=           1  read in
    real space projection operators read in
  non local Contribution for L=           2  read in
    real space projection operators read in
  non local Contribution for L=           2  read in
    real space projection operators read in
    PAW grid and wavefunctions read in

   number of l-projection  operators is LMAX  =           6
   number of lm-projection operators is LMMAX =          18

 POTCAR:    PAW C_GW 28Sep2005                    
   VRHFIN =C: s2p2                                                              
   LEXCH  = PE                                                                  
   EATOM  =   147.1560 eV,   10.8157 Ry                                         
                                                                                
   TITEL  = PAW C_GW 28Sep2005                                                  
   LULTRA =        F    use ultrasoft PP ?                                      
   IUNSCR =        0    unscreen: 0-lin 1-nonlin 2-no                           
   RPACOR =    0.000    partial core radius                                     
   POMASS =   12.011; ZVAL   =    4.000    mass and valenz                      
   RCORE  =    1.500    outmost cutoff radius                                   
   RWIGS  =    1.630; RWIGS  =    0.863    wigner-seitz radius (au A)           
   ENMAX  =  413.992; ENMIN  =  310.494 eV                                      
   ICORE  =        2    local potential                                         
   LCOR   =        T    correct aug charges                                     
   LPAW   =        T    paw PP                                                  
   EAUG   =  644.873                                                            
   DEXC   =    0.000                                                            
   RMAX   =    1.529    core radius for proj-oper                               
   RAUG   =    1.300    factor for augmentation sphere                          
   RDEP   =    1.501    radius for radial grids                                 
   RDEPT  =    1.300    core radius for aug-charge                              
                                                                                
   Atomic configuration                                                         
    4 entries                                                                   
     n  l   j            E        occ.                                          
     1  0  0.50      -273.3789   2.0000                                         
     2  0  0.50       -13.7508   2.0000                                         
     2  1  0.50        -5.2854   2.0000                                         
     3  2  1.50        -5.4423   0.0000                                         
   Description                                                                  
     l       E           TYP  RCUT    TYP  RCUT                                 
     0    -13.7508457     23  1.200                                             
     0     95.2407820     23  1.200                                             
     1     -5.2854382     23  1.500                                             
     1    108.8466080     23  1.500                                             
     2     -5.4423304      7  1.500                                             
  local pseudopotential read in
  kinetic energy density of atom read in
  atomic valenz-charges read in
  non local Contribution for L=           0  read in
    real space projection operators read in
  non local Contribution for L=           0  read in
    real space projection operators read in
  non local Contribution for L=           1  read in
    real space projection operators read in
  non local Contribution for L=           1  read in
    real space projection operators read in
    PAW grid and wavefunctions read in

   number of l-projection  operators is LMAX  =           4
   number of lm-projection operators is LMMAX =           8

 POTCAR:    PAW S_GW 19Mar2012                    
   VRHFIN =S : s2p4                                                             
   LEXCH  = PE                                                                  
   EATOM  =   276.8230 eV,   20.3459 Ry                                         
                                                                                
   TITEL  = PAW S_GW 19Mar2012                                                  
   LULTRA =        F    use ultrasoft PP ?                                      
   IUNSCR =        1    unscreen: 0-lin 1-nonlin 2-no                           
   RPACOR =    1.400    partial core radius                                     
   POMASS =   32.066; ZVAL   =    6.000    mass and valenz                      
   RCORE  =    1.900    outmost cutoff radius                                   
   RWIGS  =    1.900; RWIGS  =    1.005    wigner-seitz radius (au A)           
   ENMAX  =  258.689; ENMIN  =  194.016 eV                                      
   ICORE  =        3    local potential                                         
   LCOR   =        T    correct aug charges                                     
   LPAW   =        T    paw PP                                                  
   EAUG   =  488.319                                                            
   DEXC   =    0.000                                                            
   RMAX   =    1.942    core radius for proj-oper                               
   RAUG   =    1.300    factor for augmentation sphere                          
   RDEP   =    1.954    radius for radial grids                                 
   RDEPT  =    1.900    core radius for aug-charge                              
                                                                                
   Atomic configuration                                                         
    7 entries                                                                   
     n  l   j            E        occ.                                          
     1  0  0.50     -2405.8406   2.0000                                         
     2  0  0.50      -211.7007   2.0000                                         
     2  1  1.50      -156.4958   6.0000                                         
     3  0  0.50       -17.2562   2.0000                                         
     3  1  0.50        -7.0085   4.0000                                         
     3  2  1.50        -8.1635   0.0000                                         
     4  3  2.50        -1.3606   0.0000                                         
   Description                                                                  
     l       E           TYP  RCUT    TYP  RCUT                                 
     0    -17.2561639     23  1.700                                             
     0     88.4378690     23  1.900                                             
     1     -7.0085399     23  1.900                                             
     1     88.4378690     23  1.900                                             
     2    -10.8846608     23  1.900                                             
     2     54.4233040     23  1.900                                             
     3     27.2116520     23  1.800                                             
  local pseudopotential read in
  partial core-charges read in
  partial kinetic energy density read in
  kinetic energy density of atom read in
  atomic valenz-charges read in
  non local Contribution for L=           0  read in
    real space projection operators read in
  non local Contribution for L=           0  read in
    real space projection operators read in
  non local Contribution for L=           1  read in
    real space projection operators read in
  non local Contribution for L=           1  read in
    real space projection operators read in
  non local Contribution for L=           2  read in
    real space projection operators read in
  non local Contribution for L=           2  read in
    real space projection operators read in
    PAW grid and wavefunctions read in

   number of l-projection  operators is LMAX  =           6
   number of lm-projection operators is LMMAX =          18

 POTCAR:    PAW H_GW 21Apr2008                    
   VRHFIN =H: ultrasoft test                                                    
   LEXCH  = PE                                                                  
   EATOM  =    12.4884 eV,    0.9179 Ry                                         
                                                                                
   TITEL  = PAW H_GW 21Apr2008                                                  
   LULTRA =        F    use ultrasoft PP ?                                      
   IUNSCR =        0    unscreen: 0-lin 1-nonlin 2-no                           
   RPACOR =    0.000    partial core radius                                     
   POMASS =    1.000; ZVAL   =    1.000    mass and valenz                      
   RCORE  =    1.100    outmost cutoff radius                                   
   RWIGS  =    1.100; RWIGS  =    0.582    wigner-seitz radius (au A)           
   ENMAX  =  300.000; ENMIN  =  250.000 eV                                      
   RCLOC  =    0.701    cutoff for local pot                                    
   LCOR   =        T    correct aug charges                                     
   LPAW   =        T    paw PP                                                  
   EAUG   =  500.000                                                            
   RMAX   =    1.123    core radius for proj-oper                               
   RAUG   =    1.200    factor for augmentation sphere                          
   RDEP   =    1.112    radius for radial grids                                 
   RDEPT  =    1.100    core radius for aug-charge                              
                                                                                
   Atomic configuration                                                         
    3 entries                                                                   
     n  l   j            E        occ.                                          
     1  0  0.50        -6.4927   1.0000                                         
     2  1  0.50        -3.4015   0.0000                                         
     3  2  1.50        13.6058   0.0000                                         
   Description                                                                  
     l       E           TYP  RCUT    TYP  RCUT                                 
     0     -6.4927495     23  0.950                                             
     0      6.8029130     23  0.950                                             
     1     -4.0817478     23  1.100                                             
     1    108.8466080     23  1.100                                             
     2     81.6349560     23  1.100                                             
  local pseudopotential read in
  kinetic energy density of atom read in
  atomic valenz-charges read in
  non local Contribution for L=           0  read in
    real space projection operators read in
  non local Contribution for L=           0  read in
    real space projection operators read in
  non local Contribution for L=           1  read in
    real space projection operators read in
  non local Contribution for L=           1  read in
    real space projection operators read in
  non local Contribution for L=           2  read in
    real space projection operators read in
    PAW grid and wavefunctions read in

   number of l-projection  operators is LMAX  =           5
   number of lm-projection operators is LMMAX =          13

 Optimization of the real space projectors (new method)

 maximal supplied QI-value         = 18.90
 optimisation between [QCUT,QGAM] = [ 10.77, 21.73] = [ 32.49,132.25] Ry 
 Optimized for a Real-space Cutoff    1.60 Angstroem

   l    n(q)    QCUT    max X(q) W(low)/X(q) W(high)/X(q)  e(spline) 
   0     10    10.771    11.519    0.58E-04    0.59E-05    0.18E-06
   0     10    10.771     5.834    0.29E-04    0.42E-05    0.15E-06
   1     10    10.771    10.132    0.17E-04    0.63E-04    0.28E-06
   1     10    10.771     3.004    0.11E-04    0.44E-04    0.22E-06
   2      9    10.771     3.188    0.19E-03    0.85E-04    0.37E-06
   2      9    10.771     1.607    0.20E-04    0.14E-04    0.40E-06
 Optimization of the real space projectors (new method)

 maximal supplied QI-value         = 25.13
 optimisation between [QCUT,QGAM] = [ 10.81, 21.61] = [ 32.71,130.83] Ry 
 Optimized for a Real-space Cutoff    1.26 Angstroem

   l    n(q)    QCUT    max X(q) W(low)/X(q) W(high)/X(q)  e(spline) 
   0      8    10.807     6.744    0.14E-03    0.25E-03    0.15E-06
   0      8    10.807     2.789    0.17E-03    0.34E-03    0.18E-06
   1      8    10.807     2.977    0.14E-03    0.97E-04    0.55E-07
   1      8    10.807     2.397    0.19E-03    0.70E-04    0.28E-06
 Optimization of the real space projectors (new method)

 maximal supplied QI-value         = 19.84
 optimisation between [QCUT,QGAM] = [ 10.71, 21.63] = [ 32.15,130.99] Ry 
 Optimized for a Real-space Cutoff    1.42 Angstroem

   l    n(q)    QCUT    max X(q) W(low)/X(q) W(high)/X(q)  e(spline) 
   0      9    10.715     7.541    0.42E-04    0.39E-04    0.94E-07
   0      9    10.715     1.809    0.83E-04    0.74E-04    0.19E-06
   1      9    10.715     4.107    0.97E-05    0.62E-05    0.11E-06
   1      9    10.715     2.196    0.54E-05    0.24E-04    0.19E-06
   2      8    10.715     4.265    0.10E-03    0.23E-03    0.57E-06
   2      8    10.715     1.925    0.93E-04    0.18E-04    0.42E-06
 Optimization of the real space projectors (new method)

 maximal supplied QI-value         = 34.20
 optimisation between [QCUT,QGAM] = [ 10.60, 21.55] = [ 31.48,130.03] Ry 
 Optimized for a Real-space Cutoff    1.51 Angstroem

   l    n(q)    QCUT    max X(q) W(low)/X(q) W(high)/X(q)  e(spline) 
   0     10    10.603    26.161    0.94E-04    0.78E-04    0.97E-06
   0     10    10.603    15.773    0.86E-04    0.75E-04    0.95E-06
   1      9    10.603     3.022    0.64E-04    0.17E-03    0.10E-05
   1      9    10.603     2.445    0.31E-04    0.10E-03    0.83E-06
   2      9    10.603     6.097    0.15E-03    0.49E-03    0.94E-06
  PAW Al_GW 19Mar2012                   :
 energy of atom  1       EATOM=  -53.5387
 kinetic energy error for atom=    0.0004 (will be added to EATOM!!)
  PAW C_GW 28Sep2005                    :
 energy of atom  2       EATOM= -147.1560
 kinetic energy error for atom=    0.0116 (will be added to EATOM!!)
  PAW S_GW 19Mar2012                    :
 energy of atom  3       EATOM= -276.8230
 kinetic energy error for atom=    0.0041 (will be added to EATOM!!)
  PAW H_GW 21Apr2008                    :
 energy of atom  4       EATOM=  -12.4884
 kinetic energy error for atom=    0.0187 (will be added to EATOM!!)


 POSCAR: Al   C    S    H                        
  positions in direct lattice
  velocities in cartesian coordinates
 exchange correlation table for  LEXCH =        8
   RHO(1)=    0.500       N(1)  =     2000
   RHO(2)=  100.500       N(2)  =     4000

 VTST: version 3.2, (02/03/18)

 CHAIN: initializing optimizer
 
 OPT: Using VASP QUASI-newton optimizer
 CHAIN: Read ICHAIN            0
 CHAIN: Running the NEB
 NEB:          SPRING     -5.000000
 NEB:          LCLIMB      F
 NEB:     LTANGENTOLD      F
 NEB:           LDNEB      F
 NEB:        LDNEBORG      F
 NEB:        LNEBCELL      F
 NEB:          EFIRST      0.000000
 NEB:           ELAST      0.000000

 POSCAR: Al   C    S    H                        
  positions in direct lattice
  No initial velocities read in

 POSCAR: Al   C    S    H                        
  positions in direct lattice
  No initial velocities read in



--------------------------------------------------------------------------------------------------------


 ion  position               nearest neighbor table
   1  0.411  0.872  0.245-   9 1.96  10 1.97   7 2.49
   2  0.912  0.874  0.249-   9 1.95  10 1.96   8 2.47
   3  0.423  0.623  0.291-  12 2.03  11 2.09  13 2.34
   4  0.893  0.623  0.283-  12 1.99  11 2.08
   5  0.415  0.374  0.253-  12 1.92  11 2.07
   6  0.901  0.373  0.254-  12 1.92  11 2.06
   7  0.412  0.117  0.238-  10 1.94   9 1.94   1 2.49
   8  0.911  0.117  0.236-  10 1.94   9 1.94   2 2.47
   9  0.162  0.996  0.242-   7 1.94   8 1.94   2 1.95   1 1.96
  10  0.661  0.995  0.236-   7 1.94   8 1.94   2 1.96   1 1.97
  11  0.156  0.491  0.298-  15 1.12   6 2.06   5 2.07   4 2.08   3 2.09
  12  0.659  0.496  0.246-   5 1.92   6 1.92   4 1.99   3 2.03
  13  0.596  0.637  0.431-  14 1.36   3 2.34
  14  0.515  0.754  0.461-  13 1.36
  15  0.157  0.466  0.370-  11 1.12


IMPORTANT INFORMATION: All symmetrisations will be switched off!
NOSYMM: (Re-)initialisation of all symmetry stuff for point group C_1.



 KPOINTS: Automatic mesh                          

Automatic generation of k-mesh.
Space group operators:
 irot       det(A)        alpha          n_x          n_y          n_z        tau_x        tau_y        tau_z
    1     1.000000     0.000000     1.000000     0.000000     0.000000     0.000000     0.000000     0.000000
 
 Subroutine IBZKPT returns following result:
 ===========================================
 
 Found      8 irreducible k-points:
 
 Following reciprocal coordinates:
            Coordinates               Weight
  0.000000  0.000000  0.000000      1.000000
  0.200000  0.000000  0.000000      2.000000
  0.400000  0.000000  0.000000      2.000000
  0.000000  0.333333  0.000000      2.000000
  0.200000  0.333333  0.000000      2.000000
  0.400000  0.333333  0.000000      2.000000
 -0.400000  0.333333  0.000000      2.000000
 -0.200000  0.333333  0.000000      2.000000
 
 Following cartesian coordinates:
            Coordinates               Weight
  0.000000  0.000000  0.000000      1.000000
  0.033227  0.000000  0.000000      2.000000
  0.066454  0.000000  0.000000      2.000000
  0.000000  0.032873  0.000000      2.000000
  0.033227  0.032873  0.000000      2.000000
  0.066454  0.032873  0.000000      2.000000
 -0.066454  0.032873  0.000000      2.000000
 -0.033227  0.032873  0.000000      2.000000
 


--------------------------------------------------------------------------------------------------------




 Dimension of arrays:
   k-points           NKPTS =      8   k-points in BZ     NKDIM =      8   number of bands    NBANDS=     32
   number of dos      NEDOS =    301   number of ions     NIONS =     15
   non local maximal  LDIM  =      6   non local SUM 2l+1 LMDIM =     18
   total plane-waves  NPLWV = 317520
   max r-space proj   IRMAX =   6009   max aug-charges    IRDMAX=  13696
   dimension x,y,z NGX =    42 NGY =   70 NGZ =  108
   dimension x,y,z NGXF=    84 NGYF=  140 NGZF=  216
   support grid    NGXF=    84 NGYF=  140 NGZF=  216
   ions per type =               8   4   1   2
   NGX,Y,Z   is equivalent  to a cutoff of  11.60, 11.48, 11.97 a.u.
   NGXF,Y,Z  is equivalent  to a cutoff of  23.20, 22.95, 23.94 a.u.

 SYSTEM =  Al2C                                    
 POSCAR =  Al   C    S    H                        

 Startparameter for this run:
   NWRITE =      2    write-flag & timer
   PREC   = accura    normal or accurate (medium, high low for compatibility)
   ISTART =      0    job   : 0-new  1-cont  2-samecut
   ICHARG =      2    charge: 1-file 2-atom 10-const
   ISPIN  =      1    spin polarized calculation?
   LNONCOLLINEAR =      F non collinear calculations
   LSORBIT =      F    spin-orbit coupling
   INIWAV =      1    electr: 0-lowe 1-rand  2-diag
   LASPH  =      F    aspherical Exc in radial PAW
   METAGGA=      F    non-selfconsistent MetaGGA calc.

 Electronic Relaxation 1
   ENCUT  =  450.0 eV  33.07 Ry    5.75 a.u.  10.41 17.54 25.95*2*pi/ulx,y,z
   ENINI  =  450.0     initial cutoff
   ENAUG  =  644.9 eV  augmentation charge cutoff
   NELM   =    300;   NELMIN=  2; NELMDL= -7     # of ELM steps 
   EDIFF  = 0.1E-05   stopping-criterion for ELM
   LREAL  =      T    real-space projection
   NLSPLINE    = F    spline interpolate recip. space projectors
   LCOMPAT=      F    compatible to vasp.4.4
   GGA_COMPAT  = T    GGA compatible to vasp.4.4-vasp.4.6
   LMAXPAW     = -100 max onsite density
   LMAXMIX     =    2 max onsite mixed and CHGCAR
   VOSKOWN=      0    Vosko Wilk Nusair interpolation
   ROPT   =   -0.00020  -0.00020  -0.00020  -0.00020
 Ionic relaxation
   EDIFFG = -.1E-01   stopping-criterion for IOM
   NSW    =    999    number of steps for IOM
   NBLOCK =      1;   KBLOCK =    999    inner block; outer block 
   IBRION =      1    ionic relax: 0-MD 1-quasi-New 2-CG
   NFREE  =      0    steps in history (QN), initial steepest desc. (CG)
   ISIF   =      2    stress and relaxation
   IWAVPR =     11    prediction:  0-non 1-charg 2-wave 3-comb
   ISYM   =      0    0-nonsym 1-usesym 2-fastsym
   LCORR  =      T    Harris-Foulkes like correction to forces

   POTIM  = 0.3500    time-step for ionic-motion
   TEIN   =    0.0    initial temperature
   TEBEG  =    0.0;   TEEND  =   0.0 temperature during run
   SMASS  =  -3.00    Nose mass-parameter (am)
   estimated Nose-frequenzy (Omega)   =  0.10E-29 period in steps =****** mass=  -0.828E-27a.u.
   SCALEE = 1.0000    scale energy and forces
   NPACO  =    256;   APACO  = 16.0  distance and # of slots for P.C.
   PSTRESS=    0.0 pullay stress

  Mass of Ions in am
   POMASS =  26.98 12.01 32.07  1.00
  Ionic Valenz
   ZVAL   =   3.00  4.00  6.00  1.00
  Atomic Wigner-Seitz radii
   RWIGS  =  -1.00 -1.00 -1.00 -1.00
  virtual crystal weights 
   VCA    =   1.00  1.00  1.00  1.00
   NELECT =      48.0000    total number of electrons
   NUPDOWN=      -1.0000    fix difference up-down

 DOS related values:
   EMIN   =  10.00;   EMAX   =-10.00  energy-range for DOS
   EFERMI =   0.00
   ISMEAR =     0;   SIGMA  =   0.05  broadening in eV -4-tet -1-fermi 0-gaus

 Electronic relaxation 2 (details)
   IALGO  =     38    algorithm
   LDIAG  =      T    sub-space diagonalisation (order eigenvalues)
   LSUBROT=      F    optimize rotation matrix (better conditioning)
   TURBO    =      0    0=normal 1=particle mesh
   IRESTART =      0    0=no restart 2=restart with 2 vectors
   NREBOOT  =      0    no. of reboots
   NMIN     =      0    reboot dimension
   EREF     =   0.00    reference energy to select bands
   IMIX   =      4    mixing-type and parameters
     AMIX     =   0.40;   BMIX     =  1.00
     AMIX_MAG =   1.60;   BMIX_MAG =  1.00
     AMIN     =   0.10
     WC   =   100.;   INIMIX=   1;  MIXPRE=   1;  MAXMIX= -45

 Intra band minimization:
   WEIMIN = 0.0010     energy-eigenvalue tresh-hold
   EBREAK =  0.78E-08  absolut break condition
   DEPER  =   0.30     relativ break condition  

   TIME   =   0.40     timestep for ELM

  volume/ion in A,a.u.               =      61.03       411.88
  Fermi-wavevector in a.u.,A,eV,Ry     =   0.612725  1.157883  5.108069  0.375432
  Thomas-Fermi vector in A             =   1.669117

 Write flags
   LWAVE        =      F    write WAVECAR
   LDOWNSAMPLE  =      F    k-point downsampling of WAVECAR
   LCHARG       =      F    write CHGCAR
   LVTOT        =      F    write LOCPOT, total local potential
   LVHAR        =      F    write LOCPOT, Hartree potential only
   LELF         =      F    write electronic localiz. function (ELF)
   LORBIT       =      0    0 simple, 1 ext, 2 COOP (PROOUT), +10 PAW based schemes


 Dipole corrections
   LMONO  =      F    monopole corrections only (constant potential shift)
   LDIPOL =      F    correct potential (dipole corrections)
   IDIPOL =      0    1-x, 2-y, 3-z, 4-all directions 
   EPSILON=  1.0000000 bulk dielectric constant

 Exchange correlation treatment:
   GGA     =    PE    GGA type
   LEXCH   =     8    internal setting for exchange type
   VOSKOWN=      0    Vosko Wilk Nusair interpolation
   LHFCALC =     F    Hartree Fock is set to
   LHFONE  =     F    Hartree Fock one center treatment
   AEXX    =    0.0000 exact exchange contribution

 Linear response parameters
   LEPSILON=     F    determine dielectric tensor
   LRPA    =     F    only Hartree local field effects (RPA)
   LNABLA  =     F    use nabla operator in PAW spheres
   LVEL    =     F    velocity operator in full k-point grid
   LINTERFAST=   F  fast interpolation
   KINTER  =     0    interpolate to denser k-point grid
   CSHIFT  =0.1000    complex shift for real part using Kramers Kronig
   OMEGAMAX=  -1.0    maximum frequency
   DEG_THRESHOLD= 0.2000000E-02 threshold for treating states as degnerate
   RTIME   =   -0.100 relaxation time in fs
  (WPLASMAI=    0.000 imaginary part of plasma frequency in eV, 0.658/RTIME)
   DFIELD  = 0.0000000 0.0000000 0.0000000 field for delta impulse in time

 Orbital magnetization related:
   ORBITALMAG=     F  switch on orbital magnetization
   LCHIMAG   =     F  perturbation theory with respect to B field
   DQ        =  0.001000  dq finite difference perturbation B field
   LLRAUG    =     F  two centre corrections for induced B field



--------------------------------------------------------------------------------------------------------


 quasi-Newton-method for relaxation of ions
   using selective dynamics as specified on POSCAR
 charge density and potential will be updated during run
 non-spin polarized calculation
 Variant of blocked Davidson
 Davidson routine will perform the subspace rotation
 perform sub-space diagonalisation
    after iterative eigenvector-optimisation
 modified Broyden-mixing scheme, WC =      100.0
 initial mixing is a Kerker type mixing with AMIX =  0.4000 and BMIX =      1.0000
 Hartree-type preconditioning will be used
 using additional bands            8
 real space projection scheme for non local part
 use partial core corrections
 calculate Harris-corrections to forces   (improved forces if not selfconsistent)
 use gradient corrections 
 use of overlap-Matrix (Vanderbilt PP)
 Gauss-broadening in eV      SIGMA  =   0.05


--------------------------------------------------------------------------------------------------------


  energy-cutoff  :      450.00
  volume of cell :      915.52
      direct lattice vectors                 reciprocal lattice vectors
     6.019200000  0.000000000  0.000000000     0.166135035  0.000000000  0.000000000
     0.000000000 10.140000000  0.000000000     0.000000000  0.098619329  0.000000000
     0.000000000  0.000000000 15.000000000     0.000000000  0.000000000  0.066666667

  length of vectors
     6.019200000 10.140000000 15.000000000     0.166135035  0.098619329  0.066666667



 k-points in units of 2pi/SCALE and weight: Automatic mesh                          
   0.00000000  0.00000000  0.00000000       0.067
   0.03322701  0.00000000  0.00000000       0.133
   0.06645401  0.00000000  0.00000000       0.133
   0.00000000  0.03287311  0.00000000       0.133
   0.03322701  0.03287311  0.00000000       0.133
   0.06645401  0.03287311  0.00000000       0.133
  -0.06645401  0.03287311  0.00000000       0.133
  -0.03322701  0.03287311  0.00000000       0.133

 k-points in reciprocal lattice and weights: Automatic mesh                          
   0.00000000  0.00000000  0.00000000       0.067
   0.20000000  0.00000000  0.00000000       0.133
   0.40000000  0.00000000  0.00000000       0.133
   0.00000000  0.33333333  0.00000000       0.133
   0.20000000  0.33333333  0.00000000       0.133
   0.40000000  0.33333333  0.00000000       0.133
  -0.40000000  0.33333333  0.00000000       0.133
  -0.20000000  0.33333333  0.00000000       0.133

 position of ions in fractional coordinates (direct lattice) 
   0.41070068  0.87167498  0.24480608
   0.91156663  0.87393562  0.24923351
   0.42337584  0.62274809  0.29133297
   0.89326167  0.62250321  0.28314164
   0.41478783  0.37426413  0.25251399
   0.90132735  0.37257387  0.25368586
   0.41224236  0.11657958  0.23793056
   0.91087099  0.11678178  0.23577335
   0.16150706  0.99639718  0.24216821
   0.66132351  0.99539554  0.23587116
   0.15631634  0.49139544  0.29811861
   0.65911788  0.49585591  0.24621485
   0.59579014  0.63738270  0.43070826
   0.51504042  0.75439709  0.46128264
   0.15741822  0.46586397  0.37047842

 position of ions in cartesian coordinates  (Angst):
   2.47208953  8.83878433  3.67209125
   5.48690188  8.86170715  3.73850265
   2.54838388  6.31466565  4.36999448
   5.37672064  6.31218254  4.24712456
   2.49669091  3.79503829  3.78770991
   5.42526958  3.77789906  3.80528793
   2.48136922  1.18211694  3.56895839
   5.48271465  1.18416724  3.53660021
   0.97214332 10.10346744  3.63252312
   3.98063845 10.09331077  3.53806744
   0.94089932  4.98274975  4.47177922
   3.96736234  5.02797889  3.69322271
   3.58618003  6.46306055  6.46062390
   3.10013132  7.64958646  6.91923960
   0.94753172  4.72386067  5.55717629



--------------------------------------------------------------------------------------------------------


 k-point  1 :   0.0000 0.0000 0.0000  plane waves:   19845
 k-point  2 :   0.2000 0.0000 0.0000  plane waves:   19863
 k-point  3 :   0.4000 0.0000 0.0000  plane waves:   19851
 k-point  4 :   0.0000 0.3333 0.0000  plane waves:   19883
 k-point  5 :   0.2000 0.3333 0.0000  plane waves:   19830
 k-point  6 :   0.4000 0.3333 0.0000  plane waves:   19821
 k-point  7 :  -0.4000 0.3333 0.0000  plane waves:   19821
 k-point  8 :  -0.2000 0.3333 0.0000  plane waves:   19830

 maximum and minimum number of plane-waves per node :     19883    19821

 maximum number of plane-waves:     19883
 maximum index in each direction: 
   IXMAX=   10   IYMAX=   17   IZMAX=   25
   IXMIN=  -10   IYMIN=  -17   IZMIN=  -25


 serial   3D FFT for wavefunctions
 parallel 3D FFT for charge:
    minimum data exchange during FFTs selected (reduces bandwidth)


 total amount of memory used by VASP MPI-rank0   231905. kBytes
=======================================================================

   base      :      30000. kBytes
   nonlr-proj:      11401. kBytes
   fftplans  :      44247. kBytes
   grid      :     104852. kBytes
   one-center:        233. kBytes
   wavefun   :      41172. kBytes

     INWAV:  cpu time    0.0001: real time    0.0008
 Broyden mixing: mesh for mixing (old mesh)
   NGX = 21   NGY = 35   NGZ = 51
  (NGX  = 84   NGY  =140   NGZ  =216)
  gives a total of  37485 points

 initial charge density was supplied:
 charge density of overlapping atoms calculated
 number of electron      48.0000000 magnetization 
 keeping initial charge density in first step


--------------------------------------------------------------------------------------------------------


 Maximum index for non-local projection operator         5791
 Maximum index for augmentation-charges         6556 (set IRDMAX)


--------------------------------------------------------------------------------------------------------


 First call to EWALD:  gamma=   0.183
 Maximum number of real-space cells 4x 3x 2
 Maximum number of reciprocal cells 2x 3x 4

    FEWALD:  cpu time    0.0037: real time    0.0037


--------------------------------------- Iteration      1(   1)  ---------------------------------------


    POTLOK:  cpu time    2.0046: real time    2.0076
    SETDIJ:  cpu time    0.0510: real time    0.0510
     EDDAV:  cpu time   29.6143: real time   29.6142
       DOS:  cpu time    0.0008: real time    0.0008
    --------------------------------------------
      LOOP:  cpu time   31.6707: real time   31.6737

 eigenvalue-minimisations  :   512
 total energy-change (2. order) : 0.3048115E+03  (-0.1342475E+04)
 number of electron      48.0000000 magnetization 
 augmentation part       48.0000000 magnetization 

 Free energy of the ion-electron system (eV)
  ---------------------------------------------------
  alpha Z        PSCENC =        14.13034224
  Ewald energy   TEWEN  =      1569.43142387
  -Hartree energ DENC   =     -2582.38304688
  -exchange      EXHF   =         0.00000000
  -V(xc)+E(xc)   XCENC  =      -148.36414306
  PAW double counting   =      1187.55623386     -928.91038649
  entropy T*S    EENTRO =        -0.01163931
  eigenvalues    EBANDS =      -125.27922683
  atomic energy  EATOM  =      1318.64189276
  Solvation  Ediel_sol  =         0.00000000
  ---------------------------------------------------
  free energy    TOTEN  =       304.81145016 eV

  energy without entropy =      304.82308947  energy(sigma->0) =      304.81726981


--------------------------------------------------------------------------------------------------------




--------------------------------------- Iteration      1(   2)  ---------------------------------------


     EDDAV:  cpu time   40.1967: real time   40.1970
       DOS:  cpu time    0.0007: real time    0.0007
    --------------------------------------------
      LOOP:  cpu time   40.1974: real time   40.1977

 eigenvalue-minimisations  :   744
 total energy-change (2. order) :-0.3110962E+03  (-0.2949806E+03)
 number of electron      48.0000000 magnetization 
 augmentation part       48.0000000 magnetization 

 Free energy of the ion-electron system (eV)
  ---------------------------------------------------
  alpha Z        PSCENC =        14.13034224
  Ewald energy   TEWEN  =      1569.43142387
  -Hartree energ DENC   =     -2582.38304688
  -exchange      EXHF   =         0.00000000
  -V(xc)+E(xc)   XCENC  =      -148.36414306
  PAW double counting   =      1187.55623386     -928.91038649
  entropy T*S    EENTRO =        -0.00000350
  eigenvalues    EBANDS =      -436.38702161
  atomic energy  EATOM  =      1318.64189276
  Solvation  Ediel_sol  =         0.00000000
  ---------------------------------------------------
  free energy    TOTEN  =        -6.28470881 eV

  energy without entropy =       -6.28470531  energy(sigma->0) =       -6.28470706


--------------------------------------------------------------------------------------------------------




--------------------------------------- Iteration      1(   3)  ---------------------------------------


     EDDAV:  cpu time   44.1902: real time   44.2232
       DOS:  cpu time    0.0008: real time    0.0008
    --------------------------------------------
      LOOP:  cpu time   44.1910: real time   44.2240

 eigenvalue-minimisations  :   832
 total energy-change (2. order) :-0.8144962E+02  (-0.8014976E+02)
 number of electron      48.0000000 magnetization 
 augmentation part       48.0000000 magnetization 

 Free energy of the ion-electron system (eV)
  ---------------------------------------------------
  alpha Z        PSCENC =        14.13034224
  Ewald energy   TEWEN  =      1569.43142387
  -Hartree energ DENC   =     -2582.38304688
  -exchange      EXHF   =         0.00000000
  -V(xc)+E(xc)   XCENC  =      -148.36414306
  PAW double counting   =      1187.55623386     -928.91038649
  entropy T*S    EENTRO =        -0.00000000
  eigenvalues    EBANDS =      -517.83664351
  atomic energy  EATOM  =      1318.64189276
  Solvation  Ediel_sol  =         0.00000000
  ---------------------------------------------------
  free energy    TOTEN  =       -87.73432721 eV

  energy without entropy =      -87.73432721  energy(sigma->0) =      -87.73432721


--------------------------------------------------------------------------------------------------------




--------------------------------------- Iteration      1(   4)  ---------------------------------------


     EDDAV:  cpu time   37.6043: real time   37.6767
       DOS:  cpu time    0.0005: real time    0.0005
    --------------------------------------------
      LOOP:  cpu time   37.6048: real time   37.6773

 eigenvalue-minimisations  :   688
 total energy-change (2. order) :-0.3184497E+01  (-0.3175532E+01)
 number of electron      48.0000000 magnetization 
 augmentation part       48.0000000 magnetization 

 Free energy of the ion-electron system (eV)
  ---------------------------------------------------
  alpha Z        PSCENC =        14.13034224
  Ewald energy   TEWEN  =      1569.43142387
  -Hartree energ DENC   =     -2582.38304688
  -exchange      EXHF   =         0.00000000
  -V(xc)+E(xc)   XCENC  =      -148.36414306
  PAW double counting   =      1187.55623386     -928.91038649
  entropy T*S    EENTRO =        -0.00000000
  eigenvalues    EBANDS =      -521.02114054
  atomic energy  EATOM  =      1318.64189276
  Solvation  Ediel_sol  =         0.00000000
  ---------------------------------------------------
  free energy    TOTEN  =       -90.91882424 eV

  energy without entropy =      -90.91882424  energy(sigma->0) =      -90.91882424


--------------------------------------------------------------------------------------------------------




--------------------------------------- Iteration      1(   5)  ---------------------------------------


     EDDAV:  cpu time   44.6785: real time   44.7471
       DOS:  cpu time    0.0006: real time    0.0006
    --------------------------------------------
      LOOP:  cpu time   44.6791: real time   44.7478

 eigenvalue-minimisations  :   840
 total energy-change (2. order) :-0.1441388E+00  (-0.1440959E+00)
 number of electron      48.0000000 magnetization 
 augmentation part       48.0000000 magnetization 

 Free energy of the ion-electron system (eV)
  ---------------------------------------------------
  alpha Z        PSCENC =        14.13034224
  Ewald energy   TEWEN  =      1569.43142387
  -Hartree energ DENC   =     -2582.38304688
  -exchange      EXHF   =         0.00000000
  -V(xc)+E(xc)   XCENC  =      -148.36414306
  PAW double counting   =      1187.55623386     -928.91038649
  entropy T*S    EENTRO =        -0.00000000
  eigenvalues    EBANDS =      -521.16527930
  atomic energy  EATOM  =      1318.64189276
  Solvation  Ediel_sol  =         0.00000000
  ---------------------------------------------------
  free energy    TOTEN  =       -91.06296300 eV

  energy without entropy =      -91.06296300  energy(sigma->0) =      -91.06296300


--------------------------------------------------------------------------------------------------------




--------------------------------------- Iteration      1(   6)  ---------------------------------------


     EDDAV:  cpu time   41.1441: real time   41.1438
       DOS:  cpu time    0.0004: real time    0.0004
    --------------------------------------------
      LOOP:  cpu time   41.1445: real time   41.1442

 eigenvalue-minimisations  :   760
 total energy-change (2. order) :-0.2179628E-02  (-0.2179212E-02)
 number of electron      48.0000000 magnetization 
 augmentation part       48.0000000 magnetization 

 Free energy of the ion-electron system (eV)
  ---------------------------------------------------
  alpha Z        PSCENC =        14.13034224
  Ewald energy   TEWEN  =      1569.43142387
  -Hartree energ DENC   =     -2582.38304688
  -exchange      EXHF   =         0.00000000
  -V(xc)+E(xc)   XCENC  =      -148.36414306
  PAW double counting   =      1187.55623386     -928.91038649
  entropy T*S    EENTRO =        -0.00000000
  eigenvalues    EBANDS =      -521.16745892
  atomic energy  EATOM  =      1318.64189276
  Solvation  Ediel_sol  =         0.00000000
  ---------------------------------------------------
  free energy    TOTEN  =       -91.06514263 eV

  energy without entropy =      -91.06514263  energy(sigma->0) =      -91.06514263


--------------------------------------------------------------------------------------------------------




--------------------------------------- Iteration      1(   7)  ---------------------------------------


     EDDAV:  cpu time   42.8960: real time   42.8971
       DOS:  cpu time    0.0006: real time    0.0006
    CHARGE:  cpu time    2.1124: real time    2.1124
    MIXING:  cpu time    0.0551: real time    0.0551
    --------------------------------------------
      LOOP:  cpu time   45.0642: real time   45.0653

 eigenvalue-minimisations  :   808
 total energy-change (2. order) :-0.1205232E-03  (-0.1205186E-03)
 number of electron      48.0000004 magnetization 
 augmentation part       -0.4095253 magnetization 

 Broyden mixing:
  rms(total) = 0.18544E+01    rms(broyden)= 0.18537E+01
  rms(prec ) = 0.24038E+01
  weight for this iteration     100.00

 Free energy of the ion-electron system (eV)
  ---------------------------------------------------
  alpha Z        PSCENC =        14.13034224
  Ewald energy   TEWEN  =      1569.43142387
  -Hartree energ DENC   =     -2582.38304688
  -exchange      EXHF   =         0.00000000
  -V(xc)+E(xc)   XCENC  =      -148.36414306
  PAW double counting   =      1187.55623386     -928.91038649
  entropy T*S    EENTRO =        -0.00000000
  eigenvalues    EBANDS =      -521.16757945
  atomic energy  EATOM  =      1318.64189276
  Solvation  Ediel_sol  =         0.00000000
  ---------------------------------------------------
  free energy    TOTEN  =       -91.06526315 eV

  energy without entropy =      -91.06526315  energy(sigma->0) =      -91.06526315


--------------------------------------------------------------------------------------------------------




--------------------------------------- Iteration      1(   8)  ---------------------------------------


    POTLOK:  cpu time    2.1705: real time    2.1706
    SETDIJ:  cpu time    0.0675: real time    0.0674
     EDDAV:  cpu time   34.5120: real time   34.5118
       DOS:  cpu time    0.0006: real time    0.0006
    CHARGE:  cpu time    2.1054: real time    2.1054
    MIXING:  cpu time    0.0601: real time    0.0601
    --------------------------------------------
      LOOP:  cpu time   38.9161: real time   38.9159

 eigenvalue-minimisations  :   616
 total energy-change (2. order) : 0.1725835E+02  (-0.7137880E+01)
 number of electron      48.0000002 magnetization 
 augmentation part       -0.7170123 magnetization 

 Broyden mixing:
  rms(total) = 0.55572E+00    rms(broyden)= 0.55523E+00
  rms(prec ) = 0.67443E+00
  weight for this iteration     100.00

 eigenvalues of (default mixing * dielectric matrix)
  average eigenvalue GAMMA=   0.9543
  0.9543

 Free energy of the ion-electron system (eV)
  ---------------------------------------------------
  alpha Z        PSCENC =        14.13034224
  Ewald energy   TEWEN  =      1569.43142387
  -Hartree energ DENC   =     -2674.83627695
  -exchange      EXHF   =         0.00000000
  -V(xc)+E(xc)   XCENC  =      -143.03801072
  PAW double counting   =      1531.49417356    -1273.85662779
  entropy T*S    EENTRO =        -0.00000000
  eigenvalues    EBANDS =      -415.77382666
  atomic energy  EATOM  =      1318.64189276
  Solvation  Ediel_sol  =         0.00000000
  ---------------------------------------------------
  free energy    TOTEN  =       -73.80690969 eV

  energy without entropy =      -73.80690969  energy(sigma->0) =      -73.80690969


--------------------------------------------------------------------------------------------------------




--------------------------------------- Iteration      1(   9)  ---------------------------------------


    POTLOK:  cpu time    2.1506: real time    2.1505
    SETDIJ:  cpu time    0.0702: real time    0.0702
     EDDAV:  cpu time   35.5970: real time   35.5966
       DOS:  cpu time    0.0009: real time    0.0009
    CHARGE:  cpu time    2.0787: real time    2.0786
    MIXING:  cpu time    0.0507: real time    0.0507
    --------------------------------------------
      LOOP:  cpu time   39.9480: real time   39.9475

 eigenvalue-minimisations  :   640
 total energy-change (2. order) : 0.2748778E+00  (-0.5416913E+00)
 number of electron      48.0000001 magnetization 
 augmentation part       -0.7470806 magnetization 

 Broyden mixing:
  rms(total) = 0.37670E+00    rms(broyden)= 0.37663E+00
  rms(prec ) = 0.45385E+00
  weight for this iteration     100.00

 eigenvalues of (default mixing * dielectric matrix)
  average eigenvalue GAMMA=   1.6780
  1.1127  2.2434

 Free energy of the ion-electron system (eV)
  ---------------------------------------------------
  alpha Z        PSCENC =        14.13034224
  Ewald energy   TEWEN  =      1569.43142387
  -Hartree energ DENC   =     -2694.44623791
  -exchange      EXHF   =         0.00000000
  -V(xc)+E(xc)   XCENC  =      -142.07755458
  PAW double counting   =      1633.31853437    -1375.77430323
  entropy T*S    EENTRO =        -0.00000000
  eigenvalues    EBANDS =      -396.75612945
  atomic energy  EATOM  =      1318.64189276
  Solvation  Ediel_sol  =         0.00000000
  ---------------------------------------------------
  free energy    TOTEN  =       -73.53203193 eV

  energy without entropy =      -73.53203193  energy(sigma->0) =      -73.53203193


--------------------------------------------------------------------------------------------------------




--------------------------------------- Iteration      1(  10)  ---------------------------------------


    POTLOK:  cpu time    2.1888: real time    2.1889
    SETDIJ:  cpu time    0.0652: real time    0.0652
     EDDAV:  cpu time   39.1813: real time   39.1812
       DOS:  cpu time    0.0006: real time    0.0006
    CHARGE:  cpu time    2.1156: real time    2.1156
    MIXING:  cpu time    0.0547: real time    0.0546
    --------------------------------------------
      LOOP:  cpu time   43.6062: real time   43.6061

 eigenvalue-minimisations  :   720
 total energy-change (2. order) : 0.5221613E+00  (-0.1416595E+00)
 number of electron      48.0000002 magnetization 
 augmentation part       -0.7248779 magnetization 

 Broyden mixing:
  rms(total) = 0.94894E-01    rms(broyden)= 0.94872E-01
  rms(prec ) = 0.14503E+00
  weight for this iteration     100.00

 eigenvalues of (default mixing * dielectric matrix)
  average eigenvalue GAMMA=   1.4177
  2.3688  1.0164  0.8679

 Free energy of the ion-electron system (eV)
  ---------------------------------------------------
  alpha Z        PSCENC =        14.13034224
  Ewald energy   TEWEN  =      1569.43142387
  -Hartree energ DENC   =     -2720.26191972
  -exchange      EXHF   =         0.00000000
  -V(xc)+E(xc)   XCENC  =      -140.91563947
  PAW double counting   =      1759.65162401    -1502.15151580
  entropy T*S    EENTRO =        -0.00000000
  eigenvalues    EBANDS =      -371.53607856
  atomic energy  EATOM  =      1318.64189276
  Solvation  Ediel_sol  =         0.00000000
  ---------------------------------------------------
  free energy    TOTEN  =       -73.00987067 eV

  energy without entropy =      -73.00987067  energy(sigma->0) =      -73.00987067


--------------------------------------------------------------------------------------------------------




--------------------------------------- Iteration      1(  11)  ---------------------------------------


    POTLOK:  cpu time    2.2001: real time    2.2001
    SETDIJ:  cpu time    0.0626: real time    0.0626
     EDDAV:  cpu time   40.6945: real time   40.6946
       DOS:  cpu time    0.0009: real time    0.0009
    CHARGE:  cpu time    2.1283: real time    2.1283
    MIXING:  cpu time    0.0548: real time    0.0548
    --------------------------------------------
      LOOP:  cpu time   45.1412: real time   45.1413

 eigenvalue-minimisations  :   752
 total energy-change (2. order) : 0.4916235E-01  (-0.1482514E-01)
 number of electron      48.0000002 magnetization 
 augmentation part       -0.7361987 magnetization 

 Broyden mixing:
  rms(total) = 0.47786E-01    rms(broyden)= 0.47776E-01
  rms(prec ) = 0.85012E-01
  weight for this iteration     100.00

 eigenvalues of (default mixing * dielectric matrix)
  average eigenvalue GAMMA=   1.4732
  2.3292  1.4157  1.0739  1.0739

 Free energy of the ion-electron system (eV)
  ---------------------------------------------------
  alpha Z        PSCENC =        14.13034224
  Ewald energy   TEWEN  =      1569.43142387
  -Hartree energ DENC   =     -2726.76208506
  -exchange      EXHF   =         0.00000000
  -V(xc)+E(xc)   XCENC  =      -140.65935387
  PAW double counting   =      1762.88960693    -1505.40129730
  entropy T*S    EENTRO =        -0.00000000
  eigenvalues    EBANDS =      -365.23123789
  atomic energy  EATOM  =      1318.64189276
  Solvation  Ediel_sol  =         0.00000000
  ---------------------------------------------------
  free energy    TOTEN  =       -72.96070833 eV

  energy without entropy =      -72.96070833  energy(sigma->0) =      -72.96070833


--------------------------------------------------------------------------------------------------------




--------------------------------------- Iteration      1(  12)  ---------------------------------------


    POTLOK:  cpu time    2.2355: real time    2.2355
    SETDIJ:  cpu time    0.0576: real time    0.0576
     EDDAV:  cpu time   39.7621: real time   39.8850
       DOS:  cpu time    0.0008: real time    0.0008
    CHARGE:  cpu time    2.1203: real time    2.1202
    MIXING:  cpu time    0.0563: real time    0.0563
    --------------------------------------------
      LOOP:  cpu time   44.2325: real time   44.3554

 eigenvalue-minimisations  :   736
 total energy-change (2. order) : 0.8804744E-02  (-0.1064794E-01)
 number of electron      48.0000002 magnetization 
 augmentation part       -0.7422393 magnetization 

 Broyden mixing:
  rms(total) = 0.32869E-01    rms(broyden)= 0.32853E-01
  rms(prec ) = 0.60655E-01
  weight for this iteration     100.00

 eigenvalues of (default mixing * dielectric matrix)
  average eigenvalue GAMMA=   1.3360
  2.3973  1.2113  0.8679  1.1017  1.1017

 Free energy of the ion-electron system (eV)
  ---------------------------------------------------
  alpha Z        PSCENC =        14.13034224
  Ewald energy   TEWEN  =      1569.43142387
  -Hartree energ DENC   =     -2732.90763554
  -exchange      EXHF   =         0.00000000
  -V(xc)+E(xc)   XCENC  =      -140.51816731
  PAW double counting   =      1753.65026486    -1496.14325739
  entropy T*S    EENTRO =        -0.00000000
  eigenvalues    EBANDS =      -359.23676706
  atomic energy  EATOM  =      1318.64189276
  Solvation  Ediel_sol  =         0.00000000
  ---------------------------------------------------
  free energy    TOTEN  =       -72.95190358 eV

  energy without entropy =      -72.95190358  energy(sigma->0) =      -72.95190358


--------------------------------------------------------------------------------------------------------




--------------------------------------- Iteration      1(  13)  ---------------------------------------


    POTLOK:  cpu time    2.2419: real time    2.2419
    SETDIJ:  cpu time    0.0679: real time    0.0679
     EDDAV:  cpu time   40.9859: real time   40.9857
       DOS:  cpu time    0.0011: real time    0.0011
    CHARGE:  cpu time    2.0818: real time    2.0959
    MIXING:  cpu time    0.0706: real time    0.0712
    --------------------------------------------
      LOOP:  cpu time   45.4494: real time   45.4637

 eigenvalue-minimisations  :   760
 total energy-change (2. order) : 0.5709070E-02  (-0.2038859E-02)
 number of electron      48.0000002 magnetization 
 augmentation part       -0.7409303 magnetization 

 Broyden mixing:
  rms(total) = 0.17213E-01    rms(broyden)= 0.17210E-01
  rms(prec ) = 0.43665E-01
  weight for this iteration     100.00

 eigenvalues of (default mixing * dielectric matrix)
  average eigenvalue GAMMA=   1.4955
  2.4556  2.4556  0.9981  0.9981  1.0328  1.0328

 Free energy of the ion-electron system (eV)
  ---------------------------------------------------
  alpha Z        PSCENC =        14.13034224
  Ewald energy   TEWEN  =      1569.43142387
  -Hartree energ DENC   =     -2735.46969503
  -exchange      EXHF   =         0.00000000
  -V(xc)+E(xc)   XCENC  =      -140.46829234
  PAW double counting   =      1751.95676630    -1494.44140900
  entropy T*S    EENTRO =        -0.00000000
  eigenvalues    EBANDS =      -356.72722331
  atomic energy  EATOM  =      1318.64189276
  Solvation  Ediel_sol  =         0.00000000
  ---------------------------------------------------
  free energy    TOTEN  =       -72.94619451 eV

  energy without entropy =      -72.94619451  energy(sigma->0) =      -72.94619451


--------------------------------------------------------------------------------------------------------




--------------------------------------- Iteration      1(  14)  ---------------------------------------


    POTLOK:  cpu time    2.2415: real time    2.2576
    SETDIJ:  cpu time    0.0642: real time    0.0647
     EDDAV:  cpu time   35.5194: real time   35.7159
       DOS:  cpu time    0.0005: real time    0.0005
    CHARGE:  cpu time    2.1051: real time    2.1051
    MIXING:  cpu time    0.0670: real time    0.0670
    --------------------------------------------
      LOOP:  cpu time   39.9976: real time   40.2107

 eigenvalue-minimisations  :   640
 total energy-change (2. order) : 0.6686475E-02  (-0.1978658E-02)
 number of electron      48.0000002 magnetization 
 augmentation part       -0.7406075 magnetization 

 Broyden mixing:
  rms(total) = 0.11347E-01    rms(broyden)= 0.11342E-01
  rms(prec ) = 0.24189E-01
  weight for this iteration     100.00

 eigenvalues of (default mixing * dielectric matrix)
  average eigenvalue GAMMA=   1.5150
  2.8883  2.6627  1.0253  1.0253  1.0816  1.0816  0.8401

 Free energy of the ion-electron system (eV)
  ---------------------------------------------------
  alpha Z        PSCENC =        14.13034224
  Ewald energy   TEWEN  =      1569.43142387
  -Hartree energ DENC   =     -2743.15546475
  -exchange      EXHF   =         0.00000000
  -V(xc)+E(xc)   XCENC  =      -140.31204760
  PAW double counting   =      1742.35905210    -1484.82415574
  entropy T*S    EENTRO =        -0.00000000
  eigenvalues    EBANDS =      -349.21055092
  atomic energy  EATOM  =      1318.64189276
  Solvation  Ediel_sol  =         0.00000000
  ---------------------------------------------------
  free energy    TOTEN  =       -72.93950804 eV

  energy without entropy =      -72.93950804  energy(sigma->0) =      -72.93950804


--------------------------------------------------------------------------------------------------------




--------------------------------------- Iteration      1(  15)  ---------------------------------------


    POTLOK:  cpu time    2.2161: real time    2.2162
    SETDIJ:  cpu time    0.0716: real time    0.0717
     EDDAV:  cpu time   39.5151: real time   39.6142
       DOS:  cpu time    0.0006: real time    0.0006
    CHARGE:  cpu time    2.1065: real time    2.1220
    MIXING:  cpu time    0.0535: real time    0.0538
    --------------------------------------------
      LOOP:  cpu time   43.9634: real time   44.0784

 eigenvalue-minimisations  :   728
 total energy-change (2. order) :-0.1185140E-02  (-0.3096440E-03)
 number of electron      48.0000002 magnetization 
 augmentation part       -0.7405951 magnetization 

 Broyden mixing:
  rms(total) = 0.79335E-02    rms(broyden)= 0.79320E-02
  rms(prec ) = 0.16892E-01
  weight for this iteration     100.00

 eigenvalues of (default mixing * dielectric matrix)
  average eigenvalue GAMMA=   1.6348
  3.6638  2.5268  1.7693  1.0164  1.0164  1.0977  1.0977  0.8907

 Free energy of the ion-electron system (eV)
  ---------------------------------------------------
  alpha Z        PSCENC =        14.13034224
  Ewald energy   TEWEN  =      1569.43142387
  -Hartree energ DENC   =     -2745.27524446
  -exchange      EXHF   =         0.00000000
  -V(xc)+E(xc)   XCENC  =      -140.29508941
  PAW double counting   =      1739.56257476    -1482.02092823
  entropy T*S    EENTRO =        -0.00000000
  eigenvalues    EBANDS =      -347.11566470
  atomic energy  EATOM  =      1318.64189276
  Solvation  Ediel_sol  =         0.00000000
  ---------------------------------------------------
  free energy    TOTEN  =       -72.94069318 eV

  energy without entropy =      -72.94069318  energy(sigma->0) =      -72.94069318


--------------------------------------------------------------------------------------------------------




--------------------------------------- Iteration      1(  16)  ---------------------------------------


    POTLOK:  cpu time    2.2257: real time    2.2417
    SETDIJ:  cpu time    0.0565: real time    0.0568
     EDDAV:  cpu time   37.5086: real time   37.7902
       DOS:  cpu time    0.0009: real time    0.0009
    CHARGE:  cpu time    2.1245: real time    2.1265
    MIXING:  cpu time    0.0565: real time    0.0565
    --------------------------------------------
      LOOP:  cpu time   41.9727: real time   42.2726

 eigenvalue-minimisations  :   688
 total energy-change (2. order) :-0.2685313E-02  (-0.2514103E-03)
 number of electron      48.0000002 magnetization 
 augmentation part       -0.7406935 magnetization 

 Broyden mixing:
  rms(total) = 0.63879E-02    rms(broyden)= 0.63866E-02
  rms(prec ) = 0.11453E-01
  weight for this iteration     100.00

 eigenvalues of (default mixing * dielectric matrix)
  average eigenvalue GAMMA=   1.7179
  4.3898  2.8112  2.2731  1.0278  1.0278  1.0535  1.0535  0.9125  0.9125

 Free energy of the ion-electron system (eV)
  ---------------------------------------------------
  alpha Z        PSCENC =        14.13034224
  Ewald energy   TEWEN  =      1569.43142387
  -Hartree energ DENC   =     -2747.65610167
  -exchange      EXHF   =         0.00000000
  -V(xc)+E(xc)   XCENC  =      -140.27320866
  PAW double counting   =      1740.07462066    -1482.53186759
  entropy T*S    EENTRO =        -0.00000000
  eigenvalues    EBANDS =      -344.76048010
  atomic energy  EATOM  =      1318.64189276
  Solvation  Ediel_sol  =         0.00000000
  ---------------------------------------------------
  free energy    TOTEN  =       -72.94337849 eV

  energy without entropy =      -72.94337849  energy(sigma->0) =      -72.94337849


--------------------------------------------------------------------------------------------------------




--------------------------------------- Iteration      1(  17)  ---------------------------------------


    POTLOK:  cpu time    2.2051: real time    2.2050
    SETDIJ:  cpu time    0.0670: real time    0.0670
     EDDAV:  cpu time   37.2757: real time   37.2757
       DOS:  cpu time    0.0010: real time    0.0010
    CHARGE:  cpu time    2.1086: real time    2.1087
    MIXING:  cpu time    0.0700: real time    0.0700
    --------------------------------------------
      LOOP:  cpu time   41.7272: real time   41.7273

 eigenvalue-minimisations  :   680
 total energy-change (2. order) :-0.9880966E-03  (-0.8369421E-04)
 number of electron      48.0000002 magnetization 
 augmentation part       -0.7408464 magnetization 

 Broyden mixing:
  rms(total) = 0.31977E-02    rms(broyden)= 0.31973E-02
  rms(prec ) = 0.66676E-02
  weight for this iteration     100.00

 eigenvalues of (default mixing * dielectric matrix)
  average eigenvalue GAMMA=   1.7589
  5.0261  2.8516  2.1987  1.0427  1.0427  1.3576  1.1246  1.1246  0.8445  0.9762

 Free energy of the ion-electron system (eV)
  ---------------------------------------------------
  alpha Z        PSCENC =        14.13034224
  Ewald energy   TEWEN  =      1569.43142387
  -Hartree energ DENC   =     -2748.74756027
  -exchange      EXHF   =         0.00000000
  -V(xc)+E(xc)   XCENC  =      -140.26724011
  PAW double counting   =      1740.46344544    -1482.92145455
  entropy T*S    EENTRO =        -0.00000000
  eigenvalues    EBANDS =      -343.67521596
  atomic energy  EATOM  =      1318.64189276
  Solvation  Ediel_sol  =         0.00000000
  ---------------------------------------------------
  free energy    TOTEN  =       -72.94436659 eV

  energy without entropy =      -72.94436659  energy(sigma->0) =      -72.94436659


--------------------------------------------------------------------------------------------------------




--------------------------------------- Iteration      1(  18)  ---------------------------------------


    POTLOK:  cpu time    2.1828: real time    2.1828
    SETDIJ:  cpu time    0.0629: real time    0.0629
     EDDAV:  cpu time   39.3562: real time   39.3999
       DOS:  cpu time    0.0005: real time    0.0005
    CHARGE:  cpu time    2.1084: real time    2.1160
    MIXING:  cpu time    0.0697: real time    0.0705
    --------------------------------------------
      LOOP:  cpu time   43.7806: real time   43.8327

 eigenvalue-minimisations  :   720
 total energy-change (2. order) :-0.1586954E-02  (-0.9324615E-04)
 number of electron      48.0000002 magnetization 
 augmentation part       -0.7406217 magnetization 

 Broyden mixing:
  rms(total) = 0.37968E-02    rms(broyden)= 0.37960E-02
  rms(prec ) = 0.56740E-02
  weight for this iteration     100.00

 eigenvalues of (default mixing * dielectric matrix)
  average eigenvalue GAMMA=   1.8910
  5.7960  3.4053  2.5065  1.8638  1.0621  1.0621  1.0685  1.0685  1.1381  0.9541
  0.8757

 Free energy of the ion-electron system (eV)
  ---------------------------------------------------
  alpha Z        PSCENC =        14.13034224
  Ewald energy   TEWEN  =      1569.43142387
  -Hartree energ DENC   =     -2749.43805439
  -exchange      EXHF   =         0.00000000
  -V(xc)+E(xc)   XCENC  =      -140.26858360
  PAW double counting   =      1740.70273922    -1483.16088933
  entropy T*S    EENTRO =        -0.00000000
  eigenvalues    EBANDS =      -342.98482431
  atomic energy  EATOM  =      1318.64189276
  Solvation  Ediel_sol  =         0.00000000
  ---------------------------------------------------
  free energy    TOTEN  =       -72.94595354 eV

  energy without entropy =      -72.94595354  energy(sigma->0) =      -72.94595354


--------------------------------------------------------------------------------------------------------




--------------------------------------- Iteration      1(  19)  ---------------------------------------


    POTLOK:  cpu time    2.1885: real time    2.1968
    SETDIJ:  cpu time    0.0649: real time    0.0654
     EDDAV:  cpu time   39.6754: real time   39.8299
       DOS:  cpu time    0.0006: real time    0.0006
    CHARGE:  cpu time    2.1000: real time    2.1071
    MIXING:  cpu time    0.0720: real time    0.0728
    --------------------------------------------
      LOOP:  cpu time   44.1013: real time   44.2727

 eigenvalue-minimisations  :   728
 total energy-change (2. order) :-0.1784777E-02  (-0.4709630E-04)
 number of electron      48.0000002 magnetization 
 augmentation part       -0.7407310 magnetization 

 Broyden mixing:
  rms(total) = 0.11992E-02    rms(broyden)= 0.11983E-02
  rms(prec ) = 0.20840E-02
  weight for this iteration     100.00

 eigenvalues of (default mixing * dielectric matrix)
  average eigenvalue GAMMA=   1.9745
  6.6755  3.7843  2.4915  2.1326  1.0676  1.0676  1.3822  1.0631  1.0631  1.1534
  0.9064  0.9064

 Free energy of the ion-electron system (eV)
  ---------------------------------------------------
  alpha Z        PSCENC =        14.13034224
  Ewald energy   TEWEN  =      1569.43142387
  -Hartree energ DENC   =     -2749.83480669
  -exchange      EXHF   =         0.00000000
  -V(xc)+E(xc)   XCENC  =      -140.26894508
  PAW double counting   =      1741.20730800    -1483.66593031
  entropy T*S    EENTRO =        -0.00000000
  eigenvalues    EBANDS =      -342.58902310
  atomic energy  EATOM  =      1318.64189276
  Solvation  Ediel_sol  =         0.00000000
  ---------------------------------------------------
  free energy    TOTEN  =       -72.94773832 eV

  energy without entropy =      -72.94773832  energy(sigma->0) =      -72.94773832


--------------------------------------------------------------------------------------------------------




--------------------------------------- Iteration      1(  20)  ---------------------------------------


    POTLOK:  cpu time    2.1706: real time    2.1799
    SETDIJ:  cpu time    0.0639: real time    0.0644
     EDDAV:  cpu time   33.4493: real time   33.5578
       DOS:  cpu time    0.0016: real time    0.0016
    CHARGE:  cpu time    2.1047: real time    2.1126
    MIXING:  cpu time    0.0718: real time    0.0725
    --------------------------------------------
      LOOP:  cpu time   37.8619: real time   37.9888

 eigenvalue-minimisations  :   592
 total energy-change (2. order) :-0.1096232E-02  (-0.1588890E-04)
 number of electron      48.0000002 magnetization 
 augmentation part       -0.7407886 magnetization 

 Broyden mixing:
  rms(total) = 0.64874E-03    rms(broyden)= 0.64868E-03
  rms(prec ) = 0.10771E-02
  weight for this iteration     100.00

 eigenvalues of (default mixing * dielectric matrix)
  average eigenvalue GAMMA=   2.1191
  7.6255  4.5596  2.5773  2.5773  1.8119  1.0676  1.0676  1.2584  1.0546  1.0546
  0.8720  1.0109  1.0109

 Free energy of the ion-electron system (eV)
  ---------------------------------------------------
  alpha Z        PSCENC =        14.13034224
  Ewald energy   TEWEN  =      1569.43142387
  -Hartree energ DENC   =     -2749.94316856
  -exchange      EXHF   =         0.00000000
  -V(xc)+E(xc)   XCENC  =      -140.27056086
  PAW double counting   =      1740.91299796    -1483.37130066
  entropy T*S    EENTRO =        -0.00000000
  eigenvalues    EBANDS =      -342.48046130
  atomic energy  EATOM  =      1318.64189276
  Solvation  Ediel_sol  =         0.00000000
  ---------------------------------------------------
  free energy    TOTEN  =       -72.94883455 eV

  energy without entropy =      -72.94883455  energy(sigma->0) =      -72.94883455


--------------------------------------------------------------------------------------------------------




--------------------------------------- Iteration      1(  21)  ---------------------------------------


    POTLOK:  cpu time    2.1689: real time    2.1698
    SETDIJ:  cpu time    0.0668: real time    0.0668
     EDDAV:  cpu time   34.1095: real time   34.1113
       DOS:  cpu time    0.0006: real time    0.0006
    CHARGE:  cpu time    2.1391: real time    2.1390
    MIXING:  cpu time    0.0732: real time    0.0732
    --------------------------------------------
      LOOP:  cpu time   38.5580: real time   38.5606

 eigenvalue-minimisations  :   600
 total energy-change (2. order) :-0.6423793E-03  (-0.1171614E-04)
 number of electron      48.0000002 magnetization 
 augmentation part       -0.7408548 magnetization 

 Broyden mixing:
  rms(total) = 0.47460E-03    rms(broyden)= 0.47450E-03
  rms(prec ) = 0.64764E-03
  weight for this iteration     100.00

 eigenvalues of (default mixing * dielectric matrix)
  average eigenvalue GAMMA=   2.1220
  7.9057  4.8982  2.6827  2.6827  1.7323  1.7323  1.0656  1.0656  1.0521  1.0521
  1.0458  1.0458  0.8736  0.8736

 Free energy of the ion-electron system (eV)
  ---------------------------------------------------
  alpha Z        PSCENC =        14.13034224
  Ewald energy   TEWEN  =      1569.43142387
  -Hartree energ DENC   =     -2750.00321432
  -exchange      EXHF   =         0.00000000
  -V(xc)+E(xc)   XCENC  =      -140.27019675
  PAW double counting   =      1740.81266733    -1483.27098951
  entropy T*S    EENTRO =        -0.00000000
  eigenvalues    EBANDS =      -342.42140255
  atomic energy  EATOM  =      1318.64189276
  Solvation  Ediel_sol  =         0.00000000
  ---------------------------------------------------
  free energy    TOTEN  =       -72.94947693 eV

  energy without entropy =      -72.94947693  energy(sigma->0) =      -72.94947693


--------------------------------------------------------------------------------------------------------




--------------------------------------- Iteration      1(  22)  ---------------------------------------


    POTLOK:  cpu time    2.1817: real time    2.1825
    SETDIJ:  cpu time    0.0702: real time    0.0702
     EDDAV:  cpu time   37.7773: real time   37.8161
       DOS:  cpu time    0.0007: real time    0.0007
    CHARGE:  cpu time    2.1364: real time    2.1431
    MIXING:  cpu time    0.0847: real time    0.0854
    --------------------------------------------
      LOOP:  cpu time   42.2510: real time   42.2980

 eigenvalue-minimisations  :   680
 total energy-change (2. order) :-0.1325211E-03  (-0.1656684E-05)
 number of electron      48.0000002 magnetization 
 augmentation part       -0.7408424 magnetization 

 Broyden mixing:
  rms(total) = 0.20130E-03    rms(broyden)= 0.20126E-03
  rms(prec ) = 0.28861E-03
  weight for this iteration     100.00

 eigenvalues of (default mixing * dielectric matrix)
  average eigenvalue GAMMA=   2.1654
  8.5957  5.0943  3.1652  2.4228  2.2567  1.6163  1.0673  1.0673  1.0539  1.0539
  1.2386  1.0382  1.0382  0.8861  0.8861

 Free energy of the ion-electron system (eV)
  ---------------------------------------------------
  alpha Z        PSCENC =        14.13034224
  Ewald energy   TEWEN  =      1569.43142387
  -Hartree energ DENC   =     -2749.99857835
  -exchange      EXHF   =         0.00000000
  -V(xc)+E(xc)   XCENC  =      -140.27077350
  PAW double counting   =      1740.76688857    -1483.22506700
  entropy T*S    EENTRO =        -0.00000000
  eigenvalues    EBANDS =      -342.42573803
  atomic energy  EATOM  =      1318.64189276
  Solvation  Ediel_sol  =         0.00000000
  ---------------------------------------------------
  free energy    TOTEN  =       -72.94960945 eV

  energy without entropy =      -72.94960945  energy(sigma->0) =      -72.94960945


--------------------------------------------------------------------------------------------------------




--------------------------------------- Iteration      1(  23)  ---------------------------------------


    POTLOK:  cpu time    2.2065: real time    2.2145
    SETDIJ:  cpu time    0.0635: real time    0.0640
     EDDAV:  cpu time   33.9747: real time   34.0901
       DOS:  cpu time    0.0005: real time    0.0005
    CHARGE:  cpu time    2.1100: real time    2.1210
    MIXING:  cpu time    0.0839: real time    0.0841
    --------------------------------------------
      LOOP:  cpu time   38.4392: real time   38.5743

 eigenvalue-minimisations  :   600
 total energy-change (2. order) :-0.5645194E-04  (-0.8387892E-06)
 number of electron      48.0000002 magnetization 
 augmentation part       -0.7408029 magnetization 

 Broyden mixing:
  rms(total) = 0.20514E-03    rms(broyden)= 0.20509E-03
  rms(prec ) = 0.26823E-03
  weight for this iteration     100.00

 eigenvalues of (default mixing * dielectric matrix)
  average eigenvalue GAMMA=   2.1398
  8.6478  5.2954  3.2663  2.4326  2.4326  1.4065  1.4065  1.0696  1.0696  1.1213
  1.1213  1.1173  1.1173  0.8676  0.9323  0.9323

 Free energy of the ion-electron system (eV)
  ---------------------------------------------------
  alpha Z        PSCENC =        14.13034224
  Ewald energy   TEWEN  =      1569.43142387
  -Hartree energ DENC   =     -2749.98563142
  -exchange      EXHF   =         0.00000000
  -V(xc)+E(xc)   XCENC  =      -140.27132945
  PAW double counting   =      1740.76270963    -1483.22076850
  entropy T*S    EENTRO =        -0.00000000
  eigenvalues    EBANDS =      -342.43830503
  atomic energy  EATOM  =      1318.64189276
  Solvation  Ediel_sol  =         0.00000000
  ---------------------------------------------------
  free energy    TOTEN  =       -72.94966590 eV

  energy without entropy =      -72.94966590  energy(sigma->0) =      -72.94966590


--------------------------------------------------------------------------------------------------------




--------------------------------------- Iteration      1(  24)  ---------------------------------------


    POTLOK:  cpu time    2.2057: real time    2.2196
    SETDIJ:  cpu time    0.0574: real time    0.0580
     EDDAV:  cpu time   31.3840: real time   31.4846
       DOS:  cpu time    0.0005: real time    0.0005
    CHARGE:  cpu time    2.1534: real time    2.1611
    MIXING:  cpu time    0.0737: real time    0.0738
    --------------------------------------------
      LOOP:  cpu time   35.8746: real time   35.9976

 eigenvalue-minimisations  :   544
 total energy-change (2. order) :-0.1631420E-04  (-0.1990401E-06)
 number of electron      48.0000002 magnetization 
 augmentation part       -0.7408113 magnetization 

 Broyden mixing:
  rms(total) = 0.74479E-04    rms(broyden)= 0.74452E-04
  rms(prec ) = 0.11022E-03
  weight for this iteration     100.00

 eigenvalues of (default mixing * dielectric matrix)
  average eigenvalue GAMMA=   2.1422
  8.7106  5.6216  3.3486  2.7712  2.3765  1.7908  1.0690  1.0690  1.4236  1.1529
  1.1529  1.0929  1.0929  0.9661  0.9661  0.9485  0.8640

 Free energy of the ion-electron system (eV)
  ---------------------------------------------------
  alpha Z        PSCENC =        14.13034224
  Ewald energy   TEWEN  =      1569.43142387
  -Hartree energ DENC   =     -2749.99357903
  -exchange      EXHF   =         0.00000000
  -V(xc)+E(xc)   XCENC  =      -140.27104796
  PAW double counting   =      1740.77378391    -1483.23184270
  entropy T*S    EENTRO =        -0.00000000
  eigenvalues    EBANDS =      -342.43065529
  atomic energy  EATOM  =      1318.64189276
  Solvation  Ediel_sol  =         0.00000000
  ---------------------------------------------------
  free energy    TOTEN  =       -72.94968222 eV

  energy without entropy =      -72.94968222  energy(sigma->0) =      -72.94968222


--------------------------------------------------------------------------------------------------------




--------------------------------------- Iteration      1(  25)  ---------------------------------------


    POTLOK:  cpu time    2.0942: real time    2.1020
    SETDIJ:  cpu time    0.0664: real time    0.0671
     EDDAV:  cpu time   23.5032: real time   23.6004
       DOS:  cpu time    0.0007: real time    0.0007
    CHARGE:  cpu time    2.1394: real time    2.1522
    MIXING:  cpu time    0.0815: real time    0.0819
    --------------------------------------------
      LOOP:  cpu time   27.8854: real time   28.0042

 eigenvalue-minimisations  :   368
 total energy-change (2. order) :-0.8597359E-05  (-0.1051506E-06)
 number of electron      48.0000002 magnetization 
 augmentation part       -0.7408244 magnetization 

 Broyden mixing:
  rms(total) = 0.60281E-04    rms(broyden)= 0.60266E-04
  rms(prec ) = 0.83061E-04
  weight for this iteration     100.00

 eigenvalues of (default mixing * dielectric matrix)
  average eigenvalue GAMMA=   2.1224
  8.7085  5.7761  3.5012  2.8428  2.4859  1.9789  1.6336  1.0786  1.0786  1.0732
  1.0732  1.0675  1.0675  1.0486  1.0486  0.8747  0.9327  0.9327

 Free energy of the ion-electron system (eV)
  ---------------------------------------------------
  alpha Z        PSCENC =        14.13034224
  Ewald energy   TEWEN  =      1569.43142387
  -Hartree energ DENC   =     -2749.99237797
  -exchange      EXHF   =         0.00000000
  -V(xc)+E(xc)   XCENC  =      -140.27108938
  PAW double counting   =      1740.77678399    -1483.23483040
  entropy T*S    EENTRO =        -0.00000000
  eigenvalues    EBANDS =      -342.43183592
  atomic energy  EATOM  =      1318.64189276
  Solvation  Ediel_sol  =         0.00000000
  ---------------------------------------------------
  free energy    TOTEN  =       -72.94969081 eV

  energy without entropy =      -72.94969081  energy(sigma->0) =      -72.94969081


--------------------------------------------------------------------------------------------------------




--------------------------------------- Iteration      1(  26)  ---------------------------------------


    POTLOK:  cpu time    2.1452: real time    2.1606
    SETDIJ:  cpu time    0.0606: real time    0.0606
     EDDAV:  cpu time   26.0498: real time   26.1340
       DOS:  cpu time    0.0007: real time    0.0007
    CHARGE:  cpu time    2.0921: real time    2.0922
    MIXING:  cpu time    0.0921: real time    0.0920
    --------------------------------------------
      LOOP:  cpu time   30.4404: real time   30.5402

 eigenvalue-minimisations  :   424
 total energy-change (2. order) :-0.2936623E-05  (-0.4525892E-07)
 number of electron      48.0000002 magnetization 
 augmentation part       -0.7408253 magnetization 

 Broyden mixing:
  rms(total) = 0.31664E-04    rms(broyden)= 0.31661E-04
  rms(prec ) = 0.46069E-04
  weight for this iteration     100.00

 eigenvalues of (default mixing * dielectric matrix)
  average eigenvalue GAMMA=   2.1229
  8.7244  5.8769  3.5698  3.0703  2.4268  1.9689  1.9689  1.2541  1.2541  1.0707
  1.0707  1.0795  1.0795  1.1997  1.0190  1.0190  0.8672  0.9082  0.9082

 Free energy of the ion-electron system (eV)
  ---------------------------------------------------
  alpha Z        PSCENC =        14.13034224
  Ewald energy   TEWEN  =      1569.43142387
  -Hartree energ DENC   =     -2749.99255098
  -exchange      EXHF   =         0.00000000
  -V(xc)+E(xc)   XCENC  =      -140.27110102
  PAW double counting   =      1740.77729807    -1483.23533018
  entropy T*S    EENTRO =        -0.00000000
  eigenvalues    EBANDS =      -342.43166850
  atomic energy  EATOM  =      1318.64189276
  Solvation  Ediel_sol  =         0.00000000
  ---------------------------------------------------
  free energy    TOTEN  =       -72.94969375 eV

  energy without entropy =      -72.94969375  energy(sigma->0) =      -72.94969375


--------------------------------------------------------------------------------------------------------




--------------------------------------- Iteration      1(  27)  ---------------------------------------


    POTLOK:  cpu time    2.1779: real time    2.1781
    SETDIJ:  cpu time    0.0642: real time    0.0642
     EDDAV:  cpu time   23.8329: real time   23.8395
       DOS:  cpu time    0.0008: real time    0.0008
    CHARGE:  cpu time    2.0553: real time    2.0553
    MIXING:  cpu time    0.0919: real time    0.0919
    --------------------------------------------
      LOOP:  cpu time   28.2230: real time   28.2298

 eigenvalue-minimisations  :   392
 total energy-change (2. order) :-0.1543305E-05  (-0.4235462E-07)
 number of electron      48.0000002 magnetization 
 augmentation part       -0.7408228 magnetization 

 Broyden mixing:
  rms(total) = 0.52719E-04    rms(broyden)= 0.52706E-04
  rms(prec ) = 0.65705E-04
  weight for this iteration     100.00

 eigenvalues of (default mixing * dielectric matrix)
  average eigenvalue GAMMA=   2.1324
  8.7248  5.9674  3.7423  3.2093  2.3878  2.3878  1.8888  1.8888  1.1982  1.1982
  1.0711  1.0711  1.0725  1.0725  1.0736  1.0736  0.9526  0.8661  0.9009  0.9009

 Free energy of the ion-electron system (eV)
  ---------------------------------------------------
  alpha Z        PSCENC =        14.13034224
  Ewald energy   TEWEN  =      1569.43142387
  -Hartree energ DENC   =     -2749.99030116
  -exchange      EXHF   =         0.00000000
  -V(xc)+E(xc)   XCENC  =      -140.27121293
  PAW double counting   =      1740.77475395    -1483.23278419
  entropy T*S    EENTRO =        -0.00000000
  eigenvalues    EBANDS =      -342.43380983
  atomic energy  EATOM  =      1318.64189276
  Solvation  Ediel_sol  =         0.00000000
  ---------------------------------------------------
  free energy    TOTEN  =       -72.94969529 eV

  energy without entropy =      -72.94969529  energy(sigma->0) =      -72.94969529


--------------------------------------------------------------------------------------------------------




--------------------------------------- Iteration      1(  28)  ---------------------------------------


    POTLOK:  cpu time    2.1549: real time    2.1550
    SETDIJ:  cpu time    0.0613: real time    0.0614
     EDDAV:  cpu time   22.7764: real time   22.7876
       DOS:  cpu time    0.0006: real time    0.0006
    --------------------------------------------
      LOOP:  cpu time   24.9931: real time   25.0045

 eigenvalue-minimisations  :   432
 total energy-change (2. order) :-0.3948339E-06  (-0.1805882E-07)
 number of electron      48.0000002 magnetization 
 augmentation part       -0.7408228 magnetization 

 Free energy of the ion-electron system (eV)
  ---------------------------------------------------
  alpha Z        PSCENC =        14.13034224
  Ewald energy   TEWEN  =      1569.43142387
  -Hartree energ DENC   =     -2749.99207022
  -exchange      EXHF   =         0.00000000
  -V(xc)+E(xc)   XCENC  =      -140.27115771
  PAW double counting   =      1740.77638131    -1483.23442369
  entropy T*S    EENTRO =        -0.00000000
  eigenvalues    EBANDS =      -342.43208424
  atomic energy  EATOM  =      1318.64189276
  Solvation  Ediel_sol  =         0.00000000
  ---------------------------------------------------
  free energy    TOTEN  =       -72.94969569 eV

  energy without entropy =      -72.94969569  energy(sigma->0) =      -72.94969569


--------------------------------------------------------------------------------------------------------




 average (electrostatic) potential at core
  the test charge radii are     1.0406  0.6991  1.0339  0.5883
  (the norm of the test charge is              1.0000)
       1 -59.1290       2 -59.2170       3 -59.4147       4 -59.7635       5 -59.6640
       6 -59.6099       7 -59.2650       8 -59.2534       9 -55.1392      10 -55.1106
      11 -56.0100      12 -55.5079      13 -97.0272      14 -38.4226      15 -37.9863



 E-fermi :  -1.9209     XC(G=0):  -3.1927     alpha+bet : -2.6874


 k-point     1 :       0.0000    0.0000    0.0000
  band No.  band energies     occupation 
      1     -15.6071      2.00000
      2     -14.5320      2.00000
      3     -13.6892      2.00000
      4     -12.6344      2.00000
      5     -11.5634      2.00000
      6      -8.8851      2.00000
      7      -8.7936      2.00000
      8      -8.5034      2.00000
      9      -7.9558      2.00000
     10      -7.3595      2.00000
     11      -6.5779      2.00000
     12      -6.2275      2.00000
     13      -5.8134      2.00000
     14      -5.3566      2.00000
     15      -4.9987      2.00000
     16      -4.7326      2.00000
     17      -4.3999      2.00000
     18      -4.2419      2.00000
     19      -3.6189      2.00000
     20      -3.5333      2.00000
     21      -3.1113      2.00000
     22      -2.8203      2.00000
     23      -2.4797      2.00000
     24      -2.1870      2.00000
     25      -1.4385      0.00000
     26      -0.9458      0.00000
     27      -0.1026      0.00000
     28       0.0300      0.00000
     29       0.1639      0.00000
     30       0.4773      0.00000
     31       0.6433      0.00000
     32       1.0704      0.00000

 k-point     2 :       0.2000    0.0000    0.0000
  band No.  band energies     occupation 
      1     -15.5935      2.00000
      2     -14.4765      2.00000
      3     -13.5651      2.00000
      4     -12.8258      2.00000
      5     -11.9438      2.00000
      6      -8.7668      2.00000
      7      -8.5061      2.00000
      8      -7.9783      2.00000
      9      -7.8637      2.00000
     10      -7.2368      2.00000
     11      -6.5958      2.00000
     12      -6.4823      2.00000
     13      -6.1067      2.00000
     14      -5.3069      2.00000
     15      -4.9981      2.00000
     16      -4.6171      2.00000
     17      -4.3787      2.00000
     18      -4.1913      2.00000
     19      -3.8755      2.00000
     20      -3.5404      2.00000
     21      -3.5170      2.00000
     22      -3.3035      2.00000
     23      -2.6502      2.00000
     24      -2.4676      2.00000
     25      -1.2214      0.00000
     26      -0.3060      0.00000
     27      -0.1221      0.00000
     28       0.2064      0.00000
     29       0.4039      0.00000
     30       0.6789      0.00000
     31       0.8531      0.00000
     32       0.9134      0.00000

 k-point     3 :       0.4000    0.0000    0.0000
  band No.  band energies     occupation 
      1     -15.5718      2.00000
      2     -14.3590      2.00000
      3     -13.2198      2.00000
      4     -13.1182      2.00000
      5     -12.6161      2.00000
      6      -8.4806      2.00000
      7      -8.1617      2.00000
      8      -7.8437      2.00000
      9      -7.3831      2.00000
     10      -6.7486      2.00000
     11      -6.5540      2.00000
     12      -6.2517      2.00000
     13      -5.8886      2.00000
     14      -5.7780      2.00000
     15      -5.2715      2.00000
     16      -5.0427      2.00000
     17      -4.8865      2.00000
     18      -4.4085      2.00000
     19      -4.2396      2.00000
     20      -4.0273      2.00000
     21      -3.4919      2.00000
     22      -3.3768      2.00000
     23      -2.9186      2.00000
     24      -2.4979      2.00000
     25      -0.9075      0.00000
     26      -0.4035      0.00000
     27      -0.0075      0.00000
     28       0.7201      0.00000
     29       0.8725      0.00000
     30       1.1722      0.00000
     31       1.3109      0.00000
     32       1.3885      0.00000

 k-point     4 :       0.0000    0.3333    0.0000
  band No.  band energies     occupation 
      1     -15.6069      2.00000
      2     -14.5306      2.00000
      3     -13.6930      2.00000
      4     -12.6361      2.00000
      5     -11.5643      2.00000
      6      -8.7587      2.00000
      7      -8.6778      2.00000
      8      -8.5588      2.00000
      9      -8.0393      2.00000
     10      -7.5758      2.00000
     11      -7.0664      2.00000
     12      -5.7540      2.00000
     13      -5.4918      2.00000
     14      -5.2128      2.00000
     15      -4.9885      2.00000
     16      -4.6695      2.00000
     17      -4.3811      2.00000
     18      -4.1408      2.00000
     19      -3.6948      2.00000
     20      -3.6157      2.00000
     21      -3.3573      2.00000
     22      -3.0929      2.00000
     23      -2.8206      2.00000
     24      -2.1801      2.00000
     25      -1.2254      0.00000
     26      -0.6720      0.00000
     27      -0.2052      0.00000
     28       0.0433      0.00000
     29       0.4581      0.00000
     30       0.6372      0.00000
     31       0.7957      0.00000
     32       0.8613      0.00000

 k-point     5 :       0.2000    0.3333    0.0000
  band No.  band energies     occupation 
      1     -15.5933      2.00000
      2     -14.4753      2.00000
      3     -13.5678      2.00000
      4     -12.8276      2.00000
      5     -11.9455      2.00000
      6      -8.6253      2.00000
      7      -8.4496      2.00000
      8      -7.9945      2.00000
      9      -7.9410      2.00000
     10      -7.4116      2.00000
     11      -7.0288      2.00000
     12      -6.3568      2.00000
     13      -5.7303      2.00000
     14      -5.3537      2.00000
     15      -4.8052      2.00000
     16      -4.5284      2.00000
     17      -4.3282      2.00000
     18      -4.1271      2.00000
     19      -3.7903      2.00000
     20      -3.5870      2.00000
     21      -3.4838      2.00000
     22      -3.3970      2.00000
     23      -2.9727      2.00000
     24      -2.6510      2.00000
     25      -1.0879      0.00000
     26      -0.4872      0.00000
     27      -0.1373      0.00000
     28       0.2076      0.00000
     29       0.4584      0.00000
     30       0.7693      0.00000
     31       0.8320      0.00000
     32       0.9953      0.00000

 k-point     6 :       0.4000    0.3333    0.0000
  band No.  band energies     occupation 
      1     -15.5717      2.00000
      2     -14.3582      2.00000
      3     -13.2056      2.00000
      4     -13.1339      2.00000
      5     -12.6207      2.00000
      6      -8.3932      2.00000
      7      -8.1919      2.00000
      8      -7.6900      2.00000
      9      -7.2339      2.00000
     10      -7.0070      2.00000
     11      -6.7148      2.00000
     12      -6.5181      2.00000
     13      -6.3588      2.00000
     14      -5.4325      2.00000
     15      -5.0996      2.00000
     16      -4.9076      2.00000
     17      -4.6476      2.00000
     18      -4.1400      2.00000
     19      -4.0517      2.00000
     20      -3.9443      2.00000
     21      -3.5562      2.00000
     22      -3.3830      2.00000
     23      -3.1913      2.00000
     24      -2.8141      2.00000
     25      -0.9055      0.00000
     26      -0.3496      0.00000
     27       0.0094      0.00000
     28       0.5831      0.00000
     29       0.7507      0.00000
     30       0.8998      0.00000
     31       1.1544      0.00000
     32       1.2615      0.00000

 k-point     7 :      -0.4000    0.3333    0.0000
  band No.  band energies     occupation 
      1     -15.5717      2.00000
      2     -14.3581      2.00000
      3     -13.2087      2.00000
      4     -13.1305      2.00000
      5     -12.6210      2.00000
      6      -8.3987      2.00000
      7      -8.1980      2.00000
      8      -7.6457      2.00000
      9      -7.2223      2.00000
     10      -7.0694      2.00000
     11      -6.7261      2.00000
     12      -6.5395      2.00000
     13      -6.3152      2.00000
     14      -5.4111      2.00000
     15      -5.0923      2.00000
     16      -4.9021      2.00000
     17      -4.6246      2.00000
     18      -4.2318      2.00000
     19      -4.0810      2.00000
     20      -3.9032      2.00000
     21      -3.5516      2.00000
     22      -3.3823      2.00000
     23      -3.1455      2.00000
     24      -2.8320      2.00000
     25      -0.9617      0.00000
     26      -0.2661      0.00000
     27       0.0790      0.00000
     28       0.4745      0.00000
     29       0.7570      0.00000
     30       0.8939      0.00000
     31       1.0683      0.00000
     32       1.4061      0.00000

 k-point     8 :      -0.2000    0.3333    0.0000
  band No.  band energies     occupation 
      1     -15.5933      2.00000
      2     -14.4752      2.00000
      3     -13.5681      2.00000
      4     -12.8272      2.00000
      5     -11.9456      2.00000
      6      -8.6155      2.00000
      7      -8.4848      2.00000
      8      -7.9971      2.00000
      9      -7.8567      2.00000
     10      -7.4782      2.00000
     11      -7.0232      2.00000
     12      -6.3837      2.00000
     13      -5.7222      2.00000
     14      -5.2878      2.00000
     15      -4.7762      2.00000
     16      -4.5645      2.00000
     17      -4.3628      2.00000
     18      -4.1626      2.00000
     19      -3.8003      2.00000
     20      -3.5740      2.00000
     21      -3.4879      2.00000
     22      -3.3315      2.00000
     23      -3.0103      2.00000
     24      -2.6499      2.00000
     25      -1.1242      0.00000
     26      -0.3234      0.00000
     27      -0.1568      0.00000
     28       0.0993      0.00000
     29       0.4548      0.00000
     30       0.7063      0.00000
     31       0.9006      0.00000
     32       1.0315      0.00000


--------------------------------------------------------------------------------------------------------


 soft charge-density along one line, spin component           1
         0         1         2         3         4         5         6         7         8         9
 total charge-density along one line

 pseudopotential strength for first ion, spin component:           1
  7.446 -17.446  -0.004  -0.001   0.000   0.020   0.005  -0.001
-17.446  50.470   0.010   0.002  -0.000  -0.046  -0.010   0.001
 -0.004   0.010   1.743   0.000  -0.000  -6.878  -0.002   0.000
 -0.001   0.002   0.000   1.746   0.000  -0.002  -6.895  -0.001
  0.000  -0.000  -0.000   0.000   1.743   0.000  -0.001  -6.880
  0.020  -0.046  -6.878  -0.002   0.000  29.272   0.010  -0.001
  0.005  -0.010  -0.002  -6.895  -0.001   0.010  29.342   0.002
 -0.001   0.001   0.000  -0.001  -6.880  -0.001   0.002  29.281
 -0.000   0.000   0.000   0.000  -0.003  -0.000  -0.000   0.008
  0.002  -0.003  -0.001  -0.003   0.000   0.002   0.008  -0.000
  0.009  -0.011   0.001  -0.001  -0.000  -0.003   0.002   0.000
  0.001  -0.001   0.000   0.000  -0.001  -0.000  -0.000   0.002
  0.001  -0.002   0.001   0.000   0.000  -0.005  -0.000  -0.000
  0.000  -0.001  -0.001   0.000   0.010   0.002  -0.000  -0.037
 -0.009   0.016   0.004   0.010   0.000  -0.014  -0.038  -0.000
 -0.036   0.063  -0.004   0.004   0.000   0.015  -0.014  -0.001
 -0.002   0.004   0.000  -0.000   0.004  -0.000   0.001  -0.012
 -0.005   0.009  -0.007  -0.000  -0.000   0.026   0.001   0.001
 total augmentation occupancy for first ion, spin component:           1
  1.394   0.018  -0.051   0.027  -0.001   0.004   0.000  -0.000  -0.001  -0.025  -0.089  -0.004  -0.028  -0.000  -0.001  -0.005
  0.018   0.000   0.009  -0.000  -0.000   0.000  -0.000  -0.000  -0.000  -0.000  -0.002  -0.000   0.000  -0.000  -0.000  -0.000
 -0.051   0.009   1.301  -0.111  -0.003   0.019  -0.002  -0.000  -0.003   0.020  -0.078  -0.005   0.051  -0.000   0.000  -0.003
  0.027  -0.000  -0.111   0.417  -0.023  -0.002   0.005  -0.000  -0.006   0.055   0.001   0.000  -0.018  -0.000   0.001   0.000
 -0.001  -0.000  -0.003  -0.023   1.098  -0.000  -0.000   0.018   0.226  -0.006   0.001  -0.015   0.001   0.007  -0.000   0.000
  0.004   0.000   0.019  -0.002  -0.000   0.000  -0.000  -0.000  -0.000   0.000  -0.002  -0.000   0.000  -0.000   0.000  -0.000
  0.000  -0.000  -0.002   0.005  -0.000  -0.000   0.000  -0.000  -0.000   0.001   0.000   0.000  -0.000  -0.000   0.000   0.000
 -0.000  -0.000  -0.000  -0.000   0.018  -0.000  -0.000   0.000   0.004  -0.000   0.000  -0.000   0.000   0.000  -0.000   0.000
 -0.001  -0.000  -0.003  -0.006   0.226  -0.000  -0.000   0.004   0.065  -0.002   0.000  -0.003   0.000   0.002  -0.000   0.000
 -0.025  -0.000   0.020   0.055  -0.006   0.000   0.001  -0.000  -0.002   0.011  -0.001  -0.000   0.004  -0.000   0.000   0.000
 -0.089  -0.002  -0.078   0.001   0.001  -0.002   0.000   0.000   0.000  -0.001   0.013  -0.000  -0.004   0.000   0.000   0.001
 -0.004  -0.000  -0.005   0.000  -0.015  -0.000   0.000  -0.000  -0.003  -0.000  -0.000   0.020  -0.001  -0.000  -0.000   0.000
 -0.028   0.000   0.051  -0.018   0.001   0.000  -0.000   0.000   0.000   0.004  -0.004  -0.001   0.040   0.000   0.000  -0.000
 -0.000  -0.000  -0.000  -0.000   0.007  -0.000  -0.000   0.000   0.002  -0.000   0.000  -0.000   0.000   0.000  -0.000   0.000
 -0.001  -0.000   0.000   0.001  -0.000   0.000   0.000  -0.000  -0.000   0.000   0.000  -0.000   0.000  -0.000   0.000   0.000
 -0.005  -0.000  -0.003   0.000   0.000  -0.000   0.000   0.000   0.000   0.000   0.001   0.000  -0.000   0.000   0.000   0.000
 -0.000  -0.000  -0.000   0.000  -0.000  -0.000   0.000  -0.000  -0.000  -0.000   0.000   0.000  -0.000  -0.000   0.000   0.000
 -0.001   0.000   0.000  -0.000   0.000  -0.000  -0.000   0.000   0.000   0.000  -0.000  -0.000   0.001   0.000   0.000  -0.000


------------------------ aborting loop because EDIFF is reached ----------------------------------------


    CHARGE:  cpu time    1.5108: real time    1.5137
    FORLOC:  cpu time    0.3079: real time    0.3079
    FORNL :  cpu time    6.8117: real time    6.8117
    STRESS:  cpu time   20.5344: real time   20.5362
    FORCOR:  cpu time    1.8258: real time    1.8266
    FORHAR:  cpu time    0.7180: real time    0.7180
    MIXING:  cpu time    0.0664: real time    0.0664
    OFIELD:  cpu time    0.0000: real time    0.0000

  FORCE on cell =-STRESS in cart. coord.  units (eV):
  Direction    XX          YY          ZZ          XY          YZ          ZX
  --------------------------------------------------------------------------------------
  Alpha Z    14.13034    14.13034    14.13034
  Ewald    2525.26534  2149.24079 -3105.07619    -8.87198    73.52787     5.43581
  Hartree  2578.60161  2290.36540 -2118.97338     0.79517    36.66638     1.39824
  E(xc)    -153.77722  -154.68105  -154.26664    -0.11594     0.16041    -0.08663
  Local   -5605.18968 -4936.11736  4739.23491     3.04763  -105.50432    -8.28624
  n-local   195.42368   206.78983   168.62111     0.48752    -0.34591     1.17441
  augment   -24.49605   -24.62942   -22.81022    -0.31379     0.40486    -0.15595
  Kinetic   468.97168   451.73221   478.32042     5.32429    -4.91066     1.26945
  Fock        0.00000     0.00000     0.00000     0.00000     0.00000     0.00000
  -------------------------------------------------------------------------------------
  Total      -1.07030    -3.16925    -0.81965     0.35290    -0.00137     0.74907
  in kB      -1.87304    -5.54625    -1.43440     0.61758    -0.00240     1.31089
  external pressure =       -2.95 kB  Pullay stress =        0.00 kB


 VOLUME and BASIS-vectors are now :
 -----------------------------------------------------------------------------
  energy-cutoff  :      450.00
  volume of cell :      915.52
      direct lattice vectors                 reciprocal lattice vectors
     6.019200000  0.000000000  0.000000000     0.166135035  0.000000000  0.000000000
     0.000000000 10.140000000  0.000000000     0.000000000  0.098619329  0.000000000
     0.000000000  0.000000000 15.000000000     0.000000000  0.000000000  0.066666667

  length of vectors
     6.019200000 10.140000000 15.000000000     0.166135035  0.098619329  0.066666667


 FORCES acting on ions
    electron-ion (+dipol)            ewald-force                    non-local-force                 convergence-correction
 -----------------------------------------------------------------------------------------------
   0.334E+01 0.380E+02 0.293E+02   -.341E+01 -.360E+02 -.287E+02   0.561E-01 -.204E+01 -.637E+00   -.285E-04 0.491E-04 -.198E-04
   -.340E+01 0.397E+02 0.183E+02   0.335E+01 -.370E+02 -.182E+02   0.357E-01 -.276E+01 -.226E-02   0.290E-04 0.438E-04 -.164E-04
   0.188E+02 -.388E+02 0.142E+02   -.177E+02 0.385E+02 -.150E+02   -.118E+01 0.266E+00 0.844E+00   0.127E-03 0.721E-04 -.856E-06
   -.159E+02 -.429E+02 0.640E+01   0.151E+02 0.422E+02 -.900E+01   0.753E+00 0.684E+00 0.267E+01   -.126E-03 0.737E-04 -.125E-04
   0.980E+01 0.555E+02 0.372E+02   -.741E+01 -.541E+02 -.368E+02   -.241E+01 -.143E+01 -.449E+00   0.123E-03 -.862E-04 -.697E-04
   -.888E+01 0.553E+02 0.334E+02   0.673E+01 -.537E+02 -.330E+02   0.214E+01 -.159E+01 -.348E+00   -.122E-03 -.851E-04 -.684E-04
   0.766E+00 -.526E+02 0.254E+02   -.744E+00 0.488E+02 -.248E+02   -.372E-01 0.375E+01 -.553E+00   -.286E-04 -.239E-04 -.315E-04
   -.878E+00 -.521E+02 0.293E+02   0.829E+00 0.486E+02 -.285E+02   0.354E-01 0.358E+01 -.776E+00   0.283E-04 -.227E-04 -.300E-04
   0.415E+00 -.756E+01 0.266E+02   -.290E+00 0.729E+01 -.266E+02   -.141E+00 0.277E+00 0.167E-01   0.543E-05 0.193E-04 -.433E-04
   -.347E+00 -.811E+01 0.424E+02   0.277E+00 0.777E+01 -.431E+02   0.556E-01 0.343E+00 0.629E+00   -.423E-05 0.323E-04 -.324E-04
   0.420E+01 0.114E+02 -.315E-01   -.401E+01 -.961E+01 -.471E+01   -.219E+00 -.183E+01 0.476E+01   -.138E-04 -.369E-04 0.418E-04
   -.111E+01 0.109E+02 0.860E+02   0.946E+00 -.105E+02 -.876E+02   0.142E+00 -.375E+00 0.163E+01   0.170E-05 -.825E-05 -.926E-04
   -.211E+02 0.886E+01 -.231E+03   0.234E+02 -.168E+02 0.231E+03   -.227E+01 0.796E+01 -.391E+00   0.365E-04 0.809E-05 0.149E-03
   0.140E+02 -.400E+02 -.496E+02   -.154E+02 0.436E+02 0.510E+02   0.151E+01 -.360E+01 -.142E+01   0.895E-05 -.176E-04 0.188E-04
   0.185E+01 0.180E+02 -.690E+02   -.181E+01 -.191E+02 0.739E+02   -.483E-01 0.108E+01 -.482E+01   -.677E-06 -.408E-04 0.182E-03
 -----------------------------------------------------------------------------------------------
   0.158E+01 -.432E+01 -.116E+01   -.155E-14 -.320E-13 -.853E-13   -.157E+01 0.433E+01 0.116E+01   0.361E-04 -.232E-04 -.252E-04


 POSITION                                       TOTAL-FORCE (eV/Angst)
 -----------------------------------------------------------------------------------
      2.47209      8.83878      3.67209        -0.016147      0.001904     -0.008036
      5.48690      8.86171      3.73850        -0.015346     -0.001626      0.017068
      2.54838      6.31467      4.36999        -0.029532     -0.001684     -0.023399
      5.37672      6.31218      4.24712        -0.047637      0.005450      0.077452
      2.49669      3.79504      3.78771        -0.021922     -0.003794      0.009815
      5.42527      3.77790      3.80529        -0.016939      0.008293     -0.016769
      2.48137      1.18212      3.56896        -0.015786      0.000288      0.009666
      5.48271      1.18417      3.53660        -0.014808      0.001238     -0.011763
      0.97214     10.10347      3.63252        -0.016332     -0.000418     -0.002771
      3.98064     10.09331      3.53807        -0.015277     -0.000142      0.004042
      0.94090      4.98275      4.47178        -0.024847      0.004556      0.020315
      3.96736      5.02798      3.69322        -0.025119     -0.003314     -0.011189
      3.58618      6.46306      6.46062         0.078667     -0.022230     -0.051110
      3.10013      7.64959      6.91924         0.187938      0.029403     -0.033218
      0.94753      4.72386      5.55718        -0.006911     -0.017923      0.019898
 -----------------------------------------------------------------------------------
    total drift:                                0.005828      0.001687      0.001939


--------------------------------------------------------------------------------------------------------



  FREE ENERGIE OF THE ION-ELECTRON SYSTEM (eV)
  ---------------------------------------------------
  free  energy   TOTEN  =       -72.94969569 eV

  energy  without entropy=      -72.94969569  energy(sigma->0) =      -72.94969569



--------------------------------------------------------------------------------------------------------


    POTLOK:  cpu time    1.7833: real time    1.7833


--------------------------------------------------------------------------------------------------------


 NEB: the previous image is higher in energy: T
 NEB: the next image is higher in energy    : F
 NEB: only prev energy greater

 NEB: Tangent
 ----------------------------------------------
     -0.06777      0.00599     -0.03667
     -0.06461     -0.00828      0.06410
     -0.12063     -0.00790     -0.09937
     -0.19423      0.02071      0.30530
     -0.09014     -0.01675      0.03456
     -0.07045      0.03135     -0.07213
     -0.06647     -0.00100      0.03428
     -0.06217      0.00307     -0.05191
     -0.06753     -0.00186     -0.01564
     -0.06340     -0.00104      0.01139
     -0.10226      0.01524      0.08652
     -0.10323     -0.01395     -0.04849
      0.31224     -0.09289     -0.21007
      0.75041      0.11785     -0.13675
     -0.03049     -0.07185      0.06730

 NEB: forces: par spring, perp REAL, dneb     0.000896    0.006226    0.000000
 NEB: distance to prev, next image, angle between     0.523489    0.523309  169.645786
 NEB: projections on to tangent (spring, REAL)    -0.000896    0.249321

 stress matrix after NEB project (eV)
     -1.07030      0.35290      0.74907
      0.35290     -3.16925     -0.00137
      0.74907     -0.00137     -0.81965
  FORCES: max atom, RMS     0.003143    0.001624
  FORCE total and by dimension    0.006290    0.003059
  Stress total and by dimension    3.637693    3.169253
 Quasi-Newton relaxation of ions (Broydens 2nd method)
  g(Force)  = 0.105E-03   g(Stress)= 0.000E+00

 Reset! Starting new Quasi-Newton update for ions 


--------------------------------------------------------------------------------------------------------


    WAVPRE:  cpu time   17.4916: real time   18.3521
    FEWALD:  cpu time    0.0040: real time    0.0040
    ORTHCH:  cpu time    3.5101: real time    3.5283
     LOOP+:  cpu time 1156.5985: real time 1159.6126


--------------------------------------- Iteration      2(   1)  ---------------------------------------


    POTLOK:  cpu time    2.5722: real time    2.5746
    SETDIJ:  cpu time    0.0596: real time    0.0596
     EDDAV:  cpu time   35.0680: real time   35.1934
       DOS:  cpu time    0.0006: real time    0.0006
    CHARGE:  cpu time    1.9255: real time    1.9343
    MIXING:  cpu time    0.0510: real time    0.0510
    --------------------------------------------
      LOOP:  cpu time   39.6770: real time   39.8136

 eigenvalue-minimisations  :   624
 total energy-change (2. order) : 0.5937778E-05  (-0.3786071E-05)
 number of electron      48.0000002 magnetization 
 augmentation part       -0.7408311 magnetization 

 Broyden mixing:
  rms(total) = 0.13370E-03    rms(broyden)= 0.13349E-03
  rms(prec ) = 0.15481E-03
  weight for this iteration     100.00

 Free energy of the ion-electron system (eV)
  ---------------------------------------------------
  alpha Z        PSCENC =        14.13034224
  Ewald energy   TEWEN  =      1569.42468912
  -Hartree energ DENC   =     -2749.98798224
  -exchange      EXHF   =         0.00000000
  -V(xc)+E(xc)   XCENC  =      -140.27126881
  PAW double counting   =      1740.77674288    -1483.23478640
  entropy T*S    EENTRO =        -0.00000000
  eigenvalues    EBANDS =      -342.42931891
  atomic energy  EATOM  =      1318.64189276
  Solvation  Ediel_sol  =         0.00000000
  ---------------------------------------------------
  free energy    TOTEN  =       -72.94968936 eV

  energy without entropy =      -72.94968936  energy(sigma->0) =      -72.94968936


--------------------------------------------------------------------------------------------------------




--------------------------------------- Iteration      2(   2)  ---------------------------------------


    POTLOK:  cpu time    2.1786: real time    2.1897
    SETDIJ:  cpu time    0.0613: real time    0.0615
     EDDAV:  cpu time   29.8218: real time   29.9882
       DOS:  cpu time    0.0008: real time    0.0008
    --------------------------------------------
      LOOP:  cpu time   32.0624: real time   32.2401

 eigenvalue-minimisations  :   512
 total energy-change (2. order) :-0.1322705E-06  (-0.1390961E-06)
 number of electron      48.0000002 magnetization 
 augmentation part       -0.7408311 magnetization 

 Free energy of the ion-electron system (eV)
  ---------------------------------------------------
  alpha Z        PSCENC =        14.13034224
  Ewald energy   TEWEN  =      1569.42468912
  -Hartree energ DENC   =     -2749.98732798
  -exchange      EXHF   =         0.00000000
  -V(xc)+E(xc)   XCENC  =      -140.27133512
  PAW double counting   =      1740.77080359    -1483.22883588
  entropy T*S    EENTRO =        -0.00000000
  eigenvalues    EBANDS =      -342.42991822
  atomic energy  EATOM  =      1318.64189276
  Solvation  Ediel_sol  =         0.00000000
  ---------------------------------------------------
  free energy    TOTEN  =       -72.94968949 eV

  energy without entropy =      -72.94968949  energy(sigma->0) =      -72.94968949


--------------------------------------------------------------------------------------------------------




 average (electrostatic) potential at core
  the test charge radii are     1.0406  0.6991  1.0339  0.5883
  (the norm of the test charge is              1.0000)
       1 -59.1290       2 -59.2169       3 -59.4146       4 -59.7635       5 -59.6640
       6 -59.6099       7 -59.2650       8 -59.2534       9 -55.1392      10 -55.1106
      11 -56.0098      12 -55.5078      13 -97.0273      14 -38.4230      15 -37.9849



 E-fermi :  -1.9209     XC(G=0):  -3.1944     alpha+bet : -2.6874


 k-point     1 :       0.0000    0.0000    0.0000
  band No.  band energies     occupation 
      1     -15.6072      2.00000
      2     -14.5316      2.00000
      3     -13.6892      2.00000
      4     -12.6341      2.00000
      5     -11.5634      2.00000
      6      -8.8852      2.00000
      7      -8.7936      2.00000
      8      -8.5034      2.00000
      9      -7.9559      2.00000
     10      -7.3591      2.00000
     11      -6.5779      2.00000
     12      -6.2275      2.00000
     13      -5.8134      2.00000
     14      -5.3566      2.00000
     15      -4.9986      2.00000
     16      -4.7325      2.00000
     17      -4.3999      2.00000
     18      -4.2419      2.00000
     19      -3.6189      2.00000
     20      -3.5332      2.00000
     21      -3.1113      2.00000
     22      -2.8203      2.00000
     23      -2.4797      2.00000
     24      -2.1870      2.00000
     25      -1.4385      0.00000
     26      -0.9458      0.00000
     27      -0.1026      0.00000
     28       0.0300      0.00000
     29       0.1640      0.00000
     30       0.4774      0.00000
     31       0.6432      0.00000
     32       1.0617      0.00000

 k-point     2 :       0.2000    0.0000    0.0000
  band No.  band energies     occupation 
      1     -15.5936      2.00000
      2     -14.4762      2.00000
      3     -13.5651      2.00000
      4     -12.8256      2.00000
      5     -11.9438      2.00000
      6      -8.7668      2.00000
      7      -8.5060      2.00000
      8      -7.9783      2.00000
      9      -7.8638      2.00000
     10      -7.2365      2.00000
     11      -6.5958      2.00000
     12      -6.4823      2.00000
     13      -6.1067      2.00000
     14      -5.3069      2.00000
     15      -4.9981      2.00000
     16      -4.6171      2.00000
     17      -4.3787      2.00000
     18      -4.1912      2.00000
     19      -3.8755      2.00000
     20      -3.5404      2.00000
     21      -3.5170      2.00000
     22      -3.3034      2.00000
     23      -2.6502      2.00000
     24      -2.4675      2.00000
     25      -1.2214      0.00000
     26      -0.3060      0.00000
     27      -0.1220      0.00000
     28       0.2064      0.00000
     29       0.4039      0.00000
     30       0.6789      0.00000
     31       0.8530      0.00000
     32       0.9134      0.00000

 k-point     3 :       0.4000    0.0000    0.0000
  band No.  band energies     occupation 
      1     -15.5720      2.00000
      2     -14.3585      2.00000
      3     -13.2198      2.00000
      4     -13.1181      2.00000
      5     -12.6161      2.00000
      6      -8.4806      2.00000
      7      -8.1612      2.00000
      8      -7.8438      2.00000
      9      -7.3831      2.00000
     10      -6.7486      2.00000
     11      -6.5540      2.00000
     12      -6.2517      2.00000
     13      -5.8886      2.00000
     14      -5.7779      2.00000
     15      -5.2715      2.00000
     16      -5.0427      2.00000
     17      -4.8865      2.00000
     18      -4.4085      2.00000
     19      -4.2396      2.00000
     20      -4.0273      2.00000
     21      -3.4919      2.00000
     22      -3.3768      2.00000
     23      -2.9186      2.00000
     24      -2.4979      2.00000
     25      -0.9075      0.00000
     26      -0.4035      0.00000
     27      -0.0074      0.00000
     28       0.7201      0.00000
     29       0.8725      0.00000
     30       1.1722      0.00000
     31       1.3110      0.00000
     32       1.3886      0.00000

 k-point     4 :       0.0000    0.3333    0.0000
  band No.  band energies     occupation 
      1     -15.6070      2.00000
      2     -14.5302      2.00000
      3     -13.6929      2.00000
      4     -12.6358      2.00000
      5     -11.5643      2.00000
      6      -8.7587      2.00000
      7      -8.6778      2.00000
      8      -8.5588      2.00000
      9      -8.0393      2.00000
     10      -7.5757      2.00000
     11      -7.0662      2.00000
     12      -5.7540      2.00000
     13      -5.4918      2.00000
     14      -5.2128      2.00000
     15      -4.9885      2.00000
     16      -4.6695      2.00000
     17      -4.3811      2.00000
     18      -4.1408      2.00000
     19      -3.6948      2.00000
     20      -3.6156      2.00000
     21      -3.3573      2.00000
     22      -3.0928      2.00000
     23      -2.8206      2.00000
     24      -2.1801      2.00000
     25      -1.2254      0.00000
     26      -0.6719      0.00000
     27      -0.2052      0.00000
     28       0.0433      0.00000
     29       0.4582      0.00000
     30       0.6372      0.00000
     31       0.7956      0.00000
     32       0.8613      0.00000

 k-point     5 :       0.2000    0.3333    0.0000
  band No.  band energies     occupation 
      1     -15.5934      2.00000
      2     -14.4749      2.00000
      3     -13.5678      2.00000
      4     -12.8274      2.00000
      5     -11.9455      2.00000
      6      -8.6253      2.00000
      7      -8.4495      2.00000
      8      -7.9945      2.00000
      9      -7.9410      2.00000
     10      -7.4116      2.00000
     11      -7.0286      2.00000
     12      -6.3568      2.00000
     13      -5.7303      2.00000
     14      -5.3537      2.00000
     15      -4.8051      2.00000
     16      -4.5283      2.00000
     17      -4.3282      2.00000
     18      -4.1270      2.00000
     19      -3.7903      2.00000
     20      -3.5870      2.00000
     21      -3.4838      2.00000
     22      -3.3969      2.00000
     23      -2.9727      2.00000
     24      -2.6510      2.00000
     25      -1.0878      0.00000
     26      -0.4872      0.00000
     27      -0.1373      0.00000
     28       0.2076      0.00000
     29       0.4584      0.00000
     30       0.7694      0.00000
     31       0.8320      0.00000
     32       0.9952      0.00000

 k-point     6 :       0.4000    0.3333    0.0000
  band No.  band energies     occupation 
      1     -15.5719      2.00000
      2     -14.3577      2.00000
      3     -13.2055      2.00000
      4     -13.1338      2.00000
      5     -12.6206      2.00000
      6      -8.3932      2.00000
      7      -8.1915      2.00000
      8      -7.6900      2.00000
      9      -7.2339      2.00000
     10      -7.0070      2.00000
     11      -6.7148      2.00000
     12      -6.5181      2.00000
     13      -6.3588      2.00000
     14      -5.4325      2.00000
     15      -5.0995      2.00000
     16      -4.9076      2.00000
     17      -4.6475      2.00000
     18      -4.1399      2.00000
     19      -4.0517      2.00000
     20      -3.9442      2.00000
     21      -3.5562      2.00000
     22      -3.3830      2.00000
     23      -3.1912      2.00000
     24      -2.8141      2.00000
     25      -0.9054      0.00000
     26      -0.3496      0.00000
     27       0.0094      0.00000
     28       0.5831      0.00000
     29       0.7507      0.00000
     30       0.8998      0.00000
     31       1.1544      0.00000
     32       1.2615      0.00000

 k-point     7 :      -0.4000    0.3333    0.0000
  band No.  band energies     occupation 
      1     -15.5719      2.00000
      2     -14.3577      2.00000
      3     -13.2087      2.00000
      4     -13.1304      2.00000
      5     -12.6209      2.00000
      6      -8.3988      2.00000
      7      -8.1976      2.00000
      8      -7.6457      2.00000
      9      -7.2223      2.00000
     10      -7.0694      2.00000
     11      -6.7261      2.00000
     12      -6.5395      2.00000
     13      -6.3152      2.00000
     14      -5.4111      2.00000
     15      -5.0923      2.00000
     16      -4.9021      2.00000
     17      -4.6245      2.00000
     18      -4.2318      2.00000
     19      -4.0809      2.00000
     20      -3.9031      2.00000
     21      -3.5515      2.00000
     22      -3.3823      2.00000
     23      -3.1455      2.00000
     24      -2.8319      2.00000
     25      -0.9617      0.00000
     26      -0.2661      0.00000
     27       0.0790      0.00000
     28       0.4746      0.00000
     29       0.7570      0.00000
     30       0.8939      0.00000
     31       1.0683      0.00000
     32       1.4061      0.00000

 k-point     8 :      -0.2000    0.3333    0.0000
  band No.  band energies     occupation 
      1     -15.5935      2.00000
      2     -14.4748      2.00000
      3     -13.5681      2.00000
      4     -12.8270      2.00000
      5     -11.9456      2.00000
      6      -8.6155      2.00000
      7      -8.4847      2.00000
      8      -7.9971      2.00000
      9      -7.8567      2.00000
     10      -7.4782      2.00000
     11      -7.0230      2.00000
     12      -6.3837      2.00000
     13      -5.7222      2.00000
     14      -5.2878      2.00000
     15      -4.7762      2.00000
     16      -4.5645      2.00000
     17      -4.3627      2.00000
     18      -4.1626      2.00000
     19      -3.8002      2.00000
     20      -3.5739      2.00000
     21      -3.4879      2.00000
     22      -3.3315      2.00000
     23      -3.0103      2.00000
     24      -2.6499      2.00000
     25      -1.1242      0.00000
     26      -0.3234      0.00000
     27      -0.1568      0.00000
     28       0.0993      0.00000
     29       0.4549      0.00000
     30       0.7063      0.00000
     31       0.9007      0.00000
     32       1.0314      0.00000


--------------------------------------------------------------------------------------------------------


 soft charge-density along one line, spin component           1
         0         1         2         3         4         5         6         7         8         9
 total charge-density along one line

 pseudopotential strength for first ion, spin component:           1
  7.446 -17.446  -0.004  -0.001   0.000   0.020   0.005  -0.001
-17.446  50.470   0.010   0.002  -0.000  -0.046  -0.010   0.001
 -0.004   0.010   1.743   0.000  -0.000  -6.878  -0.002   0.000
 -0.001   0.002   0.000   1.746   0.000  -0.002  -6.895  -0.001
  0.000  -0.000  -0.000   0.000   1.743   0.000  -0.001  -6.880
  0.020  -0.046  -6.878  -0.002   0.000  29.272   0.010  -0.001
  0.005  -0.010  -0.002  -6.895  -0.001   0.010  29.342   0.002
 -0.001   0.001   0.000  -0.001  -6.880  -0.001   0.002  29.281
 -0.000   0.000   0.000   0.000  -0.003  -0.000  -0.000   0.008
  0.002  -0.003  -0.001  -0.003   0.000   0.002   0.008  -0.000
  0.009  -0.011   0.001  -0.001  -0.000  -0.003   0.002   0.000
  0.001  -0.001   0.000   0.000  -0.001  -0.000  -0.000   0.002
  0.001  -0.002   0.001   0.000   0.000  -0.005  -0.000  -0.000
  0.000  -0.001  -0.001   0.000   0.010   0.002  -0.000  -0.037
 -0.009   0.016   0.004   0.010   0.000  -0.014  -0.038  -0.000
 -0.036   0.063  -0.004   0.004   0.000   0.015  -0.014  -0.001
 -0.002   0.004   0.000  -0.000   0.004  -0.000   0.001  -0.012
 -0.005   0.009  -0.007  -0.000  -0.000   0.026   0.001   0.001
 total augmentation occupancy for first ion, spin component:           1
  1.394   0.018  -0.051   0.027  -0.001   0.004   0.000  -0.000  -0.001  -0.025  -0.089  -0.004  -0.028  -0.000  -0.001  -0.005
  0.018   0.000   0.009  -0.000  -0.000   0.000  -0.000  -0.000  -0.000  -0.000  -0.002  -0.000   0.000  -0.000  -0.000  -0.000
 -0.051   0.009   1.301  -0.111  -0.003   0.019  -0.002  -0.000  -0.003   0.020  -0.078  -0.005   0.051  -0.000   0.000  -0.003
  0.027  -0.000  -0.111   0.417  -0.023  -0.002   0.005  -0.000  -0.006   0.055   0.001   0.000  -0.018  -0.000   0.001   0.000
 -0.001  -0.000  -0.003  -0.023   1.098  -0.000  -0.000   0.018   0.226  -0.006   0.001  -0.015   0.001   0.007  -0.000   0.000
  0.004   0.000   0.019  -0.002  -0.000   0.000  -0.000  -0.000  -0.000   0.000  -0.002  -0.000   0.000  -0.000   0.000  -0.000
  0.000  -0.000  -0.002   0.005  -0.000  -0.000   0.000  -0.000  -0.000   0.001   0.000   0.000  -0.000  -0.000   0.000   0.000
 -0.000  -0.000  -0.000  -0.000   0.018  -0.000  -0.000   0.000   0.004  -0.000   0.000  -0.000   0.000   0.000  -0.000   0.000
 -0.001  -0.000  -0.003  -0.006   0.226  -0.000  -0.000   0.004   0.065  -0.002   0.000  -0.003   0.000   0.002  -0.000   0.000
 -0.025  -0.000   0.020   0.055  -0.006   0.000   0.001  -0.000  -0.002   0.011  -0.001  -0.000   0.004  -0.000   0.000   0.000
 -0.089  -0.002  -0.078   0.001   0.001  -0.002   0.000   0.000   0.000  -0.001   0.013  -0.000  -0.004   0.000   0.000   0.001
 -0.004  -0.000  -0.005   0.000  -0.015  -0.000   0.000  -0.000  -0.003  -0.000  -0.000   0.020  -0.001  -0.000  -0.000   0.000
 -0.028   0.000   0.051  -0.018   0.001   0.000  -0.000   0.000   0.000   0.004  -0.004  -0.001   0.040   0.000   0.000  -0.000
 -0.000  -0.000  -0.000  -0.000   0.007  -0.000  -0.000   0.000   0.002  -0.000   0.000  -0.000   0.000   0.000  -0.000   0.000
 -0.001  -0.000   0.000   0.001  -0.000   0.000   0.000  -0.000  -0.000   0.000   0.000  -0.000   0.000  -0.000   0.000   0.000
 -0.005  -0.000  -0.003   0.000   0.000  -0.000   0.000   0.000   0.000   0.000   0.001   0.000  -0.000   0.000   0.000   0.000
 -0.000  -0.000  -0.000   0.000  -0.000  -0.000   0.000  -0.000  -0.000  -0.000   0.000   0.000  -0.000  -0.000   0.000   0.000
 -0.001   0.000   0.000  -0.000   0.000  -0.000  -0.000   0.000   0.000   0.000  -0.000  -0.000   0.001   0.000   0.000  -0.000


------------------------ aborting loop because EDIFF is reached ----------------------------------------


    CHARGE:  cpu time    2.0051: real time    2.0166
    FORLOC:  cpu time    0.3114: real time    0.3162
    FORNL :  cpu time    8.7735: real time    8.8160
    STRESS:  cpu time   26.1621: real time   26.3019
    FORCOR:  cpu time    1.9587: real time    1.9665
    FORHAR:  cpu time    0.7102: real time    0.7109
    MIXING:  cpu time    0.0377: real time    0.0377
    OFIELD:  cpu time    0.0000: real time    0.0000

  FORCE on cell =-STRESS in cart. coord.  units (eV):
  Direction    XX          YY          ZZ          XY          YZ          ZX
  --------------------------------------------------------------------------------------
  Alpha Z    14.13034    14.13034    14.13034
  Ewald    2525.26673  2149.24188 -3105.08540    -8.87376    73.53109     5.43567
  Hartree  2578.59693  2290.36399 -2118.97477     0.79473    36.66532     1.39811
  E(xc)    -153.77707  -154.68093  -154.26643    -0.11592     0.16041    -0.08662
  Local   -5605.18579 -4936.11736  4739.24289     3.04950  -105.50525    -8.28600
  n-local   195.42537   206.79206   168.62267     0.48738    -0.34584     1.17421
  augment   -24.49609   -24.62951   -22.81021    -0.31378     0.40485    -0.15594
  Kinetic   468.96959   451.73004   478.31710     5.32443    -4.91117     1.26930
  Fock        0.00000     0.00000     0.00000     0.00000     0.00000     0.00000
  -------------------------------------------------------------------------------------
  Total      -1.06999    -3.16949    -0.82381     0.35258    -0.00060     0.74873
  in kB      -1.87250    -5.54667    -1.44168     0.61703    -0.00105     1.31030
  external pressure =       -2.95 kB  Pullay stress =        0.00 kB


 VOLUME and BASIS-vectors are now :
 -----------------------------------------------------------------------------
  energy-cutoff  :      450.00
  volume of cell :      915.52
      direct lattice vectors                 reciprocal lattice vectors
     6.019200000  0.000000000  0.000000000     0.166135035  0.000000000  0.000000000
     0.000000000 10.140000000  0.000000000     0.000000000  0.098619329  0.000000000
     0.000000000  0.000000000 15.000000000     0.000000000  0.000000000  0.066666667

  length of vectors
     6.019200000 10.140000000 15.000000000     0.166135035  0.098619329  0.066666667


 FORCES acting on ions
    electron-ion (+dipol)            ewald-force                    non-local-force                 convergence-correction
 -----------------------------------------------------------------------------------------------
   0.334E+01 0.380E+02 0.293E+02   -.341E+01 -.360E+02 -.287E+02   0.559E-01 -.204E+01 -.637E+00   0.253E-04 -.301E-04 -.282E-03
   -.340E+01 0.397E+02 0.183E+02   0.335E+01 -.370E+02 -.182E+02   0.355E-01 -.276E+01 -.234E-02   -.164E-04 -.467E-04 -.270E-03
   0.188E+02 -.388E+02 0.142E+02   -.177E+02 0.385E+02 -.150E+02   -.118E+01 0.266E+00 0.844E+00   -.140E-03 -.217E-03 -.274E-05
   -.159E+02 -.429E+02 0.640E+01   0.151E+02 0.422E+02 -.900E+01   0.753E+00 0.684E+00 0.267E+01   0.151E-03 -.183E-03 0.482E-04
   0.980E+01 0.555E+02 0.372E+02   -.741E+01 -.541E+02 -.368E+02   -.241E+01 -.143E+01 -.449E+00   -.169E-03 0.109E-03 0.523E-05
   -.888E+01 0.553E+02 0.334E+02   0.672E+01 -.537E+02 -.330E+02   0.214E+01 -.159E+01 -.348E+00   0.203E-03 0.912E-04 0.520E-04
   0.766E+00 -.526E+02 0.254E+02   -.744E+00 0.488E+02 -.248E+02   -.375E-01 0.375E+01 -.553E+00   0.730E-05 0.731E-04 -.280E-03
   -.878E+00 -.521E+02 0.293E+02   0.828E+00 0.486E+02 -.285E+02   0.353E-01 0.358E+01 -.776E+00   0.250E-05 0.712E-04 -.276E-03
   0.414E+00 -.756E+01 0.266E+02   -.289E+00 0.729E+01 -.266E+02   -.141E+00 0.277E+00 0.165E-01   -.690E-04 0.112E-03 -.104E-02
   -.348E+00 -.811E+01 0.424E+02   0.277E+00 0.777E+01 -.431E+02   0.554E-01 0.343E+00 0.628E+00   -.128E-03 0.409E-04 -.106E-02
   0.420E+01 0.114E+02 -.346E-01   -.401E+01 -.961E+01 -.471E+01   -.219E+00 -.183E+01 0.476E+01   -.242E-03 -.699E-03 0.178E-02
   -.111E+01 0.109E+02 0.860E+02   0.946E+00 -.105E+02 -.876E+02   0.142E+00 -.375E+00 0.163E+01   -.321E-03 -.424E-05 -.546E-03
   -.211E+02 0.887E+01 -.231E+03   0.234E+02 -.168E+02 0.231E+03   -.226E+01 0.796E+01 -.391E+00   0.940E-04 -.608E-03 -.243E-03
   0.140E+02 -.400E+02 -.496E+02   -.154E+02 0.436E+02 0.510E+02   0.151E+01 -.360E+01 -.142E+01   -.518E-04 0.398E-04 0.942E-05
   0.185E+01 0.180E+02 -.690E+02   -.181E+01 -.191E+02 0.739E+02   -.483E-01 0.107E+01 -.482E+01   -.619E-04 0.783E-04 -.465E-03
 -----------------------------------------------------------------------------------------------
   0.158E+01 -.432E+01 -.116E+01   -.666E-14 0.213E-13 -.142E-13   -.157E+01 0.432E+01 0.116E+01   -.715E-03 -.117E-02 -.257E-02


 POSITION                                       TOTAL-FORCE (eV/Angst)
 -----------------------------------------------------------------------------------
      2.47212      8.83880      3.67213        -0.016175      0.001839     -0.007905
      5.48693      8.86172      3.73854        -0.015329     -0.001707      0.017225
      2.54841      6.31468      4.37004        -0.029223     -0.001544     -0.023365
      5.37675      6.31219      4.24716        -0.047813      0.005590      0.077344
      2.49671      3.79505      3.78775        -0.021680     -0.003781      0.009801
      5.42529      3.77791      3.80533        -0.017013      0.008243     -0.016799
      2.48140      1.18214      3.56900        -0.015858      0.000128      0.009789
      5.48274      1.18418      3.53664        -0.014766      0.001165     -0.011645
      0.97216     10.10347      3.63256        -0.016285     -0.000143     -0.002715
      3.98066     10.09331      3.53811        -0.015288      0.000079      0.004113
      0.94092      4.98277      4.47173        -0.024756      0.003975      0.023939
      3.96739      5.02798      3.69325        -0.025133     -0.003168     -0.010923
      3.58620      6.46309      6.46067         0.078506     -0.023708     -0.052351
      3.10014      7.64958      6.91927         0.187702      0.030131     -0.032885
      0.94756      4.72386      5.55728        -0.006889     -0.017098      0.016376
 -----------------------------------------------------------------------------------
    total drift:                                0.004915      0.001058      0.000504


--------------------------------------------------------------------------------------------------------



  FREE ENERGIE OF THE ION-ELECTRON SYSTEM (eV)
  ---------------------------------------------------
  free  energy   TOTEN  =       -72.94968949 eV

  energy  without entropy=      -72.94968949  energy(sigma->0) =      -72.94968949

 d Force =-0.6541588E-05[-0.685E-05,-0.624E-05]  d Energy =-0.6200341E-05-0.341E-06
 d Force = 0.6734747E-02[ 0.673E-02, 0.674E-02]  d Ewald  = 0.6734747E-02 0.507E-10


--------------------------------------------------------------------------------------------------------


    POTLOK:  cpu time    1.7749: real time    1.7820


--------------------------------------------------------------------------------------------------------


 NEB: the previous image is higher in energy: T
 NEB: the next image is higher in energy    : F
 NEB: only prev energy greater

 NEB: Tangent
 ----------------------------------------------
     -0.06776      0.00601     -0.03667
     -0.06460     -0.00827      0.06414
     -0.12062     -0.00791     -0.09933
     -0.19419      0.02069      0.30531
     -0.09013     -0.01675      0.03460
     -0.07044      0.03135     -0.07211
     -0.06645     -0.00099      0.03431
     -0.06216      0.00308     -0.05190
     -0.06752     -0.00188     -0.01560
     -0.06342     -0.00105      0.01141
     -0.10223      0.01526      0.08642
     -0.10320     -0.01396     -0.04847
      0.31224     -0.09282     -0.21004
      0.75045      0.11791     -0.13672
     -0.03049     -0.07186      0.06742

 NEB: forces: par spring, perp REAL, dneb     0.001181    0.005850    0.000000
 NEB: distance to prev, next image, angle between     0.523639    0.523403  169.642601
 NEB: projections on to tangent (spring, REAL)    -0.001181    0.249466

 stress matrix after NEB project (eV)
     -1.06999      0.35258      0.74873
      0.35258     -3.16949     -0.00060
      0.74873     -0.00060     -0.82381
  FORCES: max atom, RMS     0.002443    0.001541
  FORCE total and by dimension    0.005968    0.002279
  Stress total and by dimension    3.638549    3.169491
 Quasi-Newton relaxation of ions (Broydens 2nd method)
  g(Force)  = 0.890E-04   g(Stress)= 0.000E+00

 retain information from N=  1 steps
 eigenvalues of (default step * inverse Hessian matrix)
  average eigenvalue of G=   1.9086
 eigenvalue spectrum of G is  1.9086


--------------------------------------------------------------------------------------------------------


    WAVPRE:  cpu time   35.4966: real time   36.7626
    FEWALD:  cpu time    0.0086: real time    0.0086
    ORTHCH:  cpu time    3.4230: real time    3.4413
     LOOP+:  cpu time  152.5204: real time  155.6930


--------------------------------------- Iteration      3(   1)  ---------------------------------------


    POTLOK:  cpu time    2.2417: real time    2.2505
    SETDIJ:  cpu time    0.0540: real time    0.0543
     EDDAV:  cpu time   30.7906: real time   30.8614
       DOS:  cpu time    0.0008: real time    0.0008
    CHARGE:  cpu time    1.9815: real time    1.9858
    MIXING:  cpu time    0.0474: real time    0.0474
    --------------------------------------------
      LOOP:  cpu time   35.1160: real time   35.2002

 eigenvalue-minimisations  :   528
 total energy-change (2. order) : 0.1499612E-04  (-0.1283160E-04)
 number of electron      48.0000002 magnetization 
 augmentation part       -0.7408228 magnetization 

 Broyden mixing:
  rms(total) = 0.18146E-03    rms(broyden)= 0.18094E-03
  rms(prec ) = 0.21897E-03
  weight for this iteration     100.00

 Free energy of the ion-electron system (eV)
  ---------------------------------------------------
  alpha Z        PSCENC =        14.13034224
  Ewald energy   TEWEN  =      1569.44321973
  -Hartree energ DENC   =     -2750.00259633
  -exchange      EXHF   =         0.00000000
  -V(xc)+E(xc)   XCENC  =      -140.27122390
  PAW double counting   =      1740.76664387    -1483.22466640
  entropy T*S    EENTRO =        -0.00000000
  eigenvalues    EBANDS =      -342.43328632
  atomic energy  EATOM  =      1318.64189276
  Solvation  Ediel_sol  =         0.00000000
  ---------------------------------------------------
  free energy    TOTEN  =       -72.94967436 eV

  energy without entropy =      -72.94967436  energy(sigma->0) =      -72.94967436


--------------------------------------------------------------------------------------------------------




--------------------------------------- Iteration      3(   2)  ---------------------------------------


    POTLOK:  cpu time    2.2996: real time    2.3073
    SETDIJ:  cpu time    0.0625: real time    0.0625
     EDDAV:  cpu time   31.5542: real time   31.6194
       DOS:  cpu time    0.0005: real time    0.0005
    --------------------------------------------
      LOOP:  cpu time   33.9167: real time   33.9897

 eigenvalue-minimisations  :   552
 total energy-change (2. order) :-0.2651987E-06  (-0.3654590E-06)
 number of electron      48.0000002 magnetization 
 augmentation part       -0.7408228 magnetization 

 Free energy of the ion-electron system (eV)
  ---------------------------------------------------
  alpha Z        PSCENC =        14.13034224
  Ewald energy   TEWEN  =      1569.44321973
  -Hartree energ DENC   =     -2750.00369330
  -exchange      EXHF   =         0.00000000
  -V(xc)+E(xc)   XCENC  =      -140.27118085
  PAW double counting   =      1740.77113193    -1483.22916142
  entropy T*S    EENTRO =        -0.00000000
  eigenvalues    EBANDS =      -342.43222571
  atomic energy  EATOM  =      1318.64189276
  Solvation  Ediel_sol  =         0.00000000
  ---------------------------------------------------
  free energy    TOTEN  =       -72.94967462 eV

  energy without entropy =      -72.94967462  energy(sigma->0) =      -72.94967462


--------------------------------------------------------------------------------------------------------




 average (electrostatic) potential at core
  the test charge radii are     1.0406  0.6991  1.0339  0.5883
  (the norm of the test charge is              1.0000)
       1 -59.1289       2 -59.2169       3 -59.4146       4 -59.7636       5 -59.6639
       6 -59.6099       7 -59.2650       8 -59.2534       9 -55.1392      10 -55.1105
      11 -56.0103      12 -55.5077      13 -97.0273      14 -38.4222      15 -37.9871



 E-fermi :  -1.9209     XC(G=0):  -3.1952     alpha+bet : -2.6874


 k-point     1 :       0.0000    0.0000    0.0000
  band No.  band energies     occupation 
      1     -15.6071      2.00000
      2     -14.5321      2.00000
      3     -13.6892      2.00000
      4     -12.6344      2.00000
      5     -11.5634      2.00000
      6      -8.8851      2.00000
      7      -8.7936      2.00000
      8      -8.5034      2.00000
      9      -7.9558      2.00000
     10      -7.3596      2.00000
     11      -6.5779      2.00000
     12      -6.2275      2.00000
     13      -5.8134      2.00000
     14      -5.3567      2.00000
     15      -4.9986      2.00000
     16      -4.7325      2.00000
     17      -4.3999      2.00000
     18      -4.2420      2.00000
     19      -3.6190      2.00000
     20      -3.5333      2.00000
     21      -3.1113      2.00000
     22      -2.8202      2.00000
     23      -2.4797      2.00000
     24      -2.1869      2.00000
     25      -1.4385      0.00000
     26      -0.9457      0.00000
     27      -0.1026      0.00000
     28       0.0300      0.00000
     29       0.1640      0.00000
     30       0.4774      0.00000
     31       0.6431      0.00000
     32       1.0565      0.00000

 k-point     2 :       0.2000    0.0000    0.0000
  band No.  band energies     occupation 
      1     -15.5935      2.00000
      2     -14.4767      2.00000
      3     -13.5651      2.00000
      4     -12.8259      2.00000
      5     -11.9437      2.00000
      6      -8.7668      2.00000
      7      -8.5062      2.00000
      8      -7.9783      2.00000
      9      -7.8637      2.00000
     10      -7.2369      2.00000
     11      -6.5958      2.00000
     12      -6.4823      2.00000
     13      -6.1067      2.00000
     14      -5.3069      2.00000
     15      -4.9982      2.00000
     16      -4.6171      2.00000
     17      -4.3787      2.00000
     18      -4.1913      2.00000
     19      -3.8755      2.00000
     20      -3.5404      2.00000
     21      -3.5169      2.00000
     22      -3.3035      2.00000
     23      -2.6502      2.00000
     24      -2.4676      2.00000
     25      -1.2213      0.00000
     26      -0.3060      0.00000
     27      -0.1221      0.00000
     28       0.2064      0.00000
     29       0.4039      0.00000
     30       0.6789      0.00000
     31       0.8530      0.00000
     32       0.9134      0.00000

 k-point     3 :       0.4000    0.0000    0.0000
  band No.  band energies     occupation 
      1     -15.5718      2.00000
      2     -14.3593      2.00000
      3     -13.2198      2.00000
      4     -13.1182      2.00000
      5     -12.6160      2.00000
      6      -8.4805      2.00000
      7      -8.1618      2.00000
      8      -7.8437      2.00000
      9      -7.3830      2.00000
     10      -6.7486      2.00000
     11      -6.5540      2.00000
     12      -6.2517      2.00000
     13      -5.8886      2.00000
     14      -5.7779      2.00000
     15      -5.2715      2.00000
     16      -5.0427      2.00000
     17      -4.8865      2.00000
     18      -4.4085      2.00000
     19      -4.2396      2.00000
     20      -4.0273      2.00000
     21      -3.4918      2.00000
     22      -3.3767      2.00000
     23      -2.9186      2.00000
     24      -2.4979      2.00000
     25      -0.9075      0.00000
     26      -0.4035      0.00000
     27      -0.0074      0.00000
     28       0.7201      0.00000
     29       0.8725      0.00000
     30       1.1721      0.00000
     31       1.3109      0.00000
     32       1.3886      0.00000

 k-point     4 :       0.0000    0.3333    0.0000
  band No.  band energies     occupation 
      1     -15.6069      2.00000
      2     -14.5307      2.00000
      3     -13.6929      2.00000
      4     -12.6362      2.00000
      5     -11.5643      2.00000
      6      -8.7587      2.00000
      7      -8.6778      2.00000
      8      -8.5588      2.00000
      9      -8.0393      2.00000
     10      -7.5758      2.00000
     11      -7.0665      2.00000
     12      -5.7540      2.00000
     13      -5.4919      2.00000
     14      -5.2128      2.00000
     15      -4.9885      2.00000
     16      -4.6694      2.00000
     17      -4.3811      2.00000
     18      -4.1408      2.00000
     19      -3.6948      2.00000
     20      -3.6156      2.00000
     21      -3.3573      2.00000
     22      -3.0928      2.00000
     23      -2.8206      2.00000
     24      -2.1801      2.00000
     25      -1.2254      0.00000
     26      -0.6719      0.00000
     27      -0.2052      0.00000
     28       0.0434      0.00000
     29       0.4582      0.00000
     30       0.6372      0.00000
     31       0.7956      0.00000
     32       0.8613      0.00000

 k-point     5 :       0.2000    0.3333    0.0000
  band No.  band energies     occupation 
      1     -15.5933      2.00000
      2     -14.4755      2.00000
      3     -13.5677      2.00000
      4     -12.8276      2.00000
      5     -11.9455      2.00000
      6      -8.6253      2.00000
      7      -8.4497      2.00000
      8      -7.9945      2.00000
      9      -7.9410      2.00000
     10      -7.4116      2.00000
     11      -7.0289      2.00000
     12      -6.3568      2.00000
     13      -5.7303      2.00000
     14      -5.3537      2.00000
     15      -4.8052      2.00000
     16      -4.5283      2.00000
     17      -4.3282      2.00000
     18      -4.1271      2.00000
     19      -3.7903      2.00000
     20      -3.5870      2.00000
     21      -3.4838      2.00000
     22      -3.3969      2.00000
     23      -2.9727      2.00000
     24      -2.6509      2.00000
     25      -1.0878      0.00000
     26      -0.4872      0.00000
     27      -0.1373      0.00000
     28       0.2077      0.00000
     29       0.4584      0.00000
     30       0.7694      0.00000
     31       0.8319      0.00000
     32       0.9952      0.00000

 k-point     6 :       0.4000    0.3333    0.0000
  band No.  band energies     occupation 
      1     -15.5717      2.00000
      2     -14.3585      2.00000
      3     -13.2055      2.00000
      4     -13.1339      2.00000
      5     -12.6206      2.00000
      6      -8.3932      2.00000
      7      -8.1920      2.00000
      8      -7.6900      2.00000
      9      -7.2339      2.00000
     10      -7.0070      2.00000
     11      -6.7148      2.00000
     12      -6.5181      2.00000
     13      -6.3588      2.00000
     14      -5.4325      2.00000
     15      -5.0995      2.00000
     16      -4.9076      2.00000
     17      -4.6476      2.00000
     18      -4.1399      2.00000
     19      -4.0517      2.00000
     20      -3.9443      2.00000
     21      -3.5562      2.00000
     22      -3.3830      2.00000
     23      -3.1913      2.00000
     24      -2.8141      2.00000
     25      -0.9055      0.00000
     26      -0.3496      0.00000
     27       0.0095      0.00000
     28       0.5831      0.00000
     29       0.7507      0.00000
     30       0.8999      0.00000
     31       1.1544      0.00000
     32       1.2614      0.00000

 k-point     7 :      -0.4000    0.3333    0.0000
  band No.  band energies     occupation 
      1     -15.5717      2.00000
      2     -14.3584      2.00000
      3     -13.2086      2.00000
      4     -13.1305      2.00000
      5     -12.6209      2.00000
      6      -8.3987      2.00000
      7      -8.1981      2.00000
      8      -7.6457      2.00000
      9      -7.2223      2.00000
     10      -7.0694      2.00000
     11      -6.7261      2.00000
     12      -6.5395      2.00000
     13      -6.3152      2.00000
     14      -5.4111      2.00000
     15      -5.0922      2.00000
     16      -4.9022      2.00000
     17      -4.6246      2.00000
     18      -4.2318      2.00000
     19      -4.0809      2.00000
     20      -3.9031      2.00000
     21      -3.5515      2.00000
     22      -3.3822      2.00000
     23      -3.1455      2.00000
     24      -2.8319      2.00000
     25      -0.9617      0.00000
     26      -0.2661      0.00000
     27       0.0790      0.00000
     28       0.4746      0.00000
     29       0.7570      0.00000
     30       0.8939      0.00000
     31       1.0682      0.00000
     32       1.4060      0.00000

 k-point     8 :      -0.2000    0.3333    0.0000
  band No.  band energies     occupation 
      1     -15.5933      2.00000
      2     -14.4754      2.00000
      3     -13.5680      2.00000
      4     -12.8273      2.00000
      5     -11.9456      2.00000
      6      -8.6155      2.00000
      7      -8.4848      2.00000
      8      -7.9970      2.00000
      9      -7.8567      2.00000
     10      -7.4782      2.00000
     11      -7.0233      2.00000
     12      -6.3837      2.00000
     13      -5.7222      2.00000
     14      -5.2878      2.00000
     15      -4.7763      2.00000
     16      -4.5645      2.00000
     17      -4.3627      2.00000
     18      -4.1626      2.00000
     19      -3.8002      2.00000
     20      -3.5739      2.00000
     21      -3.4878      2.00000
     22      -3.3315      2.00000
     23      -3.0103      2.00000
     24      -2.6499      2.00000
     25      -1.1242      0.00000
     26      -0.3234      0.00000
     27      -0.1568      0.00000
     28       0.0993      0.00000
     29       0.4549      0.00000
     30       0.7064      0.00000
     31       0.9006      0.00000
     32       1.0314      0.00000


--------------------------------------------------------------------------------------------------------


 soft charge-density along one line, spin component           1
         0         1         2         3         4         5         6         7         8         9
 total charge-density along one line

 pseudopotential strength for first ion, spin component:           1
  7.446 -17.446  -0.004  -0.001   0.000   0.020   0.005  -0.001
-17.446  50.470   0.010   0.002  -0.000  -0.046  -0.010   0.001
 -0.004   0.010   1.743   0.000  -0.000  -6.878  -0.002   0.000
 -0.001   0.002   0.000   1.746   0.000  -0.002  -6.895  -0.001
  0.000  -0.000  -0.000   0.000   1.743   0.000  -0.001  -6.880
  0.020  -0.046  -6.878  -0.002   0.000  29.272   0.010  -0.001
  0.005  -0.010  -0.002  -6.895  -0.001   0.010  29.342   0.002
 -0.001   0.001   0.000  -0.001  -6.880  -0.001   0.002  29.281
 -0.000   0.000   0.000   0.000  -0.003  -0.000  -0.000   0.008
  0.002  -0.003  -0.001  -0.003   0.000   0.002   0.008  -0.000
  0.009  -0.011   0.001  -0.001  -0.000  -0.003   0.002   0.000
  0.001  -0.001   0.000   0.000  -0.001  -0.000  -0.000   0.002
  0.001  -0.002   0.001   0.000   0.000  -0.005  -0.000  -0.000
  0.000  -0.001  -0.001   0.000   0.010   0.002  -0.000  -0.037
 -0.009   0.016   0.004   0.010   0.000  -0.014  -0.038  -0.000
 -0.036   0.063  -0.004   0.004   0.000   0.015  -0.014  -0.001
 -0.002   0.004   0.000  -0.000   0.004  -0.000   0.001  -0.012
 -0.005   0.009  -0.007  -0.000  -0.000   0.026   0.001   0.001
 total augmentation occupancy for first ion, spin component:           1
  1.394   0.018  -0.051   0.027  -0.001   0.004   0.000  -0.000  -0.001  -0.025  -0.089  -0.004  -0.028  -0.000  -0.001  -0.005
  0.018   0.000   0.009  -0.000  -0.000   0.000  -0.000  -0.000  -0.000  -0.000  -0.002  -0.000   0.000  -0.000  -0.000  -0.000
 -0.051   0.009   1.301  -0.111  -0.003   0.019  -0.002  -0.000  -0.003   0.020  -0.078  -0.005   0.051  -0.000   0.000  -0.003
  0.027  -0.000  -0.111   0.417  -0.023  -0.002   0.005  -0.000  -0.006   0.055   0.001   0.000  -0.018  -0.000   0.001   0.000
 -0.001  -0.000  -0.003  -0.023   1.098  -0.000  -0.000   0.018   0.226  -0.006   0.001  -0.015   0.001   0.007  -0.000   0.000
  0.004   0.000   0.019  -0.002  -0.000   0.000  -0.000  -0.000  -0.000   0.000  -0.002  -0.000   0.000  -0.000   0.000  -0.000
  0.000  -0.000  -0.002   0.005  -0.000  -0.000   0.000  -0.000  -0.000   0.001   0.000   0.000  -0.000  -0.000   0.000   0.000
 -0.000  -0.000  -0.000  -0.000   0.018  -0.000  -0.000   0.000   0.004  -0.000   0.000  -0.000   0.000   0.000  -0.000   0.000
 -0.001  -0.000  -0.003  -0.006   0.226  -0.000  -0.000   0.004   0.065  -0.002   0.000  -0.003   0.000   0.002  -0.000   0.000
 -0.025  -0.000   0.020   0.055  -0.006   0.000   0.001  -0.000  -0.002   0.011  -0.001  -0.000   0.004  -0.000   0.000   0.000
 -0.089  -0.002  -0.078   0.001   0.001  -0.002   0.000   0.000   0.000  -0.001   0.013  -0.000  -0.004   0.000   0.000   0.001
 -0.004  -0.000  -0.005   0.000  -0.015  -0.000   0.000  -0.000  -0.003  -0.000  -0.000   0.020  -0.001  -0.000  -0.000   0.000
 -0.028   0.000   0.051  -0.018   0.001   0.000  -0.000   0.000   0.000   0.004  -0.004  -0.001   0.040   0.000   0.000  -0.000
 -0.000  -0.000  -0.000  -0.000   0.007  -0.000  -0.000   0.000   0.002  -0.000   0.000  -0.000   0.000   0.000  -0.000   0.000
 -0.001  -0.000   0.000   0.001  -0.000   0.000   0.000  -0.000  -0.000   0.000   0.000  -0.000   0.000  -0.000   0.000   0.000
 -0.005  -0.000  -0.003   0.000   0.000  -0.000   0.000   0.000   0.000   0.000   0.001   0.000  -0.000   0.000   0.000   0.000
 -0.000  -0.000  -0.000   0.000  -0.000  -0.000   0.000  -0.000  -0.000  -0.000   0.000   0.000  -0.000  -0.000   0.000   0.000
 -0.001   0.000   0.000  -0.000   0.000  -0.000  -0.000   0.000   0.000   0.000  -0.000  -0.000   0.001   0.000   0.000  -0.000


------------------------ aborting loop because EDIFF is reached ----------------------------------------


    CHARGE:  cpu time    2.0623: real time    2.0653
    FORLOC:  cpu time    0.3207: real time    0.3209
    FORNL :  cpu time    9.0062: real time    9.0203
    STRESS:  cpu time   26.2652: real time   26.3178
    FORCOR:  cpu time    1.8694: real time    1.8718
    FORHAR:  cpu time    0.7364: real time    0.7374
    MIXING:  cpu time    0.0483: real time    0.0483
    OFIELD:  cpu time    0.0001: real time    0.0001

  FORCE on cell =-STRESS in cart. coord.  units (eV):
  Direction    XX          YY          ZZ          XY          YZ          ZX
  --------------------------------------------------------------------------------------
  Alpha Z    14.13034    14.13034    14.13034
  Ewald    2525.27960  2149.24773 -3105.08559    -8.87081    73.52954     5.43764
  Hartree  2578.61651  2290.37872 -2118.98732     0.79561    36.66718     1.39839
  E(xc)    -153.77716  -154.68099  -154.26665    -0.11595     0.16045    -0.08665
  Local   -5605.21848 -4936.13863  4739.25926     3.04595  -105.50650    -8.28826
  n-local   195.42343   206.78885   168.62169     0.48787    -0.34616     1.17486
  augment   -24.49601   -24.62939   -22.81023    -0.31381     0.40490    -0.15598
  Kinetic   468.97250   451.73375   478.31989     5.32439    -4.91112     1.26933
  Fock        0.00000     0.00000     0.00000     0.00000     0.00000     0.00000
  -------------------------------------------------------------------------------------
  Total      -1.06927    -3.16960    -0.81860     0.35325    -0.00170     0.74935
  in kB      -1.87124    -5.54686    -1.43256     0.61819    -0.00298     1.31137
  external pressure =       -2.95 kB  Pullay stress =        0.00 kB


 VOLUME and BASIS-vectors are now :
 -----------------------------------------------------------------------------
  energy-cutoff  :      450.00
  volume of cell :      915.52
      direct lattice vectors                 reciprocal lattice vectors
     6.019200000  0.000000000  0.000000000     0.166135035  0.000000000  0.000000000
     0.000000000 10.140000000  0.000000000     0.000000000  0.098619329  0.000000000
     0.000000000  0.000000000 15.000000000     0.000000000  0.000000000  0.066666667

  length of vectors
     6.019200000 10.140000000 15.000000000     0.166135035  0.098619329  0.066666667


 FORCES acting on ions
    electron-ion (+dipol)            ewald-force                    non-local-force                 convergence-correction
 -----------------------------------------------------------------------------------------------
   0.334E+01 0.380E+02 0.293E+02   -.341E+01 -.360E+02 -.287E+02   0.557E-01 -.204E+01 -.638E+00   0.146E-04 -.116E-03 -.601E-03
   -.340E+01 0.397E+02 0.183E+02   0.335E+01 -.370E+02 -.182E+02   0.352E-01 -.276E+01 -.241E-02   0.850E-05 -.118E-03 -.592E-03
   0.188E+02 -.388E+02 0.142E+02   -.177E+02 0.385E+02 -.150E+02   -.118E+01 0.266E+00 0.843E+00   0.239E-03 0.181E-03 -.618E-03
   -.159E+02 -.429E+02 0.641E+01   0.151E+02 0.422E+02 -.900E+01   0.753E+00 0.684E+00 0.267E+01   -.167E-03 0.152E-03 -.607E-03
   0.980E+01 0.555E+02 0.372E+02   -.741E+01 -.541E+02 -.368E+02   -.241E+01 -.143E+01 -.449E+00   0.201E-03 0.780E-04 -.779E-03
   -.888E+01 0.553E+02 0.334E+02   0.673E+01 -.537E+02 -.330E+02   0.214E+01 -.159E+01 -.348E+00   -.135E-03 0.533E-04 -.695E-03
   0.767E+00 -.526E+02 0.254E+02   -.745E+00 0.488E+02 -.248E+02   -.378E-01 0.375E+01 -.553E+00   0.137E-04 -.170E-04 -.626E-03
   -.878E+00 -.521E+02 0.293E+02   0.828E+00 0.486E+02 -.285E+02   0.350E-01 0.358E+01 -.776E+00   0.127E-04 -.363E-04 -.620E-03
   0.414E+00 -.756E+01 0.266E+02   -.288E+00 0.729E+01 -.266E+02   -.141E+00 0.277E+00 0.164E-01   -.267E-03 -.452E-03 -.207E-02
   -.348E+00 -.811E+01 0.424E+02   0.278E+00 0.777E+01 -.431E+02   0.553E-01 0.343E+00 0.628E+00   -.232E-03 -.482E-03 -.209E-02
   0.421E+01 0.114E+02 -.235E-01   -.401E+01 -.961E+01 -.471E+01   -.220E+00 -.183E+01 0.476E+01   -.658E-03 0.640E-04 -.381E-02
   -.111E+01 0.109E+02 0.860E+02   0.946E+00 -.105E+02 -.876E+02   0.142E+00 -.375E+00 0.163E+01   -.575E-03 -.102E-03 -.199E-02
   -.211E+02 0.886E+01 -.231E+03   0.234E+02 -.168E+02 0.231E+03   -.227E+01 0.796E+01 -.390E+00   -.258E-03 0.631E-03 0.269E-03
   0.140E+02 -.400E+02 -.496E+02   -.154E+02 0.436E+02 0.510E+02   0.151E+01 -.360E+01 -.142E+01   0.303E-04 -.103E-03 -.835E-04
   0.185E+01 0.180E+02 -.690E+02   -.181E+01 -.191E+02 0.739E+02   -.483E-01 0.108E+01 -.482E+01   -.124E-03 -.236E-03 0.461E-03
 -----------------------------------------------------------------------------------------------
   0.158E+01 -.432E+01 -.114E+01   0.000E+00 0.142E-13 0.568E-13   -.158E+01 0.433E+01 0.116E+01   -.190E-02 -.504E-03 -.145E-01


 POSITION                                       TOTAL-FORCE (eV/Angst)
 -----------------------------------------------------------------------------------
      2.47216      8.83882      3.67220        -0.016202      0.001789     -0.008015
      5.48698      8.86174      3.73860        -0.015453     -0.001723      0.017121
      2.54846      6.31470      4.37013        -0.029577     -0.001681     -0.023909
      5.37680      6.31221      4.24721        -0.047628      0.005515      0.077345
      2.49676      3.79508      3.78781        -0.021898     -0.003913      0.009796
      5.42533      3.77794      3.80540        -0.016741      0.008088     -0.016766
      2.48144      1.18216      3.56906        -0.015926      0.000024      0.009686
      5.48279      1.18421      3.53672        -0.014847      0.001055     -0.011746
      0.97220     10.10349      3.63263        -0.016167     -0.000119     -0.002748
      3.98069     10.09333      3.53818        -0.015122      0.000054      0.004060
      0.94097      4.98278      4.47186        -0.024978      0.004538      0.020495
      3.96743      5.02800      3.69332        -0.025114     -0.003125     -0.011036
      3.58621      6.46307      6.46069         0.078076     -0.020813     -0.050769
      3.10011      7.64962      6.91935         0.188459      0.028384     -0.033657
      0.94760      4.72391      5.55725        -0.006883     -0.018074      0.020143
 -----------------------------------------------------------------------------------
    total drift:                                0.003893      0.001766      0.001712


--------------------------------------------------------------------------------------------------------



  FREE ENERGIE OF THE ION-ELECTRON SYSTEM (eV)
  ---------------------------------------------------
  free  energy   TOTEN  =       -72.94967462 eV

  energy  without entropy=      -72.94967462  energy(sigma->0) =      -72.94967462

 d Force =-0.1526811E-04[-0.157E-04,-0.148E-04]  d Energy =-0.1486320E-04-0.405E-06
 d Force =-0.1853061E-01[-0.185E-01,-0.185E-01]  d Ewald  =-0.1853061E-01-0.685E-10


--------------------------------------------------------------------------------------------------------


    POTLOK:  cpu time    1.9479: real time    1.9523


--------------------------------------------------------------------------------------------------------


 NEB: the previous image is higher in energy: T
 NEB: the next image is higher in energy    : F
 NEB: only prev energy greater

 NEB: Tangent
 ----------------------------------------------
     -0.06775      0.00600     -0.03665
     -0.06458     -0.00827      0.06422
     -0.12058     -0.00790     -0.09927
     -0.19415      0.02069      0.30533
     -0.09009     -0.01675      0.03465
     -0.07042      0.03134     -0.07209
     -0.06644     -0.00098      0.03438
     -0.06214      0.00308     -0.05190
     -0.06749     -0.00188     -0.01554
     -0.06338     -0.00105      0.01145
     -0.10217      0.01524      0.08655
     -0.10317     -0.01396     -0.04842
      0.31219     -0.09281     -0.21000
      0.75051      0.11805     -0.13666
     -0.03049     -0.07182      0.06732

 NEB: forces: par spring, perp REAL, dneb     0.001453    0.006684    0.000000
 NEB: distance to prev, next image, angle between     0.523860    0.523569  169.642870
 NEB: projections on to tangent (spring, REAL)    -0.001453    0.249314

 stress matrix after NEB project (eV)
     -1.06927      0.35325      0.74935
      0.35325     -3.16960     -0.00170
      0.74935     -0.00170     -0.81860
  FORCES: max atom, RMS     0.003348    0.001766
  FORCE total and by dimension    0.006840    0.003260
  Stress total and by dimension    3.637643    3.169604
 Quasi-Newton relaxation of ions (Broydens 2nd method)
  g(Force)  = 0.728E-04   g(Stress)= 0.000E+00

 retain information from N=  2 steps
 eigenvalues of (default step * inverse Hessian matrix)
  average eigenvalue of G=   2.7219
 eigenvalue spectrum of G is  2.7219  2.7219


--------------------------------------------------------------------------------------------------------


    WAVPRE:  cpu time   40.9366: real time   41.7187
    FEWALD:  cpu time    0.0067: real time    0.0067
    ORTHCH:  cpu time    3.5435: real time    3.5529
     LOOP+:  cpu time  155.9055: real time  158.8506


--------------------------------------- Iteration      4(   1)  ---------------------------------------


    POTLOK:  cpu time    2.6171: real time    2.6215
    SETDIJ:  cpu time    0.0575: real time    0.0575
     EDDAV:  cpu time   30.2735: real time   30.3253
       DOS:  cpu time    0.0007: real time    0.0007
    CHARGE:  cpu time    2.1632: real time    2.1650
    MIXING:  cpu time    0.0498: real time    0.0498
    --------------------------------------------
      LOOP:  cpu time   35.1618: real time   35.2198

 eigenvalue-minimisations  :   528
 total energy-change (2. order) : 0.3207114E-04  (-0.2916651E-04)
 number of electron      48.0000002 magnetization 
 augmentation part       -0.7408365 magnetization 

 Broyden mixing:
  rms(total) = 0.31750E-03    rms(broyden)= 0.31674E-03
  rms(prec ) = 0.37383E-03
  weight for this iteration     100.00

 Free energy of the ion-electron system (eV)
  ---------------------------------------------------
  alpha Z        PSCENC =        14.13034224
  Ewald energy   TEWEN  =      1569.44954053
  -Hartree energ DENC   =     -2750.00929284
  -exchange      EXHF   =         0.00000000
  -V(xc)+E(xc)   XCENC  =      -140.27103467
  PAW double counting   =      1740.77412498    -1483.23216245
  entropy T*S    EENTRO =        -0.00000000
  eigenvalues    EBANDS =      -342.43305284
  atomic energy  EATOM  =      1318.64189276
  Solvation  Ediel_sol  =         0.00000000
  ---------------------------------------------------
  free energy    TOTEN  =       -72.94964229 eV

  energy without entropy =      -72.94964229  energy(sigma->0) =      -72.94964229


--------------------------------------------------------------------------------------------------------




--------------------------------------- Iteration      4(   2)  ---------------------------------------


    POTLOK:  cpu time    2.1499: real time    2.1543
    SETDIJ:  cpu time    0.0470: real time    0.0470
     EDDAV:  cpu time   41.0882: real time   41.1643
       DOS:  cpu time    0.0008: real time    0.0008
    CHARGE:  cpu time    2.0673: real time    2.0679
    MIXING:  cpu time    0.0424: real time    0.0424
    --------------------------------------------
      LOOP:  cpu time   45.3957: real time   45.4767

 eigenvalue-minimisations  :   768
 total energy-change (2. order) :-0.8401294E-06  (-0.1052122E-05)
 number of electron      48.0000002 magnetization 
 augmentation part       -0.7408429 magnetization 

 Broyden mixing:
  rms(total) = 0.23880E-03    rms(broyden)= 0.23871E-03
  rms(prec ) = 0.28330E-03
  weight for this iteration     100.00

 eigenvalues of (default mixing * dielectric matrix)
  average eigenvalue GAMMA=   0.9152
  0.9152

 Free energy of the ion-electron system (eV)
  ---------------------------------------------------
  alpha Z        PSCENC =        14.13034224
  Ewald energy   TEWEN  =      1569.44954053
  -Hartree energ DENC   =     -2750.01048298
  -exchange      EXHF   =         0.00000000
  -V(xc)+E(xc)   XCENC  =      -140.27101587
  PAW double counting   =      1740.78203359    -1483.24008179
  entropy T*S    EENTRO =        -0.00000000
  eigenvalues    EBANDS =      -342.43187161
  atomic energy  EATOM  =      1318.64189276
  Solvation  Ediel_sol  =         0.00000000
  ---------------------------------------------------
  free energy    TOTEN  =       -72.94964313 eV

  energy without entropy =      -72.94964313  energy(sigma->0) =      -72.94964313


--------------------------------------------------------------------------------------------------------




--------------------------------------- Iteration      4(   3)  ---------------------------------------


    POTLOK:  cpu time    2.1725: real time    2.1735
    SETDIJ:  cpu time    0.0618: real time    0.0618
     EDDAV:  cpu time   23.4840: real time   23.4958
       DOS:  cpu time    0.0006: real time    0.0006
    --------------------------------------------
      LOOP:  cpu time   25.7189: real time   25.7316

 eigenvalue-minimisations  :   392
 total energy-change (2. order) : 0.6466007E-07  (-0.2889109E-07)
 number of electron      48.0000002 magnetization 
 augmentation part       -0.7408429 magnetization 

 Free energy of the ion-electron system (eV)
  ---------------------------------------------------
  alpha Z        PSCENC =        14.13034224
  Ewald energy   TEWEN  =      1569.44954053
  -Hartree energ DENC   =     -2750.01044701
  -exchange      EXHF   =         0.00000000
  -V(xc)+E(xc)   XCENC  =      -140.27099877
  PAW double counting   =      1740.78385253    -1483.24190823
  entropy T*S    EENTRO =        -0.00000000
  eigenvalues    EBANDS =      -342.43191712
  atomic energy  EATOM  =      1318.64189276
  Solvation  Ediel_sol  =         0.00000000
  ---------------------------------------------------
  free energy    TOTEN  =       -72.94964306 eV

  energy without entropy =      -72.94964306  energy(sigma->0) =      -72.94964306


--------------------------------------------------------------------------------------------------------




 average (electrostatic) potential at core
  the test charge radii are     1.0406  0.6991  1.0339  0.5883
  (the norm of the test charge is              1.0000)
       1 -59.1289       2 -59.2169       3 -59.4145       4 -59.7636       5 -59.6639
       6 -59.6099       7 -59.2650       8 -59.2534       9 -55.1392      10 -55.1106
      11 -56.0099      12 -55.5078      13 -97.0273      14 -38.4234      15 -37.9859



 E-fermi :  -1.9209     XC(G=0):  -3.1961     alpha+bet : -2.6874


 k-point     1 :       0.0000    0.0000    0.0000
  band No.  band energies     occupation 
      1     -15.6074      2.00000
      2     -14.5319      2.00000
      3     -13.6892      2.00000
      4     -12.6343      2.00000
      5     -11.5634      2.00000
      6      -8.8852      2.00000
      7      -8.7936      2.00000
      8      -8.5034      2.00000
      9      -7.9560      2.00000
     10      -7.3593      2.00000
     11      -6.5779      2.00000
     12      -6.2274      2.00000
     13      -5.8134      2.00000
     14      -5.3567      2.00000
     15      -4.9986      2.00000
     16      -4.7325      2.00000
     17      -4.3998      2.00000
     18      -4.2420      2.00000
     19      -3.6190      2.00000
     20      -3.5332      2.00000
     21      -3.1113      2.00000
     22      -2.8202      2.00000
     23      -2.4797      2.00000
     24      -2.1869      2.00000
     25      -1.4385      0.00000
     26      -0.9457      0.00000
     27      -0.1027      0.00000
     28       0.0300      0.00000
     29       0.1640      0.00000
     30       0.4774      0.00000
     31       0.6432      0.00000
     32       1.0524      0.00000

 k-point     2 :       0.2000    0.0000    0.0000
  band No.  band energies     occupation 
      1     -15.5939      2.00000
      2     -14.4764      2.00000
      3     -13.5650      2.00000
      4     -12.8258      2.00000
      5     -11.9437      2.00000
      6      -8.7669      2.00000
      7      -8.5061      2.00000
      8      -7.9783      2.00000
      9      -7.8639      2.00000
     10      -7.2366      2.00000
     11      -6.5958      2.00000
     12      -6.4823      2.00000
     13      -6.1067      2.00000
     14      -5.3068      2.00000
     15      -4.9982      2.00000
     16      -4.6170      2.00000
     17      -4.3787      2.00000
     18      -4.1913      2.00000
     19      -3.8755      2.00000
     20      -3.5404      2.00000
     21      -3.5169      2.00000
     22      -3.3035      2.00000
     23      -2.6502      2.00000
     24      -2.4675      2.00000
     25      -1.2214      0.00000
     26      -0.3060      0.00000
     27      -0.1220      0.00000
     28       0.2064      0.00000
     29       0.4039      0.00000
     30       0.6790      0.00000
     31       0.8530      0.00000
     32       0.9134      0.00000

 k-point     3 :       0.4000    0.0000    0.0000
  band No.  band energies     occupation 
      1     -15.5722      2.00000
      2     -14.3589      2.00000
      3     -13.2198      2.00000
      4     -13.1182      2.00000
      5     -12.6160      2.00000
      6      -8.4807      2.00000
      7      -8.1614      2.00000
      8      -7.8438      2.00000
      9      -7.3831      2.00000
     10      -6.7485      2.00000
     11      -6.5540      2.00000
     12      -6.2517      2.00000
     13      -5.8886      2.00000
     14      -5.7779      2.00000
     15      -5.2716      2.00000
     16      -5.0427      2.00000
     17      -4.8865      2.00000
     18      -4.4085      2.00000
     19      -4.2396      2.00000
     20      -4.0272      2.00000
     21      -3.4919      2.00000
     22      -3.3768      2.00000
     23      -2.9186      2.00000
     24      -2.4979      2.00000
     25      -0.9075      0.00000
     26      -0.4035      0.00000
     27      -0.0074      0.00000
     28       0.7201      0.00000
     29       0.8726      0.00000
     30       1.1723      0.00000
     31       1.3110      0.00000
     32       1.3886      0.00000

 k-point     4 :       0.0000    0.3333    0.0000
  band No.  band energies     occupation 
      1     -15.6072      2.00000
      2     -14.5305      2.00000
      3     -13.6929      2.00000
      4     -12.6360      2.00000
      5     -11.5643      2.00000
      6      -8.7588      2.00000
      7      -8.6779      2.00000
      8      -8.5588      2.00000
      9      -8.0393      2.00000
     10      -7.5758      2.00000
     11      -7.0663      2.00000
     12      -5.7540      2.00000
     13      -5.4919      2.00000
     14      -5.2128      2.00000
     15      -4.9885      2.00000
     16      -4.6694      2.00000
     17      -4.3811      2.00000
     18      -4.1408      2.00000
     19      -3.6948      2.00000
     20      -3.6156      2.00000
     21      -3.3573      2.00000
     22      -3.0928      2.00000
     23      -2.8206      2.00000
     24      -2.1801      2.00000
     25      -1.2254      0.00000
     26      -0.6719      0.00000
     27      -0.2052      0.00000
     28       0.0434      0.00000
     29       0.4582      0.00000
     30       0.6372      0.00000
     31       0.7956      0.00000
     32       0.8613      0.00000

 k-point     5 :       0.2000    0.3333    0.0000
  band No.  band energies     occupation 
      1     -15.5937      2.00000
      2     -14.4752      2.00000
      3     -13.5677      2.00000
      4     -12.8275      2.00000
      5     -11.9455      2.00000
      6      -8.6254      2.00000
      7      -8.4496      2.00000
      8      -7.9945      2.00000
      9      -7.9411      2.00000
     10      -7.4116      2.00000
     11      -7.0287      2.00000
     12      -6.3568      2.00000
     13      -5.7302      2.00000
     14      -5.3537      2.00000
     15      -4.8052      2.00000
     16      -4.5283      2.00000
     17      -4.3282      2.00000
     18      -4.1270      2.00000
     19      -3.7903      2.00000
     20      -3.5870      2.00000
     21      -3.4838      2.00000
     22      -3.3969      2.00000
     23      -2.9727      2.00000
     24      -2.6509      2.00000
     25      -1.0878      0.00000
     26      -0.4872      0.00000
     27      -0.1372      0.00000
     28       0.2076      0.00000
     29       0.4584      0.00000
     30       0.7694      0.00000
     31       0.8320      0.00000
     32       0.9952      0.00000

 k-point     6 :       0.4000    0.3333    0.0000
  band No.  band energies     occupation 
      1     -15.5721      2.00000
      2     -14.3581      2.00000
      3     -13.2055      2.00000
      4     -13.1339      2.00000
      5     -12.6206      2.00000
      6      -8.3934      2.00000
      7      -8.1917      2.00000
      8      -7.6901      2.00000
      9      -7.2339      2.00000
     10      -7.0070      2.00000
     11      -6.7148      2.00000
     12      -6.5181      2.00000
     13      -6.3588      2.00000
     14      -5.4325      2.00000
     15      -5.0995      2.00000
     16      -4.9076      2.00000
     17      -4.6475      2.00000
     18      -4.1399      2.00000
     19      -4.0517      2.00000
     20      -3.9442      2.00000
     21      -3.5562      2.00000
     22      -3.3830      2.00000
     23      -3.1913      2.00000
     24      -2.8141      2.00000
     25      -0.9054      0.00000
     26      -0.3496      0.00000
     27       0.0094      0.00000
     28       0.5831      0.00000
     29       0.7507      0.00000
     30       0.8999      0.00000
     31       1.1545      0.00000
     32       1.2615      0.00000

 k-point     7 :      -0.4000    0.3333    0.0000
  band No.  band energies     occupation 
      1     -15.5721      2.00000
      2     -14.3580      2.00000
      3     -13.2086      2.00000
      4     -13.1305      2.00000
      5     -12.6209      2.00000
      6      -8.3990      2.00000
      7      -8.1978      2.00000
      8      -7.6457      2.00000
      9      -7.2223      2.00000
     10      -7.0694      2.00000
     11      -6.7261      2.00000
     12      -6.5395      2.00000
     13      -6.3152      2.00000
     14      -5.4111      2.00000
     15      -5.0922      2.00000
     16      -4.9022      2.00000
     17      -4.6246      2.00000
     18      -4.2318      2.00000
     19      -4.0809      2.00000
     20      -3.9031      2.00000
     21      -3.5516      2.00000
     22      -3.3823      2.00000
     23      -3.1455      2.00000
     24      -2.8319      2.00000
     25      -0.9617      0.00000
     26      -0.2661      0.00000
     27       0.0790      0.00000
     28       0.4746      0.00000
     29       0.7571      0.00000
     30       0.8940      0.00000
     31       1.0683      0.00000
     32       1.4062      0.00000

 k-point     8 :      -0.2000    0.3333    0.0000
  band No.  band energies     occupation 
      1     -15.5937      2.00000
      2     -14.4751      2.00000
      3     -13.5680      2.00000
      4     -12.8272      2.00000
      5     -11.9456      2.00000
      6      -8.6156      2.00000
      7      -8.4848      2.00000
      8      -7.9970      2.00000
      9      -7.8568      2.00000
     10      -7.4782      2.00000
     11      -7.0231      2.00000
     12      -6.3837      2.00000
     13      -5.7222      2.00000
     14      -5.2878      2.00000
     15      -4.7762      2.00000
     16      -4.5644      2.00000
     17      -4.3627      2.00000
     18      -4.1626      2.00000
     19      -3.8002      2.00000
     20      -3.5739      2.00000
     21      -3.4878      2.00000
     22      -3.3315      2.00000
     23      -3.0103      2.00000
     24      -2.6499      2.00000
     25      -1.1242      0.00000
     26      -0.3234      0.00000
     27      -0.1568      0.00000
     28       0.0993      0.00000
     29       0.4549      0.00000
     30       0.7064      0.00000
     31       0.9007      0.00000
     32       1.0314      0.00000


--------------------------------------------------------------------------------------------------------


 soft charge-density along one line, spin component           1
         0         1         2         3         4         5         6         7         8         9
 total charge-density along one line

 pseudopotential strength for first ion, spin component:           1
  7.446 -17.446  -0.004  -0.001   0.000   0.020   0.005  -0.001
-17.446  50.470   0.010   0.002  -0.000  -0.046  -0.010   0.001
 -0.004   0.010   1.743   0.000  -0.000  -6.878  -0.002   0.000
 -0.001   0.002   0.000   1.746   0.000  -0.002  -6.895  -0.001
  0.000  -0.000  -0.000   0.000   1.743   0.000  -0.001  -6.880
  0.020  -0.046  -6.878  -0.002   0.000  29.272   0.010  -0.001
  0.005  -0.010  -0.002  -6.895  -0.001   0.010  29.342   0.002
 -0.001   0.001   0.000  -0.001  -6.880  -0.001   0.002  29.281
 -0.000   0.000   0.000   0.000  -0.003  -0.000  -0.000   0.008
  0.002  -0.003  -0.001  -0.003   0.000   0.002   0.008  -0.000
  0.009  -0.011   0.001  -0.001  -0.000  -0.003   0.002   0.000
  0.001  -0.001   0.000   0.000  -0.001  -0.000  -0.000   0.002
  0.001  -0.002   0.001   0.000   0.000  -0.005  -0.000  -0.000
  0.000  -0.001  -0.001   0.000   0.010   0.002  -0.000  -0.037
 -0.009   0.016   0.004   0.010   0.000  -0.014  -0.038  -0.000
 -0.036   0.063  -0.004   0.004   0.000   0.015  -0.014  -0.001
 -0.002   0.004   0.000  -0.000   0.004  -0.000   0.001  -0.012
 -0.005   0.009  -0.007  -0.000  -0.000   0.026   0.001   0.001
 total augmentation occupancy for first ion, spin component:           1
  1.394   0.018  -0.051   0.027  -0.001   0.004   0.000  -0.000  -0.001  -0.025  -0.089  -0.004  -0.028  -0.000  -0.001  -0.005
  0.018   0.000   0.009  -0.000  -0.000   0.000  -0.000  -0.000  -0.000  -0.000  -0.002  -0.000   0.000  -0.000  -0.000  -0.000
 -0.051   0.009   1.301  -0.111  -0.003   0.019  -0.002  -0.000  -0.003   0.020  -0.078  -0.005   0.051  -0.000   0.000  -0.003
  0.027  -0.000  -0.111   0.417  -0.023  -0.002   0.005  -0.000  -0.006   0.055   0.001   0.000  -0.018  -0.000   0.001   0.000
 -0.001  -0.000  -0.003  -0.023   1.098  -0.000  -0.000   0.018   0.226  -0.006   0.001  -0.015   0.001   0.007  -0.000   0.000
  0.004   0.000   0.019  -0.002  -0.000   0.000  -0.000  -0.000  -0.000   0.000  -0.002  -0.000   0.000  -0.000   0.000  -0.000
  0.000  -0.000  -0.002   0.005  -0.000  -0.000   0.000  -0.000  -0.000   0.001   0.000   0.000  -0.000  -0.000   0.000   0.000
 -0.000  -0.000  -0.000  -0.000   0.018  -0.000  -0.000   0.000   0.004  -0.000   0.000  -0.000   0.000   0.000  -0.000   0.000
 -0.001  -0.000  -0.003  -0.006   0.226  -0.000  -0.000   0.004   0.065  -0.002   0.000  -0.003   0.000   0.002  -0.000   0.000
 -0.025  -0.000   0.020   0.055  -0.006   0.000   0.001  -0.000  -0.002   0.011  -0.001  -0.000   0.004  -0.000   0.000   0.000
 -0.089  -0.002  -0.078   0.001   0.001  -0.002   0.000   0.000   0.000  -0.001   0.013  -0.000  -0.004   0.000   0.000   0.001
 -0.004  -0.000  -0.005   0.000  -0.015  -0.000   0.000  -0.000  -0.003  -0.000  -0.000   0.020  -0.001  -0.000  -0.000   0.000
 -0.028   0.000   0.051  -0.018   0.001   0.000  -0.000   0.000   0.000   0.004  -0.004  -0.001   0.040   0.000   0.000  -0.000
 -0.000  -0.000  -0.000  -0.000   0.007  -0.000  -0.000   0.000   0.002  -0.000   0.000  -0.000   0.000   0.000  -0.000   0.000
 -0.001  -0.000   0.000   0.001  -0.000   0.000   0.000  -0.000  -0.000   0.000   0.000  -0.000   0.000  -0.000   0.000   0.000
 -0.005  -0.000  -0.003   0.000   0.000  -0.000   0.000   0.000   0.000   0.000   0.001   0.000  -0.000   0.000   0.000   0.000
 -0.000  -0.000  -0.000   0.000  -0.000  -0.000   0.000  -0.000  -0.000  -0.000   0.000   0.000  -0.000  -0.000   0.000   0.000
 -0.001   0.000   0.000  -0.000   0.000  -0.000  -0.000   0.000   0.000   0.000  -0.000  -0.000   0.001   0.000   0.000  -0.000


------------------------ aborting loop because EDIFF is reached ----------------------------------------


    CHARGE:  cpu time    2.0260: real time    2.0279
    FORLOC:  cpu time    0.3144: real time    0.3144
    FORNL :  cpu time    8.8037: real time    8.8067
    STRESS:  cpu time   20.4222: real time   20.4821
    FORCOR:  cpu time    1.8317: real time    1.8357
    FORHAR:  cpu time    0.7102: real time    0.7116
    MIXING:  cpu time    0.0379: real time    0.0379
    OFIELD:  cpu time    0.0000: real time    0.0000

  FORCE on cell =-STRESS in cart. coord.  units (eV):
  Direction    XX          YY          ZZ          XY          YZ          ZX
  --------------------------------------------------------------------------------------
  Alpha Z    14.13034    14.13034    14.13034
  Ewald    2525.28546  2149.26197 -3105.09936    -8.87235    73.53437     5.43836
  Hartree  2578.61664  2290.38505 -2118.99146     0.79612    36.66635     1.39869
  E(xc)    -153.77744  -154.68134  -154.26687    -0.11592     0.16042    -0.08664
  Local   -5605.22489 -4936.16024  4739.27490     3.04631  -105.50918    -8.28966
  n-local   195.42537   206.79174   168.62381     0.48744    -0.34574     1.17481
  augment   -24.49619   -24.62967   -22.81038    -0.31381     0.40489    -0.15600
  Kinetic   468.97353   451.73470   478.31965     5.32473    -4.91218     1.26963
  Fock        0.00000     0.00000     0.00000     0.00000     0.00000     0.00000
  -------------------------------------------------------------------------------------
  Total      -1.06719    -3.16744    -0.81938     0.35252    -0.00107     0.74919
  in kB      -1.86761    -5.54309    -1.43393     0.61692    -0.00187     1.31110
  external pressure =       -2.95 kB  Pullay stress =        0.00 kB


 VOLUME and BASIS-vectors are now :
 -----------------------------------------------------------------------------
  energy-cutoff  :      450.00
  volume of cell :      915.52
      direct lattice vectors                 reciprocal lattice vectors
     6.019200000  0.000000000  0.000000000     0.166135035  0.000000000  0.000000000
     0.000000000 10.140000000  0.000000000     0.000000000  0.098619329  0.000000000
     0.000000000  0.000000000 15.000000000     0.000000000  0.000000000  0.066666667

  length of vectors
     6.019200000 10.140000000 15.000000000     0.166135035  0.098619329  0.066666667


 FORCES acting on ions
    electron-ion (+dipol)            ewald-force                    non-local-force                 convergence-correction
 -----------------------------------------------------------------------------------------------
   0.334E+01 0.380E+02 0.293E+02   -.341E+01 -.360E+02 -.287E+02   0.555E-01 -.203E+01 -.638E+00   0.107E-04 -.890E-04 -.634E-03
   -.340E+01 0.397E+02 0.183E+02   0.335E+01 -.370E+02 -.182E+02   0.350E-01 -.276E+01 -.248E-02   0.328E-04 -.945E-04 -.608E-03
   0.188E+02 -.388E+02 0.142E+02   -.177E+02 0.385E+02 -.150E+02   -.118E+01 0.266E+00 0.843E+00   0.215E-04 -.197E-03 -.464E-03
   -.159E+02 -.429E+02 0.641E+01   0.151E+02 0.422E+02 -.900E+01   0.753E+00 0.684E+00 0.267E+01   0.221E-04 -.147E-03 -.356E-03
   0.980E+01 0.555E+02 0.372E+02   -.741E+01 -.541E+02 -.368E+02   -.241E+01 -.143E+01 -.449E+00   0.476E-04 0.191E-03 -.423E-03
   -.888E+01 0.553E+02 0.334E+02   0.672E+01 -.537E+02 -.330E+02   0.214E+01 -.159E+01 -.348E+00   0.133E-04 0.130E-03 -.343E-03
   0.767E+00 -.526E+02 0.254E+02   -.745E+00 0.488E+02 -.248E+02   -.379E-01 0.375E+01 -.553E+00   0.441E-04 0.758E-04 -.584E-03
   -.877E+00 -.521E+02 0.293E+02   0.827E+00 0.486E+02 -.285E+02   0.348E-01 0.358E+01 -.776E+00   0.459E-05 0.696E-04 -.578E-03
   0.413E+00 -.756E+01 0.266E+02   -.287E+00 0.729E+01 -.266E+02   -.141E+00 0.277E+00 0.159E-01   -.436E-03 -.430E-03 -.213E-02
   -.349E+00 -.811E+01 0.424E+02   0.279E+00 0.777E+01 -.431E+02   0.557E-01 0.343E+00 0.628E+00   -.466E-03 -.375E-03 -.218E-02
   0.421E+01 0.114E+02 -.251E-01   -.401E+01 -.962E+01 -.471E+01   -.219E+00 -.183E+01 0.476E+01   -.560E-03 -.507E-03 -.102E-02
   -.111E+01 0.109E+02 0.860E+02   0.947E+00 -.105E+02 -.876E+02   0.142E+00 -.375E+00 0.163E+01   -.699E-03 -.355E-03 -.165E-02
   -.211E+02 0.887E+01 -.231E+03   0.234E+02 -.168E+02 0.231E+03   -.227E+01 0.795E+01 -.392E+00   0.203E-03 -.189E-02 -.168E-02
   0.140E+02 -.400E+02 -.496E+02   -.154E+02 0.436E+02 0.510E+02   0.151E+01 -.360E+01 -.142E+01   -.147E-03 0.209E-03 -.622E-04
   0.185E+01 0.180E+02 -.690E+02   -.181E+01 -.191E+02 0.739E+02   -.483E-01 0.107E+01 -.482E+01   -.133E-03 -.887E-04 -.188E-03
 -----------------------------------------------------------------------------------------------
   0.158E+01 -.431E+01 -.114E+01   0.977E-14 0.711E-14 -.426E-13   -.157E+01 0.432E+01 0.115E+01   -.204E-02 -.349E-02 -.129E-01


 POSITION                                       TOTAL-FORCE (eV/Angst)
 -----------------------------------------------------------------------------------
      2.47225      8.83885      3.67234        -0.016531      0.001786     -0.008098
      5.48707      8.86178      3.73872        -0.015745     -0.001788      0.017080
      2.54855      6.31474      4.37027        -0.029863     -0.001678     -0.024367
      5.37691      6.31225      4.24729        -0.047858      0.005351      0.077037
      2.49685      3.79511      3.78793        -0.022083     -0.004016      0.009648
      5.42541      3.77797      3.80554        -0.017034      0.008033     -0.016954
      2.48153      1.18219      3.56918        -0.016239     -0.000016      0.009632
      5.48287      1.18424      3.53686        -0.015164      0.000986     -0.011829
      0.97227     10.10352      3.63276        -0.015458      0.000105     -0.002664
      3.98077     10.09337      3.53831        -0.014658      0.000100      0.004133
      0.94106      4.98283      4.47192        -0.024593      0.004275      0.022645
      3.96751      5.02804      3.69345        -0.024585     -0.002642     -0.010752
      3.58621      6.46318      6.46081         0.079428     -0.023463     -0.050700
      3.10011      7.64958      6.91946         0.187375      0.030610     -0.032903
      0.94768      4.72396      5.55740        -0.006992     -0.017644      0.018090
 -----------------------------------------------------------------------------------
    total drift:                                0.006268      0.002405      0.003480


--------------------------------------------------------------------------------------------------------



  FREE ENERGIE OF THE ION-ELECTRON SYSTEM (eV)
  ---------------------------------------------------
  free  energy   TOTEN  =       -72.94964306 eV

  energy  without entropy=      -72.94964306  energy(sigma->0) =      -72.94964306

 d Force =-0.3231966E-04[-0.326E-04,-0.320E-04]  d Energy =-0.3156086E-04-0.759E-06
 d Force =-0.6320801E-02[-0.632E-02,-0.632E-02]  d Ewald  =-0.6320801E-02-0.135E-10


--------------------------------------------------------------------------------------------------------


    POTLOK:  cpu time    1.7743: real time    1.7768


--------------------------------------------------------------------------------------------------------


 NEB: the previous image is higher in energy: T
 NEB: the next image is higher in energy    : F
 NEB: only prev energy greater

 NEB: Tangent
 ----------------------------------------------
     -0.06771      0.00599     -0.03663
     -0.06455     -0.00826      0.06436
     -0.12051     -0.00789     -0.09918
     -0.19407      0.02069      0.30538
     -0.09003     -0.01676      0.03475
     -0.07036      0.03133     -0.07205
     -0.06641     -0.00098      0.03449
     -0.06209      0.00307     -0.05188
     -0.06747     -0.00187     -0.01543
     -0.06335     -0.00105      0.01151
     -0.10210      0.01527      0.08653
     -0.10311     -0.01397     -0.04835
      0.31212     -0.09268     -0.20987
      0.75062      0.11827     -0.13659
     -0.03047     -0.07182      0.06745

 NEB: forces: par spring, perp REAL, dneb     0.001751    0.005605    0.000000
 NEB: distance to prev, next image, angle between     0.524220    0.523869  169.637079
 NEB: projections on to tangent (spring, REAL)    -0.001751    0.249297

 stress matrix after NEB project (eV)
     -1.06719      0.35252      0.74919
      0.35252     -3.16744     -0.00107
      0.74919     -0.00107     -0.81938
  FORCES: max atom, RMS     0.002266    0.001516
  FORCE total and by dimension    0.005872    0.001988
  Stress total and by dimension    3.635122    3.167444
 Quasi-Newton relaxation of ions (Broydens 2nd method)
  g(Force)  = 0.472E-04   g(Stress)= 0.000E+00

 retain information from N=  3 steps
 eigenvalues of (default step * inverse Hessian matrix)
  average eigenvalue of G=   5.9495
 eigenvalue spectrum of G is  2.0450  7.9018  7.9018


--------------------------------------------------------------------------------------------------------


    WAVPRE:  cpu time   65.3540: real time   66.3560
    FEWALD:  cpu time    0.0081: real time    0.0081
    ORTHCH:  cpu time    3.4990: real time    3.5024
     LOOP+:  cpu time  211.1679: real time  214.1662


--------------------------------------- Iteration      5(   1)  ---------------------------------------


    POTLOK:  cpu time    2.1960: real time    2.2010
    SETDIJ:  cpu time    0.0583: real time    0.0585
     EDDAV:  cpu time   30.4308: real time   30.5515
       DOS:  cpu time    0.0007: real time    0.0007
    CHARGE:  cpu time    2.2072: real time    2.2185
    MIXING:  cpu time    0.0532: real time    0.0534
    --------------------------------------------
      LOOP:  cpu time   34.9463: real time   35.0835

 eigenvalue-minimisations  :   528
 total energy-change (2. order) : 0.4164416E-04  (-0.4458423E-04)
 number of electron      48.0000002 magnetization 
 augmentation part       -0.7408242 magnetization 

 Broyden mixing:
  rms(total) = 0.33850E-03    rms(broyden)= 0.33723E-03
  rms(prec ) = 0.39252E-03
  weight for this iteration     100.00

 Free energy of the ion-electron system (eV)
  ---------------------------------------------------
  alpha Z        PSCENC =        14.13034224
  Ewald energy   TEWEN  =      1569.43439800
  -Hartree energ DENC   =     -2749.99731714
  -exchange      EXHF   =         0.00000000
  -V(xc)+E(xc)   XCENC  =      -140.27119946
  PAW double counting   =      1740.78597877    -1483.24405308
  entropy T*S    EENTRO =        -0.00000000
  eigenvalues    EBANDS =      -342.42964357
  atomic energy  EATOM  =      1318.64189276
  Solvation  Ediel_sol  =         0.00000000
  ---------------------------------------------------
  free energy    TOTEN  =       -72.94960148 eV

  energy without entropy =      -72.94960148  energy(sigma->0) =      -72.94960148


--------------------------------------------------------------------------------------------------------




--------------------------------------- Iteration      5(   2)  ---------------------------------------


    POTLOK:  cpu time    2.2620: real time    2.2700
    SETDIJ:  cpu time    0.0574: real time    0.0574
     EDDAV:  cpu time   40.3432: real time   40.4444
       DOS:  cpu time    0.0005: real time    0.0005
    CHARGE:  cpu time    2.0221: real time    2.0236
    MIXING:  cpu time    0.0439: real time    0.0439
    --------------------------------------------
      LOOP:  cpu time   44.7291: real time   44.8398

 eigenvalue-minimisations  :   752
 total energy-change (2. order) :-0.9962873E-06  (-0.1315961E-05)
 number of electron      48.0000002 magnetization 
 augmentation part       -0.7408303 magnetization 

 Broyden mixing:
  rms(total) = 0.22894E-03    rms(broyden)= 0.22878E-03
  rms(prec ) = 0.27312E-03
  weight for this iteration     100.00

 eigenvalues of (default mixing * dielectric matrix)
  average eigenvalue GAMMA=   0.9763
  0.9763

 Free energy of the ion-electron system (eV)
  ---------------------------------------------------
  alpha Z        PSCENC =        14.13034224
  Ewald energy   TEWEN  =      1569.43439800
  -Hartree energ DENC   =     -2749.99793862
  -exchange      EXHF   =         0.00000000
  -V(xc)+E(xc)   XCENC  =      -140.27121768
  PAW double counting   =      1740.78185871    -1483.23992943
  entropy T*S    EENTRO =        -0.00000000
  eigenvalues    EBANDS =      -342.42900846
  atomic energy  EATOM  =      1318.64189276
  Solvation  Ediel_sol  =         0.00000000
  ---------------------------------------------------
  free energy    TOTEN  =       -72.94960248 eV

  energy without entropy =      -72.94960248  energy(sigma->0) =      -72.94960248


--------------------------------------------------------------------------------------------------------




--------------------------------------- Iteration      5(   3)  ---------------------------------------


    POTLOK:  cpu time    2.0766: real time    2.0777
    SETDIJ:  cpu time    0.0627: real time    0.0628
     EDDAV:  cpu time   21.0166: real time   21.0357
       DOS:  cpu time    0.0005: real time    0.0005
    --------------------------------------------
      LOOP:  cpu time   23.1564: real time   23.1767

 eigenvalue-minimisations  :   320
 total energy-change (2. order) : 0.1063270E-06  (-0.3318638E-07)
 number of electron      48.0000002 magnetization 
 augmentation part       -0.7408303 magnetization 

 Free energy of the ion-electron system (eV)
  ---------------------------------------------------
  alpha Z        PSCENC =        14.13034224
  Ewald energy   TEWEN  =      1569.43439800
  -Hartree energ DENC   =     -2749.99748140
  -exchange      EXHF   =         0.00000000
  -V(xc)+E(xc)   XCENC  =      -140.27120732
  PAW double counting   =      1740.77844479    -1483.23650256
  entropy T*S    EENTRO =        -0.00000000
  eigenvalues    EBANDS =      -342.42948888
  atomic energy  EATOM  =      1318.64189276
  Solvation  Ediel_sol  =         0.00000000
  ---------------------------------------------------
  free energy    TOTEN  =       -72.94960237 eV

  energy without entropy =      -72.94960237  energy(sigma->0) =      -72.94960237


--------------------------------------------------------------------------------------------------------




 average (electrostatic) potential at core
  the test charge radii are     1.0406  0.6991  1.0339  0.5883
  (the norm of the test charge is              1.0000)
       1 -59.1289       2 -59.2169       3 -59.4145       4 -59.7635       5 -59.6640
       6 -59.6099       7 -59.2650       8 -59.2534       9 -55.1392      10 -55.1106
      11 -56.0100      12 -55.5078      13 -97.0270      14 -38.4226      15 -37.9857



 E-fermi :  -1.9208     XC(G=0):  -3.1969     alpha+bet : -2.6874


 k-point     1 :       0.0000    0.0000    0.0000
  band No.  band energies     occupation 
      1     -15.6070      2.00000
      2     -14.5318      2.00000
      3     -13.6892      2.00000
      4     -12.6342      2.00000
      5     -11.5634      2.00000
      6      -8.8851      2.00000
      7      -8.7936      2.00000
      8      -8.5034      2.00000
      9      -7.9557      2.00000
     10      -7.3593      2.00000
     11      -6.5779      2.00000
     12      -6.2274      2.00000
     13      -5.8134      2.00000
     14      -5.3565      2.00000
     15      -4.9986      2.00000
     16      -4.7325      2.00000
     17      -4.3997      2.00000
     18      -4.2419      2.00000
     19      -3.6189      2.00000
     20      -3.5332      2.00000
     21      -3.1113      2.00000
     22      -2.8203      2.00000
     23      -2.4797      2.00000
     24      -2.1869      2.00000
     25      -1.4385      0.00000
     26      -0.9458      0.00000
     27      -0.1027      0.00000
     28       0.0300      0.00000
     29       0.1639      0.00000
     30       0.4774      0.00000
     31       0.6431      0.00000
     32       1.0504      0.00000

 k-point     2 :       0.2000    0.0000    0.0000
  band No.  band energies     occupation 
      1     -15.5934      2.00000
      2     -14.4764      2.00000
      3     -13.5651      2.00000
      4     -12.8257      2.00000
      5     -11.9438      2.00000
      6      -8.7667      2.00000
      7      -8.5061      2.00000
      8      -7.9783      2.00000
      9      -7.8636      2.00000
     10      -7.2366      2.00000
     11      -6.5958      2.00000
     12      -6.4823      2.00000
     13      -6.1066      2.00000
     14      -5.3068      2.00000
     15      -4.9981      2.00000
     16      -4.6170      2.00000
     17      -4.3785      2.00000
     18      -4.1912      2.00000
     19      -3.8755      2.00000
     20      -3.5404      2.00000
     21      -3.5170      2.00000
     22      -3.3034      2.00000
     23      -2.6502      2.00000
     24      -2.4676      2.00000
     25      -1.2214      0.00000
     26      -0.3060      0.00000
     27      -0.1221      0.00000
     28       0.2064      0.00000
     29       0.4039      0.00000
     30       0.6789      0.00000
     31       0.8530      0.00000
     32       0.9134      0.00000

 k-point     3 :       0.4000    0.0000    0.0000
  band No.  band energies     occupation 
      1     -15.5717      2.00000
      2     -14.3588      2.00000
      3     -13.2198      2.00000
      4     -13.1182      2.00000
      5     -12.6161      2.00000
      6      -8.4804      2.00000
      7      -8.1614      2.00000
      8      -7.8437      2.00000
      9      -7.3830      2.00000
     10      -6.7486      2.00000
     11      -6.5540      2.00000
     12      -6.2517      2.00000
     13      -5.8886      2.00000
     14      -5.7779      2.00000
     15      -5.2715      2.00000
     16      -5.0426      2.00000
     17      -4.8865      2.00000
     18      -4.4084      2.00000
     19      -4.2395      2.00000
     20      -4.0272      2.00000
     21      -3.4919      2.00000
     22      -3.3768      2.00000
     23      -2.9186      2.00000
     24      -2.4979      2.00000
     25      -0.9075      0.00000
     26      -0.4036      0.00000
     27      -0.0075      0.00000
     28       0.7201      0.00000
     29       0.8726      0.00000
     30       1.1722      0.00000
     31       1.3109      0.00000
     32       1.3886      0.00000

 k-point     4 :       0.0000    0.3333    0.0000
  band No.  band energies     occupation 
      1     -15.6068      2.00000
      2     -14.5305      2.00000
      3     -13.6929      2.00000
      4     -12.6360      2.00000
      5     -11.5643      2.00000
      6      -8.7587      2.00000
      7      -8.6777      2.00000
      8      -8.5588      2.00000
      9      -8.0392      2.00000
     10      -7.5757      2.00000
     11      -7.0663      2.00000
     12      -5.7539      2.00000
     13      -5.4918      2.00000
     14      -5.2128      2.00000
     15      -4.9884      2.00000
     16      -4.6695      2.00000
     17      -4.3810      2.00000
     18      -4.1408      2.00000
     19      -3.6948      2.00000
     20      -3.6156      2.00000
     21      -3.3573      2.00000
     22      -3.0928      2.00000
     23      -2.8206      2.00000
     24      -2.1801      2.00000
     25      -1.2255      0.00000
     26      -0.6719      0.00000
     27      -0.2053      0.00000
     28       0.0433      0.00000
     29       0.4582      0.00000
     30       0.6372      0.00000
     31       0.7955      0.00000
     32       0.8613      0.00000

 k-point     5 :       0.2000    0.3333    0.0000
  band No.  band energies     occupation 
      1     -15.5932      2.00000
      2     -14.4752      2.00000
      3     -13.5678      2.00000
      4     -12.8275      2.00000
      5     -11.9455      2.00000
      6      -8.6252      2.00000
      7      -8.4496      2.00000
      8      -7.9945      2.00000
      9      -7.9409      2.00000
     10      -7.4116      2.00000
     11      -7.0287      2.00000
     12      -6.3568      2.00000
     13      -5.7302      2.00000
     14      -5.3536      2.00000
     15      -4.8050      2.00000
     16      -4.5283      2.00000
     17      -4.3281      2.00000
     18      -4.1270      2.00000
     19      -3.7903      2.00000
     20      -3.5870      2.00000
     21      -3.4838      2.00000
     22      -3.3970      2.00000
     23      -2.9727      2.00000
     24      -2.6510      2.00000
     25      -1.0878      0.00000
     26      -0.4872      0.00000
     27      -0.1373      0.00000
     28       0.2076      0.00000
     29       0.4584      0.00000
     30       0.7694      0.00000
     31       0.8320      0.00000
     32       0.9951      0.00000

 k-point     6 :       0.4000    0.3333    0.0000
  band No.  band energies     occupation 
      1     -15.5716      2.00000
      2     -14.3580      2.00000
      3     -13.2055      2.00000
      4     -13.1338      2.00000
      5     -12.6206      2.00000
      6      -8.3930      2.00000
      7      -8.1916      2.00000
      8      -7.6900      2.00000
      9      -7.2339      2.00000
     10      -7.0070      2.00000
     11      -6.7148      2.00000
     12      -6.5181      2.00000
     13      -6.3588      2.00000
     14      -5.4325      2.00000
     15      -5.0996      2.00000
     16      -4.9075      2.00000
     17      -4.6474      2.00000
     18      -4.1399      2.00000
     19      -4.0516      2.00000
     20      -3.9443      2.00000
     21      -3.5562      2.00000
     22      -3.3830      2.00000
     23      -3.1913      2.00000
     24      -2.8141      2.00000
     25      -0.9055      0.00000
     26      -0.3497      0.00000
     27       0.0094      0.00000
     28       0.5831      0.00000
     29       0.7507      0.00000
     30       0.8998      0.00000
     31       1.1545      0.00000
     32       1.2615      0.00000

 k-point     7 :      -0.4000    0.3333    0.0000
  band No.  band energies     occupation 
      1     -15.5716      2.00000
      2     -14.3580      2.00000
      3     -13.2087      2.00000
      4     -13.1305      2.00000
      5     -12.6209      2.00000
      6      -8.3986      2.00000
      7      -8.1978      2.00000
      8      -7.6457      2.00000
      9      -7.2223      2.00000
     10      -7.0694      2.00000
     11      -6.7261      2.00000
     12      -6.5395      2.00000
     13      -6.3152      2.00000
     14      -5.4111      2.00000
     15      -5.0923      2.00000
     16      -4.9020      2.00000
     17      -4.6244      2.00000
     18      -4.2318      2.00000
     19      -4.0809      2.00000
     20      -3.9031      2.00000
     21      -3.5516      2.00000
     22      -3.3823      2.00000
     23      -3.1455      2.00000
     24      -2.8319      2.00000
     25      -0.9617      0.00000
     26      -0.2661      0.00000
     27       0.0790      0.00000
     28       0.4746      0.00000
     29       0.7570      0.00000
     30       0.8939      0.00000
     31       1.0683      0.00000
     32       1.4061      0.00000

 k-point     8 :      -0.2000    0.3333    0.0000
  band No.  band energies     occupation 
      1     -15.5932      2.00000
      2     -14.4751      2.00000
      3     -13.5681      2.00000
      4     -12.8271      2.00000
      5     -11.9456      2.00000
      6      -8.6154      2.00000
      7      -8.4847      2.00000
      8      -7.9971      2.00000
      9      -7.8566      2.00000
     10      -7.4782      2.00000
     11      -7.0231      2.00000
     12      -6.3837      2.00000
     13      -5.7222      2.00000
     14      -5.2877      2.00000
     15      -4.7761      2.00000
     16      -4.5645      2.00000
     17      -4.3626      2.00000
     18      -4.1625      2.00000
     19      -3.8003      2.00000
     20      -3.5739      2.00000
     21      -3.4879      2.00000
     22      -3.3315      2.00000
     23      -3.0103      2.00000
     24      -2.6499      2.00000
     25      -1.1242      0.00000
     26      -0.3234      0.00000
     27      -0.1568      0.00000
     28       0.0992      0.00000
     29       0.4549      0.00000
     30       0.7063      0.00000
     31       0.9007      0.00000
     32       1.0313      0.00000


--------------------------------------------------------------------------------------------------------


 soft charge-density along one line, spin component           1
         0         1         2         3         4         5         6         7         8         9
 total charge-density along one line

 pseudopotential strength for first ion, spin component:           1
  7.446 -17.446  -0.004  -0.001   0.000   0.020   0.005  -0.001
-17.446  50.470   0.010   0.002  -0.000  -0.046  -0.010   0.001
 -0.004   0.010   1.743   0.000  -0.000  -6.878  -0.002   0.000
 -0.001   0.002   0.000   1.746   0.000  -0.002  -6.895  -0.001
  0.000  -0.000  -0.000   0.000   1.743   0.000  -0.001  -6.880
  0.020  -0.046  -6.878  -0.002   0.000  29.272   0.010  -0.001
  0.005  -0.010  -0.002  -6.895  -0.001   0.010  29.342   0.002
 -0.001   0.001   0.000  -0.001  -6.880  -0.001   0.002  29.281
 -0.000   0.000   0.000   0.000  -0.003  -0.000  -0.000   0.008
  0.002  -0.003  -0.001  -0.003   0.000   0.002   0.008  -0.000
  0.009  -0.011   0.001  -0.001  -0.000  -0.003   0.002   0.000
  0.001  -0.001   0.000   0.000  -0.001  -0.000  -0.000   0.002
  0.001  -0.002   0.001   0.000   0.000  -0.005  -0.000  -0.000
  0.000  -0.001  -0.001   0.000   0.010   0.002  -0.000  -0.037
 -0.009   0.016   0.004   0.010   0.000  -0.014  -0.038  -0.000
 -0.036   0.063  -0.004   0.004   0.000   0.015  -0.014  -0.001
 -0.002   0.004   0.000  -0.000   0.004  -0.000   0.001  -0.012
 -0.005   0.009  -0.007  -0.000  -0.000   0.026   0.001   0.001
 total augmentation occupancy for first ion, spin component:           1
  1.394   0.018  -0.051   0.027  -0.001   0.004   0.000  -0.000  -0.001  -0.025  -0.089  -0.004  -0.028  -0.000  -0.001  -0.005
  0.018   0.000   0.009  -0.000  -0.000   0.000  -0.000  -0.000  -0.000  -0.000  -0.002  -0.000   0.000  -0.000  -0.000  -0.000
 -0.051   0.009   1.301  -0.111  -0.003   0.019  -0.002  -0.000  -0.003   0.020  -0.078  -0.005   0.051  -0.000   0.000  -0.003
  0.027  -0.000  -0.111   0.417  -0.023  -0.002   0.005  -0.000  -0.006   0.055   0.001   0.000  -0.018  -0.000   0.001   0.000
 -0.001  -0.000  -0.003  -0.023   1.098  -0.000  -0.000   0.018   0.226  -0.006   0.001  -0.015   0.001   0.007  -0.000   0.000
  0.004   0.000   0.019  -0.002  -0.000   0.000  -0.000  -0.000  -0.000   0.000  -0.002  -0.000   0.000  -0.000   0.000  -0.000
  0.000  -0.000  -0.002   0.005  -0.000  -0.000   0.000  -0.000  -0.000   0.001   0.000   0.000  -0.000  -0.000   0.000   0.000
 -0.000  -0.000  -0.000  -0.000   0.018  -0.000  -0.000   0.000   0.004  -0.000   0.000  -0.000   0.000   0.000  -0.000   0.000
 -0.001  -0.000  -0.003  -0.006   0.226  -0.000  -0.000   0.004   0.065  -0.002   0.000  -0.003   0.000   0.002  -0.000   0.000
 -0.025  -0.000   0.020   0.055  -0.006   0.000   0.001  -0.000  -0.002   0.011  -0.001  -0.000   0.004  -0.000   0.000   0.000
 -0.089  -0.002  -0.078   0.001   0.001  -0.002   0.000   0.000   0.000  -0.001   0.013  -0.000  -0.004   0.000   0.000   0.001
 -0.004  -0.000  -0.005   0.000  -0.015  -0.000   0.000  -0.000  -0.003  -0.000  -0.000   0.020  -0.001  -0.000  -0.000   0.000
 -0.028   0.000   0.051  -0.018   0.001   0.000  -0.000   0.000   0.000   0.004  -0.004  -0.001   0.040   0.000   0.000  -0.000
 -0.000  -0.000  -0.000  -0.000   0.007  -0.000  -0.000   0.000   0.002  -0.000   0.000  -0.000   0.000   0.000  -0.000   0.000
 -0.001  -0.000   0.000   0.001  -0.000   0.000   0.000  -0.000  -0.000   0.000   0.000  -0.000   0.000  -0.000   0.000   0.000
 -0.005  -0.000  -0.003   0.000   0.000  -0.000   0.000   0.000   0.000   0.000   0.001   0.000  -0.000   0.000   0.000   0.000
 -0.000  -0.000  -0.000   0.000  -0.000  -0.000   0.000  -0.000  -0.000  -0.000   0.000   0.000  -0.000  -0.000   0.000   0.000
 -0.001   0.000   0.000  -0.000   0.000  -0.000  -0.000   0.000   0.000   0.000  -0.000  -0.000   0.001   0.000   0.000  -0.000


------------------------ aborting loop because EDIFF is reached ----------------------------------------


    CHARGE:  cpu time    2.0836: real time    2.0864
    FORLOC:  cpu time    0.3198: real time    0.3200
    FORNL :  cpu time    8.7639: real time    8.7710
    STRESS:  cpu time   22.6518: real time   22.6860
    FORCOR:  cpu time    1.9736: real time    1.9794
    FORHAR:  cpu time    0.7522: real time    0.7539
    MIXING:  cpu time    0.0394: real time    0.0395
    OFIELD:  cpu time    0.0000: real time    0.0000

  FORCE on cell =-STRESS in cart. coord.  units (eV):
  Direction    XX          YY          ZZ          XY          YZ          ZX
  --------------------------------------------------------------------------------------
  Alpha Z    14.13034    14.13034    14.13034
  Ewald    2525.27921  2149.25449 -3105.10079    -8.87570    73.52770     5.43807
  Hartree  2578.60420  2290.37085 -2118.98101     0.79506    36.66444     1.39891
  E(xc)    -153.77721  -154.68111  -154.26662    -0.11596     0.16040    -0.08664
  Local   -5605.20482 -4936.13754  4739.26498     3.04942  -105.50145    -8.28989
  n-local   195.42505   206.79123   168.62300     0.48781    -0.34609     1.17467
  augment   -24.49601   -24.62953   -22.81020    -0.31390     0.40484    -0.15601
  Kinetic   468.97094   451.73291   478.31811     5.32602    -4.91049     1.26989
  Fock        0.00000     0.00000     0.00000     0.00000     0.00000     0.00000
  -------------------------------------------------------------------------------------
  Total      -1.06829    -3.16835    -0.82219     0.35274    -0.00065     0.74900
  in kB      -1.86953    -5.54467    -1.43885     0.61731    -0.00113     1.31076
  external pressure =       -2.95 kB  Pullay stress =        0.00 kB


 VOLUME and BASIS-vectors are now :
 -----------------------------------------------------------------------------
  energy-cutoff  :      450.00
  volume of cell :      915.52
      direct lattice vectors                 reciprocal lattice vectors
     6.019200000  0.000000000  0.000000000     0.166135035  0.000000000  0.000000000
     0.000000000 10.140000000  0.000000000     0.000000000  0.098619329  0.000000000
     0.000000000  0.000000000 15.000000000     0.000000000  0.000000000  0.066666667

  length of vectors
     6.019200000 10.140000000 15.000000000     0.166135035  0.098619329  0.066666667


 FORCES acting on ions
    electron-ion (+dipol)            ewald-force                    non-local-force                 convergence-correction
 -----------------------------------------------------------------------------------------------
   0.333E+01 0.380E+02 0.293E+02   -.341E+01 -.360E+02 -.287E+02   0.566E-01 -.203E+01 -.638E+00   0.536E-04 -.127E-03 -.540E-03
   -.341E+01 0.397E+02 0.183E+02   0.335E+01 -.370E+02 -.182E+02   0.365E-01 -.276E+01 -.242E-02   0.792E-04 -.589E-04 -.541E-03
   0.188E+02 -.388E+02 0.142E+02   -.177E+02 0.385E+02 -.150E+02   -.118E+01 0.266E+00 0.843E+00   0.870E-04 -.164E-04 -.439E-03
   -.159E+02 -.429E+02 0.641E+01   0.151E+02 0.422E+02 -.900E+01   0.754E+00 0.685E+00 0.267E+01   0.202E-05 -.735E-05 -.403E-03
   0.979E+01 0.555E+02 0.372E+02   -.741E+01 -.541E+02 -.368E+02   -.240E+01 -.143E+01 -.449E+00   0.140E-03 0.151E-03 -.465E-03
   -.888E+01 0.553E+02 0.334E+02   0.672E+01 -.537E+02 -.330E+02   0.214E+01 -.159E+01 -.347E+00   -.405E-04 0.364E-04 -.354E-03
   0.763E+00 -.526E+02 0.254E+02   -.742E+00 0.488E+02 -.248E+02   -.362E-01 0.375E+01 -.553E+00   0.106E-03 0.479E-04 -.499E-03
   -.880E+00 -.521E+02 0.293E+02   0.829E+00 0.486E+02 -.285E+02   0.361E-01 0.358E+01 -.776E+00   0.324E-04 0.167E-04 -.487E-03
   0.420E+00 -.756E+01 0.266E+02   -.293E+00 0.729E+01 -.266E+02   -.142E+00 0.277E+00 0.157E-01   -.109E-02 -.619E-03 -.178E-02
   -.345E+00 -.811E+01 0.424E+02   0.275E+00 0.777E+01 -.431E+02   0.552E-01 0.343E+00 0.627E+00   -.947E-03 -.392E-03 -.182E-02
   0.421E+01 0.114E+02 -.249E-01   -.401E+01 -.962E+01 -.471E+01   -.220E+00 -.183E+01 0.476E+01   -.660E-03 -.451E-03 -.120E-02
   -.111E+01 0.109E+02 0.860E+02   0.943E+00 -.105E+02 -.876E+02   0.141E+00 -.376E+00 0.163E+01   -.114E-02 -.698E-03 -.160E-02
   -.211E+02 0.886E+01 -.231E+03   0.234E+02 -.168E+02 0.231E+03   -.227E+01 0.796E+01 -.393E+00   -.701E-03 -.469E-03 -.211E-02
   0.140E+02 -.400E+02 -.496E+02   -.154E+02 0.436E+02 0.510E+02   0.151E+01 -.360E+01 -.142E+01   -.861E-04 0.143E-04 -.258E-03
   0.185E+01 0.180E+02 -.690E+02   -.181E+01 -.191E+02 0.739E+02   -.482E-01 0.107E+01 -.482E+01   -.141E-03 -.117E-03 -.130E-03
 -----------------------------------------------------------------------------------------------
   0.158E+01 -.432E+01 -.114E+01   -.799E-14 0.711E-14 0.995E-13   -.157E+01 0.432E+01 0.116E+01   -.430E-02 -.269E-02 -.126E-01


 POSITION                                       TOTAL-FORCE (eV/Angst)
 -----------------------------------------------------------------------------------
      2.47232      8.83888      3.67247        -0.016074      0.001908     -0.008086
      5.48713      8.86182      3.73883        -0.015147     -0.001670      0.017115
      2.54862      6.31478      4.37036        -0.029350     -0.001682     -0.023784
      5.37701      6.31228      4.24736        -0.047671      0.005655      0.077228
      2.49692      3.79514      3.78805        -0.021476     -0.003517      0.009671
      5.42549      3.77800      3.80568        -0.016927      0.008160     -0.016907
      2.48159      1.18222      3.56930        -0.015536      0.000189      0.009634
      5.48294      1.18427      3.53700        -0.014586      0.001163     -0.011782
      0.97241     10.10358      3.63289        -0.016893     -0.000219     -0.002782
      3.98088     10.09341      3.53845        -0.015576     -0.000017      0.003992
      0.94116      4.98288      4.47202        -0.024819      0.003753      0.023771
      3.96763      5.02812      3.69360        -0.025628     -0.003600     -0.010915
      3.58629      6.46321      6.46099         0.078836     -0.022592     -0.050881
      3.10003      7.64963      6.91960         0.187798      0.029765     -0.033107
      0.94776      4.72401      5.55753        -0.006952     -0.017296      0.016833
 -----------------------------------------------------------------------------------
    total drift:                                0.006227      0.002108      0.003238


--------------------------------------------------------------------------------------------------------



  FREE ENERGIE OF THE ION-ELECTRON SYSTEM (eV)
  ---------------------------------------------------
  free  energy   TOTEN  =       -72.94960237 eV

  energy  without entropy=      -72.94960237  energy(sigma->0) =      -72.94960237

 d Force =-0.4143842E-04[-0.416E-04,-0.412E-04]  d Energy =-0.4068954E-04-0.749E-06
 d Force = 0.1514253E-01[ 0.151E-01, 0.151E-01]  d Ewald  = 0.1514253E-01 0.192E-10


--------------------------------------------------------------------------------------------------------


    POTLOK:  cpu time    1.8646: real time    1.8672


--------------------------------------------------------------------------------------------------------


 NEB: the previous image is higher in energy: T
 NEB: the next image is higher in energy    : F
 NEB: only prev energy greater

 NEB: Tangent
 ----------------------------------------------
     -0.06768      0.00599     -0.03660
     -0.06451     -0.00825      0.06448
     -0.12045     -0.00787     -0.09909
     -0.19400      0.02068      0.30543
     -0.08997     -0.01676      0.03483
     -0.07030      0.03133     -0.07202
     -0.06637     -0.00100      0.03460
     -0.06206      0.00306     -0.05186
     -0.06740     -0.00186     -0.01532
     -0.06332     -0.00105      0.01156
     -0.10207      0.01530      0.08659
     -0.10304     -0.01393     -0.04823
      0.31216     -0.09265     -0.20978
      0.75066      0.11853     -0.13649
     -0.03045     -0.07181      0.06752

 NEB: forces: par spring, perp REAL, dneb     0.001426    0.005474    0.000000
 NEB: distance to prev, next image, angle between     0.524459    0.524174  169.632180
 NEB: projections on to tangent (spring, REAL)    -0.001426    0.249290

 stress matrix after NEB project (eV)
     -1.06829      0.35274      0.74900
      0.35274     -3.16835     -0.00065
      0.74900     -0.00065     -0.82219
  FORCES: max atom, RMS     0.002202    0.001460
  FORCE total and by dimension    0.005656    0.002061
  Stress total and by dimension    3.636829    3.168348
 Quasi-Newton relaxation of ions (Broydens 2nd method)
  g(Force)  = 0.285E-04   g(Stress)= 0.000E+00

 retain information from N=  3 steps
 eigenvalues of (default step * inverse Hessian matrix)
  average eigenvalue of G=   5.6054
 eigenvalue spectrum of G is  3.4836  6.6663  6.6663


--------------------------------------------------------------------------------------------------------


    WAVPRE:  cpu time   40.4183: real time   41.9376
    FEWALD:  cpu time    0.0031: real time    0.0031
    ORTHCH:  cpu time    3.5053: real time    3.5210
     LOOP+:  cpu time  185.3132: real time  188.7311


--------------------------------------- Iteration      6(   1)  ---------------------------------------


    POTLOK:  cpu time    2.5008: real time    2.5017
    SETDIJ:  cpu time    0.0549: real time    0.0549
     EDDAV:  cpu time   30.6714: real time   30.6767
       DOS:  cpu time    0.0013: real time    0.0013
    CHARGE:  cpu time    2.2335: real time    2.2340
    MIXING:  cpu time    0.0498: real time    0.0498
    --------------------------------------------
      LOOP:  cpu time   35.5117: real time   35.5183

 eigenvalue-minimisations  :   528
 total energy-change (2. order) : 0.3879572E-04  (-0.3617242E-04)
 number of electron      48.0000002 magnetization 
 augmentation part       -0.7408265 magnetization 

 Broyden mixing:
  rms(total) = 0.30574E-03    rms(broyden)= 0.30484E-03
  rms(prec ) = 0.35468E-03
  weight for this iteration     100.00

 Free energy of the ion-electron system (eV)
  ---------------------------------------------------
  alpha Z        PSCENC =        14.13034224
  Ewald energy   TEWEN  =      1569.43190778
  -Hartree energ DENC   =     -2749.99160665
  -exchange      EXHF   =         0.00000000
  -V(xc)+E(xc)   XCENC  =      -140.27112130
  PAW double counting   =      1740.77379095    -1483.23183767
  entropy T*S    EENTRO =        -0.00000000
  eigenvalues    EBANDS =      -342.43293178
  atomic energy  EATOM  =      1318.64189276
  Solvation  Ediel_sol  =         0.00000000
  ---------------------------------------------------
  free energy    TOTEN  =       -72.94956369 eV

  energy without entropy =      -72.94956369  energy(sigma->0) =      -72.94956369


--------------------------------------------------------------------------------------------------------




--------------------------------------- Iteration      6(   2)  ---------------------------------------


    POTLOK:  cpu time    2.2561: real time    2.2561
    SETDIJ:  cpu time    0.0531: real time    0.0533
     EDDAV:  cpu time   38.5141: real time   38.5206
       DOS:  cpu time    0.0006: real time    0.0006
    CHARGE:  cpu time    2.0107: real time    2.0110
    MIXING:  cpu time    0.0553: real time    0.0553
    --------------------------------------------
      LOOP:  cpu time   42.8899: real time   42.8970

 eigenvalue-minimisations  :   704
 total energy-change (2. order) :-0.9848889E-06  (-0.1199538E-05)
 number of electron      48.0000002 magnetization 
 augmentation part       -0.7408287 magnetization 

 Broyden mixing:
  rms(total) = 0.22314E-03    rms(broyden)= 0.22300E-03
  rms(prec ) = 0.26625E-03
  weight for this iteration     100.00

 eigenvalues of (default mixing * dielectric matrix)
  average eigenvalue GAMMA=   0.8437
  0.8437

 Free energy of the ion-electron system (eV)
  ---------------------------------------------------
  alpha Z        PSCENC =        14.13034224
  Ewald energy   TEWEN  =      1569.43190778
  -Hartree energ DENC   =     -2749.99306704
  -exchange      EXHF   =         0.00000000
  -V(xc)+E(xc)   XCENC  =      -140.27107070
  PAW double counting   =      1740.78170044    -1483.23976389
  entropy T*S    EENTRO =        -0.00000000
  eigenvalues    EBANDS =      -342.43150626
  atomic energy  EATOM  =      1318.64189276
  Solvation  Ediel_sol  =         0.00000000
  ---------------------------------------------------
  free energy    TOTEN  =       -72.94956467 eV

  energy without entropy =      -72.94956467  energy(sigma->0) =      -72.94956467


--------------------------------------------------------------------------------------------------------




--------------------------------------- Iteration      6(   3)  ---------------------------------------


    POTLOK:  cpu time    2.1939: real time    2.1942
    SETDIJ:  cpu time    0.0575: real time    0.0575
     EDDAV:  cpu time   18.8318: real time   18.8345
       DOS:  cpu time    0.0006: real time    0.0006
    --------------------------------------------
      LOOP:  cpu time   21.0837: real time   21.0867

 eigenvalue-minimisations  :   280
 total energy-change (2. order) : 0.8468123E-07  (-0.2557633E-07)
 number of electron      48.0000002 magnetization 
 augmentation part       -0.7408287 magnetization 

 Free energy of the ion-electron system (eV)
  ---------------------------------------------------
  alpha Z        PSCENC =        14.13034224
  Ewald energy   TEWEN  =      1569.43190778
  -Hartree energ DENC   =     -2749.99320260
  -exchange      EXHF   =         0.00000000
  -V(xc)+E(xc)   XCENC  =      -140.27102365
  PAW double counting   =      1740.78426092    -1483.24232887
  entropy T*S    EENTRO =        -0.00000000
  eigenvalues    EBANDS =      -342.43141316
  atomic energy  EATOM  =      1318.64189276
  Solvation  Ediel_sol  =         0.00000000
  ---------------------------------------------------
  free energy    TOTEN  =       -72.94956459 eV

  energy without entropy =      -72.94956459  energy(sigma->0) =      -72.94956459


--------------------------------------------------------------------------------------------------------




 average (electrostatic) potential at core
  the test charge radii are     1.0406  0.6991  1.0339  0.5883
  (the norm of the test charge is              1.0000)
       1 -59.1290       2 -59.2170       3 -59.4145       4 -59.7636       5 -59.6640
       6 -59.6100       7 -59.2650       8 -59.2534       9 -55.1393      10 -55.1106
      11 -56.0099      12 -55.5079      13 -97.0269      14 -38.4228      15 -37.9865



 E-fermi :  -1.9208     XC(G=0):  -3.1970     alpha+bet : -2.6874


 k-point     1 :       0.0000    0.0000    0.0000
  band No.  band energies     occupation 
      1     -15.6069      2.00000
      2     -14.5321      2.00000
      3     -13.6893      2.00000
      4     -12.6344      2.00000
      5     -11.5635      2.00000
      6      -8.8851      2.00000
      7      -8.7937      2.00000
      8      -8.5035      2.00000
      9      -7.9556      2.00000
     10      -7.3595      2.00000
     11      -6.5780      2.00000
     12      -6.2274      2.00000
     13      -5.8134      2.00000
     14      -5.3564      2.00000
     15      -4.9987      2.00000
     16      -4.7325      2.00000
     17      -4.3997      2.00000
     18      -4.2419      2.00000
     19      -3.6190      2.00000
     20      -3.5333      2.00000
     21      -3.1113      2.00000
     22      -2.8203      2.00000
     23      -2.4797      2.00000
     24      -2.1870      2.00000
     25      -1.4386      0.00000
     26      -0.9458      0.00000
     27      -0.1027      0.00000
     28       0.0300      0.00000
     29       0.1639      0.00000
     30       0.4774      0.00000
     31       0.6431      0.00000
     32       1.0496      0.00000

 k-point     2 :       0.2000    0.0000    0.0000
  band No.  band energies     occupation 
      1     -15.5933      2.00000
      2     -14.4766      2.00000
      3     -13.5651      2.00000
      4     -12.8259      2.00000
      5     -11.9438      2.00000
      6      -8.7667      2.00000
      7      -8.5062      2.00000
      8      -7.9783      2.00000
      9      -7.8636      2.00000
     10      -7.2368      2.00000
     11      -6.5958      2.00000
     12      -6.4823      2.00000
     13      -6.1066      2.00000
     14      -5.3068      2.00000
     15      -4.9981      2.00000
     16      -4.6170      2.00000
     17      -4.3785      2.00000
     18      -4.1913      2.00000
     19      -3.8755      2.00000
     20      -3.5404      2.00000
     21      -3.5170      2.00000
     22      -3.3035      2.00000
     23      -2.6502      2.00000
     24      -2.4676      2.00000
     25      -1.2214      0.00000
     26      -0.3060      0.00000
     27      -0.1222      0.00000
     28       0.2064      0.00000
     29       0.4038      0.00000
     30       0.6789      0.00000
     31       0.8530      0.00000
     32       0.9134      0.00000

 k-point     3 :       0.4000    0.0000    0.0000
  band No.  band energies     occupation 
      1     -15.5716      2.00000
      2     -14.3591      2.00000
      3     -13.2199      2.00000
      4     -13.1183      2.00000
      5     -12.6161      2.00000
      6      -8.4804      2.00000
      7      -8.1617      2.00000
      8      -7.8437      2.00000
      9      -7.3830      2.00000
     10      -6.7486      2.00000
     11      -6.5540      2.00000
     12      -6.2517      2.00000
     13      -5.8886      2.00000
     14      -5.7779      2.00000
     15      -5.2715      2.00000
     16      -5.0427      2.00000
     17      -4.8865      2.00000
     18      -4.4084      2.00000
     19      -4.2395      2.00000
     20      -4.0272      2.00000
     21      -3.4919      2.00000
     22      -3.3768      2.00000
     23      -2.9187      2.00000
     24      -2.4979      2.00000
     25      -0.9076      0.00000
     26      -0.4036      0.00000
     27      -0.0075      0.00000
     28       0.7201      0.00000
     29       0.8725      0.00000
     30       1.1723      0.00000
     31       1.3109      0.00000
     32       1.3885      0.00000

 k-point     4 :       0.0000    0.3333    0.0000
  band No.  band energies     occupation 
      1     -15.6067      2.00000
      2     -14.5307      2.00000
      3     -13.6930      2.00000
      4     -12.6361      2.00000
      5     -11.5643      2.00000
      6      -8.7587      2.00000
      7      -8.6778      2.00000
      8      -8.5588      2.00000
      9      -8.0392      2.00000
     10      -7.5758      2.00000
     11      -7.0664      2.00000
     12      -5.7539      2.00000
     13      -5.4917      2.00000
     14      -5.2128      2.00000
     15      -4.9883      2.00000
     16      -4.6695      2.00000
     17      -4.3810      2.00000
     18      -4.1408      2.00000
     19      -3.6949      2.00000
     20      -3.6157      2.00000
     21      -3.3574      2.00000
     22      -3.0928      2.00000
     23      -2.8206      2.00000
     24      -2.1801      2.00000
     25      -1.2255      0.00000
     26      -0.6720      0.00000
     27      -0.2054      0.00000
     28       0.0433      0.00000
     29       0.4582      0.00000
     30       0.6371      0.00000
     31       0.7955      0.00000
     32       0.8613      0.00000

 k-point     5 :       0.2000    0.3333    0.0000
  band No.  band energies     occupation 
      1     -15.5931      2.00000
      2     -14.4754      2.00000
      3     -13.5678      2.00000
      4     -12.8276      2.00000
      5     -11.9456      2.00000
      6      -8.6252      2.00000
      7      -8.4497      2.00000
      8      -7.9945      2.00000
      9      -7.9409      2.00000
     10      -7.4116      2.00000
     11      -7.0289      2.00000
     12      -6.3568      2.00000
     13      -5.7303      2.00000
     14      -5.3536      2.00000
     15      -4.8050      2.00000
     16      -4.5284      2.00000
     17      -4.3280      2.00000
     18      -4.1270      2.00000
     19      -3.7903      2.00000
     20      -3.5871      2.00000
     21      -3.4838      2.00000
     22      -3.3970      2.00000
     23      -2.9727      2.00000
     24      -2.6510      2.00000
     25      -1.0879      0.00000
     26      -0.4873      0.00000
     27      -0.1373      0.00000
     28       0.2075      0.00000
     29       0.4583      0.00000
     30       0.7693      0.00000
     31       0.8320      0.00000
     32       0.9951      0.00000

 k-point     6 :       0.4000    0.3333    0.0000
  band No.  band energies     occupation 
      1     -15.5715      2.00000
      2     -14.3583      2.00000
      3     -13.2056      2.00000
      4     -13.1340      2.00000
      5     -12.6207      2.00000
      6      -8.3930      2.00000
      7      -8.1919      2.00000
      8      -7.6900      2.00000
      9      -7.2339      2.00000
     10      -7.0070      2.00000
     11      -6.7149      2.00000
     12      -6.5181      2.00000
     13      -6.3589      2.00000
     14      -5.4325      2.00000
     15      -5.0996      2.00000
     16      -4.9075      2.00000
     17      -4.6473      2.00000
     18      -4.1400      2.00000
     19      -4.0516      2.00000
     20      -3.9443      2.00000
     21      -3.5563      2.00000
     22      -3.3830      2.00000
     23      -3.1914      2.00000
     24      -2.8141      2.00000
     25      -0.9055      0.00000
     26      -0.3497      0.00000
     27       0.0093      0.00000
     28       0.5831      0.00000
     29       0.7507      0.00000
     30       0.8998      0.00000
     31       1.1545      0.00000
     32       1.2615      0.00000

 k-point     7 :      -0.4000    0.3333    0.0000
  band No.  band energies     occupation 
      1     -15.5715      2.00000
      2     -14.3582      2.00000
      3     -13.2087      2.00000
      4     -13.1306      2.00000
      5     -12.6210      2.00000
      6      -8.3986      2.00000
      7      -8.1980      2.00000
      8      -7.6457      2.00000
      9      -7.2223      2.00000
     10      -7.0695      2.00000
     11      -6.7262      2.00000
     12      -6.5396      2.00000
     13      -6.3152      2.00000
     14      -5.4111      2.00000
     15      -5.0923      2.00000
     16      -4.9020      2.00000
     17      -4.6243      2.00000
     18      -4.2319      2.00000
     19      -4.0810      2.00000
     20      -3.9031      2.00000
     21      -3.5516      2.00000
     22      -3.3823      2.00000
     23      -3.1456      2.00000
     24      -2.8320      2.00000
     25      -0.9618      0.00000
     26      -0.2662      0.00000
     27       0.0790      0.00000
     28       0.4745      0.00000
     29       0.7570      0.00000
     30       0.8939      0.00000
     31       1.0682      0.00000
     32       1.4061      0.00000

 k-point     8 :      -0.2000    0.3333    0.0000
  band No.  band energies     occupation 
      1     -15.5931      2.00000
      2     -14.4753      2.00000
      3     -13.5681      2.00000
      4     -12.8273      2.00000
      5     -11.9457      2.00000
      6      -8.6154      2.00000
      7      -8.4848      2.00000
      8      -7.9971      2.00000
      9      -7.8566      2.00000
     10      -7.4782      2.00000
     11      -7.0232      2.00000
     12      -6.3837      2.00000
     13      -5.7222      2.00000
     14      -5.2877      2.00000
     15      -4.7760      2.00000
     16      -4.5645      2.00000
     17      -4.3626      2.00000
     18      -4.1626      2.00000
     19      -3.8003      2.00000
     20      -3.5740      2.00000
     21      -3.4879      2.00000
     22      -3.3316      2.00000
     23      -3.0103      2.00000
     24      -2.6499      2.00000
     25      -1.1243      0.00000
     26      -0.3234      0.00000
     27      -0.1569      0.00000
     28       0.0992      0.00000
     29       0.4549      0.00000
     30       0.7063      0.00000
     31       0.9006      0.00000
     32       1.0313      0.00000


--------------------------------------------------------------------------------------------------------


 soft charge-density along one line, spin component           1
         0         1         2         3         4         5         6         7         8         9
 total charge-density along one line

 pseudopotential strength for first ion, spin component:           1
  7.446 -17.446  -0.004  -0.001   0.000   0.020   0.005  -0.001
-17.446  50.470   0.010   0.002  -0.000  -0.046  -0.010   0.001
 -0.004   0.010   1.743   0.000  -0.000  -6.878  -0.002   0.000
 -0.001   0.002   0.000   1.746   0.000  -0.002  -6.895  -0.001
  0.000  -0.000  -0.000   0.000   1.743   0.000  -0.001  -6.880
  0.020  -0.046  -6.878  -0.002   0.000  29.272   0.010  -0.001
  0.005  -0.010  -0.002  -6.895  -0.001   0.010  29.342   0.002
 -0.001   0.001   0.000  -0.001  -6.880  -0.001   0.002  29.281
 -0.000   0.000   0.000   0.000  -0.003  -0.000  -0.000   0.008
  0.002  -0.003  -0.001  -0.003   0.000   0.002   0.008  -0.000
  0.009  -0.011   0.001  -0.001  -0.000  -0.003   0.002   0.000
  0.001  -0.001   0.000   0.000  -0.001  -0.000  -0.000   0.002
  0.001  -0.002   0.001   0.000   0.000  -0.005  -0.000  -0.000
  0.000  -0.001  -0.001   0.000   0.010   0.002  -0.000  -0.037
 -0.009   0.016   0.004   0.010   0.000  -0.014  -0.038  -0.000
 -0.036   0.063  -0.004   0.004   0.000   0.015  -0.014  -0.001
 -0.002   0.004   0.000  -0.000   0.004  -0.000   0.001  -0.012
 -0.005   0.009  -0.007  -0.000  -0.000   0.026   0.001   0.001
 total augmentation occupancy for first ion, spin component:           1
  1.394   0.018  -0.051   0.027  -0.001   0.004   0.000  -0.000  -0.001  -0.025  -0.089  -0.004  -0.028  -0.000  -0.001  -0.005
  0.018   0.000   0.009  -0.000  -0.000   0.000  -0.000  -0.000  -0.000  -0.000  -0.002  -0.000   0.000  -0.000  -0.000  -0.000
 -0.051   0.009   1.301  -0.111  -0.003   0.019  -0.002  -0.000  -0.003   0.020  -0.078  -0.005   0.051  -0.000   0.000  -0.003
  0.027  -0.000  -0.111   0.417  -0.023  -0.002   0.005  -0.000  -0.006   0.055   0.001   0.000  -0.018  -0.000   0.001   0.000
 -0.001  -0.000  -0.003  -0.023   1.098  -0.000  -0.000   0.018   0.226  -0.006   0.001  -0.015   0.001   0.007  -0.000   0.000
  0.004   0.000   0.019  -0.002  -0.000   0.000  -0.000  -0.000  -0.000   0.000  -0.002  -0.000   0.000  -0.000   0.000  -0.000
  0.000  -0.000  -0.002   0.005  -0.000  -0.000   0.000  -0.000  -0.000   0.001   0.000   0.000  -0.000  -0.000   0.000   0.000
 -0.000  -0.000  -0.000  -0.000   0.018  -0.000  -0.000   0.000   0.004  -0.000   0.000  -0.000   0.000   0.000  -0.000   0.000
 -0.001  -0.000  -0.003  -0.006   0.226  -0.000  -0.000   0.004   0.065  -0.002   0.000  -0.003   0.000   0.002  -0.000   0.000
 -0.025  -0.000   0.020   0.055  -0.006   0.000   0.001  -0.000  -0.002   0.011  -0.001  -0.000   0.004  -0.000   0.000   0.000
 -0.089  -0.002  -0.078   0.001   0.001  -0.002   0.000   0.000   0.000  -0.001   0.013  -0.000  -0.004   0.000   0.000   0.001
 -0.004  -0.000  -0.005   0.000  -0.015  -0.000   0.000  -0.000  -0.003  -0.000  -0.000   0.020  -0.001  -0.000  -0.000   0.000
 -0.028   0.000   0.051  -0.018   0.001   0.000  -0.000   0.000   0.000   0.004  -0.004  -0.001   0.040   0.000   0.000  -0.000
 -0.000  -0.000  -0.000  -0.000   0.007  -0.000  -0.000   0.000   0.002  -0.000   0.000  -0.000   0.000   0.000  -0.000   0.000
 -0.001  -0.000   0.000   0.001  -0.000   0.000   0.000  -0.000  -0.000   0.000   0.000  -0.000   0.000  -0.000   0.000   0.000
 -0.005  -0.000  -0.003   0.000   0.000  -0.000   0.000   0.000   0.000   0.000   0.001   0.000  -0.000   0.000   0.000   0.000
 -0.000  -0.000  -0.000   0.000  -0.000  -0.000   0.000  -0.000  -0.000  -0.000   0.000   0.000  -0.000  -0.000   0.000   0.000
 -0.001   0.000   0.000  -0.000   0.000  -0.000  -0.000   0.000   0.000   0.000  -0.000  -0.000   0.001   0.000   0.000  -0.000


------------------------ aborting loop because EDIFF is reached ----------------------------------------


    CHARGE:  cpu time    2.0068: real time    2.0071
    FORLOC:  cpu time    0.3202: real time    0.3203
    FORNL :  cpu time    8.1084: real time    8.1094
    STRESS:  cpu time   20.7745: real time   20.7758
    FORCOR:  cpu time    1.8320: real time    1.8321
    FORHAR:  cpu time    0.7174: real time    0.7174
    MIXING:  cpu time    0.0391: real time    0.0391
    OFIELD:  cpu time    0.0000: real time    0.0000

  FORCE on cell =-STRESS in cart. coord.  units (eV):
  Direction    XX          YY          ZZ          XY          YZ          ZX
  --------------------------------------------------------------------------------------
  Alpha Z    14.13034    14.13034    14.13034
  Ewald    2525.27360  2149.25023 -3105.09340    -8.87716    73.52517     5.43699
  Hartree  2578.59834  2290.36600 -2118.97350     0.79547    36.66494     1.39910
  E(xc)    -153.77740  -154.68134  -154.26683    -0.11597     0.16040    -0.08662
  Local   -5605.19315 -4936.12903  4739.25098     3.04952  -105.50020    -8.28959
  n-local   195.42486   206.79106   168.62229     0.48777    -0.34594     1.17480
  augment   -24.49605   -24.62964   -22.81026    -0.31397     0.40481    -0.15601
  Kinetic   468.97227   451.73545   478.32097     5.32705    -4.91023     1.27014
  Fock        0.00000     0.00000     0.00000     0.00000     0.00000     0.00000
  -------------------------------------------------------------------------------------
  Total      -1.06719    -3.16694    -0.81941     0.35271    -0.00105     0.74881
  in kB      -1.86759    -5.54220    -1.43398     0.61726    -0.00184     1.31043
  external pressure =       -2.95 kB  Pullay stress =        0.00 kB


 VOLUME and BASIS-vectors are now :
 -----------------------------------------------------------------------------
  energy-cutoff  :      450.00
  volume of cell :      915.52
      direct lattice vectors                 reciprocal lattice vectors
     6.019200000  0.000000000  0.000000000     0.166135035  0.000000000  0.000000000
     0.000000000 10.140000000  0.000000000     0.000000000  0.098619329  0.000000000
     0.000000000  0.000000000 15.000000000     0.000000000  0.000000000  0.066666667

  length of vectors
     6.019200000 10.140000000 15.000000000     0.166135035  0.098619329  0.066666667


 FORCES acting on ions
    electron-ion (+dipol)            ewald-force                    non-local-force                 convergence-correction
 -----------------------------------------------------------------------------------------------
   0.334E+01 0.380E+02 0.293E+02   -.341E+01 -.360E+02 -.287E+02   0.560E-01 -.203E+01 -.637E+00   0.273E-05 -.116E-03 -.660E-03
   -.340E+01 0.397E+02 0.183E+02   0.335E+01 -.370E+02 -.182E+02   0.358E-01 -.276E+01 -.241E-02   0.103E-04 -.118E-03 -.654E-03
   0.188E+02 -.388E+02 0.142E+02   -.177E+02 0.385E+02 -.150E+02   -.118E+01 0.266E+00 0.843E+00   0.111E-03 -.174E-04 -.622E-03
   -.159E+02 -.429E+02 0.641E+01   0.151E+02 0.422E+02 -.901E+01   0.754E+00 0.685E+00 0.267E+01   -.597E-04 -.655E-04 -.591E-03
   0.979E+01 0.555E+02 0.372E+02   -.741E+01 -.541E+02 -.368E+02   -.241E+01 -.143E+01 -.449E+00   0.741E-04 0.168E-03 -.594E-03
   -.888E+01 0.553E+02 0.333E+02   0.672E+01 -.537E+02 -.330E+02   0.214E+01 -.159E+01 -.347E+00   -.257E-04 0.150E-03 -.511E-03
   0.765E+00 -.526E+02 0.254E+02   -.743E+00 0.488E+02 -.248E+02   -.370E-01 0.375E+01 -.553E+00   0.175E-04 -.950E-05 -.599E-03
   -.878E+00 -.521E+02 0.293E+02   0.828E+00 0.486E+02 -.285E+02   0.355E-01 0.358E+01 -.776E+00   -.395E-05 0.136E-04 -.597E-03
   0.416E+00 -.756E+01 0.266E+02   -.290E+00 0.729E+01 -.266E+02   -.141E+00 0.277E+00 0.158E-01   -.112E-03 -.452E-03 -.208E-02
   -.347E+00 -.811E+01 0.424E+02   0.277E+00 0.777E+01 -.431E+02   0.555E-01 0.343E+00 0.627E+00   -.325E-03 -.430E-03 -.211E-02
   0.421E+01 0.114E+02 -.204E-01   -.401E+01 -.962E+01 -.472E+01   -.220E+00 -.183E+01 0.476E+01   -.642E-03 -.735E-04 -.258E-02
   -.111E+01 0.109E+02 0.860E+02   0.946E+00 -.105E+02 -.876E+02   0.142E+00 -.376E+00 0.163E+01   -.421E-03 -.304E-05 -.182E-02
   -.211E+02 0.887E+01 -.231E+03   0.234E+02 -.168E+02 0.231E+03   -.227E+01 0.795E+01 -.393E+00   -.273E-03 -.129E-02 -.225E-02
   0.140E+02 -.400E+02 -.496E+02   -.154E+02 0.436E+02 0.510E+02   0.151E+01 -.360E+01 -.142E+01   -.131E-03 0.135E-03 -.197E-03
   0.185E+01 0.180E+02 -.690E+02   -.181E+01 -.191E+02 0.739E+02   -.482E-01 0.107E+01 -.482E+01   -.141E-03 -.151E-03 0.574E-05
 -----------------------------------------------------------------------------------------------
   0.158E+01 -.432E+01 -.113E+01   0.622E-14 0.355E-14 0.284E-13   -.157E+01 0.432E+01 0.115E+01   -.192E-02 -.225E-02 -.159E-01


 POSITION                                       TOTAL-FORCE (eV/Angst)
 -----------------------------------------------------------------------------------
      2.47241      8.83892      3.67260        -0.016209      0.001921     -0.008083
      5.48723      8.86186      3.73895        -0.015360     -0.001677      0.017077
      2.54871      6.31482      4.37049        -0.029298     -0.001601     -0.023488
      5.37712      6.31233      4.24743        -0.047678      0.005543      0.077251
      2.49703      3.79520      3.78817        -0.021795     -0.003879      0.009707
      5.42558      3.77803      3.80582        -0.016849      0.008190     -0.016874
      2.48169      1.18226      3.56943        -0.015750      0.000248      0.009630
      5.48303      1.18431      3.53715        -0.014777      0.001192     -0.011791
      0.97247     10.10362      3.63303        -0.016229     -0.000296     -0.002687
      3.98096     10.09345      3.53859        -0.015370     -0.000009      0.003900
      0.94126      4.98290      4.47217        -0.025102      0.004273      0.021426
      3.96770      5.02815      3.69374        -0.025108     -0.003449     -0.010886
      3.58634      6.46327      6.46116         0.078725     -0.022715     -0.051242
      3.09999      7.64964      6.91973         0.187732      0.030070     -0.032985
      0.94784      4.72407      5.55760        -0.006933     -0.017809      0.019044
 -----------------------------------------------------------------------------------
    total drift:                                0.005905      0.001624      0.003479


--------------------------------------------------------------------------------------------------------



  FREE ENERGIE OF THE ION-ELECTRON SYSTEM (eV)
  ---------------------------------------------------
  free  energy   TOTEN  =       -72.94956459 eV

  energy  without entropy=      -72.94956459  energy(sigma->0) =      -72.94956459

 d Force =-0.3850279E-04[-0.386E-04,-0.384E-04]  d Energy =-0.3778918E-04-0.714E-06
 d Force = 0.2490222E-02[ 0.249E-02, 0.249E-02]  d Ewald  = 0.2490222E-02-0.536E-11


--------------------------------------------------------------------------------------------------------


    POTLOK:  cpu time    1.7988: real time    1.7988


--------------------------------------------------------------------------------------------------------


 NEB: the previous image is higher in energy: T
 NEB: the next image is higher in energy    : F
 NEB: only prev energy greater

 NEB: Tangent
 ----------------------------------------------
     -0.06764      0.00600     -0.03655
     -0.06447     -0.00824      0.06460
     -0.12040     -0.00785     -0.09900
     -0.19394      0.02070      0.30550
     -0.08991     -0.01673      0.03492
     -0.07024      0.03134     -0.07197
     -0.06632     -0.00098      0.03470
     -0.06201      0.00308     -0.05181
     -0.06736     -0.00186     -0.01522
     -0.06327     -0.00107      0.01161
     -0.10201      0.01530      0.08669
     -0.10300     -0.01393     -0.04810
      0.31219     -0.09259     -0.20968
      0.75072      0.11868     -0.13642
     -0.03043     -0.07177      0.06756

 NEB: forces: par spring, perp REAL, dneb     0.000960    0.005257    0.000000
 NEB: distance to prev, next image, angle between     0.524644    0.524452  169.630156
 NEB: projections on to tangent (spring, REAL)    -0.000960    0.249262

 stress matrix after NEB project (eV)
     -1.06719      0.35271      0.74881
      0.35271     -3.16694     -0.00105
      0.74881     -0.00105     -0.81941
  FORCES: max atom, RMS     0.002250    0.001380
  FORCE total and by dimension    0.005344    0.002139
  Stress total and by dimension    3.634567    3.166940
 Quasi-Newton relaxation of ions (Broydens 2nd method)
  g(Force)  = 0.206E-04   g(Stress)= 0.000E+00

 retain information from N=  2 steps
 eigenvalues of (default step * inverse Hessian matrix)
  average eigenvalue of G=   5.5641
 eigenvalue spectrum of G is  5.5641  5.5641


--------------------------------------------------------------------------------------------------------


  
 reached required accuracy - stopping structural energy minimisation
     LOOP+:  cpu time  181.9833: real time  185.0152
    4ORBIT:  cpu time    0.0000: real time    0.0000

 total amount of memory used by VASP MPI-rank0   231905. kBytes
=======================================================================

   base      :      30000. kBytes
   nonlr-proj:      11401. kBytes
   fftplans  :      44247. kBytes
   grid      :     104852. kBytes
   one-center:        233. kBytes
   wavefun   :      41172. kBytes

  
  
 General timing and accounting informations for this job:
 ========================================================
  
                  Total CPU time used (sec):     2050.922
                            User time (sec):     1841.608
                          System time (sec):      209.314
                         Elapsed time (sec):     2075.196
  
                   Maximum memory used (kb):      294868.
                   Average memory used (kb):           0.
  
                          Minor page faults:      8868946
                          Major page faults:            5
                 Voluntary context switches:         1557
