Al   C    S    H                        
   1.0000000000000000     
     6.0191999999999997    0.0000000000000000    0.0000000000000000
     0.0000000000000000   10.1400000000000006    0.0000000000000000
     0.0000000000000000    0.0000000000000000   15.0000000000000000
   Al   C    S    H 
     8     4     1     2
Selective dynamics
Direct
  0.4107006802763869  0.8716749829620750  0.2448060832094004   T   T   T
  0.9115666328784472  0.8739356160456809  0.2492335100089766   T   T   T
  0.4233758432507015  0.6227480916875935  0.2913329650819979   T   T   T
  0.8932616685173999  0.6225032089522238  0.2831416373988161   T   T   T
  0.4147878299543618  0.3742641309172905  0.2525139938865182   T   T   T
  0.9013273489793916  0.3725738718803623  0.2536858617831044   T   T   T
  0.4122423611586322  0.1165795796115808  0.2379305594386741   T   T   T
  0.9108709885224447  0.1167817793558713  0.2357733475323105   T   T   T
  0.1615070648067964  0.9963971833894908  0.2421682078616171   T   T   T
  0.6613235059953326  0.9953955399351166  0.2358711624572009   T   T   T
  0.1563163412933413  0.4913954386412323  0.2981186148663183   T   T   T
  0.6591178798227740  0.4958559063824078  0.2462148474108987   T   T   T
  0.5957901427384745  0.6373826975913583  0.4307082596736294   T   T   T
  0.5150404246963817  0.7543970864560808  0.4612826397628828   T   T   T
  0.1574182158528092  0.4658639715546481  0.3704784190428557   T   T   T

  0.00000000E+00  0.00000000E+00  0.00000000E+00
  0.00000000E+00  0.00000000E+00  0.00000000E+00
  0.00000000E+00  0.00000000E+00  0.00000000E+00
  0.00000000E+00  0.00000000E+00  0.00000000E+00
  0.00000000E+00  0.00000000E+00  0.00000000E+00
  0.00000000E+00  0.00000000E+00  0.00000000E+00
  0.00000000E+00  0.00000000E+00  0.00000000E+00
  0.00000000E+00  0.00000000E+00  0.00000000E+00
  0.00000000E+00  0.00000000E+00  0.00000000E+00
  0.00000000E+00  0.00000000E+00  0.00000000E+00
  0.00000000E+00  0.00000000E+00  0.00000000E+00
  0.00000000E+00  0.00000000E+00  0.00000000E+00
  0.00000000E+00  0.00000000E+00  0.00000000E+00
  0.00000000E+00  0.00000000E+00  0.00000000E+00
  0.00000000E+00  0.00000000E+00  0.00000000E+00
