Al2C                                    
           1
     6.019200    0.000000    0.000000
     0.000000   10.140000    0.000000
     0.000000    0.000000   15.000000
   Al   C    S    H 
   8   4   1   2
Direct configuration=     1
   0.41070068  0.87167498  0.24480608
   0.91156663  0.87393562  0.24923351
   0.42337584  0.62274809  0.29133297
   0.89326167  0.62250321  0.28314164
   0.41478783  0.37426413  0.25251399
   0.90132735  0.37257387  0.25368586
   0.41224236  0.11657958  0.23793056
   0.91087099  0.11678178  0.23577335
   0.16150706  0.99639718  0.24216821
   0.66132351  0.99539554  0.23587116
   0.15631634  0.49139544  0.29811861
   0.65911788  0.49585591  0.24621485
   0.59579014  0.63738270  0.43070826
   0.51504042  0.75439709  0.46128264
   0.15741822  0.46586397  0.37047842
Direct configuration=     2
   0.41070523  0.87167633  0.24480865
   0.91157124  0.87393710  0.24923582
   0.42337950  0.62274907  0.29133626
   0.89326707  0.62250410  0.28314403
   0.41479137  0.37426546  0.25251662
   0.90133121  0.37257537  0.25368874
   0.41224710  0.11658137  0.23793301
   0.91087519  0.11678335  0.23577611
   0.16151023  0.99639735  0.24217078
   0.66132680  0.99539594  0.23587385
   0.15632049  0.49139791  0.29811561
   0.65912187  0.49585649  0.24621697
   0.59579317  0.63738607  0.43071153
   0.51504139  0.75439680  0.46128489
   0.15742225  0.46586415  0.37048531
Direct configuration=     3
   0.41071289  0.87167820  0.24481353
   0.91157939  0.87393915  0.24924018
   0.42338903  0.62275152  0.29134207
   0.89327520  0.62250636  0.28314713
   0.41479997  0.37426780  0.25252091
   0.90133727  0.37257752  0.25369358
   0.41225464  0.11658348  0.23793752
   0.91088288  0.11678556  0.23578128
   0.16151627  0.99639919  0.24217531
   0.66133254  0.99539786  0.23587860
   0.15632870  0.49139875  0.29812426
   0.65912881  0.49585835  0.24622162
   0.59579548  0.63738359  0.43071264
   0.51503766  0.75440005  0.46129013
   0.15742937  0.46586928  0.37048332
Direct configuration=     4
   0.41072720  0.87168148  0.24482238
   0.91159377  0.87394295  0.24924796
   0.42340399  0.62275544  0.29135112
   0.89329240  0.62251023  0.28315287
   0.41481435  0.37427156  0.25252895
   0.90135121  0.37258078  0.25370288
   0.41226838  0.11658692  0.23794562
   0.91089676  0.11678917  0.23579075
   0.16152877  0.99640281  0.24218373
   0.66134489  0.99540138  0.23588738
   0.15634225  0.49140335  0.29812815
   0.65914217  0.49586210  0.24623001
   0.59579580  0.63739425  0.43072047
   0.51503640  0.75439667  0.46129732
   0.15744295  0.46587383  0.37049311
Direct configuration=     5
   0.41073877  0.87168480  0.24483121
   0.91160531  0.87394653  0.24925554
   0.42341512  0.62275919  0.29135760
   0.89330952  0.62251301  0.28315710
   0.41482659  0.37427452  0.25253663
   0.90136430  0.37258337  0.25371205
   0.41227932  0.11658998  0.23795355
   0.91090768  0.11679221  0.23580028
   0.16155055  0.99640817  0.24219284
   0.66136404  0.99540533  0.23589681
   0.15635979  0.49140820  0.29813437
   0.65916241  0.49586940  0.24623989
   0.59580777  0.63739729  0.43073254
   0.51502398  0.75440143  0.46130674
   0.15745627  0.46587856  0.37050215
Direct configuration=     6
   0.41075389  0.87168877  0.24484025
   0.91162150  0.87395071  0.24926340
   0.42343018  0.62276303  0.29136597
   0.89332777  0.62251730  0.28316231
   0.41484348  0.37427980  0.25254455
   0.90137812  0.37258669  0.25372148
   0.41229564  0.11659409  0.23796167
   0.91092308  0.11679617  0.23581012
   0.16156155  0.99641216  0.24220171
   0.66137633  0.99540885  0.23590601
   0.15637577  0.49141067  0.29814474
   0.65917477  0.49587247  0.24624937
   0.59581628  0.63740349  0.43074370
   0.51501616  0.75440273  0.46131565
   0.15747011  0.46588509  0.37050698
