#VESTA_FORMAT_VERSION 3.5.4


CRYSTAL

TITLE
Al2C                                    

GROUP
1 1 P 1
SYMOP
 0.000000  0.000000  0.000000  1  0  0   0  1  0   0  0  1   1
 -1.0 -1.0 -1.0  0 0 0  0 0 0  0 0 0
TRANM 0
 0.000000  0.000000  0.000000  1  0  0   0  1  0   0  0  1
LTRANSL
 -1
 0.000000  0.000000  0.000000  0.000000  0.000000  0.000000
LORIENT
 -1   0   0   0   0
 1.000000  0.000000  0.000000  1.000000  0.000000  0.000000
 0.000000  0.000000  1.000000  0.000000  0.000000  1.000000
LMATRIX
 1.000000  0.000000  0.000000  0.000000
 0.000000  1.000000  0.000000  0.000000
 0.000000  0.000000  1.000000  0.000000
 0.000000  0.000000  0.000000  1.000000
 0.000000  0.000000  0.000000
CELLP
  6.019200  10.140000  15.000000  90.000000  90.000000  90.000000
  0.000000   0.000000   0.000000   0.000000   0.000000   0.000000
STRUC
  1 Al        Al1  1.0000   0.459560   0.816996   0.292477    1a       1
                            0.000000   0.000000   0.000000  0.00
  2 Al        Al2  1.0000   0.962285   0.819522   0.251277    1a       1
                            0.000000   0.000000   0.000000  0.00
  3 Al        Al3  1.0000   0.461471   0.560514   0.266489    1a       1
                            0.000000   0.000000   0.000000  0.00
  4 Al        Al4  1.0000   0.961825   0.560870   0.239850    1a       1
                            0.000000   0.000000   0.000000  0.00
  5 Al        Al5  1.0000   0.462324   0.318093   0.236657    1a       1
                            0.000000   0.000000   0.000000  0.00
  6 Al        Al6  1.0000   0.962122   0.318868   0.263262    1a       1
                            0.000000   0.000000   0.000000  0.00
  7 Al        Al7  1.0000   0.463461   0.057466   0.245413    1a       1
                            0.000000   0.000000   0.000000  0.00
  8 Al        Al8  1.0000   0.964448   0.061951   0.276671    1a       1
                            0.000000   0.000000   0.000000  0.00
  9  C         C1  1.0000   0.213133   0.939697   0.266497    1a       1
                            0.000000   0.000000   0.000000  0.00
 10  C         C2  1.0000   0.713266   0.940633   0.272721    1a       1
                            0.000000   0.000000   0.000000  0.00
 11  C         C3  1.0000   0.212159   0.439198   0.248832    1a       1
                            0.000000   0.000000   0.000000  0.00
 12  C         C4  1.0000   0.711740   0.439367   0.250228    1a       1
                            0.000000   0.000000   0.000000  0.00
 13  O         O1  1.0000   0.508223   0.840071   0.430564    1a       1
                            0.000000   0.000000   0.000000  0.00
 14  H         H1  1.0000   0.622789   0.906367   0.411488    1a       1
                            0.000000   0.000000   0.000000  0.00
 15  H         H2  1.0000   0.381964   0.892280   0.451773    1a       1
                            0.000000   0.000000   0.000000  0.00
  0 0 0 0 0 0 0
THERI 1
  1        Al1  0.000000
  2        Al2  0.000000
  3        Al3  0.000000
  4        Al4  0.000000
  5        Al5  0.000000
  6        Al6  0.000000
  7        Al7  0.000000
  8        Al8  0.000000
  9         C1  0.000000
 10         C2  0.000000
 11         C3  0.000000
 12         C4  0.000000
 13         O1  0.000000
 14         H1  0.000000
 15         H2  0.000000
  0 0 0
SHAPE
  0       0       0       0   0.000000  0   192   192   192   192
BOUND
       0        1         0        1         0        1
  0   0   0   0  0
SBOND
  1    Al     O    0.00000    2.10740  0  1  1  0  1  0.250  2.000 127 127 127
  2     O     H    0.00000    1.20000  0  1  0  0  1  0.250  2.000 127 127 127
  0 0 0 0
SITET
  1        Al1  1.4300 129 178 214 129 178 214 204  0
  2        Al2  1.4300 129 178 214 129 178 214 204  0
  3        Al3  1.4300 129 178 214 129 178 214 204  0
  4        Al4  1.4300 129 178 214 129 178 214 204  0
  5        Al5  1.4300 129 178 214 129 178 214 204  0
  6        Al6  1.4300 129 178 214 129 178 214 204  0
  7        Al7  1.4300 129 178 214 129 178 214 204  0
  8        Al8  1.4300 129 178 214 129 178 214 204  0
  9         C1  0.7700 128  73  41 128  73  41 204  0
 10         C2  0.7700 128  73  41 128  73  41 204  0
 11         C3  0.7700 128  73  41 128  73  41 204  0
 12         C4  0.7700 128  73  41 128  73  41 204  0
 13         O1  0.7400 254   3   0 254   3   0 204  0
 14         H1  0.4600 255 204 204 255 204 204 204  0
 15         H2  0.4600 255 204 204 255 204 204 204  0
  0 0 0 0 0 0
VECTR
 0 0 0 0 0
VECTT
 0 0 0 0 0
SPLAN
  0   0   0   0
LBLAT
 -1
LBLSP
 -1
DLATM
 -1
DLBND
 -1
DLPLY
 -1
PLN2D
  0   0   0   0
ATOMT
  1         Al  1.4300 129 178 214 129 178 214 204
  2          C  0.7700 128  73  41 128  73  41 204
  3          O  0.7400 254   3   0 254   3   0 204
  4          H  0.4600 255 204 204 255 204 204 204
  0 0 0 0 0 0
SCENE
 1.000000  0.000000  0.000000  0.000000
 0.000000  1.000000  0.000000  0.000000
 0.000000  0.000000  1.000000  0.000000
 0.000000  0.000000  0.000000  1.000000
  0.000   0.000
  0.000
  1.551
HBOND 0 2

STYLE
DISPF 37753794
MODEL   0  1  0
SURFS   0  1  1
SECTS  32  1
FORMS   0  1
ATOMS   0  0  1
BONDS   1
POLYS   1
VECTS 1.000000
FORMP
  1  1.0   0   0   0
ATOMP
 24  24   0  50  2.0   0
BONDP
  1  16  0.250  2.000 127 127 127
POLYP
 204 1  1.000 180 180 180
ISURF
  0   0   0   0
TEX3P
  1  0.00000E+00  1.00000E+00
SECTP
  1  9.76021E-01  1.79680E+00  0.00000E+00  0.00000E+00  0.00000E+00  0.00000E+00
CONTR
 0.1 -1 1 1 10 -1 2 5
 2 1 2 1
   0   0   0
   0   0   0
   0   0   0
   0   0   0
HKLPP
 192 1  1.000 255   0 255
UCOLP
   0   0  1.000   0   0   0
COMPS 1
LABEL 1    12  1.000 0
PROJT 0  0.962
BKGRC
 255 255 255
DPTHQ 1 -0.5000  3.5000
LIGHT0 1
 1.000000  0.000000  0.000000  0.000000
 0.000000  1.000000  0.000000  0.000000
 0.000000  0.000000  1.000000  0.000000
 0.000000  0.000000  0.000000  1.000000
 0.000000  0.000000 20.000000  0.000000
 0.000000  0.000000 -1.000000
  26  26  26 255
 179 179 179 255
 255 255 255 255
LIGHT1
 1.000000  0.000000  0.000000  0.000000
 0.000000  1.000000  0.000000  0.000000
 0.000000  0.000000  1.000000  0.000000
 0.000000  0.000000  0.000000  1.000000
 0.000000  0.000000 20.000000  0.000000
 0.000000  0.000000 -1.000000
   0   0   0   0
   0   0   0   0
   0   0   0   0
LIGHT2
 1.000000  0.000000  0.000000  0.000000
 0.000000  1.000000  0.000000  0.000000
 0.000000  0.000000  1.000000  0.000000
 0.000000  0.000000  0.000000  1.000000
 0.000000  0.000000 20.000000  0.000000
 0.000000  0.000000 -1.000000
   0   0   0   0
   0   0   0   0
   0   0   0   0
LIGHT3
 1.000000  0.000000  0.000000  0.000000
 0.000000  1.000000  0.000000  0.000000
 0.000000  0.000000  1.000000  0.000000
 0.000000  0.000000  0.000000  1.000000
 0.000000  0.000000 20.000000  0.000000
 0.000000  0.000000 -1.000000
   0   0   0   0
   0   0   0   0
   0   0   0   0
SECCL 0

TEXCL 0

ATOMM
 204 204 204 255
  25.600
BONDM
 255 255 255 255
 128.000
POLYM
 255 255 255 255
 128.000
SURFM
   0   0   0 255
 128.000
FORMM
 255 255 255 255
 128.000
HKLPM
 255 255 255 255
 128.000
