Al2C                                    
   1.0000000000000000     
     6.0191999999999997    0.0000000000000000    0.0000000000000000
     0.0000000000000000   10.1400000000000006    0.0000000000000000
     0.0000000000000000    0.0000000000000000   15.0000000000000000
   Al   C    O    H 
     8     4     1     2
Selective dynamics
Direct
  0.4588311085582603  0.8171057802181837  0.2923285617314300   T   T   T
  0.9619051005781815  0.8197697459909523  0.2507183977255198   T   T   T
  0.4606450219417466  0.5606798089354436  0.2664516672233898   T   T   T
  0.9612122224400123  0.5611256845681696  0.2395751868426707   T   T   T
  0.4617617293693553  0.3182120433735682  0.2368290499612481   T   T   T
  0.9618109021785256  0.3191102895431256  0.2633155997945096   T   T   T
  0.4639515782454207  0.0575035156727497  0.2453073112076850   T   T   T
  0.9645260690418571  0.0620919195793149  0.2767262284668833   T   T   T
  0.2130330011199156  0.9397723963884100  0.2653353993115383   T   T   T
  0.7133059937005748  0.9407819001523509  0.2734931675227071   T   T   T
  0.2115857547527039  0.4394330425333340  0.2483958495265823   T   T   T
  0.7111805958905350  0.4395972738220477  0.2507889070371133   T   T   T
  0.5091902203144921  0.8394351875299052  0.4304758451865400   T   T   T
  0.6232210363478234  0.9059148733523014  0.4108866953646726   T   T   T
  0.3846105320809382  0.8913600294643967  0.4535721330974852   T   T   T

  0.00000000E+00  0.00000000E+00  0.00000000E+00
  0.00000000E+00  0.00000000E+00  0.00000000E+00
  0.00000000E+00  0.00000000E+00  0.00000000E+00
  0.00000000E+00  0.00000000E+00  0.00000000E+00
  0.00000000E+00  0.00000000E+00  0.00000000E+00
  0.00000000E+00  0.00000000E+00  0.00000000E+00
  0.00000000E+00  0.00000000E+00  0.00000000E+00
  0.00000000E+00  0.00000000E+00  0.00000000E+00
  0.00000000E+00  0.00000000E+00  0.00000000E+00
  0.00000000E+00  0.00000000E+00  0.00000000E+00
  0.00000000E+00  0.00000000E+00  0.00000000E+00
  0.00000000E+00  0.00000000E+00  0.00000000E+00
  0.00000000E+00  0.00000000E+00  0.00000000E+00
  0.00000000E+00  0.00000000E+00  0.00000000E+00
  0.00000000E+00  0.00000000E+00  0.00000000E+00
