   12   12    1    1
  0.7629336E+02  0.6019200E-09  0.1014000E-08  0.1500000E-08  0.3500000E-15
   1.0000000000000000E-004
  CAR 
 Al2C                                    
     40      8     28

  0.3742002E-15  0.3742002E-15  0.1262379E-14  0.6666667E-01
    1      -15.865941   1.000000
    2      -15.688366   1.000000
    3      -13.522723   1.000000
    4      -13.447520   1.000000
    5      -10.174916   1.000000
    6       -9.938624   1.000000
    7       -9.907033   1.000000
    8       -7.608366   1.000000
    9       -7.070248   1.000000
   10       -6.634804   1.000000
   11       -5.810265   1.000000
   12       -5.785577   1.000000
   13       -5.355244   1.000000
   14       -5.296212   1.000000
   15       -4.005085   1.000000
   16       -3.800418   1.000000
   17       -3.779476   1.000000
   18       -2.951188   1.000000
   19       -2.903206   1.000000
   20       -2.748441   1.000000
   21       -1.665880   0.000000
   22       -0.922021   0.000000
   23       -0.191867   0.000000
   24        0.437005   0.000000
   25        0.516304   0.000000
   26        0.706410   0.000000
   27        0.933134   0.000000
   28        1.666352   0.000000

  0.2000000E+00  0.3742002E-15  0.1262379E-14  0.1333333E+00
    1      -15.727405   1.000000
    2      -15.553636   1.000000
    3      -13.939837   1.000000
    4      -13.834979   1.000000
    5       -9.771336   1.000000
    6       -9.516925   1.000000
    7       -9.274210   1.000000
    8       -7.477970   1.000000
    9       -7.435517   1.000000
   10       -6.931641   1.000000
   11       -6.046605   1.000000
   12       -5.627070   1.000000
   13       -5.202592   1.000000
   14       -4.589150   1.000000
   15       -4.540216   1.000000
   16       -4.532137   1.000000
   17       -4.469764   1.000000
   18       -3.475614   1.000000
   19       -3.211571   1.000000
   20       -2.952114   1.000000
   21       -1.505087   0.000000
   22       -0.042957   0.000000
   23        0.414614   0.000000
   24        0.554318   0.000000
   25        0.695876   0.000000
   26        0.770821   0.000000
   27        0.898823   0.000000
   28        1.693960   0.000000

  0.4000000E+00  0.3742002E-15  0.1262379E-14  0.1333333E+00
    1      -15.320853   1.000000
    2      -15.158954   1.000000
    3      -14.683635   1.000000
    4      -14.543555   1.000000
    5       -9.275312   1.000000
    6       -8.473261   1.000000
    7       -8.088120   1.000000
    8       -7.849987   1.000000
    9       -7.108021   1.000000
   10       -6.762890   1.000000
   11       -6.574131   1.000000
   12       -6.136907   1.000000
   13       -5.857732   1.000000
   14       -5.504534   1.000000
   15       -5.157060   1.000000
   16       -4.752492   1.000000
   17       -4.402395   1.000000
   18       -4.042493   1.000000
   19       -3.505764   1.000000
   20       -3.047809   1.000000
   21       -1.026000   0.000000
   22       -0.244230   0.000000
   23        0.850169   0.000000
   24        1.014343   0.000000
   25        1.177300   0.000000
   26        1.421733   0.000000
   27        2.203527   0.000000
   28        2.603035   0.000000

  0.3742002E-15  0.3333333E+00  0.1262379E-14  0.1333333E+00
    1      -15.824013   1.000000
    2      -15.735379   1.000000
    3      -13.504381   1.000000
    4      -13.466789   1.000000
    5      -10.113694   1.000000
    6       -9.980497   1.000000
    7       -9.616329   1.000000
    8       -8.719539   1.000000
    9       -6.458368   1.000000
   10       -6.052352   1.000000
   11       -5.693016   1.000000
   12       -5.655893   1.000000
   13       -5.480448   1.000000
   14       -5.015897   1.000000
   15       -4.383932   1.000000
   16       -3.937165   1.000000
   17       -3.795236   1.000000
   18       -3.784900   1.000000
   19       -2.866352   1.000000
   20       -2.788952   1.000000
   21       -1.272202   0.000000
   22       -0.358377   0.000000
   23       -0.316074   0.000000
   24       -0.032067   0.000000
   25        0.449593   0.000000
   26        0.849893   0.000000
   27        1.126189   0.000000
   28        1.576312   0.000000

  0.2000000E+00  0.3333333E+00  0.1262379E-14  0.1333333E+00
    1      -15.686322   1.000000
    2      -15.599582   1.000000
    3      -13.914455   1.000000
    4      -13.862045   1.000000
    5       -9.463875   1.000000
    6       -9.452660   1.000000
    7       -9.343940   1.000000
    8       -8.566656   1.000000
    9       -7.169997   1.000000
   10       -6.523408   1.000000
   11       -5.565531   1.000000
   12       -5.535535   1.000000
   13       -5.325882   1.000000
   14       -4.562253   1.000000
   15       -4.518960   1.000000
   16       -4.378733   1.000000
   17       -4.373810   1.000000
   18       -3.846711   1.000000
   19       -3.415032   1.000000
   20       -3.283428   1.000000
   21       -1.116466   0.000000
   22       -0.175613   0.000000
   23        0.018850   0.000000
   24        0.487359   0.000000
   25        0.659022   0.000000
   26        0.896956   0.000000
   27        1.038736   0.000000
   28        1.209751   0.000000

  0.4000000E+00  0.3333333E+00  0.1262379E-14  0.1333333E+00
    1      -15.282418   1.000000
    2      -15.201583   1.000000
    3      -14.650131   1.000000
    4      -14.580157   1.000000
    5       -8.970237   1.000000
    6       -8.258875   1.000000
    7       -8.128366   1.000000
    8       -8.085430   1.000000
    9       -7.813218   1.000000
   10       -7.285196   1.000000
   11       -6.259060   1.000000
   12       -6.164034   1.000000
   13       -5.086611   1.000000
   14       -5.069188   1.000000
   15       -4.869093   1.000000
   16       -4.670941   1.000000
   17       -4.322982   1.000000
   18       -4.144479   1.000000
   19       -3.789649   1.000000
   20       -3.722863   1.000000
   21       -0.657420   0.000000
   22        0.057179   0.000000
   23        0.218509   0.000000
   24        0.688565   0.000000
   25        1.174364   0.000000
   26        1.209788   0.000000
   27        1.541875   0.000000
   28        1.894206   0.000000

 -0.4000000E+00  0.3333333E+00  0.1262379E-14  0.1333333E+00
    1      -15.282418   1.000000
    2      -15.201583   1.000000
    3      -14.650130   1.000000
    4      -14.580157   1.000000
    5       -8.970238   1.000000
    6       -8.258862   1.000000
    7       -8.128363   1.000000
    8       -8.085442   1.000000
    9       -7.813234   1.000000
   10       -7.285177   1.000000
   11       -6.259077   1.000000
   12       -6.164030   1.000000
   13       -5.086585   1.000000
   14       -5.069187   1.000000
   15       -4.869093   1.000000
   16       -4.670962   1.000000
   17       -4.322983   1.000000
   18       -4.144479   1.000000
   19       -3.789633   1.000000
   20       -3.722879   1.000000
   21       -0.657420   0.000000
   22        0.057178   0.000000
   23        0.218509   0.000000
   24        0.688568   0.000000
   25        1.175975   0.000000
   26        1.207507   0.000000
   27        1.544670   0.000000
   28        1.984219   0.000000

 -0.2000000E+00  0.3333333E+00  0.1262379E-14  0.1333333E+00
    1      -15.686323   1.000000
    2      -15.599582   1.000000
    3      -13.914455   1.000000
    4      -13.862045   1.000000
    5       -9.463877   1.000000
    6       -9.452661   1.000000
    7       -9.343938   1.000000
    8       -8.566656   1.000000
    9       -7.170002   1.000000
   10       -6.523400   1.000000
   11       -5.565538   1.000000
   12       -5.535535   1.000000
   13       -5.325882   1.000000
   14       -4.562240   1.000000
   15       -4.518951   1.000000
   16       -4.378722   1.000000
   17       -4.373830   1.000000
   18       -3.846735   1.000000
   19       -3.415030   1.000000
   20       -3.283430   1.000000
   21       -1.116466   0.000000
   22       -0.175616   0.000000
   23        0.018865   0.000000
   24        0.487365   0.000000
   25        0.659203   0.000000
   26        1.017903   0.000000
   27        1.103630   0.000000
   28        1.534254   0.000000
