--------------------------------------------------------------------------
[[50948,1],1]: A high-performance Open MPI point-to-point messaging module
was unable to find any relevant network interfaces:

Module: OpenFabrics (openib)
  Host: compute-1-0

Another transport will be used instead, although this may result in
lower performance.
--------------------------------------------------------------------------
 running on    4 total cores
 distrk:  each k-point on    4 cores,    1 groups
 distr:  one band on    1 cores,    4 groups
 using from now: INCAR     
 vasp.5.4.4.18Apr17-6-g9f103f2a35 (build Dec  6 2019 17:49:40) complex           
 POSCAR found type information on POSCAR  Al C 
 POSCAR found :  2 types and      12 ions
 scaLAPACK will be used
 LDA part: xc-table for Pade appr. of Perdew
 POSCAR found type information on POSCAR  Al C 
 POSCAR found :  2 types and      12 ions
 WARNING: stress and forces are not correct
 POSCAR, INCAR and KPOINTS ok, starting setup
 FFT: planning ...
[compute-1-0.cluster.gsc.inifta.unlp.edu.ar:09475] 3 more processes have sent help message help-mpi-btl-base.txt / btl:no-nics
[compute-1-0.cluster.gsc.inifta.unlp.edu.ar:09475] Set MCA parameter "orte_base_help_aggregate" to 0 to see all help / error messages
 WAVECAR not read
 charge-density read from file: Al2C                                    
 entering main loop

 ----------------------------------------------------------------------------- 
|                                                                             |
|           W    W    AA    RRRRR   N    N  II  N    N   GGGG   !!!           |
|           W    W   A  A   R    R  NN   N  II  NN   N  G    G  !!!           |
|           W    W  A    A  R    R  N N  N  II  N N  N  G       !!!           |
|           W WW W  AAAAAA  RRRRR   N  N N  II  N  N N  G  GGG   !            |
|           WW  WW  A    A  R   R   N   NN  II  N   NN  G    G                |
|           W    W  A    A  R    R  N    N  II  N    N   GGGG   !!!           |
|                                                                             |
|      ALGO=A and IALGO=5X tend to fail with the tetrahedron method           |
|      (e.g. Bloechls method ISMEAR=-5 is not variational)                    |
|      please switch to IMSEAR=0-n, except for DOS calculations               |
|      For DOS calculations use IALGO=53 after preconverging with ISMEAR>=0   |
|          I HOPE YOU KNOW, WHAT YOU ARE  DOING                               |
|                                                                             |
 ----------------------------------------------------------------------------- 

       N       E                     dE             d eps       ncg     rms          ort
DAV:   1     0.339057061948E+03    0.33906E+03   -0.90730E+03   224   0.897E+02
DAV:   2     0.172548031870E+03   -0.16651E+03   -0.15941E+03   224   0.218E+02
DAV:   3     0.993080608565E+02   -0.73240E+02   -0.70253E+02   224   0.147E+02
DAV:   4     0.594807558121E+02   -0.39827E+02   -0.38714E+02   224   0.120E+02
DAV:   5     0.361125653912E+02   -0.23368E+02   -0.22769E+02   224   0.860E+01
DAV:   6     0.215568494429E+02   -0.14556E+02   -0.14295E+02   224   0.683E+01
DAV:   7     0.121022454728E+02   -0.94546E+01   -0.92947E+01   224   0.515E+01
 gam= 0.000 g(H,U,f)=  0.387E+02 0.415E+00 0.287E-01 ort(H,U,f) = 0.000E+00 0.000E+00 0.000E+00
SDA:   8    -0.341480899543E+02   -0.46250E+02   -0.15662E+02   224   0.392E+02 0.000E+00
 gam= 0.382 g(H,U,f)=  0.154E+02 0.162E+01 0.113E+01 ort(H,U,f) = 0.211E+02 0.633E+00 0.396E+00
DMP:   9    -0.464976423446E+02   -0.12350E+02   -0.10647E+02   224   0.182E+02 0.221E+02
 gam= 0.382 g(H,U,f)=  0.602E+01 0.376E+01 0.207E+00 ort(H,U,f) = 0.778E+01 0.294E+01 0.134E+00
DMP:  10    -0.539100797532E+02   -0.74124E+01   -0.56536E+01   224   0.999E+01 0.108E+02
 gam= 0.382 g(H,U,f)=  0.373E+01 0.231E+01 0.218E+01 ort(H,U,f) = 0.304E+01 0.264E+01 0.235E+01
DMP:  11    -0.581800883992E+02   -0.42700E+01   -0.45125E+01   224   0.822E+01 0.802E+01
 gam= 0.382 g(H,U,f)=  0.230E+01 0.157E+01 0.879E-02 ort(H,U,f) = 0.241E+01 0.215E+01 0.266E-02
DMP:  12    -0.613148750816E+02   -0.31348E+01   -0.22488E+01   224   0.388E+01 0.457E+01
 gam= 0.382 g(H,U,f)=  0.126E+01 0.149E+01 0.303E+00 ort(H,U,f) = 0.178E+01 0.235E+01 0.408E+00
DMP:  13    -0.635143964772E+02   -0.21995E+01   -0.19183E+01   224   0.306E+01 0.454E+01
 gam= 0.382 g(H,U,f)=  0.660E+00 0.160E+01 0.842E-03 ort(H,U,f) = 0.109E+01 0.279E+01 0.244E-02
DMP:  14    -0.651828747057E+02   -0.16685E+01   -0.14983E+01   224   0.226E+01 0.388E+01
 gam= 0.382 g(H,U,f)=  0.360E+00 0.109E+01 0.728E-01 ort(H,U,f) = 0.664E+00 0.204E+01 0.120E+00
DMP:  15    -0.664870926706E+02   -0.13042E+01   -0.10429E+01   224   0.153E+01 0.283E+01
 gam= 0.382 g(H,U,f)=  0.186E+00 0.558E+00 0.208E-06 ort(H,U,f) = 0.389E+00 0.114E+01 0.258E-06
DMP:  16    -0.673643238931E+02   -0.87723E+00   -0.53123E+00   224   0.745E+00 0.153E+01
 gam= 0.382 g(H,U,f)=  0.943E-01 0.160E+00 0.369E-07 ort(H,U,f) = 0.215E+00 0.338E+00 0.675E-07
DMP:  17    -0.678843062350E+02   -0.51998E+00   -0.18615E+00   224   0.254E+00 0.553E+00
 gam= 0.382 g(H,U,f)=  0.506E-01 0.116E+00 0.363E-02 ort(H,U,f) = 0.120E+00 0.239E+00 0.756E-02
DMP:  18    -0.681083510714E+02   -0.22404E+00   -0.12388E+00   224   0.170E+00 0.366E+00
 gam= 0.382 g(H,U,f)=  0.329E-01 0.768E+00 0.155E-03 ort(H,U,f) = 0.803E-01 0.142E+01 0.274E-03
DMP:  19    -0.683104042979E+02   -0.20205E+00   -0.54939E+00   224   0.801E+00 0.150E+01
 gam= 0.382 g(H,U,f)=  0.264E-01 0.159E+00 0.740E-01 ort(H,U,f) = 0.587E-01 0.333E+00 0.125E+00
DMP:  20    -0.686522398308E+02   -0.34184E+00   -0.18273E+00   224   0.259E+00 0.517E+00
 gam= 0.382 g(H,U,f)=  0.156E-01 0.358E-01 0.291E-02 ort(H,U,f) = 0.289E-01 0.813E-01 0.239E-02
DMP:  21    -0.688362395767E+02   -0.18400E+00   -0.38925E-01   224   0.543E-01 0.113E+00
 gam= 0.382 g(H,U,f)=  0.919E-02 0.136E-01 0.147E-03 ort(H,U,f) = 0.170E-01 0.341E-01-0.800E-04
DMP:  22    -0.688645768188E+02   -0.28337E-01   -0.16986E-01   224   0.230E-01 0.511E-01
 gam= 0.382 g(H,U,f)=  0.588E-02 0.660E-02 0.261E-06 ort(H,U,f) = 0.116E-01 0.177E-01 0.102E-04
DMP:  23    -0.688791575058E+02   -0.14581E-01   -0.94607E-02   224   0.125E-01 0.293E-01
 gam= 0.382 g(H,U,f)=  0.394E-02 0.334E-02 0.425E-05 ort(H,U,f) = 0.838E-02 0.925E-02 0.315E-04
DMP:  24    -0.688875253798E+02   -0.83679E-02   -0.56139E-02   224   0.729E-02 0.177E-01
 gam= 0.382 g(H,U,f)=  0.272E-02 0.174E-02 0.877E-06 ort(H,U,f) = 0.610E-02 0.489E-02 0.671E-05
DMP:  25    -0.688925778188E+02   -0.50524E-02   -0.34642E-02   224   0.446E-02 0.110E-01
 gam= 0.382 g(H,U,f)=  0.196E-02 0.936E-03 0.148E-06 ort(H,U,f) = 0.443E-02 0.262E-02 0.587E-06
DMP:  26    -0.688957454576E+02   -0.31676E-02   -0.22342E-02   224   0.289E-02 0.705E-02
 gam= 0.382 g(H,U,f)=  0.151E-02 0.516E-03 0.297E-06 ort(H,U,f) = 0.330E-02 0.143E-02 0.865E-06
DMP:  27    -0.688978209783E+02   -0.20755E-02   -0.15323E-02   224   0.203E-02 0.472E-02
 gam= 0.382 g(H,U,f)=  0.122E-02 0.292E-03 0.291E-06 ort(H,U,f) = 0.255E-02 0.794E-03 0.103E-05
DMP:  28    -0.688992631599E+02   -0.14422E-02   -0.11157E-02   224   0.151E-02 0.335E-02
 gam= 0.382 g(H,U,f)=  0.100E-02 0.168E-03 0.157E-06 ort(H,U,f) = 0.204E-02 0.451E-03 0.619E-06
DMP:  29    -0.689003232912E+02   -0.10601E-02   -0.84900E-03   224   0.117E-02 0.249E-02
 gam= 0.382 g(H,U,f)=  0.843E-03 0.993E-04 0.605E-07 ort(H,U,f) = 0.167E-02 0.261E-03 0.262E-06
DMP:  30    -0.689011357339E+02   -0.81244E-03   -0.67190E-03   224   0.942E-03 0.193E-02
 gam= 0.382 g(H,U,f)=  0.730E-03 0.599E-04 0.236E-07 ort(H,U,f) = 0.139E-02 0.155E-03 0.112E-06
DMP:  31    -0.689017820637E+02   -0.64633E-03   -0.55237E-03   224   0.790E-03 0.155E-02
 gam= 0.382 g(H,U,f)=  0.642E-03 0.371E-04 0.625E-08 ort(H,U,f) = 0.119E-02 0.937E-04 0.322E-07
DMP:  32    -0.689023153527E+02   -0.53329E-03   -0.46763E-03   224   0.679E-03 0.128E-02
 gam= 0.382 g(H,U,f)=  0.573E-03 0.236E-04 0.222E-08 ort(H,U,f) = 0.103E-02 0.582E-04 0.110E-07
DMP:  33    -0.689027679220E+02   -0.45257E-03   -0.40554E-03   224   0.597E-03 0.109E-02
 gam= 0.382 g(H,U,f)=  0.511E-03 0.156E-04 0.941E-09 ort(H,U,f) = 0.913E-03 0.373E-04 0.315E-08
DMP:  34    -0.689031609502E+02   -0.39303E-03   -0.35585E-03   224   0.527E-03 0.951E-03
 gam= 0.382 g(H,U,f)=  0.454E-03 0.106E-04 0.650E-09 ort(H,U,f) = 0.811E-03 0.247E-04 0.102E-08
DMP:  35    -0.689035061159E+02   -0.34517E-03   -0.31337E-03   224   0.464E-03 0.836E-03
 gam= 0.382 g(H,U,f)=  0.398E-03 0.750E-05 0.673E-09 ort(H,U,f) = 0.720E-03 0.169E-04 0.919E-09
DMP:  36    -0.689038102479E+02   -0.30413E-03   -0.27475E-03   224   0.405E-03 0.737E-03
 gam= 0.382 g(H,U,f)=  0.348E-03 0.546E-05 0.635E-09 ort(H,U,f) = 0.635E-03 0.119E-04 0.927E-09
DMP:  37    -0.689040770625E+02   -0.26681E-03   -0.24032E-03   224   0.354E-03 0.647E-03
 gam= 0.382 g(H,U,f)=  0.306E-03 0.407E-05 0.609E-09 ort(H,U,f) = 0.558E-03 0.865E-05 0.984E-09
DMP:  38    -0.689043105969E+02   -0.23353E-03   -0.21045E-03   224   0.310E-03 0.567E-03
 gam= 0.382 g(H,U,f)=  0.272E-03 0.310E-05 0.533E-09 ort(H,U,f) = 0.490E-03 0.644E-05 0.911E-09
DMP:  39    -0.689045152343E+02   -0.20464E-03   -0.18596E-03   224   0.275E-03 0.497E-03
 gam= 0.382 g(H,U,f)=  0.244E-03 0.241E-05 0.483E-09 ort(H,U,f) = 0.435E-03 0.491E-05 0.857E-09
DMP:  40    -0.689046961290E+02   -0.18089E-03   -0.16584E-03   224   0.247E-03 0.439E-03
 gam= 0.382 g(H,U,f)=  0.219E-03 0.191E-05 0.416E-09 ort(H,U,f) = 0.388E-03 0.382E-05 0.748E-09
DMP:  41    -0.689048574856E+02   -0.16136E-03   -0.14828E-03   224   0.221E-03 0.392E-03
 gam= 0.382 g(H,U,f)=  0.196E-03 0.153E-05 0.359E-09 ort(H,U,f) = 0.348E-03 0.302E-05 0.649E-09
DMP:  42    -0.689050017630E+02   -0.14428E-03   -0.13256E-03   224   0.197E-03 0.351E-03
 gam= 0.382 g(H,U,f)=  0.174E-03 0.124E-05 0.311E-09 ort(H,U,f) = 0.311E-03 0.241E-05 0.563E-09
DMP:  43    -0.689051307552E+02   -0.12899E-03   -0.11812E-03   224   0.176E-03 0.313E-03
 gam= 0.382 g(H,U,f)=  0.155E-03 0.101E-05 0.271E-09 ort(H,U,f) = 0.278E-03 0.194E-05 0.489E-09
DMP:  44    -0.689052457169E+02   -0.11496E-03   -0.10503E-03   224   0.156E-03 0.279E-03
 gam= 0.382 g(H,U,f)=  0.137E-03 0.826E-06 0.251E-09 ort(H,U,f) = 0.247E-03 0.158E-05 0.451E-09
DMP:  45    -0.689053479748E+02   -0.10226E-03   -0.92984E-04   224   0.137E-03 0.249E-03
 gam= 0.382 g(H,U,f)=  0.120E-03 0.684E-06 0.219E-09 ort(H,U,f) = 0.219E-03 0.130E-05 0.394E-09
DMP:  46    -0.689054385393E+02   -0.90565E-04   -0.82104E-04   224   0.121E-03 0.220E-03
 gam= 0.382 g(H,U,f)=  0.106E-03 0.570E-06 0.192E-09 ort(H,U,f) = 0.194E-03 0.108E-05 0.345E-09
DMP:  47    -0.689055185500E+02   -0.80011E-04   -0.72426E-04   224   0.107E-03 0.195E-03
 gam= 0.382 g(H,U,f)=  0.934E-04 0.478E-06 0.167E-09 ort(H,U,f) = 0.171E-03 0.897E-06 0.301E-09
DMP:  48    -0.689055891715E+02   -0.70621E-04   -0.63819E-04   224   0.938E-04 0.172E-03
 gam= 0.382 g(H,U,f)=  0.818E-04 0.402E-06 0.145E-09 ort(H,U,f) = 0.151E-03 0.752E-06 0.262E-09
DMP:  49    -0.689056514424E+02   -0.62271E-04   -0.56077E-04   224   0.822E-04 0.152E-03
 gam= 0.382 g(H,U,f)=  0.717E-04 0.339E-06 0.126E-09 ort(H,U,f) = 0.133E-03 0.633E-06 0.228E-09
DMP:  50    -0.689057062021E+02   -0.54760E-04   -0.49217E-04   224   0.720E-04 0.134E-03
 gam= 0.382 g(H,U,f)=  0.628E-04 0.287E-06 0.108E-09 ort(H,U,f) = 0.117E-03 0.534E-06 0.197E-09
DMP:  51    -0.689057543041E+02   -0.48102E-04   -0.43171E-04   224   0.631E-04 0.117E-03
 gam= 0.382 g(H,U,f)=  0.549E-04 0.242E-06 0.930E-10 ort(H,U,f) = 0.103E-03 0.451E-06 0.170E-09
DMP:  52    -0.689057965364E+02   -0.42232E-04   -0.37846E-04   224   0.552E-04 0.103E-03
 gam= 0.382 g(H,U,f)=  0.481E-04 0.204E-06 0.839E-10 ort(H,U,f) = 0.903E-04 0.380E-06 0.154E-09
DMP:  53    -0.689058335954E+02   -0.37059E-04   -0.33175E-04   224   0.483E-04 0.907E-04
 gam= 0.382 g(H,U,f)=  0.422E-04 0.172E-06 0.713E-10 ort(H,U,f) = 0.793E-04 0.321E-06 0.131E-09
DMP:  54    -0.689058661129E+02   -0.32517E-04   -0.29100E-04   224   0.423E-04 0.796E-04
 gam= 0.382 g(H,U,f)=  0.370E-04 0.145E-06 0.603E-10 ort(H,U,f) = 0.697E-04 0.271E-06 0.112E-09
DMP:  55    -0.689058946661E+02   -0.28553E-04   -0.25562E-04   224   0.372E-04 0.700E-04
 gam= 0.382 g(H,U,f)=  0.325E-04 0.123E-06 0.509E-10 ort(H,U,f) = 0.614E-04 0.229E-06 0.943E-10
DMP:  56    -0.689059197731E+02   -0.25107E-04   -0.22452E-04   224   0.326E-04 0.616E-04
 gam= 0.382 g(H,U,f)=  0.285E-04 0.104E-06 0.427E-10 ort(H,U,f) = 0.540E-04 0.193E-06 0.795E-10
DMP:  57    -0.689059418479E+02   -0.22075E-04   -0.19745E-04   224   0.286E-04 0.542E-04
 gam= 0.382 g(H,U,f)=  0.252E-04 0.877E-07 0.357E-10 ort(H,U,f) = 0.476E-04 0.163E-06 0.668E-10
DMP:  58    -0.689059612818E+02   -0.19434E-04   -0.17403E-04   224   0.253E-04 0.478E-04
 gam= 0.382 g(H,U,f)=  0.223E-04 0.744E-07 0.298E-10 ort(H,U,f) = 0.421E-04 0.138E-06 0.559E-10
DMP:  59    -0.689059784274E+02   -0.17146E-04   -0.15381E-04   224   0.223E-04 0.422E-04
 gam= 0.382 g(H,U,f)=  0.198E-04 0.633E-07 0.249E-10 ort(H,U,f) = 0.373E-04 0.117E-06 0.467E-10
DMP:  60    -0.689059935947E+02   -0.15167E-04   -0.13637E-04   224   0.198E-04 0.374E-04
 gam= 0.382 g(H,U,f)=  0.176E-04 0.541E-07 0.207E-10 ort(H,U,f) = 0.331E-04 0.999E-07 0.389E-10
DMP:  61    -0.689060070544E+02   -0.13460E-04   -0.12134E-04   224   0.177E-04 0.332E-04
 gam= 0.382 g(H,U,f)=  0.157E-04 0.466E-07 0.173E-10 ort(H,U,f) = 0.295E-04 0.855E-07 0.324E-10
DMP:  62    -0.689060190408E+02   -0.11986E-04   -0.10840E-04   224   0.158E-04 0.296E-04
 gam= 0.382 g(H,U,f)=  0.142E-04 0.404E-07 0.144E-10 ort(H,U,f) = 0.264E-04 0.738E-07 0.270E-10
DMP:  63    -0.689060297575E+02   -0.10717E-04   -0.97272E-05   224   0.142E-04 0.265E-04
 gam= 0.382 g(H,U,f)=  0.128E-04 0.353E-07 0.120E-10 ort(H,U,f) = 0.237E-04 0.641E-07 0.226E-10
DMP:  64    -0.689060393811E+02   -0.96235E-05   -0.87721E-05   224   0.128E-04 0.238E-04
 final diagonalization
   1 F= -.68906039E+02 E0= -.68906039E+02  d E =0.000000E+00
