Al2C                                    
           1
     6.019200    0.000000    0.000000
     0.000000   10.140000    0.000000
     0.000000    0.000000   15.000000
   Al   C 
   8   4
Direct configuration=     1
   0.42089799  0.85573902  0.26666621
   0.92092518  0.85575554  0.26666541
   0.42089823  0.59791267  0.26666528
   0.92092857  0.59789748  0.26666538
   0.42089610  0.35573930  0.26666549
   0.92092746  0.35575563  0.26666463
   0.42089639  0.09791259  0.26666598
   0.92093067  0.09789719  0.26666605
   0.17089320  0.97681960  0.26667009
   0.67084194  0.97682226  0.26666973
   0.17089336  0.47682126  0.26666791
   0.67084177  0.47682096  0.26666785
