Al   C    O    H                        
   1.0000000000000000     
     6.0191999999999997    0.0000000000000000    0.0000000000000000
     0.0000000000000000   10.1400000000000006    0.0000000000000000
     0.0000000000000000    0.0000000000000000   15.0000000000000000
   Al   C    O    H 
     8     4     1     2
Selective dynamics
Direct
  0.4476435859674912  0.8161572250706810  0.3090776883219195   T   T   T
  0.9670469215216690  0.8197397460253468  0.2675482665906414   T   T   T
  0.4678202017897345  0.5679640209023915  0.2565246578050701   T   T   T
  0.9670303255487095  0.5654738536900336  0.2442487076777561   T   T   T
  0.4674952672997769  0.3231507303619785  0.2349975935366197   T   T   T
  0.9691555837338196  0.3235211074293349  0.2461734120763867   T   T   T
  0.4631697761046525  0.0625311784204761  0.2535569995830800   T   T   T
  0.9793275477717863  0.0704566657200144  0.2656243826662855   T   T   T
  0.2158257747366063  0.9422936235190964  0.2567349375357826   T   T   T
  0.7190123118076790  0.9502042755861988  0.2982851174310460   T   T   T
  0.2183595925960638  0.4443778171060566  0.2383243410562520   T   T   T
  0.7173243321165957  0.4430201055628897  0.2454936005514910   T   T   T
  0.4026884294542838  0.7814163981029567  0.4224907716446745   T   T   T
  0.7338579331189952  0.9670963931189802  0.3716332996946076   T   T   T
  0.3683048938629703  0.8508999234204992  0.4647814315616271   T   T   T

  0.00000000E+00  0.00000000E+00  0.00000000E+00
  0.00000000E+00  0.00000000E+00  0.00000000E+00
  0.00000000E+00  0.00000000E+00  0.00000000E+00
  0.00000000E+00  0.00000000E+00  0.00000000E+00
  0.00000000E+00  0.00000000E+00  0.00000000E+00
  0.00000000E+00  0.00000000E+00  0.00000000E+00
  0.00000000E+00  0.00000000E+00  0.00000000E+00
  0.00000000E+00  0.00000000E+00  0.00000000E+00
  0.00000000E+00  0.00000000E+00  0.00000000E+00
  0.00000000E+00  0.00000000E+00  0.00000000E+00
  0.00000000E+00  0.00000000E+00  0.00000000E+00
  0.00000000E+00  0.00000000E+00  0.00000000E+00
  0.00000000E+00  0.00000000E+00  0.00000000E+00
  0.00000000E+00  0.00000000E+00  0.00000000E+00
  0.00000000E+00  0.00000000E+00  0.00000000E+00
