Al   C    O    H                        
   1.0000000000000000     
     6.0191999999999997    0.0000000000000000    0.0000000000000000
     0.0000000000000000   10.1400000000000006    0.0000000000000000
     0.0000000000000000    0.0000000000000000   15.0000000000000000
   Al   C    O    H 
     8     4     1     2
Selective dynamics
Direct
  0.4478369006046616  0.8162291849129333  0.3087489308654849   T   T   T
  0.9676196136597406  0.8197838824113296  0.2668180807538985   T   T   T
  0.4691313233499544  0.5678868896628254  0.2567929171255258   T   T   T
  0.9684121150451290  0.5654605485781453  0.2438820839488133   T   T   T
  0.4689292626882530  0.3231431592309628  0.2349377407642866   T   T   T
  0.9705271022073260  0.3235397809007945  0.2468476842218049   T   T   T
  0.4639407579927645  0.0625092986529284  0.2531818534161024   T   T   T
  0.9799724383381252  0.0704728107206830  0.2659164766560633   T   T   T
  0.2163961994385495  0.9423890875652706  0.2562232538523889   T   T   T
  0.7195875596808443  0.9500080744531056  0.2979209283220156   T   T   T
  0.2197322783842905  0.4443116863819274  0.2384656190167653   T   T   T
  0.7186870837183642  0.4430319815217465  0.2457451446228181   T   T   T
  0.4021469058579971  0.7827312895488976  0.4223003652257711   T   T   T
  0.7333725079518715  0.9659388220665348  0.3713852960438155   T   T   T
  0.3619020233750803  0.8524326377543472  0.4635893512783277   T   T   T

  0.00000000E+00  0.00000000E+00  0.00000000E+00
  0.00000000E+00  0.00000000E+00  0.00000000E+00
  0.00000000E+00  0.00000000E+00  0.00000000E+00
  0.00000000E+00  0.00000000E+00  0.00000000E+00
  0.00000000E+00  0.00000000E+00  0.00000000E+00
  0.00000000E+00  0.00000000E+00  0.00000000E+00
  0.00000000E+00  0.00000000E+00  0.00000000E+00
  0.00000000E+00  0.00000000E+00  0.00000000E+00
  0.00000000E+00  0.00000000E+00  0.00000000E+00
  0.00000000E+00  0.00000000E+00  0.00000000E+00
  0.00000000E+00  0.00000000E+00  0.00000000E+00
  0.00000000E+00  0.00000000E+00  0.00000000E+00
  0.00000000E+00  0.00000000E+00  0.00000000E+00
  0.00000000E+00  0.00000000E+00  0.00000000E+00
  0.00000000E+00  0.00000000E+00  0.00000000E+00
