 vasp.5.4.4.18Apr17-6-g9f103f2a35 (build Dec  6 2019 17:49:40) complex           
 POSCAR found type information on POSCAR  Al C  O  H 
 08/POSCAR found :  4 types and      15 ions
 scaLAPACK will be used
 LDA part: xc-table for Pade appr. of Perdew
 POSCAR found type information on POSCAR  Al C  O  H 
 00/POSCAR found :  4 types and      15 ions
 POSCAR found type information on POSCAR  Al C  O  H 
 09/POSCAR found :  4 types and      15 ions
 Jacobian:    15.248877391123434     
 POSCAR, INCAR and KPOINTS ok, starting setup
 FFT: planning ...
 WAVECAR not read
 entering main loop
       N       E                     dE             d eps       ncg     rms          rms(c)
DAV:   1     0.320259748899E+03    0.32026E+03   -0.13731E+04   536   0.925E+02
DAV:   2     0.382816850205E+01   -0.31643E+03   -0.29652E+03   744   0.224E+02
DAV:   3    -0.920526286876E+02   -0.95881E+02   -0.94636E+02   816   0.113E+02
DAV:   4    -0.960479534510E+02   -0.39953E+01   -0.39855E+01   648   0.283E+01
DAV:   5    -0.961982829740E+02   -0.15033E+00   -0.15029E+00   768   0.593E+00
DAV:   6    -0.962008052161E+02   -0.25222E-02   -0.25211E-02   672   0.985E-01
DAV:   7    -0.962009695128E+02   -0.16430E-03   -0.16429E-03   808   0.190E-01    0.208E+01
DAV:   8    -0.769406010746E+02    0.19260E+02   -0.82459E+01   648   0.471E+01    0.941E+00
DAV:   9    -0.765293845696E+02    0.41122E+00   -0.46041E+00   640   0.104E+01    0.549E+00
DAV:  10    -0.759553886537E+02    0.57400E+00   -0.94291E-01   712   0.639E+00    0.107E+00
DAV:  11    -0.758763984553E+02    0.78990E-01   -0.11313E-01   752   0.187E+00    0.400E-01
DAV:  12    -0.758615171526E+02    0.14881E-01   -0.42270E-02   720   0.102E+00    0.267E-01
DAV:  13    -0.758518676698E+02    0.96495E-02   -0.24440E-02   720   0.897E-01    0.166E-01
DAV:  14    -0.758484552664E+02    0.34124E-02   -0.92661E-03   640   0.445E-01    0.119E-01
DAV:  15    -0.758516233606E+02   -0.31681E-02   -0.68237E-03   704   0.424E-01    0.106E-01
DAV:  16    -0.758528248479E+02   -0.12015E-02   -0.22486E-03   664   0.275E-01    0.406E-02
DAV:  17    -0.758531632203E+02   -0.33837E-03   -0.87143E-04   640   0.141E-01    0.317E-02
DAV:  18    -0.758564075078E+02   -0.32443E-02   -0.49855E-04   624   0.107E-01    0.219E-02
DAV:  19    -0.758577156279E+02   -0.13081E-02   -0.13452E-04   784   0.687E-02    0.120E-02
DAV:  20    -0.758588955363E+02   -0.11799E-02   -0.16400E-04   560   0.433E-02    0.719E-03
DAV:  21    -0.758594692360E+02   -0.57370E-03   -0.86349E-05   608   0.364E-02    0.517E-03
DAV:  22    -0.758596586717E+02   -0.18944E-03   -0.25608E-05   648   0.200E-02    0.324E-03
DAV:  23    -0.758597030098E+02   -0.44338E-04   -0.61495E-06   648   0.129E-02    0.210E-03
DAV:  24    -0.758597338415E+02   -0.30832E-04   -0.27903E-06   440   0.640E-03    0.143E-03
DAV:  25    -0.758597457752E+02   -0.11934E-04   -0.12611E-06   464   0.477E-03    0.474E-04
DAV:  26    -0.758597507844E+02   -0.50092E-05   -0.54048E-07   384   0.358E-03    0.626E-04
DAV:  27    -0.758597525679E+02   -0.17835E-05   -0.32268E-07   368   0.320E-03    0.379E-04
DAV:  28    -0.758597528947E+02   -0.32677E-06   -0.13201E-07   416   0.162E-03
   1 F= -.75859753E+02 E0= -.75859753E+02  d E =-.758598E+02
 BRION: g(F)=  0.321E-02 g(S)=  0.000E+00
 bond charge predicted
       N       E                     dE             d eps       ncg     rms          rms(c)
DAV:   1    -0.758597431522E+02    0.94157E-05   -0.48392E-04   576   0.155E-01    0.625E-03
DAV:   2    -0.758597441658E+02   -0.10136E-05   -0.11644E-05   680   0.193E-02    0.255E-03
DAV:   3    -0.758597442458E+02   -0.80078E-07   -0.21630E-07   392   0.343E-03
   2 F= -.75859744E+02 E0= -.75859744E+02  d E =0.864883E-05
 BRION: g(F)=  0.419E-02 g(S)=  0.000E+00 retain N=  1 mean eig= 0.07
 eig:   0.065
 bond charge predicted
       N       E                     dE             d eps       ncg     rms          rms(c)
DAV:   1    -0.758597466074E+02   -0.24416E-05   -0.37343E-05   576   0.426E-02    0.167E-03
DAV:   2    -0.758597467138E+02   -0.10639E-06   -0.95729E-07   504   0.596E-03
   3 F= -.75859747E+02 E0= -.75859747E+02  d E =-.246794E-05
 BRION: g(F)=  0.446E-02 g(S)=  0.000E+00 retain N=  2 mean eig= 0.20
 eig:   0.234  0.171
 bond charge predicted
       N       E                     dE             d eps       ncg     rms          rms(c)
DAV:   1    -0.758597492308E+02   -0.26234E-05   -0.46442E-05   536   0.475E-02    0.210E-03
DAV:   2    -0.758597492918E+02   -0.60963E-07   -0.10327E-06   448   0.602E-03
   4 F= -.75859749E+02 E0= -.75859749E+02  d E =-.257797E-05
 BRION: g(F)=  0.412E-02 g(S)=  0.000E+00 retain N=  2 mean eig= 2.31
 eig:   0.445  4.168
 bond charge predicted
       N       E                     dE             d eps       ncg     rms          rms(c)
DAV:   1    -0.758597428583E+02    0.63725E-05   -0.22782E-04   512   0.106E-01    0.443E-03
DAV:   2    -0.758597433821E+02   -0.52374E-06   -0.55977E-06   608   0.138E-02
   5 F= -.75859743E+02 E0= -.75859743E+02  d E =0.590967E-05
 BRION: g(F)=  0.413E-02 g(S)=  0.000E+00 retain N=  2 mean eig= 0.25
 eig:   0.269  0.240
 bond charge predicted
       N       E                     dE             d eps       ncg     rms          rms(c)
DAV:   1    -0.758597413275E+02    0.15309E-05   -0.24422E-05   520   0.339E-02    0.208E-03
DAV:   2    -0.758597413821E+02   -0.54663E-07   -0.62033E-07   392   0.488E-03
   6 F= -.75859741E+02 E0= -.75859741E+02  d E =0.199995E-05
 BRION: g(F)=  0.427E-02 g(S)=  0.000E+00 retain N=  3 mean eig= 0.51
 eig:   0.656  0.656  0.217
 bond charge predicted
       N       E                     dE             d eps       ncg     rms          rms(c)
DAV:   1    -0.758597439449E+02   -0.26174E-05   -0.75038E-05   512   0.601E-02    0.249E-03
DAV:   2    -0.758597440994E+02   -0.15448E-06   -0.17771E-06   352   0.778E-03
   7 F= -.75859744E+02 E0= -.75859744E+02  d E =-.271726E-05
 BRION: g(F)=  0.431E-02 g(S)=  0.000E+00 retain N=  3 mean eig= 1.56
 eig:   4.037  0.073  0.578
 bond charge predicted
       N       E                     dE             d eps       ncg     rms          rms(c)
DAV:   1    -0.758597469556E+02   -0.30107E-05   -0.50092E-05   512   0.469E-02    0.279E-03
DAV:   2    -0.758597470792E+02   -0.12360E-06   -0.15272E-06   336   0.760E-03
   8 F= -.75859747E+02 E0= -.75859747E+02  d E =-.297984E-05
 BRION: g(F)=  0.429E-02 g(S)=  0.000E+00 retain N=  4 mean eig= 1.80
 eig:   5.077  1.855  0.137  0.137
 bond charge predicted
       N       E                     dE             d eps       ncg     rms          rms(c)
DAV:   1    -0.758597469685E+02   -0.12875E-07   -0.21846E-07   256   0.358E-03    0.729E-04
DAV:   2    -0.758597469839E+02   -0.15340E-07   -0.58087E-08   256   0.180E-03
   9 F= -.75859747E+02 E0= -.75859747E+02  d E =0.953848E-07
 BRION: g(F)=  0.428E-02 g(S)=  0.000E+00 retain N=  5 mean eig= 1.92
 eig:   4.599  3.687  0.328  0.488  0.488
 bond charge predicted
       N       E                     dE             d eps       ncg     rms          rms(c)
DAV:   1    -0.758597426507E+02    0.43178E-05   -0.76141E-05   528   0.597E-02    0.267E-03
DAV:   2    -0.758597427755E+02   -0.12478E-06   -0.24764E-06   424   0.986E-03
  10 F= -.75859743E+02 E0= -.75859743E+02  d E =0.420837E-05
 BRION: g(F)=  0.446E-02 g(S)=  0.000E+00 retain N=  5 mean eig= 2.00
 eig:   7.707  1.344  0.427  0.502  0.031
 bond charge predicted
       N       E                     dE             d eps       ncg     rms          rms(c)
DAV:   1    -0.758597400259E+02    0.26248E-05   -0.46037E-05   536   0.493E-02    0.219E-03
DAV:   2    -0.758597400811E+02   -0.55158E-07   -0.10817E-06   328   0.669E-03
  11 F= -.75859740E+02 E0= -.75859740E+02  d E =0.269441E-05
 BRION: g(F)=  0.456E-02 g(S)=  0.000E+00 retain N=  4 mean eig= 1.70
 eig:   4.991  1.455  0.116  0.222
 bond charge predicted
       N       E                     dE             d eps       ncg     rms          rms(c)
DAV:   1    -0.758597349144E+02    0.51115E-05   -0.12460E-03   512   0.253E-01    0.924E-03
DAV:   2    -0.758597371407E+02   -0.22263E-05   -0.27837E-05   624   0.295E-02    0.373E-03
DAV:   3    -0.758597370755E+02    0.65191E-07   -0.44333E-07   288   0.533E-03
  12 F= -.75859737E+02 E0= -.75859737E+02  d E =0.300553E-05
 BRION: g(F)=  0.530E-02 g(S)=  0.000E+00 retain N=  5 mean eig= 1.61
 eig:   4.915  1.593  0.715  0.715  0.104
 bond charge predicted
       N       E                     dE             d eps       ncg     rms          rms(c)
DAV:   1    -0.758597367273E+02    0.41344E-06   -0.62196E-05   576   0.559E-02    0.222E-03
DAV:   2    -0.758597367935E+02   -0.66217E-07   -0.11797E-06   320   0.647E-03
  13 F= -.75859737E+02 E0= -.75859737E+02  d E =0.282030E-06
 BRION: g(F)=  0.481E-02 g(S)=  0.000E+00 retain N=  5 mean eig= 2.01
 eig:   4.611  4.611  0.159  0.352  0.310
 bond charge predicted
       N       E                     dE             d eps       ncg     rms          rms(c)
DAV:   1    -0.758597324773E+02    0.42500E-05   -0.14873E-03   512   0.272E-01    0.970E-03
DAV:   2    -0.758597352180E+02   -0.27407E-05   -0.33103E-05   648   0.310E-02    0.419E-03
DAV:   3    -0.758597351744E+02    0.43621E-07   -0.51682E-07   264   0.556E-03
  14 F= -.75859735E+02 E0= -.75859735E+02  d E =0.161912E-05
 BRION: g(F)=  0.504E-02 g(S)=  0.000E+00 retain N=  5 mean eig= 2.22
 eig:   7.479  2.251  0.068  0.656  0.656
 bond charge predicted
       N       E                     dE             d eps       ncg     rms          rms(c)
DAV:   1    -0.758597420479E+02   -0.68299E-05   -0.17269E-04   536   0.925E-02    0.350E-03
DAV:   2    -0.758597424043E+02   -0.35644E-06   -0.55733E-06   536   0.142E-02
  15 F= -.75859742E+02 E0= -.75859742E+02  d E =-.722996E-05
 BRION: g(F)=  0.468E-02 g(S)=  0.000E+00 retain N=  4 mean eig= 1.58
 eig:   5.406  0.217  0.357  0.357
 bond charge predicted
       N       E                     dE             d eps       ncg     rms          rms(c)
DAV:   1    -0.758597373460E+02    0.47019E-05   -0.47964E-05   536   0.499E-02    0.227E-03
DAV:   2    -0.758597373975E+02   -0.51569E-07   -0.11466E-06   360   0.693E-03
  16 F= -.75859737E+02 E0= -.75859737E+02  d E =0.500681E-05
 BRION: g(F)=  0.508E-02 g(S)=  0.000E+00 retain N=  5 mean eig= 1.56
 eig:   6.226  0.635  0.635  0.260  0.067
 bond charge predicted
       N       E                     dE             d eps       ncg     rms          rms(c)
DAV:   1    -0.758597378113E+02   -0.46536E-06   -0.71868E-05   520   0.578E-02    0.284E-03
DAV:   2    -0.758597379506E+02   -0.13931E-06   -0.18737E-06   336   0.792E-03
  17 F= -.75859738E+02 E0= -.75859738E+02  d E =-.553106E-06
 BRION: g(F)=  0.451E-02 g(S)=  0.000E+00 retain N=  1 mean eig= 0.29
 eig:   0.289
 bond charge predicted
       N       E                     dE             d eps       ncg     rms          rms(c)
DAV:   1    -0.758597295336E+02    0.82777E-05   -0.39607E-04   512   0.139E-01    0.603E-03
DAV:   2    -0.758597303785E+02   -0.84489E-06   -0.96529E-06   560   0.179E-02
  18 F= -.75859730E+02 E0= -.75859730E+02  d E =0.757215E-05
 BRION: g(F)=  0.506E-02 g(S)=  0.000E+00 retain N=  2 mean eig= 0.30
 eig:   0.291  0.300
 bond charge predicted
       N       E                     dE             d eps       ncg     rms          rms(c)
DAV:   1    -0.758597294665E+02    0.67095E-07   -0.61793E-06   464   0.172E-02    0.167E-03
DAV:   2    -0.758597295033E+02   -0.36777E-07   -0.16383E-07   256   0.270E-03
  19 F= -.75859730E+02 E0= -.75859730E+02  d E =0.875207E-06
 BRION: g(F)=  0.496E-02 g(S)=  0.000E+00 retain N=  3 mean eig= 1.09
 eig:   2.685  0.274  0.325
 bond charge predicted
       N       E                     dE             d eps       ncg     rms          rms(c)
DAV:   1    -0.758597373922E+02   -0.79257E-05   -0.12695E-03   512   0.252E-01    0.965E-03
DAV:   2    -0.758597398814E+02   -0.24892E-05   -0.30001E-05   616   0.310E-02    0.369E-03
DAV:   3    -0.758597399037E+02   -0.22247E-07   -0.47395E-07   288   0.530E-03
  20 F= -.75859740E+02 E0= -.75859740E+02  d E =-.104004E-04
 BRION: g(F)=  0.468E-02 g(S)=  0.000E+00 retain N=  4 mean eig= 2.26
 eig:   4.226  4.226  0.321  0.269
 bond charge predicted
       N       E                     dE             d eps       ncg     rms          rms(c)
DAV:   1    -0.758597423813E+02   -0.24998E-05   -0.41818E-05   544   0.463E-02    0.191E-03
DAV:   2    -0.758597424291E+02   -0.47819E-07   -0.79262E-07   320   0.562E-03
  21 F= -.75859742E+02 E0= -.75859742E+02  d E =-.252537E-05
 BRION: g(F)=  0.449E-02 g(S)=  0.000E+00 retain N=  3 mean eig= 1.21
 eig:   2.598  0.420  0.607
 bond charge predicted
       N       E                     dE             d eps       ncg     rms          rms(c)
DAV:   1    -0.758597401595E+02    0.22218E-05   -0.19032E-04   512   0.993E-02    0.338E-03
DAV:   2    -0.758597404228E+02   -0.26333E-06   -0.47525E-06   464   0.130E-02
  22 F= -.75859740E+02 E0= -.75859740E+02  d E =0.200628E-05
 BRION: g(F)=  0.497E-02 g(S)=  0.000E+00 retain N=  4 mean eig= 1.07
 eig:   2.604  0.811  0.507  0.355
 bond charge predicted
       N       E                     dE             d eps       ncg     rms          rms(c)
DAV:   1    -0.758597409602E+02   -0.80070E-06   -0.66459E-06   448   0.182E-02    0.184E-03
DAV:   2    -0.758597410010E+02   -0.40806E-07   -0.31503E-07   256   0.329E-03
  23 F= -.75859741E+02 E0= -.75859741E+02  d E =-.578181E-06
 BRION: g(F)=  0.490E-02 g(S)=  0.000E+00 retain N=  5 mean eig= 1.95
 eig:   2.529  0.520  0.493  0.368  5.855
 bond charge predicted
       N       E                     dE             d eps       ncg     rms          rms(c)
DAV:   1    -0.758597335106E+02    0.74496E-05   -0.64315E-04   512   0.178E-01    0.602E-03
DAV:   2    -0.758597347403E+02   -0.12297E-05   -0.16657E-05   616   0.223E-02    0.393E-03
DAV:   3    -0.758597346384E+02    0.10191E-06   -0.39098E-07   256   0.434E-03
  24 F= -.75859735E+02 E0= -.75859735E+02  d E =0.636259E-05
 BRION: g(F)=  0.491E-02 g(S)=  0.000E+00 retain N=  3 mean eig= 1.55
 eig:   0.206  0.593  3.838
 bond charge predicted
       N       E                     dE             d eps       ncg     rms          rms(c)
DAV:   1    -0.758597282421E+02    0.64982E-05   -0.65316E-04   512   0.178E-01    0.660E-03
DAV:   2    -0.758597295116E+02   -0.12695E-05   -0.16530E-05   568   0.227E-02    0.348E-03
DAV:   3    -0.758597294925E+02    0.19116E-07   -0.41299E-07   256   0.480E-03
  25 F= -.75859729E+02 E0= -.75859729E+02  d E =0.514584E-05
 BRION: g(F)=  0.542E-02 g(S)=  0.000E+00 retain N=  4 mean eig= 1.39
 eig:   4.251  0.187  0.564  0.564
 bond charge predicted
       N       E                     dE             d eps       ncg     rms          rms(c)
DAV:   1    -0.758597243310E+02    0.51807E-05   -0.31770E-04   512   0.123E-01    0.414E-03
DAV:   2    -0.758597248480E+02   -0.51707E-06   -0.67007E-06   512   0.135E-02
  26 F= -.75859725E+02 E0= -.75859725E+02  d E =0.464449E-05
 BRION: g(F)=  0.483E-02 g(S)=  0.000E+00 retain N=  3 mean eig= 3.29
 eig:   4.775  4.775  0.332
 bond charge predicted
       N       E                     dE             d eps       ncg     rms          rms(c)
DAV:   1    -0.758597215304E+02    0.28006E-05   -0.25548E-04   512   0.116E-01    0.426E-03
DAV:   2    -0.758597219619E+02   -0.43153E-06   -0.69652E-06   640   0.167E-02
  27 F= -.75859722E+02 E0= -.75859722E+02  d E =0.288610E-05
 BRION: g(F)=  0.559E-02 g(S)=  0.000E+00 retain N=  4 mean eig= 2.73
 eig:   4.952  4.952  0.318  0.700
 bond charge predicted
       N       E                     dE             d eps       ncg     rms          rms(c)
DAV:   1    -0.758597195543E+02    0.19762E-05   -0.74245E-05   512   0.605E-02    0.397E-03
DAV:   2    -0.758597196972E+02   -0.14295E-06   -0.20910E-06   368   0.829E-03
  28 F= -.75859720E+02 E0= -.75859720E+02  d E =0.226474E-05
 BRION: g(F)=  0.508E-02 g(S)=  0.000E+00 retain N=  5 mean eig= 3.14
 eig:   5.901  4.647  4.647  0.296  0.215
 bond charge predicted
       N       E                     dE             d eps       ncg     rms          rms(c)
DAV:   1    -0.758597236927E+02   -0.41385E-05   -0.89033E-04   512   0.210E-01    0.877E-03
DAV:   2    -0.758597254909E+02   -0.17982E-05   -0.22847E-05   624   0.273E-02    0.485E-03
DAV:   3    -0.758597254144E+02    0.76460E-07   -0.55761E-07   288   0.558E-03
  29 F= -.75859725E+02 E0= -.75859725E+02  d E =-.571724E-05
 BRION: g(F)=  0.494E-02 g(S)=  0.000E+00 retain N=  6 mean eig= 3.87
 eig:   4.427  4.427  7.850  5.834  0.336  0.336
 bond charge predicted
       N       E                     dE             d eps       ncg     rms          rms(c)
DAV:   1    -0.758597297415E+02   -0.42506E-05   -0.11154E-04   512   0.710E-02    0.375E-03
DAV:   2    -0.758597299760E+02   -0.23448E-06   -0.36551E-06   448   0.117E-02
  30 F= -.75859730E+02 E0= -.75859730E+02  d E =-.456152E-05
 BRION: g(F)=  0.462E-02 g(S)=  0.000E+00 retain N=  3 mean eig= 1.11
 eig:   2.468  0.428  0.428
 bond charge predicted
       N       E                     dE             d eps       ncg     rms          rms(c)
DAV:   1    -0.758597300182E+02   -0.27670E-06   -0.43824E-05   552   0.470E-02    0.230E-03
DAV:   2    -0.758597300681E+02   -0.49882E-07   -0.10237E-06   328   0.637E-03
  31 F= -.75859730E+02 E0= -.75859730E+02  d E =-.921041E-07
 BRION: g(F)=  0.466E-02 g(S)=  0.000E+00 retain N=  4 mean eig= 0.92
 eig:   2.491  0.619  0.468  0.116
 bond charge predicted
       N       E                     dE             d eps       ncg     rms          rms(c)
DAV:   1    -0.758597301197E+02   -0.10150E-06   -0.53202E-07   256   0.554E-03    0.129E-03
DAV:   2    -0.758597301327E+02   -0.13021E-07   -0.93984E-08   256   0.254E-03
  32 F= -.75859730E+02 E0= -.75859730E+02  d E =-.646382E-07
 BRION: g(F)=  0.464E-02 g(S)=  0.000E+00 retain N=  5 mean eig= 1.54
 eig:   3.773  2.672  0.459  0.405  0.405
 bond charge predicted
       N       E                     dE             d eps       ncg     rms          rms(c)
DAV:   1    -0.758597293610E+02    0.75866E-06   -0.18138E-05   584   0.309E-02    0.110E-03
DAV:   2    -0.758597293890E+02   -0.28020E-07   -0.47333E-07   256   0.437E-03
  33 F= -.75859729E+02 E0= -.75859729E+02  d E =0.743657E-06
 BRION: g(F)=  0.453E-02 g(S)=  0.000E+00 retain N=  6 mean eig= 1.84
 eig:   3.499  3.499  2.586  0.978  0.454  0.029
 bond charge predicted
       N       E                     dE             d eps       ncg     rms          rms(c)
DAV:   1    -0.758597260222E+02    0.33388E-05   -0.95163E-05   512   0.678E-02    0.212E-03
DAV:   2    -0.758597261508E+02   -0.12854E-06   -0.21136E-06   368   0.801E-03
  34 F= -.75859726E+02 E0= -.75859726E+02  d E =0.323828E-05
 BRION: g(F)=  0.450E-02 g(S)=  0.000E+00 retain N=  6 mean eig= 2.08
 eig:   4.777  4.777  1.279  0.171  0.742  0.742
 bond charge predicted
       N       E                     dE             d eps       ncg     rms          rms(c)
DAV:   1    -0.758597249664E+02    0.10559E-05   -0.83245E-06   448   0.202E-02    0.141E-03
DAV:   2    -0.758597249947E+02   -0.28295E-07   -0.18554E-07   256   0.270E-03
  35 F= -.75859725E+02 E0= -.75859725E+02  d E =0.115610E-05
 BRION: g(F)=  0.450E-02 g(S)=  0.000E+00 retain N=  4 mean eig= 1.27
 eig:   2.758  0.623  0.857  0.857
 bond charge predicted
       N       E                     dE             d eps       ncg     rms          rms(c)
DAV:   1    -0.758597139870E+02    0.10979E-04   -0.10575E-03   512   0.222E-01    0.959E-03
DAV:   2    -0.758597155446E+02   -0.15575E-05   -0.27363E-05   616   0.284E-02    0.638E-03
DAV:   3    -0.758597154016E+02    0.14301E-06   -0.96278E-07   352   0.663E-03
  36 F= -.75859715E+02 E0= -.75859715E+02  d E =0.959309E-05
 BRION: g(F)=  0.497E-02 g(S)=  0.000E+00 retain N=  5 mean eig= 1.52
 eig:   1.332  1.332  0.567  2.932  1.426
 bond charge predicted
       N       E                     dE             d eps       ncg     rms          rms(c)
DAV:   1    -0.758597164467E+02   -0.90214E-06   -0.54879E-05   512   0.481E-02    0.268E-03
DAV:   2    -0.758597166869E+02   -0.24021E-06   -0.19252E-06   368   0.818E-03
  37 F= -.75859717E+02 E0= -.75859717E+02  d E =-.128537E-05
 BRION: g(F)=  0.491E-02 g(S)=  0.000E+00 retain N=  6 mean eig= 2.32
 eig:   7.670  2.625  1.380  1.380  0.555  0.310
 bond charge predicted
       N       E                     dE             d eps       ncg     rms          rms(c)
DAV:   1    -0.758597213551E+02   -0.49083E-05   -0.35005E-04   512   0.130E-01    0.562E-03
DAV:   2    -0.758597220072E+02   -0.65217E-06   -0.81176E-06   664   0.167E-02
  38 F= -.75859722E+02 E0= -.75859722E+02  d E =-.532030E-05
 BRION: g(F)=  0.465E-02 g(S)=  0.000E+00 retain N=  2 mean eig= 1.25
 eig:   0.384  2.112
 bond charge predicted
       N       E                     dE             d eps       ncg     rms          rms(c)
DAV:   1    -0.758597117823E+02    0.95727E-05   -0.10645E-03   528   0.217E-01    0.985E-03
DAV:   2    -0.758597125578E+02   -0.77549E-06   -0.28285E-05   624   0.304E-02    0.803E-03
DAV:   3    -0.758597124412E+02    0.11663E-06   -0.15026E-06   464   0.737E-03
  39 F= -.75859712E+02 E0= -.75859712E+02  d E =0.956605E-05
 BRION: g(F)=  0.517E-02 g(S)=  0.000E+00 retain N=  3 mean eig= 0.98
 eig:   2.107  0.362  0.457
 bond charge predicted
       N       E                     dE             d eps       ncg     rms          rms(c)
DAV:   1    -0.758597182796E+02   -0.57218E-05   -0.21254E-04   528   0.934E-02    0.402E-03
DAV:   2    -0.758597188817E+02   -0.60209E-06   -0.59943E-06   520   0.138E-02
  40 F= -.75859719E+02 E0= -.75859719E+02  d E =-.644048E-05
 BRION: g(F)=  0.483E-02 g(S)=  0.000E+00 retain N=  4 mean eig= 1.81
 eig:   5.034  1.715  0.391  0.085
 bond charge predicted
       N       E                     dE             d eps       ncg     rms          rms(c)
DAV:   1    -0.758597183278E+02   -0.48247E-07   -0.61600E-06   480   0.181E-02    0.131E-03
DAV:   2    -0.758597183176E+02    0.10240E-07   -0.14157E-07   296   0.277E-03
  41 F= -.75859718E+02 E0= -.75859718E+02  d E =0.564082E-06
 BRION: g(F)=  0.483E-02 g(S)=  0.000E+00 retain N=  5 mean eig= 2.00
 eig:   4.559  3.499  0.989  0.375  0.569
 bond charge predicted
       N       E                     dE             d eps       ncg     rms          rms(c)
DAV:   1    -0.758597189150E+02   -0.58718E-06   -0.13488E-04   536   0.808E-02    0.305E-03
DAV:   2    -0.758597190146E+02   -0.99564E-07   -0.30372E-06   456   0.975E-03
  42 F= -.75859719E+02 E0= -.75859719E+02  d E =-.696986E-06
 BRION: g(F)=  0.466E-02 g(S)=  0.000E+00 retain N=  3 mean eig= 1.03
 eig:   0.609  1.241  1.241
 bond charge predicted
       N       E                     dE             d eps       ncg     rms          rms(c)
DAV:   1    -0.758597088756E+02    0.10039E-04   -0.46248E-04   512   0.152E-01    0.635E-03
DAV:   2    -0.758597096967E+02   -0.82119E-06   -0.11275E-05   640   0.195E-02    0.341E-03
DAV:   3    -0.758597097003E+02   -0.35586E-08   -0.23823E-07   256   0.378E-03
  43 F= -.75859710E+02 E0= -.75859710E+02  d E =0.931428E-05
 BRION: g(F)=  0.519E-02 g(S)=  0.000E+00 retain N=  4 mean eig= 1.11
 eig:   0.637  1.228  1.228  1.339
 bond charge predicted
       N       E                     dE             d eps       ncg     rms          rms(c)
DAV:   1    -0.758597057360E+02    0.39607E-05   -0.50084E-05   512   0.468E-02    0.294E-03
DAV:   2    -0.758597057877E+02   -0.51696E-07   -0.16924E-06   368   0.869E-03
  44 F= -.75859706E+02 E0= -.75859706E+02  d E =0.391260E-05
 BRION: g(F)=  0.500E-02 g(S)=  0.000E+00 retain N=  5 mean eig= 1.36
 eig:   3.450  1.278  1.278  0.639  0.178
 bond charge predicted
       N       E                     dE             d eps       ncg     rms          rms(c)
DAV:   1    -0.758597108147E+02   -0.50787E-05   -0.45002E-04   512   0.147E-01    0.603E-03
DAV:   2    -0.758597115008E+02   -0.68605E-06   -0.10765E-05   600   0.180E-02    0.392E-03
DAV:   3    -0.758597114729E+02    0.27832E-07   -0.28818E-07   256   0.375E-03
  45 F= -.75859711E+02 E0= -.75859711E+02  d E =-.568525E-05
 BRION: g(F)=  0.493E-02 g(S)=  0.000E+00 retain N=  5 mean eig= 3.63
 eig:   7.796  7.796  1.161  1.161  0.224
 bond charge predicted
       N       E                     dE             d eps       ncg     rms          rms(c)
DAV:   1    -0.758597214184E+02   -0.99176E-05   -0.45919E-04   512   0.150E-01    0.625E-03
DAV:   2    -0.758597222795E+02   -0.86117E-06   -0.10835E-05   576   0.188E-02    0.247E-03
DAV:   3    -0.758597223572E+02   -0.77683E-07   -0.19489E-07   256   0.330E-03
  46 F= -.75859722E+02 E0= -.75859722E+02  d E =-.108843E-04
 BRION: g(F)=  0.472E-02 g(S)=  0.000E+00 retain N=  3 mean eig= 3.24
 eig:   0.283  4.720  4.720
 bond charge predicted
       N       E                     dE             d eps       ncg     rms          rms(c)
DAV:   1    -0.758596938581E+02    0.28421E-04   -0.41516E-03   520   0.422E-01    0.191E-02
DAV:   2    -0.758596975615E+02   -0.37034E-05   -0.10458E-04   632   0.565E-02    0.142E-02
DAV:   3    -0.758596969845E+02    0.57695E-06   -0.62143E-06   664   0.137E-02
  47 F= -.75859697E+02 E0= -.75859697E+02  d E =0.253727E-04
 BRION: g(F)=  0.568E-02 g(S)=  0.000E+00 retain N=  4 mean eig= 2.84
 eig:   5.308  5.308  0.251  0.489
 bond charge predicted
       N       E                     dE             d eps       ncg     rms          rms(c)
DAV:   1    -0.758597207965E+02   -0.23235E-04   -0.21016E-03   520   0.302E-01    0.125E-02
DAV:   2    -0.758597250318E+02   -0.42353E-05   -0.57059E-05   584   0.396E-02    0.750E-03
DAV:   3    -0.758597248492E+02    0.18264E-06   -0.19185E-06   528   0.829E-03
  48 F= -.75859725E+02 E0= -.75859725E+02  d E =-.278646E-04
 BRION: g(F)=  0.490E-02 g(S)=  0.000E+00 retain N=  1 mean eig= 0.45
 eig:   0.453
 bond charge predicted
       N       E                     dE             d eps       ncg     rms          rms(c)
DAV:   1    -0.758597162854E+02    0.87464E-05   -0.39521E-04   512   0.138E-01    0.689E-03
DAV:   2    -0.758597170190E+02   -0.73364E-06   -0.10507E-05   688   0.194E-02    0.450E-03
DAV:   3    -0.758597170287E+02   -0.97220E-08   -0.57640E-07   360   0.497E-03
  49 F= -.75859717E+02 E0= -.75859717E+02  d E =0.782044E-05
 BRION: g(F)=  0.557E-02 g(S)=  0.000E+00 retain N=  2 mean eig= 0.18
 eig:   0.262  0.101
 bond charge predicted
       N       E                     dE             d eps       ncg     rms          rms(c)
DAV:   1    -0.758597165608E+02    0.45822E-06   -0.23166E-05   584   0.327E-02    0.199E-03
DAV:   2    -0.758597166315E+02   -0.70753E-07   -0.70197E-07   416   0.515E-03
  50 F= -.75859717E+02 E0= -.75859717E+02  d E =0.397192E-06
 BRION: g(F)=  0.532E-02 g(S)=  0.000E+00 retain N=  3 mean eig= 2.83
 eig:   7.046  0.863  0.592
 bond charge predicted
       N       E                     dE             d eps       ncg     rms          rms(c)
DAV:   1    -0.758597232629E+02   -0.67021E-05   -0.73328E-04   512   0.189E-01    0.786E-03
DAV:   2    -0.758597247243E+02   -0.14615E-05   -0.17287E-05   608   0.235E-02    0.282E-03
DAV:   3    -0.758597247710E+02   -0.46647E-07   -0.29205E-07   256   0.403E-03
  51 F= -.75859725E+02 E0= -.75859725E+02  d E =-.813942E-05
 BRION: g(F)=  0.503E-02 g(S)=  0.000E+00 retain N=  2 mean eig= 0.78
 eig:   0.005  1.555
 bond charge predicted
       N       E                     dE             d eps       ncg     rms          rms(c)
DAV:   1    -0.758597144499E+02    0.10274E-04   -0.97782E-04   512   0.216E-01    0.945E-03
DAV:   2    -0.758597161442E+02   -0.16944E-05   -0.26206E-05   600   0.284E-02    0.562E-03
DAV:   3    -0.758597159971E+02    0.14708E-06   -0.82656E-07   320   0.645E-03
  52 F= -.75859716E+02 E0= -.75859716E+02  d E =0.877382E-05
 BRION: g(F)=  0.572E-02 g(S)=  0.000E+00 retain N=  3 mean eig= 2.38
 eig:   5.702  0.143  1.290
 bond charge predicted
       N       E                     dE             d eps       ncg     rms          rms(c)
DAV:   1    -0.758597217166E+02   -0.55724E-05   -0.44179E-04   512   0.146E-01    0.633E-03
DAV:   2    -0.758597228048E+02   -0.10882E-05   -0.12048E-05   560   0.191E-02    0.264E-03
DAV:   3    -0.758597227765E+02    0.28299E-07   -0.23734E-07   264   0.359E-03
  53 F= -.75859723E+02 E0= -.75859723E+02  d E =-.677935E-05
 BRION: g(F)=  0.511E-02 g(S)=  0.000E+00 retain N=  1 mean eig= 0.52
 eig:   0.520
 bond charge predicted
       N       E                     dE             d eps       ncg     rms          rms(c)
DAV:   1    -0.758597156793E+02    0.71255E-05   -0.39318E-04   512   0.139E-01    0.615E-03
DAV:   2    -0.758597165445E+02   -0.86523E-06   -0.11274E-05   688   0.198E-02    0.343E-03
DAV:   3    -0.758597165206E+02    0.23918E-07   -0.34383E-07   256   0.402E-03
  54 F= -.75859717E+02 E0= -.75859717E+02  d E =0.625588E-05
 BRION: g(F)=  0.546E-02 g(S)=  0.000E+00 retain N=  2 mean eig= 1.35
 eig:   1.347  1.347
 bond charge predicted
       N       E                     dE             d eps       ncg     rms          rms(c)
DAV:   1    -0.758597164125E+02    0.13202E-06   -0.13982E-05   592   0.255E-02    0.142E-03
DAV:   2    -0.758597164250E+02   -0.12461E-07   -0.33663E-07   256   0.375E-03
  55 F= -.75859716E+02 E0= -.75859716E+02  d E =0.956447E-07
 BRION: g(F)=  0.555E-02 g(S)=  0.000E+00 retain N=  3 mean eig= 1.69
 eig:   2.425  2.425  0.227
 bond charge predicted
       N       E                     dE             d eps       ncg     rms          rms(c)
DAV:   1    -0.758597186220E+02   -0.22095E-05   -0.52533E-05   512   0.515E-02    0.231E-03
DAV:   2    -0.758597187353E+02   -0.11326E-06   -0.14235E-06   320   0.704E-03
  56 F= -.75859719E+02 E0= -.75859719E+02  d E =-.231032E-05
 BRION: g(F)=  0.543E-02 g(S)=  0.000E+00 retain N=  4 mean eig= 3.04
 eig:   4.941  4.941  2.005  0.253
 bond charge predicted
       N       E                     dE             d eps       ncg     rms          rms(c)
DAV:   1    -0.758597181456E+02    0.47643E-06   -0.35756E-05   512   0.413E-02    0.193E-03
DAV:   2    -0.758597181839E+02   -0.38276E-07   -0.89172E-07   328   0.566E-03
  57 F= -.75859718E+02 E0= -.75859718E+02  d E =0.551420E-06
 BRION: g(F)=  0.568E-02 g(S)=  0.000E+00 retain N=  3 mean eig= 0.74
 eig:   1.532  0.462  0.238
 bond charge predicted
       N       E                     dE             d eps       ncg     rms          rms(c)
DAV:   1    -0.758597163139E+02    0.18317E-05   -0.59335E-05   512   0.541E-02    0.221E-03
DAV:   2    -0.758597163614E+02   -0.47530E-07   -0.95592E-07   256   0.717E-03
  58 F= -.75859716E+02 E0= -.75859716E+02  d E =0.182246E-05
 BRION: g(F)=  0.541E-02 g(S)=  0.000E+00 retain N=  3 mean eig= 1.48
 eig:   3.290  0.746  0.398
 bond charge predicted
       N       E                     dE             d eps       ncg     rms          rms(c)
DAV:   1    -0.758597173737E+02   -0.10599E-05   -0.48687E-05   512   0.494E-02    0.178E-03
DAV:   2    -0.758597174455E+02   -0.71751E-07   -0.12630E-06   320   0.673E-03
  59 F= -.75859717E+02 E0= -.75859717E+02  d E =-.108408E-05
 BRION: g(F)=  0.544E-02 g(S)=  0.000E+00 retain N=  4 mean eig= 1.25
 eig:   3.180  1.253  0.396  0.178
 bond charge predicted
       N       E                     dE             d eps       ncg     rms          rms(c)
DAV:   1    -0.758597168755E+02    0.49825E-06   -0.72966E-06   464   0.180E-02    0.137E-03
DAV:   2    -0.758597168671E+02    0.83301E-08   -0.17262E-07   256   0.250E-03
  60 F= -.75859717E+02 E0= -.75859717E+02  d E =0.578330E-06
 BRION: g(F)=  0.552E-02 g(S)=  0.000E+00 retain N=  4 mean eig= 2.52
 eig:   0.393  0.367  3.513  5.795
 bond charge predicted
       N       E                     dE             d eps       ncg     rms          rms(c)
DAV:   1    -0.758597101631E+02    0.67124E-05   -0.32277E-04   512   0.124E-01    0.550E-03
DAV:   2    -0.758597106377E+02   -0.47459E-06   -0.81118E-06   656   0.158E-02
  61 F= -.75859711E+02 E0= -.75859711E+02  d E =0.622944E-05
 BRION: g(F)=  0.578E-02 g(S)=  0.000E+00 retain N=  4 mean eig= 1.86
 eig:   6.237  0.290  0.459  0.459
 bond charge predicted
       N       E                     dE             d eps       ncg     rms          rms(c)
DAV:   1    -0.758597111813E+02   -0.10181E-05   -0.49822E-05   528   0.465E-02    0.354E-03
DAV:   2    -0.758597113814E+02   -0.20016E-06   -0.17041E-06   344   0.740E-03
  62 F= -.75859711E+02 E0= -.75859711E+02  d E =-.743711E-06
 BRION: g(F)=  0.570E-02 g(S)=  0.000E+00 retain N=  4 mean eig= 2.58
 eig:   2.263  0.121  0.392  7.556
 bond charge predicted
       N       E                     dE             d eps       ncg     rms          rms(c)
DAV:   1    -0.758597118316E+02   -0.65036E-06   -0.87969E-05   512   0.662E-02    0.242E-03
DAV:   2    -0.758597119761E+02   -0.14451E-06   -0.18516E-06   376   0.792E-03
  63 F= -.75859712E+02 E0= -.75859712E+02  d E =-.594718E-06
 BRION: g(F)=  0.589E-02 g(S)=  0.000E+00 retain N=  4 mean eig= 0.94
 eig:   3.039  0.423  0.212  0.081
 bond charge predicted
       N       E                     dE             d eps       ncg     rms          rms(c)
DAV:   1    -0.758597160431E+02   -0.42114E-05   -0.53890E-04   512   0.160E-01    0.679E-03
DAV:   2    -0.758597169676E+02   -0.92450E-06   -0.12234E-05   600   0.188E-02    0.296E-03
DAV:   3    -0.758597170094E+02   -0.41857E-07   -0.20620E-07   256   0.342E-03
  64 F= -.75859717E+02 E0= -.75859717E+02  d E =-.503329E-05
 BRION: g(F)=  0.544E-02 g(S)=  0.000E+00 retain N=  4 mean eig= 3.08
 eig:   7.346  4.393  0.257  0.340
 bond charge predicted
       N       E                     dE             d eps       ncg     rms          rms(c)
DAV:   1    -0.758597161371E+02    0.83043E-06   -0.68713E-05   560   0.587E-02    0.208E-03
DAV:   2    -0.758597161978E+02   -0.60698E-07   -0.14106E-06   368   0.705E-03
  65 F= -.75859716E+02 E0= -.75859716E+02  d E =0.811585E-06
 BRION: g(F)=  0.563E-02 g(S)=  0.000E+00 retain N=  5 mean eig= 2.58
 eig:   7.676  4.454  0.328  0.214  0.214
 bond charge predicted
       N       E                     dE             d eps       ncg     rms          rms(c)
DAV:   1    -0.758597165957E+02   -0.45854E-06   -0.24484E-05   512   0.335E-02    0.202E-03
DAV:   2    -0.758597166736E+02   -0.77885E-07   -0.76156E-07   320   0.527E-03
  66 F= -.75859717E+02 E0= -.75859717E+02  d E =-.475726E-06
 BRION: g(F)=  0.542E-02 g(S)=  0.000E+00 retain N=  1 mean eig= 0.27
 eig:   0.275
 bond charge predicted
       N       E                     dE             d eps       ncg     rms          rms(c)
DAV:   1    -0.758597113393E+02    0.52563E-05   -0.39727E-04   512   0.140E-01    0.567E-03
DAV:   2    -0.758597120503E+02   -0.71097E-06   -0.90341E-06   560   0.171E-02
  67 F= -.75859712E+02 E0= -.75859712E+02  d E =0.462326E-05
 BRION: g(F)=  0.564E-02 g(S)=  0.000E+00 retain N=  2 mean eig= 1.05
 eig:   0.311  1.785
 bond charge predicted
       N       E                     dE             d eps       ncg     rms          rms(c)
DAV:   1    -0.758597142469E+02   -0.29076E-05   -0.83222E-05   512   0.636E-02    0.273E-03
DAV:   2    -0.758597145353E+02   -0.28837E-06   -0.20503E-06   416   0.857E-03
  68 F= -.75859715E+02 E0= -.75859715E+02  d E =-.248495E-05
 BRION: g(F)=  0.571E-02 g(S)=  0.000E+00 retain N=  3 mean eig= 1.23
 eig:   0.310  1.694  1.694
 bond charge predicted
       N       E                     dE             d eps       ncg     rms          rms(c)
DAV:   1    -0.758597166052E+02   -0.23583E-05   -0.42152E-05   512   0.443E-02    0.220E-03
DAV:   2    -0.758597166636E+02   -0.58365E-07   -0.93211E-07   328   0.601E-03
  69 F= -.75859717E+02 E0= -.75859717E+02  d E =-.212834E-05
 BRION: g(F)=  0.553E-02 g(S)=  0.000E+00 retain N=  2 mean eig= 1.68
 eig:   0.089  3.267
 bond charge predicted
       N       E                     dE             d eps       ncg     rms          rms(c)
DAV:   1    -0.758597147933E+02    0.18119E-05   -0.13018E-04   512   0.790E-02    0.369E-03
DAV:   2    -0.758597150446E+02   -0.25131E-06   -0.36187E-06   448   0.114E-02
  70 F= -.75859715E+02 E0= -.75859715E+02  d E =0.161897E-05
 BRION: g(F)=  0.571E-02 g(S)=  0.000E+00 retain N=  3 mean eig= 1.50
 eig:   3.424  0.226  0.852
 bond charge predicted
       N       E                     dE             d eps       ncg     rms          rms(c)
DAV:   1    -0.758597155646E+02   -0.77128E-06   -0.25174E-06   416   0.108E-02    0.152E-03
DAV:   2    -0.758597155930E+02   -0.28397E-07   -0.14156E-07   256   0.267E-03
  71 F= -.75859716E+02 E0= -.75859716E+02  d E =-.548363E-06
 BRION: g(F)=  0.569E-02 g(S)=  0.000E+00 retain N=  3 mean eig= 1.92
 eig:   5.194  0.034  0.529
 bond charge predicted
       N       E                     dE             d eps       ncg     rms          rms(c)
DAV:   1    -0.758597081634E+02    0.74012E-05   -0.69449E-04   512   0.194E-01    0.609E-03
DAV:   2    -0.758597094023E+02   -0.12388E-05   -0.17118E-05   680   0.245E-02    0.402E-03
DAV:   3    -0.758597092643E+02    0.13798E-06   -0.37760E-07   256   0.468E-03
  72 F= -.75859709E+02 E0= -.75859709E+02  d E =0.632870E-05
 BRION: g(F)=  0.592E-02 g(S)=  0.000E+00 retain N=  4 mean eig= 1.78
 eig:   5.421  0.005  0.847  0.847
 bond charge predicted
       N       E                     dE             d eps       ncg     rms          rms(c)
DAV:   1    -0.758597023009E+02    0.71014E-05   -0.28958E-04   512   0.126E-01    0.387E-03
DAV:   2    -0.758597027251E+02   -0.42414E-06   -0.57873E-06   616   0.145E-02
  73 F= -.75859703E+02 E0= -.75859703E+02  d E =0.653923E-05
 BRION: g(F)=  0.561E-02 g(S)=  0.000E+00 retain N=  5 mean eig= 1.79
 eig:   5.231  1.494  1.494  0.006  0.724
 bond charge predicted
       N       E                     dE             d eps       ncg     rms          rms(c)
DAV:   1    -0.758596987899E+02    0.35110E-05   -0.77859E-05   512   0.637E-02    0.285E-03
DAV:   2    -0.758596989159E+02   -0.12602E-06   -0.16435E-06   336   0.757E-03
  74 F= -.75859699E+02 E0= -.75859699E+02  d E =0.380913E-05
 BRION: g(F)=  0.554E-02 g(S)=  0.000E+00 retain N=  6 mean eig= 2.22
 eig:   5.376  5.376  1.038  1.038  0.391  0.107
 bond charge predicted
       N       E                     dE             d eps       ncg     rms          rms(c)
DAV:   1    -0.758596888566E+02    0.99333E-05   -0.41711E-04   512   0.146E-01    0.504E-03
DAV:   2    -0.758596893922E+02   -0.53559E-06   -0.92279E-06   616   0.172E-02
  75 F= -.75859689E+02 E0= -.75859689E+02  d E =0.952370E-05
 BRION: g(F)=  0.553E-02 g(S)=  0.000E+00 retain N=  6 mean eig= 3.31
 eig:   7.599  7.599  2.009  1.021  1.021  0.609
 bond charge predicted
       N       E                     dE             d eps       ncg     rms          rms(c)
DAV:   1    -0.758596889499E+02   -0.93260E-07   -0.65949E-07   256   0.600E-03    0.330E-03
DAV:   2    -0.758596890223E+02   -0.72372E-07   -0.11674E-07   256   0.345E-03
  76 F= -.75859689E+02 E0= -.75859689E+02  d E =0.369960E-06
 BRION: g(F)=  0.555E-02 g(S)=  0.000E+00 retain N=  6 mean eig= 2.44
 eig:   6.869  1.220  1.220  0.631  2.349  2.349
 bond charge predicted
       N       E                     dE             d eps       ncg     rms          rms(c)
DAV:   1    -0.758596822863E+02    0.66636E-05   -0.36701E-04   512   0.135E-01    0.457E-03
DAV:   2    -0.758596829742E+02   -0.68783E-06   -0.89548E-06   608   0.182E-02
  77 F= -.75859683E+02 E0= -.75859683E+02  d E =0.604811E-05
 BRION: g(F)=  0.598E-02 g(S)=  0.000E+00 retain N=  7 mean eig= 3.68
 eig:   7.226  7.226  0.778  0.808  0.808  2.692  6.199
 bond charge predicted
       N       E                     dE             d eps       ncg     rms          rms(c)
DAV:   1    -0.758596790877E+02    0.31986E-05   -0.92552E-05   520   0.652E-02    0.338E-03
DAV:   2    -0.758596792228E+02   -0.13510E-06   -0.26852E-06   432   0.973E-03
  78 F= -.75859679E+02 E0= -.75859679E+02  d E =0.375134E-05
 BRION: g(F)=  0.588E-02 g(S)=  0.000E+00 retain N=  3 mean eig= 2.24
 eig:   4.408  1.975  0.338
 bond charge predicted
       N       E                     dE             d eps       ncg     rms          rms(c)
DAV:   1    -0.758596959617E+02   -0.16874E-04   -0.98441E-04   512   0.229E-01    0.737E-03
DAV:   2    -0.758596976140E+02   -0.16524E-05   -0.22017E-05   624   0.273E-02    0.461E-03
DAV:   3    -0.758596975790E+02    0.34971E-07   -0.54575E-07   256   0.515E-03
  79 F= -.75859698E+02 E0= -.75859698E+02  d E =-.183562E-04
 BRION: g(F)=  0.573E-02 g(S)=  0.000E+00 retain N=  3 mean eig= 5.00
 eig:   0.325  7.331  7.331
 bond charge predicted
       N       E                     dE             d eps       ncg     rms          rms(c)
DAV:   1    -0.758597005770E+02   -0.29630E-05   -0.55371E-04   528   0.159E-01    0.608E-03
DAV:   2    -0.758597013125E+02   -0.73549E-06   -0.14043E-05   640   0.206E-02    0.482E-03
DAV:   3    -0.758597012162E+02    0.96258E-07   -0.45295E-07   296   0.439E-03
  80 F= -.75859701E+02 E0= -.75859701E+02  d E =-.363716E-05
 BRION: g(F)=  0.573E-02 g(S)=  0.000E+00 retain N=  3 mean eig= 1.44
 eig:   3.611  0.337  0.384
 bond charge predicted
       N       E                     dE             d eps       ncg     rms          rms(c)
DAV:   1    -0.758596858003E+02    0.15512E-04   -0.31989E-03   520   0.377E-01    0.172E-02
DAV:   2    -0.758596903405E+02   -0.45402E-05   -0.92074E-05   672   0.539E-02    0.129E-02
DAV:   3    -0.758596899689E+02    0.37165E-06   -0.47954E-06   640   0.119E-02
  81 F= -.75859690E+02 E0= -.75859690E+02  d E =0.112473E-04
 BRION: g(F)=  0.655E-02 g(S)=  0.000E+00 retain N=  4 mean eig= 1.42
 eig:   3.667  0.104  0.955  0.955
 bond charge predicted
       N       E                     dE             d eps       ncg     rms          rms(c)
DAV:   1    -0.758596977662E+02   -0.74256E-05   -0.66441E-04   520   0.167E-01    0.731E-03
DAV:   2    -0.758596994084E+02   -0.16422E-05   -0.18418E-05   576   0.220E-02    0.346E-03
DAV:   3    -0.758596993580E+02    0.50402E-07   -0.49417E-07   288   0.453E-03
  82 F= -.75859699E+02 E0= -.75859699E+02  d E =-.938911E-05
 BRION: g(F)=  0.579E-02 g(S)=  0.000E+00 retain N=  1 mean eig= 0.24
 eig:   0.236
 bond charge predicted
       N       E                     dE             d eps       ncg     rms          rms(c)
DAV:   1    -0.758596949774E+02    0.44310E-05   -0.54125E-04   512   0.163E-01    0.710E-03
DAV:   2    -0.758596958015E+02   -0.82402E-06   -0.12609E-05   696   0.200E-02    0.385E-03
DAV:   3    -0.758596957772E+02    0.24289E-07   -0.31965E-07   272   0.455E-03
  83 F= -.75859696E+02 E0= -.75859696E+02  d E =0.358083E-05
 BRION: g(F)=  0.596E-02 g(S)=  0.000E+00 retain N=  2 mean eig= 2.75
 eig:   0.124  5.386
 bond charge predicted
       N       E                     dE             d eps       ncg     rms          rms(c)
DAV:   1    -0.758596985466E+02   -0.27451E-05   -0.17655E-04   512   0.928E-02    0.369E-03
DAV:   2    -0.758596989677E+02   -0.42110E-06   -0.45220E-06   656   0.124E-02
  84 F= -.75859699E+02 E0= -.75859699E+02  d E =-.319053E-05
 BRION: g(F)=  0.603E-02 g(S)=  0.000E+00 retain N=  3 mean eig= 2.17
 eig:   5.117  0.098  1.285
 bond charge predicted
       N       E                     dE             d eps       ncg     rms          rms(c)
DAV:   1    -0.758597031515E+02   -0.46049E-05   -0.33373E-04   512   0.128E-01    0.572E-03
DAV:   2    -0.758597036943E+02   -0.54284E-06   -0.79494E-06   632   0.163E-02
  85 F= -.75859704E+02 E0= -.75859704E+02  d E =-.472661E-05
 BRION: g(F)=  0.573E-02 g(S)=  0.000E+00 retain N=  2 mean eig= 2.50
 eig:   0.226  4.781
 bond charge predicted
       N       E                     dE             d eps       ncg     rms          rms(c)
DAV:   1    -0.758597053584E+02   -0.22069E-05   -0.23514E-05   512   0.344E-02    0.181E-03
DAV:   2    -0.758597055187E+02   -0.16030E-06   -0.63256E-07   272   0.508E-03
  86 F= -.75859706E+02 E0= -.75859706E+02  d E =-.182435E-05
 BRION: g(F)=  0.593E-02 g(S)=  0.000E+00 retain N=  3 mean eig= 1.92
 eig:   4.760  0.090  0.908
 bond charge predicted
       N       E                     dE             d eps       ncg     rms          rms(c)
DAV:   1    -0.758597033915E+02    0.19669E-05   -0.19464E-05   512   0.310E-02    0.113E-03
DAV:   2    -0.758597034415E+02   -0.50044E-07   -0.42383E-07   256   0.421E-03
  87 F= -.75859703E+02 E0= -.75859703E+02  d E =0.207717E-05
 BRION: g(F)=  0.599E-02 g(S)=  0.000E+00 retain N=  4 mean eig= 2.01
 eig:   5.956  0.688  0.688  0.718
 bond charge predicted
       N       E                     dE             d eps       ncg     rms          rms(c)
DAV:   1    -0.758596875302E+02    0.15861E-04   -0.54492E-04   512   0.168E-01    0.547E-03
DAV:   2    -0.758596883233E+02   -0.79309E-06   -0.11396E-05   624   0.202E-02    0.250E-03
DAV:   3    -0.758596882741E+02    0.49210E-07   -0.23671E-07   256   0.377E-03
  88 F= -.75859688E+02 E0= -.75859688E+02  d E =0.151674E-04
 BRION: g(F)=  0.621E-02 g(S)=  0.000E+00 retain N=  2 mean eig= 3.80
 eig:   0.601  7.002
 bond charge predicted
       N       E                     dE             d eps       ncg     rms          rms(c)
DAV:   1    -0.758596911631E+02   -0.28398E-05   -0.15620E-04   512   0.841E-02    0.438E-03
DAV:   2    -0.758596914998E+02   -0.33667E-06   -0.46633E-06   528   0.123E-02
  89 F= -.75859691E+02 E0= -.75859691E+02  d E =-.322572E-05
 BRION: g(F)=  0.616E-02 g(S)=  0.000E+00 retain N=  2 mean eig= 3.98
 eig:   0.462  7.502
 bond charge predicted
       N       E                     dE             d eps       ncg     rms          rms(c)
DAV:   1    -0.758596913864E+02   -0.22332E-06   -0.28850E-05   512   0.359E-02    0.268E-03
DAV:   2    -0.758596914603E+02   -0.73873E-07   -0.88263E-07   344   0.567E-03
  90 F= -.75859691E+02 E0= -.75859691E+02  d E =0.394841E-07
 BRION: g(F)=  0.606E-02 g(S)=  0.000E+00 retain N=  2 mean eig= 0.37
 eig:   0.463  0.284
 bond charge predicted
       N       E                     dE             d eps       ncg     rms          rms(c)
DAV:   1    -0.758596868529E+02    0.45336E-05   -0.11541E-04   512   0.755E-02    0.331E-03
DAV:   2    -0.758596870370E+02   -0.18416E-06   -0.25512E-06   424   0.929E-03
  91 F= -.75859687E+02 E0= -.75859687E+02  d E =0.442327E-05
 BRION: g(F)=  0.619E-02 g(S)=  0.000E+00 retain N=  2 mean eig= 2.64
 eig:   0.156  5.130
 bond charge predicted
       N       E                     dE             d eps       ncg     rms          rms(c)
DAV:   1    -0.758596959953E+02   -0.91425E-05   -0.15855E-04   512   0.911E-02    0.316E-03
DAV:   2    -0.758596963318E+02   -0.33648E-06   -0.36413E-06   440   0.114E-02
  92 F= -.75859696E+02 E0= -.75859696E+02  d E =-.929480E-05
 BRION: g(F)=  0.624E-02 g(S)=  0.000E+00 retain N=  1 mean eig= 0.68
 eig:   0.683
 bond charge predicted
       N       E                     dE             d eps       ncg     rms          rms(c)
DAV:   1    -0.758596855638E+02    0.10432E-04   -0.54530E-04   512   0.164E-01    0.671E-03
DAV:   2    -0.758596867014E+02   -0.11376E-05   -0.12961E-05   616   0.209E-02    0.246E-03
DAV:   3    -0.758596867368E+02   -0.35430E-07   -0.21697E-07   256   0.360E-03
  93 F= -.75859687E+02 E0= -.75859687E+02  d E =0.959499E-05
 BRION: g(F)=  0.657E-02 g(S)=  0.000E+00 retain N=  2 mean eig= 0.99
 eig:   0.999  0.986
 bond charge predicted
       N       E                     dE             d eps       ncg     rms          rms(c)
DAV:   1    -0.758596850285E+02    0.16729E-05   -0.18788E-05   536   0.307E-02    0.138E-03
DAV:   2    -0.758596850523E+02   -0.23733E-07   -0.32521E-07   256   0.367E-03
  94 F= -.75859685E+02 E0= -.75859685E+02  d E =0.168455E-05
 BRION: g(F)=  0.634E-02 g(S)=  0.000E+00 retain N=  1 mean eig= 0.13
 eig:   0.131
 bond charge predicted
       N       E                     dE             d eps       ncg     rms          rms(c)
DAV:   1    -0.758596782824E+02    0.67462E-05   -0.38639E-04   512   0.135E-01    0.617E-03
DAV:   2    -0.758596790416E+02   -0.75920E-06   -0.94669E-06   600   0.173E-02
  95 F= -.75859679E+02 E0= -.75859679E+02  d E =0.601070E-05
 BRION: g(F)=  0.660E-02 g(S)=  0.000E+00 retain N=  2 mean eig= 0.31
 eig:   0.308  0.308
 bond charge predicted
       N       E                     dE             d eps       ncg     rms          rms(c)
DAV:   1    -0.758596786522E+02   -0.36981E-06   -0.25632E-06   440   0.113E-02    0.172E-03
DAV:   2    -0.758596787134E+02   -0.61198E-07   -0.85151E-08   256   0.209E-03
  96 F= -.75859679E+02 E0= -.75859679E+02  d E =0.328188E-06
 BRION: g(F)=  0.656E-02 g(S)=  0.000E+00 retain N=  2 mean eig= 2.21
 eig:   0.617  3.798
 bond charge predicted
       N       E                     dE             d eps       ncg     rms          rms(c)
DAV:   1    -0.758596824378E+02   -0.37856E-05   -0.31230E-04   512   0.124E-01    0.484E-03
DAV:   2    -0.758596830350E+02   -0.59722E-06   -0.73159E-06   544   0.151E-02
  97 F= -.75859683E+02 E0= -.75859683E+02  d E =-.432163E-05
 BRION: g(F)=  0.694E-02 g(S)=  0.000E+00 retain N=  2 mean eig= 0.41
 eig:   0.256  0.562
 bond charge predicted
       N       E                     dE             d eps       ncg     rms          rms(c)
DAV:   1    -0.758596689712E+02    0.13467E-04   -0.15735E-03   512   0.279E-01    0.111E-02
DAV:   2    -0.758596723207E+02   -0.33495E-05   -0.37401E-05   632   0.344E-02    0.362E-03
DAV:   3    -0.758596723387E+02   -0.18028E-07   -0.53304E-07   256   0.556E-03
  98 F= -.75859672E+02 E0= -.75859672E+02  d E =0.106963E-04
 BRION: g(F)=  0.692E-02 g(S)=  0.000E+00 retain N=  2 mean eig= 1.28
 eig:   0.266  2.288
 bond charge predicted
       N       E                     dE             d eps       ncg     rms          rms(c)
DAV:   1    -0.758596719511E+02    0.36958E-06   -0.16625E-06   456   0.981E-03    0.610E-04
DAV:   2    -0.758596719719E+02   -0.20748E-07   -0.18580E-07   256   0.360E-03
  99 F= -.75859672E+02 E0= -.75859672E+02  d E =0.366858E-06
 BRION: g(F)=  0.674E-02 g(S)=  0.000E+00 retain N=  2 mean eig= 0.33
 eig:   0.327  0.327
 bond charge predicted
       N       E                     dE             d eps       ncg     rms          rms(c)
DAV:   1    -0.758596696983E+02    0.22528E-05   -0.20403E-05   512   0.291E-02    0.189E-03
DAV:   2    -0.758596697406E+02   -0.42346E-07   -0.51270E-07   256   0.458E-03
 100 F= -.75859670E+02 E0= -.75859670E+02  d E =0.223123E-05
 BRION: g(F)=  0.680E-02 g(S)=  0.000E+00 retain N=  3 mean eig= 2.02
 eig:   0.397  0.397  5.262
 bond charge predicted
       N       E                     dE             d eps       ncg     rms          rms(c)
DAV:   1    -0.758596701474E+02   -0.44915E-06   -0.41858E-05   512   0.435E-02    0.208E-03
DAV:   2    -0.758596701943E+02   -0.46910E-07   -0.12643E-06   344   0.703E-03
 101 F= -.75859670E+02 E0= -.75859670E+02  d E =-.453717E-06
 BRION: g(F)=  0.687E-02 g(S)=  0.000E+00 retain N=  3 mean eig= 0.81
 eig:   0.727  0.210  1.486
 bond charge predicted
       N       E                     dE             d eps       ncg     rms          rms(c)
DAV:   1    -0.758596663499E+02    0.37976E-05   -0.78239E-05   512   0.568E-02    0.334E-03
DAV:   2    -0.758596665172E+02   -0.16732E-06   -0.20022E-06   320   0.931E-03
 102 F= -.75859667E+02 E0= -.75859667E+02  d E =0.367715E-05
 BRION: g(F)=  0.684E-02 g(S)=  0.000E+00 retain N=  4 mean eig= 1.22
 eig:   3.492  1.030  0.243  0.113
 bond charge predicted
       N       E                     dE             d eps       ncg     rms          rms(c)
DAV:   1    -0.758596718296E+02   -0.54797E-05   -0.65554E-04   512   0.181E-01    0.672E-03
DAV:   2    -0.758596730628E+02   -0.12332E-05   -0.15473E-05   632   0.237E-02    0.289E-03
DAV:   3    -0.758596730180E+02    0.44847E-07   -0.33644E-07   272   0.434E-03
 103 F= -.75859673E+02 E0= -.75859673E+02  d E =-.650078E-05
 BRION: g(F)=  0.680E-02 g(S)=  0.000E+00 retain N=  5 mean eig= 1.94
 eig:   4.134  4.134  1.008  0.206  0.206
 bond charge predicted
       N       E                     dE             d eps       ncg     rms          rms(c)
DAV:   1    -0.758596827224E+02   -0.96595E-05   -0.90519E-04   512   0.205E-01    0.986E-03
DAV:   2    -0.758596845772E+02   -0.18548E-05   -0.21895E-05   696   0.275E-02    0.431E-03
DAV:   3    -0.758596847548E+02   -0.17761E-06   -0.44019E-07   384   0.456E-03
 104 F= -.75859685E+02 E0= -.75859685E+02  d E =-.117368E-04
 BRION: g(F)=  0.650E-02 g(S)=  0.000E+00 retain N=  5 mean eig= 2.89
 eig:   6.162  6.162  1.016  0.917  0.203
 bond charge predicted
       N       E                     dE             d eps       ncg     rms          rms(c)
DAV:   1    -0.758596940407E+02   -0.94635E-05   -0.44301E-04   512   0.135E-01    0.772E-03
DAV:   2    -0.758596949742E+02   -0.93349E-06   -0.12158E-05   672   0.212E-02    0.392E-03
DAV:   3    -0.758596950258E+02   -0.51653E-07   -0.45960E-07   376   0.498E-03
 105 F= -.75859695E+02 E0= -.75859695E+02  d E =-.102711E-04
 BRION: g(F)=  0.641E-02 g(S)=  0.000E+00 retain N=  2 mean eig= 3.90
 eig:   3.903  3.903
 bond charge predicted
       N       E                     dE             d eps       ncg     rms          rms(c)
DAV:   1    -0.758596883616E+02    0.66125E-05   -0.45416E-04   512   0.151E-01    0.675E-03
DAV:   2    -0.758596892898E+02   -0.92815E-06   -0.14624E-05   672   0.223E-02    0.462E-03
DAV:   3    -0.758596892200E+02    0.69789E-07   -0.56694E-07   296   0.504E-03
 106 F= -.75859689E+02 E0= -.75859689E+02  d E =0.580584E-05
 BRION: g(F)=  0.682E-02 g(S)=  0.000E+00 retain N=  3 mean eig= 2.99
 eig:   4.354  4.354  0.258
 bond charge predicted
       N       E                     dE             d eps       ncg     rms          rms(c)
DAV:   1    -0.758596915170E+02   -0.22272E-05   -0.59562E-05   560   0.521E-02    0.280E-03
DAV:   2    -0.758596916973E+02   -0.18034E-06   -0.19473E-06   464   0.834E-03
 107 F= -.75859692E+02 E0= -.75859692E+02  d E =-.247734E-05
 BRION: g(F)=  0.662E-02 g(S)=  0.000E+00 retain N=  1 mean eig= 0.50
 eig:   0.498
 bond charge predicted
       N       E                     dE             d eps       ncg     rms          rms(c)
DAV:   1    -0.758596828062E+02    0.87108E-05   -0.58266E-04   512   0.170E-01    0.697E-03
DAV:   2    -0.758596838081E+02   -0.10020E-05   -0.15347E-05   600   0.223E-02    0.447E-03
DAV:   3    -0.758596837117E+02    0.96434E-07   -0.44120E-07   304   0.496E-03
 108 F= -.75859684E+02 E0= -.75859684E+02  d E =0.798564E-05
 BRION: g(F)=  0.686E-02 g(S)=  0.000E+00 retain N=  2 mean eig= 1.59
 eig:   0.763  2.424
 bond charge predicted
       N       E                     dE             d eps       ncg     rms          rms(c)
DAV:   1    -0.758596823725E+02    0.14356E-05   -0.26310E-05   568   0.356E-02    0.206E-03
DAV:   2    -0.758596824506E+02   -0.78079E-07   -0.90123E-07   320   0.580E-03
 109 F= -.75859682E+02 E0= -.75859682E+02  d E =0.126108E-05
 BRION: g(F)=  0.673E-02 g(S)=  0.000E+00 retain N=  2 mean eig= 1.40
 eig:   0.313  2.491
 bond charge predicted
       N       E                     dE             d eps       ncg     rms          rms(c)
DAV:   1    -0.758596824542E+02   -0.81699E-07   -0.83629E-07   320   0.633E-03    0.654E-04
DAV:   2    -0.758596824737E+02   -0.19488E-07   -0.89769E-08   256   0.242E-03
 110 F= -.75859682E+02 E0= -.75859682E+02  d E =-.231073E-07
 BRION: g(F)=  0.678E-02 g(S)=  0.000E+00 retain N=  3 mean eig= 2.96
 eig:   0.338  1.019  7.530
 bond charge predicted
       N       E                     dE             d eps       ncg     rms          rms(c)
DAV:   1    -0.758596768920E+02    0.55622E-05   -0.13824E-04   512   0.816E-02    0.361E-03
DAV:   2    -0.758596771062E+02   -0.21419E-06   -0.33518E-06   464   0.104E-02
 111 F= -.75859677E+02 E0= -.75859677E+02  d E =0.536748E-05
 BRION: g(F)=  0.688E-02 g(S)=  0.000E+00 retain N=  1 mean eig= 2.51
 eig:   2.506
 bond charge predicted
       N       E                     dE             d eps       ncg     rms          rms(c)
DAV:   1    -0.758596806521E+02   -0.37600E-05   -0.52619E-04   512   0.156E-01    0.608E-03
DAV:   2    -0.758596813971E+02   -0.74500E-06   -0.12775E-05   616   0.193E-02    0.411E-03
DAV:   3    -0.758596813429E+02    0.54181E-07   -0.43049E-07   256   0.432E-03
 112 F= -.75859681E+02 E0= -.75859681E+02  d E =-.423665E-05
 BRION: g(F)=  0.697E-02 g(S)=  0.000E+00 retain N=  2 mean eig= 1.33
 eig:   2.648  0.009
 bond charge predicted
       N       E                     dE             d eps       ncg     rms          rms(c)
DAV:   1    -0.758596816900E+02   -0.29289E-06   -0.67107E-05   512   0.542E-02    0.250E-03
DAV:   2    -0.758596818966E+02   -0.20662E-06   -0.22115E-06   376   0.861E-03
 113 F= -.75859682E+02 E0= -.75859682E+02  d E =-.553692E-06
 BRION: g(F)=  0.678E-02 g(S)=  0.000E+00 retain N=  1 mean eig= 0.31
 eig:   0.315
 bond charge predicted
       N       E                     dE             d eps       ncg     rms          rms(c)
DAV:   1    -0.758596715957E+02    0.10094E-04   -0.49230E-04   512   0.156E-01    0.650E-03
DAV:   2    -0.758596725544E+02   -0.95874E-06   -0.13268E-05   664   0.213E-02    0.294E-03
DAV:   3    -0.758596725356E+02    0.18840E-07   -0.37683E-07   264   0.436E-03
 114 F= -.75859673E+02 E0= -.75859673E+02  d E =0.936103E-05
 BRION: g(F)=  0.694E-02 g(S)=  0.000E+00 retain N=  2 mean eig= 0.21
 eig:   0.317  0.109
 bond charge predicted
       N       E                     dE             d eps       ncg     rms          rms(c)
DAV:   1    -0.758596713087E+02    0.12457E-05   -0.17891E-05   568   0.298E-02    0.145E-03
DAV:   2    -0.758596713313E+02   -0.22541E-07   -0.46027E-07   256   0.432E-03
 115 F= -.75859671E+02 E0= -.75859671E+02  d E =0.120428E-05
 BRION: g(F)=  0.688E-02 g(S)=  0.000E+00 retain N=  2 mean eig= 3.38
 eig:   0.613  6.145
 bond charge predicted
       N       E                     dE             d eps       ncg     rms          rms(c)
DAV:   1    -0.758596767806E+02   -0.54718E-05   -0.20607E-04   512   0.100E-01    0.416E-03
DAV:   2    -0.758596772394E+02   -0.45880E-06   -0.53693E-06   600   0.137E-02
 116 F= -.75859677E+02 E0= -.75859677E+02  d E =-.590809E-05
 BRION: g(F)=  0.691E-02 g(S)=  0.000E+00 retain N=  3 mean eig= 2.83
 eig:   0.594  3.953  3.953
 bond charge predicted
       N       E                     dE             d eps       ncg     rms          rms(c)
DAV:   1    -0.758596813629E+02   -0.45823E-05   -0.74508E-05   512   0.593E-02    0.319E-03
DAV:   2    -0.758596814645E+02   -0.10164E-06   -0.16773E-06   400   0.786E-03
 117 F= -.75859681E+02 E0= -.75859681E+02  d E =-.422517E-05
 BRION: g(F)=  0.684E-02 g(S)=  0.000E+00 retain N=  3 mean eig= 2.75
 eig:   0.103  4.066  4.066
 bond charge predicted
       N       E                     dE             d eps       ncg     rms          rms(c)
DAV:   1    -0.758596763550E+02    0.50079E-05   -0.30826E-04   512   0.121E-01    0.442E-03
DAV:   2    -0.758596769847E+02   -0.62963E-06   -0.92848E-06   648   0.171E-02
 118 F= -.75859677E+02 E0= -.75859677E+02  d E =0.447988E-05
 BRION: g(F)=  0.698E-02 g(S)=  0.000E+00 retain N=  4 mean eig= 2.49
 eig:   4.788  4.788  0.160  0.225
 bond charge predicted
       N       E                     dE             d eps       ncg     rms          rms(c)
DAV:   1    -0.758596797736E+02   -0.34186E-05   -0.39683E-05   512   0.442E-02    0.226E-03
DAV:   2    -0.758596799067E+02   -0.13304E-06   -0.13211E-06   320   0.660E-03
 119 F= -.75859680E+02 E0= -.75859680E+02  d E =-.292201E-05
 BRION: g(F)=  0.694E-02 g(S)=  0.000E+00 retain N=  5 mean eig= 3.28
 eig:   5.524  5.524  4.299  0.175  0.895
 bond charge predicted
       N       E                     dE             d eps       ncg     rms          rms(c)
DAV:   1    -0.758596658041E+02    0.13970E-04   -0.47199E-04   512   0.146E-01    0.599E-03
DAV:   2    -0.758596667782E+02   -0.97413E-06   -0.14423E-05   664   0.215E-02    0.371E-03
DAV:   3    -0.758596666107E+02    0.16756E-06   -0.58864E-07   280   0.513E-03
 120 F= -.75859667E+02 E0= -.75859667E+02  d E =0.132960E-04
 BRION: g(F)=  0.718E-02 g(S)=  0.000E+00 retain N=  2 mean eig= 2.56
 eig:   0.768  4.358
 bond charge predicted
       N       E                     dE             d eps       ncg     rms          rms(c)
DAV:   1    -0.758596651492E+02    0.16290E-05   -0.97294E-04   512   0.207E-01    0.806E-03
DAV:   2    -0.758596667993E+02   -0.16500E-05   -0.33497E-05   664   0.321E-02    0.660E-03
DAV:   3    -0.758596663192E+02    0.48004E-06   -0.18910E-06   416   0.837E-03
 121 F= -.75859666E+02 E0= -.75859666E+02  d E =0.291449E-06
 BRION: g(F)=  0.718E-02 g(S)=  0.000E+00 retain N=  2 mean eig= 1.61
 eig:   0.277  2.946
 bond charge predicted
       N       E                     dE             d eps       ncg     rms          rms(c)
DAV:   1    -0.758596653258E+02    0.14734E-05   -0.81375E-05   536   0.620E-02    0.327E-03
DAV:   2    -0.758596655587E+02   -0.23289E-06   -0.28214E-06   376   0.953E-03
 122 F= -.75859666E+02 E0= -.75859666E+02  d E =0.760489E-06
 BRION: g(F)=  0.698E-02 g(S)=  0.000E+00 retain N=  2 mean eig= 0.36
 eig:   0.364  0.364
 bond charge predicted
       N       E                     dE             d eps       ncg     rms          rms(c)
DAV:   1    -0.758596576969E+02    0.76289E-05   -0.23826E-04   512   0.106E-01    0.489E-03
DAV:   2    -0.758596581494E+02   -0.45253E-06   -0.58169E-06   536   0.136E-02
 123 F= -.75859658E+02 E0= -.75859658E+02  d E =0.740928E-05
 BRION: g(F)=  0.700E-02 g(S)=  0.000E+00 retain N=  3 mean eig= 2.31
 eig:   6.260  0.331  0.331
 bond charge predicted
       N       E                     dE             d eps       ncg     rms          rms(c)
DAV:   1    -0.758596622958E+02   -0.45989E-05   -0.75088E-05   512   0.596E-02    0.253E-03
DAV:   2    -0.758596625531E+02   -0.25723E-06   -0.17701E-06   344   0.775E-03
 124 F= -.75859663E+02 E0= -.75859663E+02  d E =-.440361E-05
 BRION: g(F)=  0.703E-02 g(S)=  0.000E+00 retain N=  4 mean eig= 2.37
 eig:   4.523  4.523  0.210  0.210
 bond charge predicted
       N       E                     dE             d eps       ncg     rms          rms(c)
DAV:   1    -0.758596582751E+02    0.40207E-05   -0.49128E-05   512   0.470E-02    0.230E-03
DAV:   2    -0.758596583738E+02   -0.98668E-07   -0.11097E-06   320   0.652E-03
 125 F= -.75859658E+02 E0= -.75859658E+02  d E =0.417931E-05
 BRION: g(F)=  0.709E-02 g(S)=  0.000E+00 retain N=  2 mean eig= 3.01
 eig:   0.531  5.490
 bond charge predicted
       N       E                     dE             d eps       ncg     rms          rms(c)
DAV:   1    -0.758596449154E+02    0.13360E-04   -0.74599E-04   512   0.191E-01    0.839E-03
DAV:   2    -0.758596463376E+02   -0.14221E-05   -0.18740E-05   672   0.246E-02    0.384E-03
DAV:   3    -0.758596463581E+02   -0.20514E-07   -0.41102E-07   256   0.497E-03
 126 F= -.75859646E+02 E0= -.75859646E+02  d E =0.120157E-04
 BRION: g(F)=  0.712E-02 g(S)=  0.000E+00 retain N=  3 mean eig= 3.92
 eig:   5.827  5.827  0.107
 bond charge predicted
       N       E                     dE             d eps       ncg     rms          rms(c)
DAV:   1    -0.758596447861E+02    0.15515E-05   -0.27008E-05   520   0.369E-02    0.187E-03
DAV:   2    -0.758596448302E+02   -0.44173E-07   -0.73350E-07   320   0.570E-03
 127 F= -.75859645E+02 E0= -.75859645E+02  d E =0.152784E-05
 BRION: g(F)=  0.703E-02 g(S)=  0.000E+00 retain N=  3 mean eig= 2.11
 eig:   5.835  0.396  0.086
 bond charge predicted
       N       E                     dE             d eps       ncg     rms          rms(c)
DAV:   1    -0.758596503023E+02   -0.55162E-05   -0.69384E-05   512   0.531E-02    0.289E-03
DAV:   2    -0.758596504467E+02   -0.14442E-06   -0.16291E-06   384   0.794E-03
 128 F= -.75859650E+02 E0= -.75859650E+02  d E =-.561643E-05
 BRION: g(F)=  0.706E-02 g(S)=  0.000E+00 retain N=  3 mean eig= 3.39
 eig:   0.015  2.696  7.452
 bond charge predicted
       N       E                     dE             d eps       ncg     rms          rms(c)
DAV:   1    -0.758596280762E+02    0.22226E-04   -0.10830E-03   512   0.219E-01    0.107E-02
DAV:   2    -0.758596305813E+02   -0.25051E-05   -0.27641E-05   632   0.312E-02    0.406E-03
DAV:   3    -0.758596307403E+02   -0.15894E-06   -0.54940E-07   312   0.538E-03
 129 F= -.75859631E+02 E0= -.75859631E+02  d E =0.197064E-04
 BRION: g(F)=  0.727E-02 g(S)=  0.000E+00 retain N=  2 mean eig= 2.02
 eig:   2.633  1.412
 bond charge predicted
       N       E                     dE             d eps       ncg     rms          rms(c)
DAV:   1    -0.758596164809E+02    0.14100E-04   -0.62523E-04   512   0.172E-01    0.793E-03
DAV:   2    -0.758596177746E+02   -0.12937E-05   -0.14943E-05   696   0.223E-02    0.295E-03
DAV:   3    -0.758596179091E+02   -0.13452E-06   -0.26679E-07   264   0.360E-03
 130 F= -.75859618E+02 E0= -.75859618E+02  d E =0.128312E-04
 BRION: g(F)=  0.710E-02 g(S)=  0.000E+00 retain N=  3 mean eig= 3.66
 eig:   5.334  5.334  0.315
 bond charge predicted
       N       E                     dE             d eps       ncg     rms          rms(c)
DAV:   1    -0.758596088841E+02    0.88906E-05   -0.34017E-04   512   0.127E-01    0.594E-03
DAV:   2    -0.758596095726E+02   -0.68853E-06   -0.81696E-06   608   0.164E-02
 131 F= -.75859610E+02 E0= -.75859610E+02  d E =0.833655E-05
 BRION: g(F)=  0.689E-02 g(S)=  0.000E+00 retain N=  3 mean eig= 2.66
 eig:   0.275  3.846  3.846
 bond charge predicted
       N       E                     dE             d eps       ncg     rms          rms(c)
DAV:   1    -0.758596033708E+02    0.55133E-05   -0.35075E-04   512   0.131E-01    0.632E-03
DAV:   2    -0.758596040187E+02   -0.64795E-06   -0.86433E-06   568   0.168E-02
 132 F= -.75859604E+02 E0= -.75859604E+02  d E =0.555389E-05
 BRION: g(F)=  0.689E-02 g(S)=  0.000E+00 retain N=  3 mean eig= 2.45
 eig:   3.015  0.550  3.795
 bond charge predicted
       N       E                     dE             d eps       ncg     rms          rms(c)
DAV:   1    -0.758595800643E+02    0.23306E-04   -0.21533E-03   512   0.319E-01    0.154E-02
DAV:   2    -0.758595845549E+02   -0.44905E-05   -0.52090E-05   672   0.419E-02    0.643E-03
DAV:   3    -0.758595849350E+02   -0.38011E-06   -0.10180E-06   400   0.760E-03
 133 F= -.75859585E+02 E0= -.75859585E+02  d E =0.190837E-04
 BRION: g(F)=  0.679E-02 g(S)=  0.000E+00 retain N=  3 mean eig= 3.11
 eig:   4.022  0.116  5.205
 bond charge predicted
       N       E                     dE             d eps       ncg     rms          rms(c)
DAV:   1    -0.758595300226E+02    0.54532E-04   -0.89922E-03   512   0.655E-01    0.295E-02
DAV:   2    -0.758595494719E+02   -0.19449E-04   -0.21271E-04   656   0.830E-02    0.111E-02
DAV:   3    -0.758595501778E+02   -0.70598E-06   -0.44907E-06   680   0.140E-02
 134 F= -.75859550E+02 E0= -.75859550E+02  d E =0.347571E-04
 BRION: g(F)=  0.598E-02 g(S)=  0.000E+00 retain N=  3 mean eig= 3.13
 eig:   3.741  3.741  1.918
 bond charge predicted
       N       E                     dE             d eps       ncg     rms          rms(c)
DAV:   1    -0.758595295390E+02    0.19933E-04   -0.31778E-03   512   0.391E-01    0.178E-02
DAV:   2    -0.758595359777E+02   -0.64386E-05   -0.74717E-05   680   0.497E-02    0.696E-03
DAV:   3    -0.758595365211E+02   -0.54344E-06   -0.17385E-06   472   0.858E-03
 135 F= -.75859537E+02 E0= -.75859537E+02  d E =0.136567E-04
 BRION: g(F)=  0.529E-02 g(S)=  0.000E+00 retain N=  4 mean eig= 5.72
 eig:   2.358  7.980  7.980  4.556
 bond charge predicted
       N       E                     dE             d eps       ncg     rms          rms(c)
DAV:   1    -0.758595546551E+02   -0.18677E-04   -0.15320E-03   512   0.280E-01    0.105E-02
DAV:   2    -0.758595571212E+02   -0.24662E-05   -0.38581E-05   592   0.360E-02    0.672E-03
DAV:   3    -0.758595569525E+02    0.16875E-06   -0.13052E-06   408   0.834E-03
 136 F= -.75859557E+02 E0= -.75859557E+02  d E =-.204314E-04
 BRION: g(F)=  0.626E-02 g(S)=  0.000E+00 retain N=  3 mean eig= 4.66
 eig:   7.410  6.458  0.113
 bond charge predicted
       N       E                     dE             d eps       ncg     rms          rms(c)
DAV:   1    -0.758594814485E+02    0.75673E-04   -0.15744E-02   512   0.866E-01    0.393E-02
DAV:   2    -0.758595166811E+02   -0.35233E-04   -0.38590E-04   656   0.111E-01    0.160E-02
DAV:   3    -0.758595165825E+02    0.98579E-07   -0.91190E-06   728   0.206E-02
 137 F= -.75859517E+02 E0= -.75859517E+02  d E =0.403699E-04
 BRION: g(F)=  0.574E-02 g(S)=  0.000E+00 retain N=  3 mean eig= 3.96
 eig:   5.175  3.357  3.357
 bond charge predicted
       N       E                     dE             d eps       ncg     rms          rms(c)
DAV:   1    -0.758595281691E+02   -0.11488E-04   -0.11676E-03   512   0.240E-01    0.120E-02
DAV:   2    -0.758595305250E+02   -0.23559E-05   -0.26964E-05   704   0.316E-02    0.556E-03
DAV:   3    -0.758595309195E+02   -0.39448E-06   -0.52912E-07   368   0.546E-03
 138 F= -.75859531E+02 E0= -.75859531E+02  d E =-.143369E-04
 BRION: g(F)=  0.373E-02 g(S)=  0.000E+00 retain N=  3 mean eig= 4.17
 eig:   4.113  0.550  7.834
 bond charge predicted
       N       E                     dE             d eps       ncg     rms          rms(c)
DAV:   1    -0.758595432232E+02   -0.12698E-04   -0.12560E-03   512   0.243E-01    0.106E-02
DAV:   2    -0.758595448486E+02   -0.16255E-05   -0.33315E-05   592   0.330E-02    0.739E-03
DAV:   3    -0.758595447337E+02    0.11498E-06   -0.14736E-06   440   0.799E-03
 139 F= -.75859545E+02 E0= -.75859545E+02  d E =-.138142E-04
 BRION: g(F)=  0.354E-02 g(S)=  0.000E+00 retain N=  2 mean eig= 1.74
 eig:   0.394  3.077
 bond charge predicted
       N       E                     dE             d eps       ncg     rms          rms(c)
DAV:   1    -0.758595489584E+02   -0.41098E-05   -0.84659E-04   512   0.198E-01    0.981E-03
DAV:   2    -0.758595510859E+02   -0.21274E-05   -0.22547E-05   696   0.270E-02    0.406E-03
DAV:   3    -0.758595510755E+02    0.10357E-07   -0.38200E-07   272   0.508E-03
 140 F= -.75859551E+02 E0= -.75859551E+02  d E =-.634184E-05
 BRION: g(F)=  0.412E-02 g(S)=  0.000E+00 retain N=  3 mean eig= 1.56
 eig:   3.072  0.497  1.107
 bond charge predicted
       N       E                     dE             d eps       ncg     rms          rms(c)
DAV:   1    -0.758595573214E+02   -0.62356E-05   -0.15369E-04   528   0.856E-02    0.436E-03
DAV:   2    -0.758595575525E+02   -0.23106E-06   -0.35000E-06   608   0.113E-02
 141 F= -.75859558E+02 E0= -.75859558E+02  d E =-.647701E-05
 BRION: g(F)=  0.281E-02 g(S)=  0.000E+00 retain N=  2 mean eig= 0.78
 eig:   0.780  0.780
 bond charge predicted
       N       E                     dE             d eps       ncg     rms          rms(c)
DAV:   1    -0.758595589682E+02   -0.16468E-05   -0.39403E-04   528   0.129E-01    0.595E-03
DAV:   2    -0.758595594045E+02   -0.43624E-06   -0.10182E-05   584   0.175E-02    0.401E-03
DAV:   3    -0.758595593870E+02    0.17440E-07   -0.47919E-07   264   0.428E-03
 142 F= -.75859559E+02 E0= -.75859559E+02  d E =-.183450E-05
 BRION: g(F)=  0.309E-02 g(S)=  0.000E+00 retain N=  3 mean eig= 0.83
 eig:   1.000  1.000  0.482
 bond charge predicted
       N       E                     dE             d eps       ncg     rms          rms(c)
DAV:   1    -0.758595631201E+02   -0.37156E-05   -0.80492E-05   512   0.610E-02    0.335E-03
DAV:   2    -0.758595633004E+02   -0.18028E-06   -0.19361E-06   360   0.839E-03
 143 F= -.75859563E+02 E0= -.75859563E+02  d E =-.391335E-05
 BRION: g(F)=  0.246E-02 g(S)=  0.000E+00 retain N=  3 mean eig= 2.32
 eig:   0.383  0.383  6.187
 bond charge predicted
       N       E                     dE             d eps       ncg     rms          rms(c)
DAV:   1    -0.758595679826E+02   -0.48625E-05   -0.21375E-04   512   0.976E-02    0.567E-03
DAV:   2    -0.758595683145E+02   -0.33184E-06   -0.53999E-06   600   0.137E-02
 144 F= -.75859568E+02 E0= -.75859568E+02  d E =-.501411E-05
 BRION: g(F)=  0.243E-02 g(S)=  0.000E+00 retain N=  2 mean eig= 0.27
 eig:   0.271  0.264
 bond charge predicted
       N       E                     dE             d eps       ncg     rms          rms(c)
DAV:   1    -0.758595709390E+02   -0.29564E-05   -0.12173E-04   512   0.769E-02    0.473E-03
DAV:   2    -0.758595712147E+02   -0.27566E-06   -0.33760E-06   400   0.104E-02
 145 F= -.75859571E+02 E0= -.75859571E+02  d E =-.290021E-05
 BRION: g(F)=  0.242E-02 g(S)=  0.000E+00 retain N=  3 mean eig= 0.42
 eig:   0.507  0.383  0.383
 bond charge predicted
       N       E                     dE             d eps       ncg     rms          rms(c)
DAV:   1    -0.758595737572E+02   -0.28181E-05   -0.68825E-05   512   0.575E-02    0.336E-03
DAV:   2    -0.758595738621E+02   -0.10492E-06   -0.15099E-06   328   0.769E-03
 146 F= -.75859574E+02 E0= -.75859574E+02  d E =-.264740E-05
 BRION: g(F)=  0.234E-02 g(S)=  0.000E+00 retain N=  4 mean eig= 1.14
 eig:   3.336  0.506  0.366  0.366
 bond charge predicted
       N       E                     dE             d eps       ncg     rms          rms(c)
DAV:   1    -0.758595770857E+02   -0.33285E-05   -0.92311E-05   512   0.655E-02    0.378E-03
DAV:   2    -0.758595772475E+02   -0.16184E-06   -0.21090E-06   440   0.898E-03
 147 F= -.75859577E+02 E0= -.75859577E+02  d E =-.338540E-05
 BRION: g(F)=  0.233E-02 g(S)=  0.000E+00 retain N=  3 mean eig= 1.44
 eig:   0.711  0.410  3.194
 bond charge predicted
       N       E                     dE             d eps       ncg     rms          rms(c)
DAV:   1    -0.758595792174E+02   -0.21318E-05   -0.38959E-05   544   0.431E-02    0.267E-03
DAV:   2    -0.758595792894E+02   -0.71952E-07   -0.88469E-07   328   0.583E-03
 148 F= -.75859579E+02 E0= -.75859579E+02  d E =-.204189E-05
 BRION: g(F)=  0.233E-02 g(S)=  0.000E+00 retain N=  3 mean eig= 0.61
 eig:   0.293  0.770  0.770
 bond charge predicted
       N       E                     dE             d eps       ncg     rms          rms(c)
DAV:   1    -0.758595807851E+02   -0.15676E-05   -0.21250E-05   512   0.312E-02    0.207E-03
DAV:   2    -0.758595808300E+02   -0.44972E-07   -0.45730E-07   256   0.441E-03
 149 F= -.75859581E+02 E0= -.75859581E+02  d E =-.154064E-05
 BRION: g(F)=  0.235E-02 g(S)=  0.000E+00 retain N=  3 mean eig= 2.81
 eig:   6.677  1.492  0.258
 bond charge predicted
       N       E                     dE             d eps       ncg     rms          rms(c)
DAV:   1    -0.758595811950E+02   -0.40991E-06   -0.12063E-06   320   0.737E-03    0.774E-04
DAV:   2    -0.758595812178E+02   -0.22811E-07   -0.90160E-08   256   0.255E-03
 150 F= -.75859581E+02 E0= -.75859581E+02  d E =-.387753E-06
 BRION: g(F)=  0.235E-02 g(S)=  0.000E+00 retain N=  4 mean eig= 2.64
 eig:   7.267  2.470  0.540  0.271
 bond charge predicted
       N       E                     dE             d eps       ncg     rms          rms(c)
DAV:   1    -0.758595807327E+02    0.46231E-06   -0.94657E-06   496   0.209E-02    0.872E-04
DAV:   2    -0.758595807587E+02   -0.25997E-07   -0.21605E-07   256   0.267E-03
 151 F= -.75859581E+02 E0= -.75859581E+02  d E =0.459124E-06
 BRION: g(F)=  0.237E-02 g(S)=  0.000E+00 retain N=  4 mean eig= 1.57
 eig:   3.767  1.610  0.375  0.526
 bond charge predicted
       N       E                     dE             d eps       ncg     rms          rms(c)
DAV:   1    -0.758595801329E+02    0.59980E-06   -0.18927E-05   520   0.304E-02    0.144E-03
DAV:   2    -0.758595801443E+02   -0.11454E-07   -0.43549E-07   272   0.438E-03
 152 F= -.75859580E+02 E0= -.75859580E+02  d E =0.614346E-06
 BRION: g(F)=  0.243E-02 g(S)=  0.000E+00 retain N=  2 mean eig= 0.26
 eig:   0.258  0.258
 bond charge predicted
       N       E                     dE             d eps       ncg     rms          rms(c)
DAV:   1    -0.758595856421E+02   -0.55092E-05   -0.32617E-04   512   0.125E-01    0.561E-03
DAV:   2    -0.758595862829E+02   -0.64078E-06   -0.78712E-06   632   0.168E-02
 153 F= -.75859586E+02 E0= -.75859586E+02  d E =-.613857E-05
 BRION: g(F)=  0.245E-02 g(S)=  0.000E+00 retain N=  3 mean eig= 2.04
 eig:   0.482  0.482  5.164
 bond charge predicted
       N       E                     dE             d eps       ncg     rms          rms(c)
DAV:   1    -0.758595894996E+02   -0.38575E-05   -0.83988E-05   512   0.614E-02    0.418E-03
DAV:   2    -0.758595896426E+02   -0.14304E-06   -0.19600E-06   328   0.900E-03
 154 F= -.75859590E+02 E0= -.75859590E+02  d E =-.335977E-05
 BRION: g(F)=  0.247E-02 g(S)=  0.000E+00 retain N=  4 mean eig= 2.21
 eig:   7.444  0.415  0.415  0.569
 bond charge predicted
       N       E                     dE             d eps       ncg     rms          rms(c)
DAV:   1    -0.758595893369E+02    0.16268E-06   -0.17388E-06   416   0.917E-03    0.106E-03
DAV:   2    -0.758595893875E+02   -0.50570E-07   -0.98851E-08   256   0.208E-03
 155 F= -.75859589E+02 E0= -.75859589E+02  d E =0.255150E-06
 BRION: g(F)=  0.250E-02 g(S)=  0.000E+00 retain N=  4 mean eig= 2.58
 eig:   6.200  3.211  0.306  0.605
 bond charge predicted
       N       E                     dE             d eps       ncg     rms          rms(c)
DAV:   1    -0.758595812118E+02    0.81251E-05   -0.98756E-04   512   0.228E-01    0.705E-03
DAV:   2    -0.758595828316E+02   -0.16198E-05   -0.24285E-05   680   0.287E-02    0.563E-03
DAV:   3    -0.758595826689E+02    0.16268E-06   -0.67936E-07   256   0.587E-03
 156 F= -.75859583E+02 E0= -.75859583E+02  d E =0.671859E-05
 BRION: g(F)=  0.272E-02 g(S)=  0.000E+00 retain N=  5 mean eig= 2.76
 eig:   6.960  5.229  0.632  0.484  0.484
 bond charge predicted
       N       E                     dE             d eps       ncg     rms          rms(c)
DAV:   1    -0.758595731387E+02    0.96929E-05   -0.14863E-03   512   0.276E-01    0.884E-03
DAV:   2    -0.758595752942E+02   -0.21555E-05   -0.35104E-05   664   0.348E-02    0.686E-03
DAV:   3    -0.758595749363E+02    0.35786E-06   -0.82889E-07   432   0.697E-03
 157 F= -.75859575E+02 E0= -.75859575E+02  d E =0.773262E-05
 BRION: g(F)=  0.276E-02 g(S)=  0.000E+00 retain N=  5 mean eig= 2.17
 eig:   6.378  2.995  0.136  0.675  0.675
 bond charge predicted
       N       E                     dE             d eps       ncg     rms          rms(c)
DAV:   1    -0.758595718614E+02    0.34328E-05   -0.13214E-03   512   0.250E-01    0.115E-02
DAV:   2    -0.758595739522E+02   -0.20908E-05   -0.35388E-05   624   0.345E-02    0.833E-03
DAV:   3    -0.758595737967E+02    0.15544E-06   -0.13049E-06   400   0.730E-03
 158 F= -.75859574E+02 E0= -.75859574E+02  d E =0.113956E-05
 BRION: g(F)=  0.274E-02 g(S)=  0.000E+00 retain N=  6 mean eig= 2.72
 eig:   7.015  6.038  1.281  1.281  0.463  0.243
 bond charge predicted
       N       E                     dE             d eps       ncg     rms          rms(c)
DAV:   1    -0.758595760780E+02   -0.21259E-05   -0.36837E-04   512   0.142E-01    0.461E-03
DAV:   2    -0.758595764468E+02   -0.36878E-06   -0.76331E-06   656   0.166E-02
 159 F= -.75859576E+02 E0= -.75859576E+02  d E =-.265008E-05
 BRION: g(F)=  0.277E-02 g(S)=  0.000E+00 retain N=  6 mean eig= 2.54
 eig:   6.727  3.272  2.056  2.056  0.572  0.572
 bond charge predicted
       N       E                     dE             d eps       ncg     rms          rms(c)
DAV:   1    -0.758595942963E+02   -0.18218E-04   -0.18420E-03   512   0.307E-01    0.140E-02
DAV:   2    -0.758595977877E+02   -0.34913E-05   -0.45986E-05   688   0.405E-02    0.637E-03
DAV:   3    -0.758595976882E+02    0.99475E-07   -0.13863E-06   328   0.849E-03
 160 F= -.75859598E+02 E0= -.75859598E+02  d E =-.212414E-04
 BRION: g(F)=  0.318E-02 g(S)=  0.000E+00 retain N=  7 mean eig= 2.85
 eig:   6.315  7.429  2.246  2.246  0.397  0.767  0.538
 bond charge predicted
       N       E                     dE             d eps       ncg     rms          rms(c)
DAV:   1    -0.758596014968E+02   -0.37091E-05   -0.36424E-04   512   0.139E-01    0.565E-03
DAV:   2    -0.758596021752E+02   -0.67838E-06   -0.87146E-06   664   0.180E-02
 161 F= -.75859602E+02 E0= -.75859602E+02  d E =-.448697E-05
 BRION: g(F)=  0.229E-02 g(S)=  0.000E+00 retain N=  7 mean eig= 2.15
 eig:   5.804  2.643  2.643  1.246  1.246  0.975  0.467
 bond charge predicted
       N       E                     dE             d eps       ncg     rms          rms(c)
DAV:   1    -0.758596052238E+02   -0.37270E-05   -0.19586E-04   520   0.960E-02    0.665E-03
DAV:   2    -0.758596058174E+02   -0.59358E-06   -0.61911E-06   576   0.143E-02
 162 F= -.75859606E+02 E0= -.75859606E+02  d E =-.364222E-05
 BRION: g(F)=  0.219E-02 g(S)=  0.000E+00 retain N=  8 mean eig= 2.82
 eig:   5.022  5.022  4.906  4.906  0.341  0.341  1.023  1.023
 bond charge predicted
       N       E                     dE             d eps       ncg     rms          rms(c)
DAV:   1    -0.758596036204E+02    0.16034E-05   -0.17447E-05   512   0.302E-02    0.156E-03
DAV:   2    -0.758596037182E+02   -0.97855E-07   -0.36381E-07   256   0.391E-03
 163 F= -.75859604E+02 E0= -.75859604E+02  d E =0.209913E-05
 BRION: g(F)=  0.225E-02 g(S)=  0.000E+00 retain N=  8 mean eig= 3.00
 eig:   6.281  6.281  5.302  1.824  1.824  1.279  0.603  0.603
 bond charge predicted
       N       E                     dE             d eps       ncg     rms          rms(c)
DAV:   1    -0.758596277757E+02   -0.24155E-04   -0.81406E-03   512   0.654E-01    0.201E-02
DAV:   2    -0.758596409313E+02   -0.13156E-04   -0.17284E-04   664   0.752E-02    0.118E-02
DAV:   3    -0.758596403280E+02    0.60331E-06   -0.44525E-06   664   0.131E-02
 164 F= -.75859640E+02 E0= -.75859640E+02  d E =-.366097E-04
 BRION: g(F)=  0.213E-02 g(S)=  0.000E+00 retain N=  7 mean eig= 1.64
 eig:   3.561  3.561  0.678  0.678  0.711  1.061  1.262
 bond charge predicted
       N       E                     dE             d eps       ncg     rms          rms(c)
DAV:   1    -0.758596451296E+02   -0.41984E-05   -0.19843E-04   520   0.105E-01    0.411E-03
DAV:   2    -0.758596451782E+02   -0.48580E-07   -0.31524E-06   616   0.119E-02
 165 F= -.75859645E+02 E0= -.75859645E+02  d E =-.485025E-05
 BRION: g(F)=  0.194E-02 g(S)=  0.000E+00 retain N=  8 mean eig= 1.92
 eig:   3.996  3.996  1.078  1.078  1.547  1.547  0.888  1.250
 bond charge predicted
       N       E                     dE             d eps       ncg     rms          rms(c)
DAV:   1    -0.758596562982E+02   -0.11169E-04   -0.55015E-04   512   0.168E-01    0.554E-03
DAV:   2    -0.758596571302E+02   -0.83201E-06   -0.11998E-05   616   0.198E-02    0.413E-03
DAV:   3    -0.758596571366E+02   -0.63985E-08   -0.24740E-07   296   0.441E-03
 166 F= -.75859657E+02 E0= -.75859657E+02  d E =-.119584E-04
 BRION: g(F)=  0.180E-02 g(S)=  0.000E+00 retain N=  8 mean eig= 2.89
 eig:   7.153  7.153  2.504  2.504  0.386  0.847  1.377  1.203
 bond charge predicted
       N       E                     dE             d eps       ncg     rms          rms(c)
DAV:   1    -0.758596721450E+02   -0.15015E-04   -0.25672E-03   512   0.366E-01    0.119E-02
DAV:   2    -0.758596759956E+02   -0.38506E-05   -0.55623E-05   592   0.423E-02    0.799E-03
DAV:   3    -0.758596759278E+02    0.67779E-07   -0.17563E-06   520   0.823E-03
 167 F= -.75859676E+02 E0= -.75859676E+02  d E =-.187912E-04
 BRION: g(F)=  0.169E-02 g(S)=  0.000E+00 retain N=  8 mean eig= 3.02
 eig:   6.497  5.606  5.606  1.811  1.811  0.886  0.886  1.041
 bond charge predicted
       N       E                     dE             d eps       ncg     rms          rms(c)
DAV:   1    -0.758596957981E+02   -0.19803E-04   -0.35404E-03   512   0.433E-01    0.128E-02
DAV:   2    -0.758597011739E+02   -0.53758E-05   -0.72737E-05   656   0.502E-02    0.981E-03
DAV:   3    -0.758597008913E+02    0.28259E-06   -0.17988E-06   560   0.103E-02
 168 F= -.75859701E+02 E0= -.75859701E+02  d E =-.249635E-04
 BRION: g(F)=  0.154E-02 g(S)=  0.000E+00 retain N=  8 mean eig= 3.37
 eig:   7.432  7.432  5.949  1.174  1.222  1.222  1.275  1.275
 bond charge predicted
       N       E                     dE             d eps       ncg     rms          rms(c)
DAV:   1    -0.758597239711E+02   -0.22797E-04   -0.40918E-03   512   0.468E-01    0.161E-02
DAV:   2    -0.758597301988E+02   -0.62277E-05   -0.88116E-05   616   0.547E-02    0.994E-03
DAV:   3    -0.758597301308E+02    0.68023E-07   -0.31914E-06   648   0.107E-02
 169 F= -.75859730E+02 E0= -.75859730E+02  d E =-.292395E-04
 BRION: g(F)=  0.137E-02 g(S)=  0.000E+00 retain N=  8 mean eig= 3.41
 eig:   7.849  7.849  2.658  2.658  2.847  1.150  1.150  1.127
 bond charge predicted
       N       E                     dE             d eps       ncg     rms          rms(c)
DAV:   1    -0.758597606557E+02   -0.30457E-04   -0.10392E-02   512   0.747E-01    0.245E-02
DAV:   2    -0.758597773265E+02   -0.16671E-04   -0.21968E-04   648   0.877E-02    0.153E-02
DAV:   3    -0.758597771155E+02    0.21107E-06   -0.67280E-06   736   0.162E-02
 170 F= -.75859777E+02 E0= -.75859777E+02  d E =-.469847E-04
 BRION: g(F)=  0.136E-02 g(S)=  0.000E+00 retain N=  3 mean eig= 4.44
 eig:   1.457  5.932  5.932
 bond charge predicted
       N       E                     dE             d eps       ncg     rms          rms(c)
DAV:   1    -0.758597997539E+02   -0.22427E-04   -0.15836E-03   512   0.288E-01    0.119E-02
DAV:   2    -0.758598022251E+02   -0.24712E-05   -0.32829E-05   672   0.349E-02    0.679E-03
DAV:   3    -0.758598025151E+02   -0.29005E-06   -0.90421E-07   416   0.650E-03
 171 F= -.75859803E+02 E0= -.75859803E+02  d E =-.253997E-04
 BRION: g(F)=  0.132E-02 g(S)=  0.000E+00 retain N=  3 mean eig= 2.82
 eig:   4.208  4.208  0.045
 bond charge predicted
       N       E                     dE             d eps       ncg     rms          rms(c)
DAV:   1    -0.758598278593E+02   -0.25634E-04   -0.29493E-03   512   0.393E-01    0.152E-02
DAV:   2    -0.758598331781E+02   -0.53188E-05   -0.66012E-05   640   0.480E-02    0.787E-03
DAV:   3    -0.758598331688E+02    0.92598E-08   -0.14570E-06   488   0.863E-03
 172 F= -.75859833E+02 E0= -.75859833E+02  d E =-.306537E-04
 BRION: g(F)=  0.125E-02 g(S)=  0.000E+00 retain N=  4 mean eig= 3.34
 eig:   5.537  5.537  1.806  0.493
 bond charge predicted
       N       E                     dE             d eps       ncg     rms          rms(c)
DAV:   1    -0.758598657097E+02   -0.32532E-04   -0.19871E-02   512   0.102E+00    0.374E-02
DAV:   2    -0.758599019303E+02   -0.36221E-04   -0.44050E-04   640   0.123E-01    0.198E-02
DAV:   3    -0.758599015120E+02    0.41832E-06   -0.12371E-05   752   0.223E-02    0.137E-02
DAV:   4    -0.758599041021E+02   -0.25902E-05   -0.14505E-05   664   0.273E-02    0.644E-03
DAV:   5    -0.758599042801E+02   -0.17799E-06   -0.33814E-06   584   0.111E-02
 173 F= -.75859904E+02 E0= -.75859904E+02  d E =-.711113E-04
 BRION: g(F)=  0.112E-02 g(S)=  0.000E+00 retain N=  3 mean eig= 3.26
 eig:   0.391  4.694  4.694
 bond charge predicted
       N       E                     dE             d eps       ncg     rms          rms(c)
DAV:   1    -0.758599388653E+02   -0.34763E-04   -0.10196E-02   512   0.721E-01    0.312E-02
DAV:   2    -0.758599597526E+02   -0.20887E-04   -0.24973E-04   656   0.930E-02    0.150E-02
DAV:   3    -0.758599599568E+02   -0.20424E-06   -0.69924E-06   688   0.175E-02
 174 F= -.75859960E+02 E0= -.75859960E+02  d E =-.556767E-04
 BRION: g(F)=  0.111E-02 g(S)=  0.000E+00 retain N=  4 mean eig= 3.15
 eig:   5.603  5.603  0.374  1.015
 bond charge predicted
       N       E                     dE             d eps       ncg     rms          rms(c)
DAV:   1    -0.758599901715E+02   -0.30419E-04   -0.31948E-03   512   0.408E-01    0.167E-02
DAV:   2    -0.758599956586E+02   -0.54870E-05   -0.67921E-05   688   0.506E-02    0.802E-03
DAV:   3    -0.758599961852E+02   -0.52665E-06   -0.17824E-06   512   0.902E-03
 175 F= -.75859996E+02 E0= -.75859996E+02  d E =-.362284E-04
 BRION: g(F)=  0.951E-03 g(S)=  0.000E+00 retain N=  3 mean eig= 3.94
 eig:   5.065  5.065  1.693
 bond charge predicted
       N       E                     dE             d eps       ncg     rms          rms(c)
DAV:   1    -0.758600267510E+02   -0.31092E-04   -0.33963E-02   512   0.132E+00    0.557E-02
DAV:   2    -0.758600941857E+02   -0.67435E-04   -0.79235E-04   664   0.167E-01    0.276E-02
DAV:   3    -0.758600935570E+02    0.62872E-06   -0.20681E-05   736   0.299E-02    0.185E-02
DAV:   4    -0.758600981923E+02   -0.46354E-05   -0.24224E-05   600   0.333E-02    0.716E-03
DAV:   5    -0.758600984547E+02   -0.26236E-06   -0.56249E-06   608   0.137E-02
 176 F= -.75860098E+02 E0= -.75860098E+02  d E =-.102269E-03
 BRION: g(F)=  0.852E-03 g(S)=  0.000E+00 retain N=  3 mean eig= 5.12
 eig:   6.982  6.982  1.409
 bond charge predicted
       N       E                     dE             d eps       ncg     rms          rms(c)
DAV:   1    -0.758601311660E+02   -0.32974E-04   -0.45455E-03   512   0.472E-01    0.229E-02
DAV:   2    -0.758601410471E+02   -0.98811E-05   -0.11347E-04   680   0.635E-02    0.102E-02
DAV:   3    -0.758601416132E+02   -0.56609E-06   -0.30221E-06   608   0.129E-02
 177 F= -.75860142E+02 E0= -.75860142E+02  d E =-.431585E-04
 BRION: g(F)=  0.787E-03 g(S)=  0.000E+00 retain N=  3 mean eig= 2.20
 eig:   3.223  3.223  0.162
 bond charge predicted
       N       E                     dE             d eps       ncg     rms          rms(c)
DAV:   1    -0.758601759746E+02   -0.34927E-04   -0.54042E-03   512   0.520E-01    0.238E-02
DAV:   2    -0.758601862196E+02   -0.10245E-04   -0.12206E-04   672   0.662E-02    0.108E-02
DAV:   3    -0.758601868224E+02   -0.60285E-06   -0.35262E-06   624   0.119E-02
 178 F= -.75860187E+02 E0= -.75860187E+02  d E =-.452092E-04
 BRION: g(F)=  0.750E-03 g(S)=  0.000E+00 retain N=  4 mean eig= 3.79
 eig:   6.475  6.475  1.098  1.098
 bond charge predicted
       N       E                     dE             d eps       ncg     rms          rms(c)
DAV:   1    -0.758602181562E+02   -0.31937E-04   -0.64021E-03   512   0.571E-01    0.252E-02
DAV:   2    -0.758602301025E+02   -0.11946E-04   -0.14671E-04   664   0.719E-02    0.121E-02
DAV:   3    -0.758602303702E+02   -0.26775E-06   -0.43135E-06   664   0.133E-02
 179 F= -.75860230E+02 E0= -.75860230E+02  d E =-.435478E-04
 BRION: g(F)=  0.616E-03 g(S)=  0.000E+00 retain N=  3 mean eig= 2.17
 eig:   2.952  2.952  0.619
 bond charge predicted
       N       E                     dE             d eps       ncg     rms          rms(c)
DAV:   1    -0.758602671243E+02   -0.37022E-04   -0.60212E-03   512   0.546E-01    0.262E-02
DAV:   2    -0.758602784455E+02   -0.11321E-04   -0.13591E-04   704   0.708E-02    0.119E-02
DAV:   3    -0.758602790408E+02   -0.59537E-06   -0.32270E-06   592   0.125E-02
 180 F= -.75860279E+02 E0= -.75860279E+02  d E =-.486706E-04
 BRION: g(F)=  0.490E-03 g(S)=  0.000E+00 retain N=  3 mean eig= 4.24
 eig:   5.812  5.812  1.091
 bond charge predicted
       N       E                     dE             d eps       ncg     rms          rms(c)
DAV:   1    -0.758603028261E+02   -0.24381E-04   -0.14297E-03   512   0.262E-01    0.133E-02
DAV:   2    -0.758603055130E+02   -0.26868E-05   -0.32709E-05   672   0.343E-02    0.573E-03
DAV:   3    -0.758603059606E+02   -0.44761E-06   -0.90152E-07   368   0.674E-03
 181 F= -.75860306E+02 E0= -.75860306E+02  d E =-.269197E-04
 BRION: g(F)=  0.462E-03 g(S)=  0.000E+00 retain N=  3 mean eig= 4.21
 eig:   1.141  5.742  5.742
 reached required accuracy - stopping structural energy minimisation
