Al   C    Se   H                        
   1.0000000000000000     
     6.0191999999999997    0.0000000000000000    0.0000000000000000
     0.0000000000000000   10.1400000000000006    0.0000000000000000
     0.0000000000000000    0.0000000000000000   15.0000000000000000
   Al   C    Se   H 
     8     4     1     2
Selective dynamics
Direct
  0.4169698513768481  0.8637327109709929  0.2347363550068806   T   T   T
  0.9156732214235461  0.8640055973441605  0.2463910373511311   T   T   T
  0.4247710609337076  0.6047037775050725  0.2479171417364086   T   T   T
  0.9087322817476675  0.6102946186459661  0.2613481380604483   T   T   T
  0.4391875935041085  0.3577759802786957  0.2950237441777119   T   T   T
  0.9180500082887164  0.3597439869141255  0.2615074973077114   T   T   T
  0.4172625712736462  0.1081818067160043  0.2521515457217234   T   T   T
  0.9169456590503415  0.1059760441300241  0.2419530579352838   T   T   T
  0.1672668514893800  0.9840016998857308  0.2451662847058742   T   T   T
  0.6664171775524395  0.9844254799520655  0.2376963460811652   T   T   T
  0.1689821334695694  0.4889126084994828  0.2905614458498178   T   T   T
  0.6718942681505098  0.4837523884783508  0.2465500630127337   T   T   T
  0.5570747729737420  0.3543330951801025  0.4505947552261418   T   T   T
  0.3849447880098538  0.2627616751185613  0.4857942813605547   T   T   T
  0.1683275004293705  0.5022198742380652  0.3644899283083802   T   T   T

  0.00000000E+00  0.00000000E+00  0.00000000E+00
  0.00000000E+00  0.00000000E+00  0.00000000E+00
  0.00000000E+00  0.00000000E+00  0.00000000E+00
  0.00000000E+00  0.00000000E+00  0.00000000E+00
  0.00000000E+00  0.00000000E+00  0.00000000E+00
  0.00000000E+00  0.00000000E+00  0.00000000E+00
  0.00000000E+00  0.00000000E+00  0.00000000E+00
  0.00000000E+00  0.00000000E+00  0.00000000E+00
  0.00000000E+00  0.00000000E+00  0.00000000E+00
  0.00000000E+00  0.00000000E+00  0.00000000E+00
  0.00000000E+00  0.00000000E+00  0.00000000E+00
  0.00000000E+00  0.00000000E+00  0.00000000E+00
  0.00000000E+00  0.00000000E+00  0.00000000E+00
  0.00000000E+00  0.00000000E+00  0.00000000E+00
  0.00000000E+00  0.00000000E+00  0.00000000E+00
