   15   15  999    1
  0.6103469E+02  0.6019200E-09  0.1014000E-08  0.1500000E-08  0.3500000E-15
   1.0000000000000000E-004
  CAR 
 Al2C                                    
     48      8     32

  0.3742002E-15  0.3742002E-15  0.1262379E-14  0.6666667E-01
    1      -15.145887   1.000000
    2      -14.623613   1.000000
    3      -13.802561   1.000000
    4      -12.766501   1.000000
    5      -11.675594   1.000000
    6       -8.966390   1.000000
    7       -8.893855   1.000000
    8       -8.638096   1.000000
    9       -7.579412   1.000000
   10       -7.160228   1.000000
   11       -6.666364   1.000000
   12       -6.235294   1.000000
   13       -5.882811   1.000000
   14       -5.186632   1.000000
   15       -5.071847   1.000000
   16       -4.718472   1.000000
   17       -4.317407   1.000000
   18       -3.936903   1.000000
   19       -3.789839   1.000000
   20       -3.345682   1.000000
   21       -3.183461   1.000000
   22       -2.946570   1.000000
   23       -2.544703   1.000000
   24       -2.299409   1.000000
   25       -1.564475   0.000000
   26       -1.145806   0.000000
   27       -0.332203   0.000000
   28       -0.064798   0.000000
   29        0.013329   0.000000
   30        0.453408   0.000000
   31        0.585251   0.000000
   32        0.901831   0.000000

  0.2000000E+00  0.3742002E-15  0.1262379E-14  0.1333333E+00
    1      -15.107068   1.000000
    2      -14.591878   1.000000
    3      -13.678577   1.000000
    4      -12.966311   1.000000
    5      -12.056237   1.000000
    6       -8.757956   1.000000
    7       -8.649657   1.000000
    8       -8.081241   1.000000
    9       -7.408609   1.000000
   10       -7.176462   1.000000
   11       -6.645715   1.000000
   12       -6.543923   1.000000
   13       -6.127725   1.000000
   14       -5.330598   1.000000
   15       -4.920940   1.000000
   16       -4.593433   1.000000
   17       -4.313663   1.000000
   18       -4.080370   1.000000
   19       -3.749774   1.000000
   20       -3.653267   1.000000
   21       -3.491643   1.000000
   22       -3.367107   1.000000
   23       -2.773123   1.000000
   24       -2.530107   1.000000
   25       -1.441021   0.000000
   26       -0.399481   0.000000
   27       -0.341696   0.000000
   28        0.055826   0.000000
   29        0.261450   0.000000
   30        0.691784   0.000000
   31        0.713721   0.000000
   32        0.898391   0.000000

  0.4000000E+00  0.3742002E-15  0.1262379E-14  0.1333333E+00
    1      -15.045074   1.000000
    2      -14.512587   1.000000
    3      -13.347261   1.000000
    4      -13.255035   1.000000
    5      -12.728665   1.000000
    6       -8.358945   1.000000
    7       -8.256783   1.000000
    8       -7.641453   1.000000
    9       -7.135250   1.000000
   10       -6.845866   1.000000
   11       -6.667859   1.000000
   12       -6.305407   1.000000
   13       -5.914375   1.000000
   14       -5.813826   1.000000
   15       -5.333493   1.000000
   16       -5.063812   1.000000
   17       -4.968742   1.000000
   18       -4.407069   1.000000
   19       -4.176769   1.000000
   20       -3.685598   1.000000
   21       -3.573611   1.000000
   22       -3.408878   1.000000
   23       -3.010739   1.000000
   24       -2.562897   1.000000
   25       -1.122617   0.000000
   26       -0.669721   0.000000
   27       -0.166329   0.000000
   28        0.624030   0.000000
   29        0.818218   0.000000
   30        1.172716   0.000000
   31        1.265299   0.000000
   32        1.326603   0.000000

  0.3742002E-15  0.3333333E+00  0.1262379E-14  0.1333333E+00
    1      -15.145058   1.000000
    2      -14.622891   1.000000
    3      -13.806327   1.000000
    4      -12.768392   1.000000
    5      -11.676501   1.000000
    6       -8.925648   1.000000
    7       -8.692865   1.000000
    8       -8.632380   1.000000
    9       -7.921519   1.000000
   10       -7.405265   1.000000
   11       -6.926542   1.000000
   12       -5.750967   1.000000
   13       -5.343273   1.000000
   14       -5.261202   1.000000
   15       -4.908501   1.000000
   16       -4.741374   1.000000
   17       -4.269714   1.000000
   18       -3.971081   1.000000
   19       -3.806042   1.000000
   20       -3.677621   1.000000
   21       -3.302497   1.000000
   22       -3.084116   1.000000
   23       -2.946988   1.000000
   24       -2.295889   1.000000
   25       -1.368756   0.000000
   26       -0.752758   0.000000
   27       -0.531754   0.000000
   28       -0.097335   0.000000
   29        0.349261   0.000000
   30        0.468233   0.000000
   31        0.661095   0.000000
   32        0.807417   0.000000

  0.2000000E+00  0.3333333E+00  0.1262379E-14  0.1333333E+00
    1      -15.106487   1.000000
    2      -14.590989   1.000000
    3      -13.681512   1.000000
    4      -12.967934   1.000000
    5      -12.058192   1.000000
    6       -8.673453   1.000000
    7       -8.478338   1.000000
    8       -8.105145   1.000000
    9       -7.742070   1.000000
   10       -7.284137   1.000000
   11       -6.978602   1.000000
   12       -6.391135   1.000000
   13       -5.771765   1.000000
   14       -5.200288   1.000000
   15       -4.723521   1.000000
   16       -4.640216   1.000000
   17       -4.215478   1.000000
   18       -3.941212   1.000000
   19       -3.775504   1.000000
   20       -3.677446   1.000000
   21       -3.564029   1.000000
   22       -3.421557   1.000000
   23       -3.033830   1.000000
   24       -2.761452   1.000000
   25       -1.345482   0.000000
   26       -0.467359   0.000000
   27       -0.343501   0.000000
   28       -0.088306   0.000000
   29        0.366470   0.000000
   30        0.566789   0.000000
   31        0.825661   0.000000
   32        0.984031   0.000000

  0.4000000E+00  0.3333333E+00  0.1262379E-14  0.1333333E+00
    1      -15.044893   1.000000
    2      -14.511845   1.000000
    3      -13.330383   1.000000
    4      -13.273271   1.000000
    5      -12.733669   1.000000
    6       -8.352589   1.000000
    7       -8.054641   1.000000
    8       -7.471294   1.000000
    9       -7.275745   1.000000
   10       -6.977698   1.000000
   11       -6.825181   1.000000
   12       -6.650230   1.000000
   13       -6.387868   1.000000
   14       -5.468086   1.000000
   15       -5.207387   1.000000
   16       -4.728775   1.000000
   17       -4.468087   1.000000
   18       -4.254093   1.000000
   19       -4.101524   1.000000
   20       -3.717246   1.000000
   21       -3.597522   1.000000
   22       -3.498378   1.000000
   23       -3.239868   1.000000
   24       -2.884347   1.000000
   25       -1.172359   0.000000
   26       -0.457495   0.000000
   27       -0.132415   0.000000
   28        0.420133   0.000000
   29        0.634332   0.000000
   30        0.749821   0.000000
   31        0.976206   0.000000
   32        1.371246   0.000000

 -0.4000000E+00  0.3333333E+00  0.1262379E-14  0.1333333E+00
    1      -15.044856   1.000000
    2      -14.511969   1.000000
    3      -13.324891   1.000000
    4      -13.279073   1.000000
    5      -12.733281   1.000000
    6       -8.329381   1.000000
    7       -8.081545   1.000000
    8       -7.493365   1.000000
    9       -7.300370   1.000000
   10       -6.912136   1.000000
   11       -6.824571   1.000000
   12       -6.608624   1.000000
   13       -6.439628   1.000000
   14       -5.454562   1.000000
   15       -5.222308   1.000000
   16       -4.755205   1.000000
   17       -4.452299   1.000000
   18       -4.220355   1.000000
   19       -4.142766   1.000000
   20       -3.751839   1.000000
   21       -3.562960   1.000000
   22       -3.445051   1.000000
   23       -3.292683   1.000000
   24       -2.878755   1.000000
   25       -0.998798   0.000000
   26       -0.696687   0.000000
   27       -0.184315   0.000000
   28        0.507735   0.000000
   29        0.631531   0.000000
   30        0.787963   0.000000
   31        1.102038   0.000000
   32        1.266649   0.000000

 -0.2000000E+00  0.3333333E+00  0.1262379E-14  0.1333333E+00
    1      -15.106431   1.000000
    2      -14.591163   1.000000
    3      -13.681134   1.000000
    4      -12.968372   1.000000
    5      -12.058043   1.000000
    6       -8.659362   1.000000
    7       -8.480436   1.000000
    8       -8.111375   1.000000
    9       -7.790255   1.000000
   10       -7.228465   1.000000
   11       -6.995640   1.000000
   12       -6.366815   1.000000
   13       -5.774393   1.000000
   14       -5.210649   1.000000
   15       -4.740749   1.000000
   16       -4.620865   1.000000
   17       -4.243355   1.000000
   18       -3.946430   1.000000
   19       -3.740775   1.000000
   20       -3.698835   1.000000
   21       -3.561164   1.000000
   22       -3.461361   1.000000
   23       -3.001162   1.000000
   24       -2.758247   1.000000
   25       -1.191496   0.000000
   26       -0.697567   0.000000
   27       -0.346340   0.000000
   28       -0.024217   0.000000
   29        0.344681   0.000000
   30        0.638940   0.000000
   31        0.774547   0.000000
   32        0.965125   0.000000
