       N       E                     dE             d eps       ncg     rms          rms(c)
DAV:   1     0.302876353720E+03    0.30288E+03   -0.13392E+04   512   0.924E+02
DAV:   2    -0.740891159393E+01   -0.31029E+03   -0.29408E+03   744   0.215E+02
DAV:   3    -0.871083707575E+02   -0.79699E+02   -0.78656E+02   832   0.102E+02
DAV:   4    -0.898709463739E+02   -0.27626E+01   -0.27558E+01   656   0.236E+01
DAV:   5    -0.899837794717E+02   -0.11283E+00   -0.11279E+00   832   0.490E+00
DAV:   6    -0.899851631681E+02   -0.13837E-02   -0.13830E-02   664   0.658E-01
DAV:   7    -0.899852551246E+02   -0.91956E-04   -0.91941E-04   848   0.119E-01    0.186E+01
DAV:   8    -0.726460991719E+02    0.17339E+02   -0.71082E+01   616   0.416E+01    0.546E+00
DAV:   9    -0.724041985431E+02    0.24190E+00   -0.56667E+00   640   0.114E+01    0.375E+00
DAV:  10    -0.719063972190E+02    0.49780E+00   -0.15061E+00   752   0.709E+00    0.102E+00
DAV:  11    -0.718586317473E+02    0.47765E-01   -0.13659E-01   672   0.215E+00    0.571E-01
DAV:  12    -0.718537019504E+02    0.49298E-02   -0.18232E-01   728   0.203E+00    0.420E-01
DAV:  13    -0.718478642668E+02    0.58377E-02   -0.26859E-02   728   0.911E-01    0.223E-01
DAV:  14    -0.718431552343E+02    0.47090E-02   -0.30247E-02   720   0.772E-01    0.134E-01
DAV:  15    -0.718436957823E+02   -0.54055E-03   -0.35621E-03   672   0.326E-01    0.984E-02
DAV:  16    -0.718465943013E+02   -0.28985E-02   -0.62517E-03   672   0.395E-01    0.874E-02
DAV:  17    -0.718483512111E+02   -0.17569E-02   -0.14125E-03   664   0.233E-01    0.434E-02
DAV:  18    -0.718494867030E+02   -0.11355E-02   -0.15646E-03   744   0.186E-01    0.423E-02
DAV:  19    -0.718510677017E+02   -0.15810E-02   -0.65060E-04   712   0.140E-01    0.146E-02
DAV:  20    -0.718517775952E+02   -0.70989E-03   -0.12950E-04   616   0.578E-02    0.982E-03
DAV:  21    -0.718524604727E+02   -0.68288E-03   -0.11837E-04   600   0.408E-02    0.739E-03
DAV:  22    -0.718527001734E+02   -0.23970E-03   -0.42353E-05   672   0.293E-02    0.420E-03
DAV:  23    -0.718527760774E+02   -0.75904E-04   -0.11950E-05   576   0.149E-02    0.255E-03
DAV:  24    -0.718527981564E+02   -0.22079E-04   -0.36435E-06   576   0.749E-03    0.152E-03
DAV:  25    -0.718528065770E+02   -0.84206E-05   -0.10206E-06   368   0.535E-03    0.814E-04
DAV:  26    -0.718528116971E+02   -0.51201E-05   -0.14977E-06   448   0.494E-03    0.110E-03
DAV:  27    -0.718528128923E+02   -0.11952E-05   -0.25211E-07   440   0.392E-03    0.381E-04
DAV:  28    -0.718528137660E+02   -0.87372E-06   -0.38829E-07   400   0.318E-03
   1 F= -.71852814E+02 E0= -.71852814E+02  d E =-.718528E+02
