Al   C    Se   H                        
   1.0000000000000000     
     6.0191999999999997    0.0000000000000000    0.0000000000000000
     0.0000000000000000   10.1400000000000006    0.0000000000000000
     0.0000000000000000    0.0000000000000000   15.0000000000000000
   Al   C    Se   H 
     8     4     1     2
Selective dynamics
Direct
  0.4169698513768478  0.8637327109709908  0.2347363550068796   T   T   T
  0.9156732214235479  0.8640055973441626  0.2463910373511339   T   T   T
  0.4247710609337091  0.6047037775050725  0.2479171417364097   T   T   T
  0.9087322817476665  0.6102946186459677  0.2613481380604495   T   T   T
  0.4391875935041074  0.3577759802786930  0.2950237441777105   T   T   T
  0.9180500082887145  0.3597439869141281  0.2615074973077136   T   T   T
  0.4172625712736486  0.1081818067160056  0.2521515457217205   T   T   T
  0.9169456590503406  0.1059760441300221  0.2419530579352837   T   T   T
  0.1672668514893831  0.9840016998857279  0.2451662847058760   T   T   T
  0.6664171775524393  0.9844254799520656  0.2376963460811627   T   T   T
  0.1689821334695727  0.4889126084994863  0.2905614458498174   T   T   T
  0.6718942681505131  0.4837523884783484  0.2465500630127314   T   T   T
  0.5570747729737436  0.3543330951801048  0.4505947552261406   T   T   T
  0.3849447880098535  0.2627616751185634  0.4857942813605546   T   T   T
  0.1683275004293728  0.5022198742380686  0.3644899283083770   T   T   T

  0.00000000E+00  0.00000000E+00  0.00000000E+00
  0.00000000E+00  0.00000000E+00  0.00000000E+00
  0.00000000E+00  0.00000000E+00  0.00000000E+00
  0.00000000E+00  0.00000000E+00  0.00000000E+00
  0.00000000E+00  0.00000000E+00  0.00000000E+00
  0.00000000E+00  0.00000000E+00  0.00000000E+00
  0.00000000E+00  0.00000000E+00  0.00000000E+00
  0.00000000E+00  0.00000000E+00  0.00000000E+00
  0.00000000E+00  0.00000000E+00  0.00000000E+00
  0.00000000E+00  0.00000000E+00  0.00000000E+00
  0.00000000E+00  0.00000000E+00  0.00000000E+00
  0.00000000E+00  0.00000000E+00  0.00000000E+00
  0.00000000E+00  0.00000000E+00  0.00000000E+00
  0.00000000E+00  0.00000000E+00  0.00000000E+00
  0.00000000E+00  0.00000000E+00  0.00000000E+00
