Al2C                                    
           1
     6.019200    0.000000    0.000000
     0.000000   10.140000    0.000000
     0.000000    0.000000   15.000000
   Al   C    Se   H 
   8   4   1   2
Direct configuration=     1
   0.41696985  0.86373271  0.23473636
   0.91567322  0.86400560  0.24639104
   0.42477106  0.60470378  0.24791714
   0.90873228  0.61029462  0.26134814
   0.43918759  0.35777598  0.29502374
   0.91805001  0.35974399  0.26150750
   0.41726257  0.10818181  0.25215155
   0.91694566  0.10597604  0.24195306
   0.16726685  0.98400170  0.24516628
   0.66641718  0.98442548  0.23769635
   0.16898213  0.48891261  0.29056145
   0.67189427  0.48375239  0.24655006
   0.55707477  0.35433310  0.45059476
   0.38494479  0.26276168  0.48579428
   0.16832750  0.50221987  0.36448993
