Al2C                                    
   1.0000000000000000     
     6.0191999999999997    0.0000000000000000    0.0000000000000000
     0.0000000000000000   10.1400000000000006    0.0000000000000000
     0.0000000000000000    0.0000000000000000   15.0000000000000000
   Al   C    S    H 
     8     4     1     2
Selective dynamics
Direct
  0.4377847757288517  0.8775585874010491  0.2550078053906449   T   T   T
  0.9371108941454732  0.8775201747593441  0.2312239256067637   T   T   T
  0.4411969391185421  0.6213938509892817  0.2756117047135135   T   T   T
  0.9377157890436822  0.6188022837792526  0.2400864456154572   T   T   T
  0.4350274352300654  0.3797687533706365  0.2362180183468637   T   T   T
  0.9352068892165769  0.3768319485149902  0.2664698865972437   T   T   T
  0.4362103371970586  0.1204047167443918  0.2298998190913641   T   T   T
  0.9366015164493158  0.1196260215337694  0.2549002650108166   T   T   T
  0.1870209203789605  0.9987350130971976  0.2432079580166584   T   T   T
  0.6868315063216989  0.9992159727083213  0.2397362290703106   T   T   T
  0.1868435546916376  0.4984090946031164  0.2627229959878133   T   T   T
  0.6863206688096981  0.4982435104311013  0.2517930726475728   T   T   T
  0.4197430566556383  0.6053499800608825  0.4617864740660035   T   T   T
  0.2540748224391603  0.6925972977887719  0.4785373965762953   T   T   T
  0.1868435546916376  0.4984090946031164  0.3527229959878133   T   T   T

  0.00000000E+00  0.00000000E+00  0.00000000E+00
  0.00000000E+00  0.00000000E+00  0.00000000E+00
  0.00000000E+00  0.00000000E+00  0.00000000E+00
  0.00000000E+00  0.00000000E+00  0.00000000E+00
  0.00000000E+00  0.00000000E+00  0.00000000E+00
  0.00000000E+00  0.00000000E+00  0.00000000E+00
  0.00000000E+00  0.00000000E+00  0.00000000E+00
  0.00000000E+00  0.00000000E+00  0.00000000E+00
  0.00000000E+00  0.00000000E+00  0.00000000E+00
  0.00000000E+00  0.00000000E+00  0.00000000E+00
  0.00000000E+00  0.00000000E+00  0.00000000E+00
  0.00000000E+00  0.00000000E+00  0.00000000E+00
  0.00000000E+00  0.00000000E+00  0.00000000E+00
  0.00000000E+00  0.00000000E+00  0.00000000E+00
  0.00000000E+00  0.00000000E+00  0.00000000E+00
