Al   C    Se   H                        
   1.0000000000000000     
     6.0191999999999997    0.0000000000000000    0.0000000000000000
     0.0000000000000000   10.1400000000000006    0.0000000000000000
     0.0000000000000000    0.0000000000000000   15.0000000000000000
   Al   C    Se   H 
     8     4     1     2
Selective dynamics
Direct
  0.4187529650573083  0.8620518609572230  0.2338342839232368   T   T   T
  0.9198060332051625  0.8627593952182835  0.2537132631943351   T   T   T
  0.4267240107128956  0.6033174324220809  0.2438808554367853   T   T   T
  0.9204159811588539  0.6079778648951546  0.2718377855492662   T   T   T
  0.4455699638478166  0.3551029539603974  0.2860901688904036   T   T   T
  0.9283167639826857  0.3612374119108921  0.2522414238908723   T   T   T
  0.4212358789418431  0.1053886130232868  0.2523235896475811   T   T   T
  0.9194568989777423  0.1046519270357607  0.2365550793326392   T   T   T
  0.1700132505149909  0.9833949178763959  0.2445864010110341   T   T   T
  0.6699002889133752  0.9821470279032596  0.2395772035784560   T   T   T
  0.1798223756093336  0.4841949594754240  0.2890286783230493   T   T   T
  0.6794603673901634  0.4850854831303693  0.2477572412453313   T   T   T
  0.4939113433942737  0.3740719701675914  0.4551956150445022   T   T   T
  0.3066124555467340  0.2943514808850693  0.4915499950027638   T   T   T
  0.2435567297122745  0.4680955450205460  0.3645430151602369   T   T   T

  0.00000000E+00  0.00000000E+00  0.00000000E+00
  0.00000000E+00  0.00000000E+00  0.00000000E+00
  0.00000000E+00  0.00000000E+00  0.00000000E+00
  0.00000000E+00  0.00000000E+00  0.00000000E+00
  0.00000000E+00  0.00000000E+00  0.00000000E+00
  0.00000000E+00  0.00000000E+00  0.00000000E+00
  0.00000000E+00  0.00000000E+00  0.00000000E+00
  0.00000000E+00  0.00000000E+00  0.00000000E+00
  0.00000000E+00  0.00000000E+00  0.00000000E+00
  0.00000000E+00  0.00000000E+00  0.00000000E+00
  0.00000000E+00  0.00000000E+00  0.00000000E+00
  0.00000000E+00  0.00000000E+00  0.00000000E+00
  0.00000000E+00  0.00000000E+00  0.00000000E+00
  0.00000000E+00  0.00000000E+00  0.00000000E+00
  0.00000000E+00  0.00000000E+00  0.00000000E+00
