   15   15  999    1
  0.6103469E+02  0.6019200E-09  0.1014000E-08  0.1500000E-08  0.3500000E-15
   1.0000000000000000E-004
  CAR 
 Al2C                                    
     48      8     32

  0.3742002E-15  0.3742002E-15  0.1262379E-14  0.6666667E-01
    1      -15.172373   1.000000
    2      -14.343113   1.000000
    3      -13.884427   1.000000
    4      -12.693757   1.000000
    5      -11.758177   1.000000
    6       -9.267854   1.000000
    7       -8.943161   1.000000
    8       -8.756436   1.000000
    9       -7.526176   1.000000
   10       -6.894546   1.000000
   11       -6.695423   1.000000
   12       -6.275165   1.000000
   13       -5.848807   1.000000
   14       -5.186310   1.000000
   15       -5.113266   1.000000
   16       -4.696382   1.000000
   17       -4.246501   1.000000
   18       -4.088330   1.000000
   19       -3.587921   1.000000
   20       -3.242086   1.000000
   21       -3.171560   1.000000
   22       -3.027663   1.000000
   23       -2.636422   1.000000
   24       -2.401692   1.000000
   25       -1.599261   0.000000
   26       -1.222649   0.000000
   27       -0.396935   0.000000
   28       -0.222255   0.000000
   29       -0.010673   0.000000
   30        0.346676   0.000000
   31        0.503042   0.000000
   32        0.773405   0.000000

  0.2000000E+00  0.3742002E-15  0.1262379E-14  0.1333333E+00
    1      -15.130667   1.000000
    2      -14.301852   1.000000
    3      -13.760536   1.000000
    4      -12.929274   1.000000
    5      -12.139403   1.000000
    6       -8.996757   1.000000
    7       -8.731858   1.000000
    8       -8.180066   1.000000
    9       -7.403561   1.000000
   10       -6.939734   1.000000
   11       -6.613339   1.000000
   12       -6.559320   1.000000
   13       -6.146764   1.000000
   14       -5.344950   1.000000
   15       -4.891262   1.000000
   16       -4.578518   1.000000
   17       -4.344827   1.000000
   18       -4.097114   1.000000
   19       -3.749447   1.000000
   20       -3.724038   1.000000
   21       -3.465819   1.000000
   22       -3.136352   1.000000
   23       -2.893937   1.000000
   24       -2.613828   1.000000
   25       -1.551466   0.000000
   26       -0.500989   0.000000
   27       -0.348759   0.000000
   28       -0.040051   0.000000
   29        0.217589   0.000000
   30        0.554199   0.000000
   31        0.654793   0.000000
   32        0.885009   0.000000

  0.4000000E+00  0.3742002E-15  0.1262379E-14  0.1333333E+00
    1      -15.060181   1.000000
    2      -14.190998   1.000000
    3      -13.413429   1.000000
    4      -13.299769   1.000000
    5      -12.812314   1.000000
    6       -8.620905   1.000000
    7       -8.234859   1.000000
    8       -7.616767   1.000000
    9       -7.081570   1.000000
   10       -6.884256   1.000000
   11       -6.624597   1.000000
   12       -6.299209   1.000000
   13       -5.970258   1.000000
   14       -5.812437   1.000000
   15       -5.294246   1.000000
   16       -5.094722   1.000000
   17       -5.018478   1.000000
   18       -4.445544   1.000000
   19       -4.187714   1.000000
   20       -3.691514   1.000000
   21       -3.618897   1.000000
   22       -3.127748   1.000000
   23       -3.045222   1.000000
   24       -2.667637   1.000000
   25       -1.240470   0.000000
   26       -0.764920   0.000000
   27       -0.245483   0.000000
   28        0.507756   0.000000
   29        0.734158   0.000000
   30        1.125081   0.000000
   31        1.235091   0.000000
   32        1.333942   0.000000

  0.3742002E-15  0.3333333E+00  0.1262379E-14  0.1333333E+00
    1      -15.171512   1.000000
    2      -14.340878   1.000000
    3      -13.890358   1.000000
    4      -12.694976   1.000000
    5      -11.759194   1.000000
    6       -9.251700   1.000000
    7       -8.796460   1.000000
    8       -8.666264   1.000000
    9       -7.930801   1.000000
   10       -7.289648   1.000000
   11       -6.761315   1.000000
   12       -5.720412   1.000000
   13       -5.332278   1.000000
   14       -5.204041   1.000000
   15       -5.022395   1.000000
   16       -4.687651   1.000000
   17       -4.267002   1.000000
   18       -4.112522   1.000000
   19       -3.765654   1.000000
   20       -3.506088   1.000000
   21       -3.233958   1.000000
   22       -3.116432   1.000000
   23       -3.028046   1.000000
   24       -2.399680   1.000000
   25       -1.430652   0.000000
   26       -0.829897   0.000000
   27       -0.602197   0.000000
   28       -0.253521   0.000000
   29        0.256487   0.000000
   30        0.395522   0.000000
   31        0.584912   0.000000
   32        0.727579   0.000000

  0.2000000E+00  0.3333333E+00  0.1262379E-14  0.1333333E+00
    1      -15.130016   1.000000
    2      -14.299688   1.000000
    3      -13.765577   1.000000
    4      -12.929983   1.000000
    5      -12.141671   1.000000
    6       -8.974240   1.000000
    7       -8.496718   1.000000
    8       -8.192714   1.000000
    9       -7.749566   1.000000
   10       -7.254629   1.000000
   11       -6.798395   1.000000
   12       -6.329817   1.000000
   13       -5.809343   1.000000
   14       -5.119027   1.000000
   15       -4.820524   1.000000
   16       -4.602648   1.000000
   17       -4.209489   1.000000
   18       -3.979396   1.000000
   19       -3.782166   1.000000
   20       -3.709305   1.000000
   21       -3.589885   1.000000
   22       -3.213963   1.000000
   23       -3.090589   1.000000
   24       -2.871086   1.000000
   25       -1.439763   0.000000
   26       -0.575805   0.000000
   27       -0.363252   0.000000
   28       -0.212023   0.000000
   29        0.317936   0.000000
   30        0.448219   0.000000
   31        0.753033   0.000000
   32        0.909312   0.000000

  0.4000000E+00  0.3333333E+00  0.1262379E-14  0.1333333E+00
    1      -15.059908   1.000000
    2      -14.189713   1.000000
    3      -13.404399   1.000000
    4      -13.310302   1.000000
    5      -12.818005   1.000000
    6       -8.604873   1.000000
    7       -7.992325   1.000000
    8       -7.490056   1.000000
    9       -7.294715   1.000000
   10       -6.979814   1.000000
   11       -6.850406   1.000000
   12       -6.574318   1.000000
   13       -6.409830   1.000000
   14       -5.420105   1.000000
   15       -5.278486   1.000000
   16       -4.662680   1.000000
   17       -4.470281   1.000000
   18       -4.335509   1.000000
   19       -4.103012   1.000000
   20       -3.761430   1.000000
   21       -3.651313   1.000000
   22       -3.406357   1.000000
   23       -3.077643   1.000000
   24       -3.004709   1.000000
   25       -1.267582   0.000000
   26       -0.553375   0.000000
   27       -0.212690   0.000000
   28        0.308616   0.000000
   29        0.600740   0.000000
   30        0.630492   0.000000
   31        0.954403   0.000000
   32        1.241847   0.000000

 -0.4000000E+00  0.3333333E+00  0.1262379E-14  0.1333333E+00
    1      -15.059875   1.000000
    2      -14.189972   1.000000
    3      -13.401586   1.000000
    4      -13.313117   1.000000
    5      -12.817772   1.000000
    6       -8.593620   1.000000
    7       -8.034464   1.000000
    8       -7.389744   1.000000
    9       -7.353184   1.000000
   10       -6.990932   1.000000
   11       -6.880840   1.000000
   12       -6.557360   1.000000
   13       -6.376016   1.000000
   14       -5.446246   1.000000
   15       -5.272169   1.000000
   16       -4.652161   1.000000
   17       -4.459383   1.000000
   18       -4.313276   1.000000
   19       -4.195836   1.000000
   20       -3.793030   1.000000
   21       -3.564921   1.000000
   22       -3.380437   1.000000
   23       -3.148648   1.000000
   24       -2.977553   1.000000
   25       -1.062172   0.000000
   26       -0.813924   0.000000
   27       -0.265998   0.000000
   28        0.408475   0.000000
   29        0.564932   0.000000
   30        0.696787   0.000000
   31        1.021078   0.000000
   32        1.321539   0.000000

 -0.2000000E+00  0.3333333E+00  0.1262379E-14  0.1333333E+00
    1      -15.129962   1.000000
    2      -14.300045   1.000000
    3      -13.765088   1.000000
    4      -12.930270   1.000000
    5      -12.141565   1.000000
    6       -8.969953   1.000000
    7       -8.489043   1.000000
    8       -8.200659   1.000000
    9       -7.803764   1.000000
   10       -7.162060   1.000000
   11       -6.827812   1.000000
   12       -6.356587   1.000000
   13       -5.777896   1.000000
   14       -5.110859   1.000000
   15       -4.810237   1.000000
   16       -4.617509   1.000000
   17       -4.259578   1.000000
   18       -3.979950   1.000000
   19       -3.797687   1.000000
   20       -3.721061   1.000000
   21       -3.562461   1.000000
   22       -3.247755   1.000000
   23       -3.054763   1.000000
   24       -2.863240   1.000000
   25       -1.238482   0.000000
   26       -0.819648   0.000000
   27       -0.400256   0.000000
   28       -0.152761   0.000000
   29        0.330591   0.000000
   30        0.491504   0.000000
   31        0.739891   0.000000
   32        0.933069   0.000000
