       N       E                     dE             d eps       ncg     rms          rms(c)
DAV:   1     0.301466825121E+03    0.30147E+03   -0.13386E+04   512   0.924E+02
DAV:   2    -0.643685110153E+01   -0.30790E+03   -0.29187E+03   744   0.215E+02
DAV:   3    -0.863508838216E+02   -0.79914E+02   -0.78611E+02   840   0.101E+02
DAV:   4    -0.892574485167E+02   -0.29066E+01   -0.28989E+01   640   0.239E+01
DAV:   5    -0.893861418345E+02   -0.12869E+00   -0.12865E+00   824   0.517E+00
DAV:   6    -0.893878099900E+02   -0.16682E-02   -0.16675E-02   656   0.713E-01
DAV:   7    -0.893879237049E+02   -0.11371E-03   -0.11370E-03   856   0.132E-01    0.185E+01
DAV:   8    -0.720989242285E+02    0.17289E+02   -0.71381E+01   608   0.417E+01    0.536E+00
DAV:   9    -0.718966049995E+02    0.20232E+00   -0.56351E+00   648   0.116E+01    0.373E+00
DAV:  10    -0.714075416256E+02    0.48906E+00   -0.14395E+00   752   0.700E+00    0.965E-01
DAV:  11    -0.713629481485E+02    0.44593E-01   -0.12910E-01   688   0.207E+00    0.499E-01
DAV:  12    -0.713613466239E+02    0.16015E-02   -0.14042E-01   760   0.173E+00    0.386E-01
DAV:  13    -0.713565846257E+02    0.47620E-02   -0.20528E-02   712   0.774E-01    0.197E-01
DAV:  14    -0.713531706767E+02    0.34139E-02   -0.24846E-02   720   0.668E-01    0.124E-01
DAV:  15    -0.713540714880E+02   -0.90081E-03   -0.23242E-03   696   0.274E-01    0.879E-02
DAV:  16    -0.713576135480E+02   -0.35421E-02   -0.54984E-03   656   0.363E-01    0.845E-02
DAV:  17    -0.713591021734E+02   -0.14886E-02   -0.12669E-03   752   0.218E-01    0.321E-02
DAV:  18    -0.713604465695E+02   -0.13444E-02   -0.13384E-03   664   0.159E-01    0.382E-02
DAV:  19    -0.713617504048E+02   -0.13038E-02   -0.31951E-04   712   0.970E-02    0.107E-02
DAV:  20    -0.713625830293E+02   -0.83262E-03   -0.16517E-04   608   0.554E-02    0.101E-02
DAV:  21    -0.713630876737E+02   -0.50464E-03   -0.69903E-05   592   0.289E-02    0.836E-03
DAV:  22    -0.713632141107E+02   -0.12644E-03   -0.38084E-05   704   0.327E-02    0.508E-03
DAV:  23    -0.713632504351E+02   -0.36324E-04   -0.11733E-05   736   0.186E-02    0.253E-03
DAV:  24    -0.713632842748E+02   -0.33840E-04   -0.59334E-06   488   0.104E-02    0.283E-03
DAV:  25    -0.713632921814E+02   -0.79066E-05   -0.11984E-06   456   0.633E-03    0.133E-03
DAV:  26    -0.713632963917E+02   -0.42103E-05   -0.20271E-06   448   0.577E-03    0.106E-03
DAV:  27    -0.713632977660E+02   -0.13743E-05   -0.29407E-07   432   0.387E-03    0.568E-04
DAV:  28    -0.713632983040E+02   -0.53803E-06   -0.16475E-07   408   0.195E-03
   1 F= -.71363298E+02 E0= -.71363298E+02  d E =-.713633E+02
