Al   C    Se   H                        
   1.0000000000000000     
     6.0191999999999997    0.0000000000000000    0.0000000000000000
     0.0000000000000000   10.1400000000000006    0.0000000000000000
     0.0000000000000000    0.0000000000000000   15.0000000000000000
   Al   C    Se   H 
     8     4     1     2
Selective dynamics
Direct
  0.4187529650573107  0.8620518609572208  0.2338342839232363   T   T   T
  0.9198060332051624  0.8627593952182819  0.2537132631943380   T   T   T
  0.4267240107128988  0.6033174324220798  0.2438808554367823   T   T   T
  0.9204159811588517  0.6079778648951542  0.2718377855492675   T   T   T
  0.4455699638478132  0.3551029539603944  0.2860901688904053   T   T   T
  0.9283167639826871  0.3612374119108893  0.2522414238908709   T   T   T
  0.4212358789418451  0.1053886130232899  0.2523235896475820   T   T   T
  0.9194568989777429  0.1046519270357574  0.2365550793326407   T   T   T
  0.1700132505149887  0.9833949178763952  0.2445864010110331   T   T   T
  0.6699002889133774  0.9821470279032622  0.2395772035784539   T   T   T
  0.1798223756093364  0.4841949594754207  0.2890286783230522   T   T   T
  0.6794603673901659  0.4850854831303713  0.2477572412453295   T   T   T
  0.4939113433942766  0.3740719701675881  0.4551956150445042   T   T   T
  0.3066124555467366  0.2943514808850723  0.4915499950027638   T   T   T
  0.2435567297122775  0.4680955450205490  0.3645430151602357   T   T   T

  0.00000000E+00  0.00000000E+00  0.00000000E+00
  0.00000000E+00  0.00000000E+00  0.00000000E+00
  0.00000000E+00  0.00000000E+00  0.00000000E+00
  0.00000000E+00  0.00000000E+00  0.00000000E+00
  0.00000000E+00  0.00000000E+00  0.00000000E+00
  0.00000000E+00  0.00000000E+00  0.00000000E+00
  0.00000000E+00  0.00000000E+00  0.00000000E+00
  0.00000000E+00  0.00000000E+00  0.00000000E+00
  0.00000000E+00  0.00000000E+00  0.00000000E+00
  0.00000000E+00  0.00000000E+00  0.00000000E+00
  0.00000000E+00  0.00000000E+00  0.00000000E+00
  0.00000000E+00  0.00000000E+00  0.00000000E+00
  0.00000000E+00  0.00000000E+00  0.00000000E+00
  0.00000000E+00  0.00000000E+00  0.00000000E+00
  0.00000000E+00  0.00000000E+00  0.00000000E+00
