Al2C                                    
           1
     6.019200    0.000000    0.000000
     0.000000   10.140000    0.000000
     0.000000    0.000000   15.000000
   Al   C    Se   H 
   8   4   1   2
Direct configuration=     1
   0.41875297  0.86205186  0.23383428
   0.91980603  0.86275940  0.25371326
   0.42672401  0.60331743  0.24388086
   0.92041598  0.60797786  0.27183779
   0.44556996  0.35510295  0.28609017
   0.92831676  0.36123741  0.25224142
   0.42123588  0.10538861  0.25232359
   0.91945690  0.10465193  0.23655508
   0.17001325  0.98339492  0.24458640
   0.66990029  0.98214703  0.23957720
   0.17982238  0.48419496  0.28902868
   0.67946037  0.48508548  0.24775724
   0.49391134  0.37407197  0.45519562
   0.30661246  0.29435148  0.49155000
   0.24355673  0.46809555  0.36454302
