Al2C                                    
   1.0000000000000000     
     6.0191999999999997    0.0000000000000000    0.0000000000000000
     0.0000000000000000   10.1400000000000006    0.0000000000000000
     0.0000000000000000    0.0000000000000000   15.0000000000000000
   Al   C    Se   H 
     8     4     1     2
Selective dynamics
Direct
  0.4465912093085720  0.8820530533817674  0.2399360293029815   T   T   T
  0.9464804956386672  0.8822290922092293  0.2608190312702021   T   T   T
  0.4473776517281678  0.6219556735021712  0.2412047357098501   T   T   T
  0.9476918704612416  0.6237938643382037  0.2674521375962797   T   T   T
  0.4469199681157505  0.3818197512847590  0.2764552298606446   T   T   T
  0.9478330454122599  0.3831385719790532  0.2440953346910817   T   T   T
  0.4462690850019371  0.1237647955088832  0.2616993791011097   T   T   T
  0.9465034787775082  0.1234011601925076  0.2415634953524943   T   T   T
  0.1965186638432002  0.0026309784764251  0.2502865987749345   T   T   T
  0.6964144575241775  0.0027460308172849  0.2506956249201480   T   T   T
  0.1975795930867648  0.5030415764392515  0.2577606682963278   T   T   T
  0.6974971764144655  0.5033793402498219  0.2582883070424558   T   T   T
  0.5271866701653920  0.4196475079182491  0.4619754445883189   T   T   T
  0.7406928164967042  0.3502338896747830  0.4674273094104251   T   T   T
  0.4292146845855456  0.3280582051518834  0.5279806740827055   T   T   T

  0.00000000E+00  0.00000000E+00  0.00000000E+00
  0.00000000E+00  0.00000000E+00  0.00000000E+00
  0.00000000E+00  0.00000000E+00  0.00000000E+00
  0.00000000E+00  0.00000000E+00  0.00000000E+00
  0.00000000E+00  0.00000000E+00  0.00000000E+00
  0.00000000E+00  0.00000000E+00  0.00000000E+00
  0.00000000E+00  0.00000000E+00  0.00000000E+00
  0.00000000E+00  0.00000000E+00  0.00000000E+00
  0.00000000E+00  0.00000000E+00  0.00000000E+00
  0.00000000E+00  0.00000000E+00  0.00000000E+00
  0.00000000E+00  0.00000000E+00  0.00000000E+00
  0.00000000E+00  0.00000000E+00  0.00000000E+00
  0.00000000E+00  0.00000000E+00  0.00000000E+00
  0.00000000E+00  0.00000000E+00  0.00000000E+00
  0.00000000E+00  0.00000000E+00  0.00000000E+00
