   15   15    1    1
  0.6103469E+02  0.6019200E-09  0.1014000E-08  0.1500000E-08  0.3500000E-15
   1.0000000000000000E-004
  CAR 
 Al2C                                    
     48      8     32

  0.3742002E-15  0.3742002E-15  0.1262379E-14  0.6666667E-01
    1      -18.681343   1.000000
    2      -15.305395   1.000000
    3      -15.132954   1.000000
    4      -12.965366   1.000000
    5      -12.891293   1.000000
    6       -9.818935   1.000000
    7       -9.670771   1.000000
    8       -9.402072   1.000000
    9       -9.334403   1.000000
   10       -8.417032   1.000000
   11       -7.064544   1.000000
   12       -6.563159   1.000000
   13       -6.053844   1.000000
   14       -5.955053   1.000000
   15       -5.220979   1.000000
   16       -5.150515   1.000000
   17       -4.692699   1.000000
   18       -4.521465   1.000000
   19       -3.458383   1.000000
   20       -3.223177   1.000000
   21       -3.196072   1.000000
   22       -2.545336   1.000000
   23       -2.367069   1.000000
   24       -2.324606   1.000000
   25       -0.934367   0.000000
   26       -0.305672   0.000000
   27        0.237265   0.000000
   28        0.487870   0.000000
   29        0.792721   0.000000
   30        0.920117   0.000000
   31        1.278336   0.000000
   32        1.381372   0.000000

  0.2000000E+00  0.3742002E-15  0.1262379E-14  0.1333333E+00
    1      -18.679801   1.000000
    2      -15.167507   1.000000
    3      -14.998572   1.000000
    4      -13.383301   1.000000
    5      -13.280094   1.000000
    6       -9.825743   1.000000
    7       -9.208280   1.000000
    8       -9.048833   1.000000
    9       -8.787940   1.000000
   10       -8.332173   1.000000
   11       -6.963548   1.000000
   12       -6.866292   1.000000
   13       -6.426768   1.000000
   14       -5.814102   1.000000
   15       -5.429580   1.000000
   16       -5.006900   1.000000
   17       -4.600833   1.000000
   18       -3.990735   1.000000
   19       -3.965403   1.000000
   20       -3.927220   1.000000
   21       -3.798233   1.000000
   22       -3.027026   1.000000
   23       -2.777061   1.000000
   24       -2.340532   1.000000
   25       -0.883178   0.000000
   26        0.507895   0.000000
   27        0.658214   0.000000
   28        0.822231   0.000000
   29        0.914013   0.000000
   30        1.068197   0.000000
   31        1.236649   0.000000
   32        1.973505   0.000000

  0.4000000E+00  0.3742002E-15  0.1262379E-14  0.1333333E+00
    1      -18.677265   1.000000
    2      -14.762602   1.000000
    3      -14.604708   1.000000
    4      -14.126576   1.000000
    5      -13.989373   1.000000
    6       -9.844924   1.000000
    7       -8.771138   1.000000
    8       -8.522770   1.000000
    9       -7.885739   1.000000
   10       -7.507978   1.000000
   11       -7.263245   1.000000
   12       -6.588475   1.000000
   13       -6.300223   1.000000
   14       -6.030565   1.000000
   15       -5.692309   1.000000
   16       -5.522945   1.000000
   17       -5.250935   1.000000
   18       -4.881879   1.000000
   19       -4.584780   1.000000
   20       -4.254489   1.000000
   21       -3.822126   1.000000
   22       -3.506470   1.000000
   23       -2.871301   1.000000
   24       -2.428528   1.000000
   25       -0.501521   0.000000
   26        0.257517   0.000000
   27        0.995760   0.000000
   28        1.237787   0.000000
   29        1.421595   0.000000
   30        1.490536   0.000000
   31        1.793470   0.000000
   32        2.375581   0.000000

  0.3742002E-15  0.3333333E+00  0.1262379E-14  0.1333333E+00
    1      -18.681357   1.000000
    2      -15.264663   1.000000
    3      -15.178533   1.000000
    4      -12.947294   1.000000
    5      -12.910267   1.000000
    6       -9.810670   1.000000
    7       -9.620158   1.000000
    8       -9.456329   1.000000
    9       -9.039004   1.000000
   10       -8.434599   1.000000
   11       -8.117822   1.000000
   12       -6.092808   1.000000
   13       -5.839565   1.000000
   14       -5.445077   1.000000
   15       -5.196789   1.000000
   16       -5.089304   1.000000
   17       -4.683088   1.000000
   18       -4.288703   1.000000
   19       -3.762544   1.000000
   20       -3.323815   1.000000
   21       -3.219445   1.000000
   22       -3.199430   1.000000
   23       -2.525147   1.000000
   24       -2.347385   1.000000
   25       -0.667902   0.000000
   26        0.076934   0.000000
   27        0.251929   0.000000
   28        0.452059   0.000000
   29        0.603854   0.000000
   30        0.841460   0.000000
   31        1.339773   0.000000
   32        1.498638   0.000000

  0.2000000E+00  0.3333333E+00  0.1262379E-14  0.1333333E+00
    1      -18.679755   1.000000
    2      -15.127528   1.000000
    3      -15.043194   1.000000
    4      -13.358360   1.000000
    5      -13.306674   1.000000
    6       -9.821718   1.000000
    7       -9.059142   1.000000
    8       -8.871715   1.000000
    9       -8.819672   1.000000
   10       -8.351565   1.000000
   11       -7.973176   1.000000
   12       -6.640789   1.000000
   13       -6.069374   1.000000
   14       -5.768349   1.000000
   15       -5.024218   1.000000
   16       -4.968010   1.000000
   17       -4.599603   1.000000
   18       -3.980256   1.000000
   19       -3.933628   1.000000
   20       -3.762802   1.000000
   21       -3.722925   1.000000
   22       -3.253018   1.000000
   23       -2.941855   1.000000
   24       -2.828928   1.000000
   25       -0.539610   0.000000
   26        0.231533   0.000000
   27        0.601665   0.000000
   28        0.782745   0.000000
   29        0.956062   0.000000
   30        1.120520   0.000000
   31        1.591120   0.000000
   32        2.370206   0.000000

  0.4000000E+00  0.3333333E+00  0.1262379E-14  0.1333333E+00
    1      -18.677242   1.000000
    2      -14.725067   1.000000
    3      -14.646263   1.000000
    4      -14.093794   1.000000
    5      -14.025152   1.000000
    6       -9.843441   1.000000
    7       -8.649389   1.000000
    8       -8.348929   1.000000
    9       -7.685237   1.000000
   10       -7.559080   1.000000
   11       -7.502786   1.000000
   12       -7.222069   1.000000
   13       -6.730030   1.000000
   14       -5.867939   1.000000
   15       -5.649717   1.000000
   16       -5.527655   1.000000
   17       -4.571937   1.000000
   18       -4.508262   1.000000
   19       -4.329826   1.000000
   20       -4.048216   1.000000
   21       -3.795187   1.000000
   22       -3.552479   1.000000
   23       -3.166335   1.000000
   24       -3.071113   1.000000
   25       -0.162480   0.000000
   26        0.431281   0.000000
   27        0.711246   0.000000
   28        1.142629   0.000000
   29        1.222545   0.000000
   30        1.483454   0.000000
   31        1.774760   0.000000
   32        2.228261   0.000000

 -0.4000000E+00  0.3333333E+00  0.1262379E-14  0.1333333E+00
    1      -18.677242   1.000000
    2      -14.725110   1.000000
    3      -14.646217   1.000000
    4      -14.093722   1.000000
    5      -14.025227   1.000000
    6       -9.843357   1.000000
    7       -8.656326   1.000000
    8       -8.338142   1.000000
    9       -7.684171   1.000000
   10       -7.556393   1.000000
   11       -7.506514   1.000000
   12       -7.231085   1.000000
   13       -6.724476   1.000000
   14       -5.882147   1.000000
   15       -5.637677   1.000000
   16       -5.524318   1.000000
   17       -4.570274   1.000000
   18       -4.505618   1.000000
   19       -4.335296   1.000000
   20       -4.044150   1.000000
   21       -3.793310   1.000000
   22       -3.565817   1.000000
   23       -3.161688   1.000000
   24       -3.069178   1.000000
   25       -0.164812   0.000000
   26        0.477446   0.000000
   27        0.681018   0.000000
   28        1.042080   0.000000
   29        1.258387   0.000000
   30        1.455730   0.000000
   31        1.745275   0.000000
   32        2.097728   0.000000

 -0.2000000E+00  0.3333333E+00  0.1262379E-14  0.1333333E+00
    1      -18.679786   1.000000
    2      -15.127554   1.000000
    3      -15.043166   1.000000
    4      -13.358297   1.000000
    5      -13.306741   1.000000
    6       -9.821445   1.000000
    7       -9.061461   1.000000
    8       -8.874084   1.000000
    9       -8.817920   1.000000
   10       -8.342519   1.000000
   11       -7.978743   1.000000
   12       -6.639476   1.000000
   13       -6.086262   1.000000
   14       -5.755441   1.000000
   15       -5.025140   1.000000
   16       -4.965846   1.000000
   17       -4.592876   1.000000
   18       -3.979866   1.000000
   19       -3.933058   1.000000
   20       -3.769376   1.000000
   21       -3.717977   1.000000
   22       -3.269299   1.000000
   23       -2.926810   1.000000
   24       -2.833440   1.000000
   25       -0.542215   0.000000
   26        0.250775   0.000000
   27        0.586391   0.000000
   28        0.765151   0.000000
   29        0.936797   0.000000
   30        1.092796   0.000000
   31        1.489559   0.000000
   32        1.578625   0.000000
