Al2C                                    
   1.0000000000000000     
     6.0191999999999997    0.0000000000000000    0.0000000000000000
     0.0000000000000000   10.1400000000000006    0.0000000000000000
     0.0000000000000000    0.0000000000000000   15.0000000000000000
   Al   C    Se   H 
     8     4     1     2
Selective dynamics
Direct
  0.4465912093085753  0.8820530533817670  0.2399360293029839   T   T   T
  0.9464804956386662  0.8822290922092296  0.2608190312702003   T   T   T
  0.4473776517281712  0.6219556735021692  0.2412047357098505   T   T   T
  0.9476918704612403  0.6237938643382067  0.2674521375962827   T   T   T
  0.4469199681157485  0.3818197512847581  0.2764552298606474   T   T   T
  0.9478330454122585  0.3831385719790552  0.2440953346910799   T   T   T
  0.4462690850019353  0.1237647955088812  0.2616993791011068   T   T   T
  0.9465034787775066  0.1234011601925109  0.2415634953524977   T   T   T
  0.1965186638431980  0.0026309784764234  0.2502865987749342   T   T   T
  0.6964144575241745  0.0027460308172816  0.2506956249201445   T   T   T
  0.1975795930867642  0.5030415764392494  0.2577606682963270   T   T   T
  0.6974971764144653  0.5033793402498233  0.2582883070424569   T   T   T
  0.5271866701653956  0.4196475079182457  0.4619754445883218   T   T   T
  0.7406928164967056  0.3502338896747808  0.4674273094104220   T   T   T
  0.4292146845855423  0.3280582051518837  0.5279806740827026   T   T   T

  0.00000000E+00  0.00000000E+00  0.00000000E+00
  0.00000000E+00  0.00000000E+00  0.00000000E+00
  0.00000000E+00  0.00000000E+00  0.00000000E+00
  0.00000000E+00  0.00000000E+00  0.00000000E+00
  0.00000000E+00  0.00000000E+00  0.00000000E+00
  0.00000000E+00  0.00000000E+00  0.00000000E+00
  0.00000000E+00  0.00000000E+00  0.00000000E+00
  0.00000000E+00  0.00000000E+00  0.00000000E+00
  0.00000000E+00  0.00000000E+00  0.00000000E+00
  0.00000000E+00  0.00000000E+00  0.00000000E+00
  0.00000000E+00  0.00000000E+00  0.00000000E+00
  0.00000000E+00  0.00000000E+00  0.00000000E+00
  0.00000000E+00  0.00000000E+00  0.00000000E+00
  0.00000000E+00  0.00000000E+00  0.00000000E+00
  0.00000000E+00  0.00000000E+00  0.00000000E+00
