--------------------------------------------------------------------------
[[28143,1],1]: A high-performance Open MPI point-to-point messaging module
was unable to find any relevant network interfaces:

Module: OpenFabrics (openib)
  Host: compute-0-2

Another transport will be used instead, although this may result in
lower performance.
--------------------------------------------------------------------------
 running on    4 total cores
 distrk:  each k-point on    4 cores,    1 groups
 distr:  one band on    1 cores,    4 groups
 using from now: INCAR     
 vasp.5.4.4.18Apr17-6-g9f103f2a35 (build Dec  6 2019 17:49:40) complex           
 POSCAR found type information on POSCAR  Al C  Se H 
 POSCAR found :  4 types and      15 ions
 scaLAPACK will be used
 LDA part: xc-table for Pade appr. of Perdew
 POSCAR found type information on POSCAR  Al C  Se H 
 POSCAR found :  4 types and      15 ions
 WARNING: stress and forces are not correct
 POSCAR, INCAR and KPOINTS ok, starting setup
 FFT: planning ...
[compute-0-2.cluster.gsc.inifta.unlp.edu.ar:28598] 3 more processes have sent help message help-mpi-btl-base.txt / btl:no-nics
[compute-0-2.cluster.gsc.inifta.unlp.edu.ar:28598] Set MCA parameter "orte_base_help_aggregate" to 0 to see all help / error messages
 WAVECAR not read
 charge-density read from file: Al2C                                    
 entering main loop

 ----------------------------------------------------------------------------- 
|                                                                             |
|           W    W    AA    RRRRR   N    N  II  N    N   GGGG   !!!           |
|           W    W   A  A   R    R  NN   N  II  NN   N  G    G  !!!           |
|           W    W  A    A  R    R  N N  N  II  N N  N  G       !!!           |
|           W WW W  AAAAAA  RRRRR   N  N N  II  N  N N  G  GGG   !            |
|           WW  WW  A    A  R   R   N   NN  II  N   NN  G    G                |
|           W    W  A    A  R    R  N    N  II  N    N   GGGG   !!!           |
|                                                                             |
|      ALGO=A and IALGO=5X tend to fail with the tetrahedron method           |
|      (e.g. Bloechls method ISMEAR=-5 is not variational)                    |
|      please switch to IMSEAR=0-n, except for DOS calculations               |
|      For DOS calculations use IALGO=53 after preconverging with ISMEAR>=0   |
|          I HOPE YOU KNOW, WHAT YOU ARE  DOING                               |
|                                                                             |
 ----------------------------------------------------------------------------- 

       N       E                     dE             d eps       ncg     rms          ort
DAV:   1     0.437620196938E+03    0.43762E+03   -0.11291E+04   256   0.960E+02
DAV:   2     0.214966943734E+03   -0.22265E+03   -0.21119E+03   256   0.246E+02
DAV:   3     0.120797782875E+03   -0.94169E+02   -0.89161E+02   256   0.159E+02
DAV:   4     0.716147679101E+02   -0.49183E+02   -0.46927E+02   256   0.129E+02
DAV:   5     0.435071699823E+02   -0.28108E+02   -0.26884E+02   256   0.898E+01
DAV:   6     0.264484887130E+02   -0.17059E+02   -0.16351E+02   256   0.726E+01
DAV:   7     0.155944583546E+02   -0.10854E+02   -0.10465E+02   256   0.528E+01
 gam= 0.000 g(H,U,f)=  0.439E+02 0.422E+00 0.120E-01 ort(H,U,f) = 0.000E+00 0.000E+00 0.000E+00
SDA:   8    -0.418627564266E+02   -0.57457E+02   -0.17725E+02   256   0.443E+02 0.000E+00
 gam= 0.382 g(H,U,f)=  0.172E+02 0.154E+01 0.730E-01 ort(H,U,f) = 0.237E+02 0.664E+00 0.419E-01
DMP:   9    -0.557734137899E+02   -0.13911E+02   -0.11245E+02   256   0.188E+02 0.244E+02
 gam= 0.382 g(H,U,f)=  0.707E+01 0.262E+01 0.200E+00 ort(H,U,f) = 0.889E+01 0.210E+01 0.118E+00
DMP:  10    -0.638422797443E+02   -0.80689E+01   -0.56533E+01   256   0.989E+01 0.111E+02
 gam= 0.382 g(H,U,f)=  0.448E+01 0.243E+01 0.125E-01 ort(H,U,f) = 0.407E+01 0.276E+01 0.107E-01
DMP:  11    -0.682738904855E+02   -0.44316E+01   -0.38134E+01   256   0.692E+01 0.684E+01
 gam= 0.382 g(H,U,f)=  0.270E+01 0.203E+01 0.108E+00 ort(H,U,f) = 0.319E+01 0.267E+01 0.923E-01
DMP:  12    -0.715108638834E+02   -0.32370E+01   -0.28468E+01   256   0.484E+01 0.595E+01
 gam= 0.382 g(H,U,f)=  0.161E+01 0.176E+01 0.227E+00 ort(H,U,f) = 0.235E+01 0.262E+01 0.308E+00
DMP:  13    -0.743437629731E+02   -0.28329E+01   -0.22472E+01   256   0.360E+01 0.528E+01
 gam= 0.382 g(H,U,f)=  0.951E+00 0.132E+01 0.229E+00 ort(H,U,f) = 0.154E+01 0.213E+01 0.382E+00
DMP:  14    -0.763680434055E+02   -0.20243E+01   -0.16173E+01   256   0.250E+01 0.405E+01
 gam= 0.382 g(H,U,f)=  0.560E+00 0.114E+01 0.279E+00 ort(H,U,f) = 0.100E+01 0.192E+01 0.372E+00
DMP:  15    -0.778441484862E+02   -0.14761E+01   -0.12937E+01   256   0.198E+01 0.330E+01
 gam= 0.382 g(H,U,f)=  0.327E+00 0.812E+00 0.462E+00 ort(H,U,f) = 0.647E+00 0.147E+01 0.693E+00
DMP:  16    -0.789751655647E+02   -0.11310E+01   -0.10691E+01   256   0.160E+01 0.281E+01
 gam= 0.382 g(H,U,f)=  0.167E+00 0.376E+00 0.322E-02 ort(H,U,f) = 0.361E+00 0.771E+00 0.598E-02
DMP:  17    -0.796040085549E+02   -0.62884E+00   -0.39239E+00   256   0.546E+00 0.114E+01
 gam= 0.382 g(H,U,f)=  0.870E-01 0.604E+00 0.212E+00 ort(H,U,f) = 0.203E+00 0.108E+01 0.475E+00
DMP:  18    -0.800848902786E+02   -0.48088E+00   -0.63051E+00   256   0.903E+00 0.176E+01
 gam= 0.382 g(H,U,f)=  0.885E-01 0.317E+00 0.837E+00 ort(H,U,f) = 0.200E+00 0.624E+00 0.120E+01
DMP:  19    -0.808018758614E+02   -0.71699E+00   -0.80604E+00   256   0.124E+01 0.202E+01
 gam= 0.382 g(H,U,f)=  0.453E-01 0.220E+00 0.221E-08 ort(H,U,f) = 0.976E-01 0.480E+00 0.307E-08
DMP:  20    -0.811096228250E+02   -0.30775E+00   -0.19425E+00   256   0.265E+00 0.577E+00
 gam= 0.382 g(H,U,f)=  0.237E-01 0.398E-01 0.295E-14 ort(H,U,f) = 0.499E-01 0.958E-01 0.515E-14
DMP:  21    -0.812154600390E+02   -0.10584E+00   -0.47666E-01   256   0.635E-01 0.146E+00
 gam= 0.382 g(H,U,f)=  0.129E-01 0.160E-01 0.745E-07 ort(H,U,f) = 0.289E-01 0.412E-01 0.190E-06
DMP:  22    -0.812533583862E+02   -0.37898E-01   -0.22279E-01   256   0.289E-01 0.702E-01
 gam= 0.382 g(H,U,f)=  0.812E-02 0.744E-02 0.889E-04 ort(H,U,f) = 0.183E-01 0.201E-01 0.248E-03
DMP:  23    -0.812723514352E+02   -0.18993E-01   -0.12161E-01   256   0.156E-01 0.386E-01
 gam= 0.382 g(H,U,f)=  0.541E-02 0.370E-02 0.770E-03 ort(H,U,f) = 0.124E-01 0.102E-01 0.236E-02
DMP:  24    -0.812830047563E+02   -0.10653E-01   -0.77735E-02   256   0.988E-02 0.250E-01
 gam= 0.382 g(H,U,f)=  0.377E-02 0.193E-02 0.814E-03 ort(H,U,f) = 0.874E-02 0.534E-02 0.278E-02
DMP:  25    -0.812894074152E+02   -0.64027E-02   -0.51783E-02   256   0.651E-02 0.169E-01
 gam= 0.382 g(H,U,f)=  0.274E-02 0.104E-02 0.279E-03 ort(H,U,f) = 0.630E-02 0.286E-02 0.983E-03
DMP:  26    -0.812934719658E+02   -0.40646E-02   -0.31743E-02   256   0.406E-02 0.101E-01
 gam= 0.382 g(H,U,f)=  0.205E-02 0.586E-03 0.715E-04 ort(H,U,f) = 0.467E-02 0.158E-02 0.221E-03
DMP:  27    -0.812961882234E+02   -0.27163E-02   -0.20731E-02   256   0.271E-02 0.647E-02
 gam= 0.382 g(H,U,f)=  0.159E-02 0.341E-03 0.277E-04 ort(H,U,f) = 0.355E-02 0.897E-03 0.526E-04
DMP:  28    -0.812980888144E+02   -0.19006E-02   -0.14699E-02   256   0.196E-02 0.450E-02
 gam= 0.382 g(H,U,f)=  0.126E-02 0.206E-03 0.190E-04 ort(H,U,f) = 0.276E-02 0.526E-03 0.233E-04
DMP:  29    -0.812994745066E+02   -0.13857E-02   -0.10993E-02   256   0.149E-02 0.331E-02
 gam= 0.382 g(H,U,f)=  0.103E-02 0.130E-03 0.161E-04 ort(H,U,f) = 0.219E-02 0.320E-03 0.211E-04
DMP:  30    -0.813005221244E+02   -0.10476E-02   -0.85465E-03   256   0.117E-02 0.253E-02
 gam= 0.382 g(H,U,f)=  0.855E-03 0.845E-04 0.127E-04 ort(H,U,f) = 0.177E-02 0.202E-03 0.200E-04
DMP:  31    -0.813013406903E+02   -0.81857E-03   -0.68532E-03   256   0.952E-03 0.199E-02
 gam= 0.382 g(H,U,f)=  0.722E-03 0.573E-04 0.100E-04 ort(H,U,f) = 0.146E-02 0.132E-03 0.181E-04
DMP:  32    -0.813019997020E+02   -0.65901E-03   -0.56249E-03   256   0.790E-03 0.161E-02
 gam= 0.382 g(H,U,f)=  0.619E-03 0.400E-04 0.737E-05 ort(H,U,f) = 0.123E-02 0.895E-04 0.145E-04
DMP:  33    -0.813025422588E+02   -0.54256E-03   -0.47051E-03   256   0.667E-03 0.133E-02
 gam= 0.382 g(H,U,f)=  0.536E-03 0.285E-04 0.528E-05 ort(H,U,f) = 0.105E-02 0.624E-04 0.110E-04
DMP:  34    -0.813029976437E+02   -0.45538E-03   -0.39927E-03   256   0.570E-03 0.112E-02
 gam= 0.382 g(H,U,f)=  0.464E-03 0.205E-04 0.359E-05 ort(H,U,f) = 0.904E-03 0.444E-04 0.775E-05
DMP:  35    -0.813033853064E+02   -0.38766E-03   -0.34120E-03   256   0.488E-03 0.956E-03
 gam= 0.382 g(H,U,f)=  0.403E-03 0.149E-04 0.255E-05 ort(H,U,f) = 0.782E-03 0.320E-04 0.559E-05
DMP:  36    -0.813037176206E+02   -0.33231E-03   -0.29355E-03   256   0.421E-03 0.820E-03
 gam= 0.382 g(H,U,f)=  0.354E-03 0.110E-04 0.174E-05 ort(H,U,f) = 0.679E-03 0.233E-04 0.385E-05
DMP:  37    -0.813040041553E+02   -0.28653E-03   -0.25473E-03   256   0.367E-03 0.707E-03
 gam= 0.382 g(H,U,f)=  0.311E-03 0.816E-05 0.126E-05 ort(H,U,f) = 0.595E-03 0.172E-04 0.278E-05
DMP:  38    -0.813042533051E+02   -0.24915E-03   -0.22211E-03   256   0.321E-03 0.614E-03
 gam= 0.382 g(H,U,f)=  0.276E-03 0.618E-05 0.889E-06 ort(H,U,f) = 0.522E-03 0.128E-04 0.194E-05
DMP:  39    -0.813044709303E+02   -0.21763E-03   -0.19515E-03   256   0.283E-03 0.537E-03
 gam= 0.382 g(H,U,f)=  0.243E-03 0.479E-05 0.639E-06 ort(H,U,f) = 0.462E-03 0.975E-05 0.138E-05
DMP:  40    -0.813046625612E+02   -0.19163E-03   -0.17165E-03   256   0.248E-03 0.473E-03
 gam= 0.382 g(H,U,f)=  0.217E-03 0.380E-05 0.468E-06 ort(H,U,f) = 0.409E-03 0.758E-05 0.994E-06
DMP:  41    -0.813048315115E+02   -0.16895E-03   -0.15245E-03   256   0.222E-03 0.418E-03
 gam= 0.382 g(H,U,f)=  0.194E-03 0.310E-05 0.349E-06 ort(H,U,f) = 0.365E-03 0.603E-05 0.730E-06
DMP:  42    -0.813049818399E+02   -0.15033E-03   -0.13595E-03   256   0.198E-03 0.372E-03
 gam= 0.382 g(H,U,f)=  0.175E-03 0.257E-05 0.277E-06 ort(H,U,f) = 0.327E-03 0.491E-05 0.570E-06
DMP:  43    -0.813051160686E+02   -0.13423E-03   -0.12191E-03   256   0.178E-03 0.332E-03
 gam= 0.382 g(H,U,f)=  0.158E-03 0.218E-05 0.215E-06 ort(H,U,f) = 0.294E-03 0.409E-05 0.435E-06
DMP:  44    -0.813052365561E+02   -0.12049E-03   -0.10963E-03   256   0.160E-03 0.299E-03
 gam= 0.382 g(H,U,f)=  0.142E-03 0.187E-05 0.170E-06 ort(H,U,f) = 0.265E-03 0.346E-05 0.338E-06
DMP:  45    -0.813053450063E+02   -0.10845E-03   -0.98509E-04   256   0.144E-03 0.269E-03
 gam= 0.382 g(H,U,f)=  0.128E-03 0.159E-05 0.136E-06 ort(H,U,f) = 0.239E-03 0.294E-05 0.267E-06
DMP:  46    -0.813054425283E+02   -0.97522E-04   -0.88700E-04   256   0.129E-03 0.242E-03
 gam= 0.382 g(H,U,f)=  0.115E-03 0.135E-05 0.110E-06 ort(H,U,f) = 0.215E-03 0.250E-05 0.214E-06
DMP:  47    -0.813055303999E+02   -0.87872E-04   -0.79970E-04   256   0.117E-03 0.218E-03
 gam= 0.382 g(H,U,f)=  0.104E-03 0.113E-05 0.900E-07 ort(H,U,f) = 0.195E-03 0.211E-05 0.173E-06
DMP:  48    -0.813056096731E+02   -0.79273E-04   -0.72169E-04   256   0.105E-03 0.197E-03
 gam= 0.382 g(H,U,f)=  0.940E-04 0.948E-06 0.739E-07 ort(H,U,f) = 0.176E-03 0.177E-05 0.141E-06
DMP:  49    -0.813056812554E+02   -0.71582E-04   -0.65185E-04   256   0.951E-04 0.178E-03
 gam= 0.382 g(H,U,f)=  0.846E-04 0.791E-06 0.610E-07 ort(H,U,f) = 0.159E-03 0.148E-05 0.116E-06
DMP:  50    -0.813057459470E+02   -0.64692E-04   -0.58759E-04   256   0.855E-04 0.161E-03
 gam= 0.382 g(H,U,f)=  0.760E-04 0.656E-06 0.504E-07 ort(H,U,f) = 0.144E-03 0.124E-05 0.957E-07
DMP:  51    -0.813058042918E+02   -0.58345E-04   -0.52849E-04   256   0.767E-04 0.145E-03
 gam= 0.382 g(H,U,f)=  0.682E-04 0.540E-06 0.417E-07 ort(H,U,f) = 0.129E-03 0.102E-05 0.790E-07
DMP:  52    -0.813058567955E+02   -0.52504E-04   -0.47472E-04   256   0.688E-04 0.131E-03
 gam= 0.382 g(H,U,f)=  0.611E-04 0.440E-06 0.357E-07 ort(H,U,f) = 0.116E-03 0.840E-06 0.677E-07
DMP:  53    -0.813059039801E+02   -0.47185E-04   -0.42582E-04   256   0.616E-04 0.117E-03
 gam= 0.382 g(H,U,f)=  0.548E-04 0.356E-06 0.295E-07 ort(H,U,f) = 0.105E-03 0.684E-06 0.559E-07
DMP:  54    -0.813059463230E+02   -0.42343E-04   -0.38161E-04   256   0.551E-04 0.105E-03
 gam= 0.382 g(H,U,f)=  0.491E-04 0.286E-06 0.243E-07 ort(H,U,f) = 0.939E-04 0.554E-06 0.462E-07
DMP:  55    -0.813059842871E+02   -0.37964E-04   -0.34225E-04   256   0.495E-04 0.945E-04
 gam= 0.382 g(H,U,f)=  0.442E-04 0.231E-06 0.200E-07 ort(H,U,f) = 0.844E-04 0.447E-06 0.380E-07
DMP:  56    -0.813060183499E+02   -0.34063E-04   -0.30748E-04   256   0.445E-04 0.848E-04
 gam= 0.382 g(H,U,f)=  0.399E-04 0.187E-06 0.164E-07 ort(H,U,f) = 0.759E-04 0.361E-06 0.313E-07
DMP:  57    -0.813060489646E+02   -0.30615E-04   -0.27684E-04   256   0.401E-04 0.763E-04
 gam= 0.382 g(H,U,f)=  0.359E-04 0.152E-06 0.135E-07 ort(H,U,f) = 0.684E-04 0.292E-06 0.257E-07
DMP:  58    -0.813060765391E+02   -0.27575E-04   -0.24944E-04   256   0.361E-04 0.687E-04
 gam= 0.382 g(H,U,f)=  0.324E-04 0.123E-06 0.111E-07 ort(H,U,f) = 0.617E-04 0.237E-06 0.211E-07
DMP:  59    -0.813061013931E+02   -0.24854E-04   -0.22486E-04   256   0.325E-04 0.620E-04
 gam= 0.382 g(H,U,f)=  0.292E-04 0.101E-06 0.911E-08 ort(H,U,f) = 0.557E-04 0.193E-06 0.173E-07
DMP:  60    -0.813061238045E+02   -0.22411E-04   -0.20282E-04   256   0.294E-04 0.559E-04
 gam= 0.382 g(H,U,f)=  0.264E-04 0.827E-07 0.749E-08 ort(H,U,f) = 0.503E-04 0.158E-06 0.143E-07
DMP:  61    -0.813061440253E+02   -0.20221E-04   -0.18312E-04   256   0.265E-04 0.504E-04
 gam= 0.382 g(H,U,f)=  0.239E-04 0.682E-07 0.616E-08 ort(H,U,f) = 0.454E-04 0.130E-06 0.117E-07
DMP:  62    -0.813061622864E+02   -0.18261E-04   -0.16555E-04   256   0.240E-04 0.456E-04
 gam= 0.382 g(H,U,f)=  0.216E-04 0.563E-07 0.507E-08 ort(H,U,f) = 0.411E-04 0.107E-06 0.965E-08
DMP:  63    -0.813061787996E+02   -0.16513E-04   -0.14964E-04   256   0.217E-04 0.412E-04
 gam= 0.382 g(H,U,f)=  0.195E-04 0.465E-07 0.417E-08 ort(H,U,f) = 0.372E-04 0.882E-07 0.794E-08
DMP:  64    -0.813061937286E+02   -0.14929E-04   -0.13513E-04   256   0.196E-04 0.373E-04
 gam= 0.382 g(H,U,f)=  0.176E-04 0.383E-07 0.343E-08 ort(H,U,f) = 0.336E-04 0.728E-07 0.654E-08
DMP:  65    -0.813062072134E+02   -0.13485E-04   -0.12192E-04   256   0.176E-04 0.337E-04
 gam= 0.382 g(H,U,f)=  0.158E-04 0.313E-07 0.282E-08 ort(H,U,f) = 0.303E-04 0.597E-07 0.538E-08
DMP:  66    -0.813062193815E+02   -0.12168E-04   -0.10968E-04   256   0.158E-04 0.304E-04
 gam= 0.382 g(H,U,f)=  0.142E-04 0.254E-07 0.232E-08 ort(H,U,f) = 0.273E-04 0.488E-07 0.442E-08
DMP:  67    -0.813062303299E+02   -0.10948E-04   -0.98542E-05   256   0.142E-04 0.273E-04
 gam= 0.382 g(H,U,f)=  0.127E-04 0.206E-07 0.190E-08 ort(H,U,f) = 0.245E-04 0.396E-07 0.363E-08
DMP:  68    -0.813062401682E+02   -0.98383E-05   -0.88488E-05   256   0.127E-04 0.246E-04
 final diagonalization
   1 F= -.81306240E+02 E0= -.81306240E+02  d E =0.000000E+00
