Al2C                                    
           1
     6.019200    0.000000    0.000000
     0.000000   10.140000    0.000000
     0.000000    0.000000   15.000000
   Al   C    Se   H 
   8   4   1   2
Direct configuration=     1
   0.44659121  0.88205305  0.23993603
   0.94648050  0.88222909  0.26081903
   0.44737765  0.62195567  0.24120474
   0.94769187  0.62379386  0.26745214
   0.44691997  0.38181975  0.27645523
   0.94783305  0.38313857  0.24409533
   0.44626909  0.12376480  0.26169938
   0.94650348  0.12340116  0.24156350
   0.19651866  0.00263098  0.25028660
   0.69641446  0.00274603  0.25069562
   0.19757959  0.50304158  0.25776067
   0.69749718  0.50337934  0.25828831
   0.52718667  0.41964751  0.46197544
   0.74069282  0.35023389  0.46742731
   0.42921468  0.32805821  0.52798067
