Al   C    Se   H                        
   1.0000000000000000     
     6.0191999999999997    0.0000000000000000    0.0000000000000000
     0.0000000000000000   10.1400000000000006    0.0000000000000000
     0.0000000000000000    0.0000000000000000   15.0000000000000000
   Al   C    Se   H 
     8     4     1     2
Selective dynamics
Direct
  0.4204567531984079  0.8578850700740552  0.2294510117606452   T   T   T
  0.9206807308506210  0.8585600362388371  0.2536088523767672   T   T   T
  0.4206589744173196  0.5988961380222909  0.2349943514850007   T   T   T
  0.9209271024586031  0.6015130006548096  0.2642046218285515   T   T   T
  0.4234340914513676  0.3569254958386567  0.2718579006771034   T   T   T
  0.9221729795791710  0.3592767576685574  0.2394337433724542   T   T   T
  0.4208329237719794  0.1007249706902845  0.2537877102750379   T   T   T
  0.9206170853076754  0.1008081015547802  0.2311897679641604   T   T   T
  0.1707257446608377  0.9793596329653158  0.2412354835365532   T   T   T
  0.6705383210861263  0.9791684579347639  0.2404195084756299   T   T   T
  0.1718412242902071  0.4798519806966318  0.2577674824869751   T   T   T
  0.6712129992754654  0.4802178882586413  0.2524255511567612   T   T   T
  0.4858912775890283  0.3801429095519628  0.4658075786936804   T   T   T
  0.3068697543767634  0.3076392967857473  0.5140263048496400   T   T   T
  0.3173600925933179  0.4734290223063295  0.4288118552895833   T   T   T

  0.00000000E+00  0.00000000E+00  0.00000000E+00
  0.00000000E+00  0.00000000E+00  0.00000000E+00
  0.00000000E+00  0.00000000E+00  0.00000000E+00
  0.00000000E+00  0.00000000E+00  0.00000000E+00
  0.00000000E+00  0.00000000E+00  0.00000000E+00
  0.00000000E+00  0.00000000E+00  0.00000000E+00
  0.00000000E+00  0.00000000E+00  0.00000000E+00
  0.00000000E+00  0.00000000E+00  0.00000000E+00
  0.00000000E+00  0.00000000E+00  0.00000000E+00
  0.00000000E+00  0.00000000E+00  0.00000000E+00
  0.00000000E+00  0.00000000E+00  0.00000000E+00
  0.00000000E+00  0.00000000E+00  0.00000000E+00
  0.00000000E+00  0.00000000E+00  0.00000000E+00
  0.00000000E+00  0.00000000E+00  0.00000000E+00
  0.00000000E+00  0.00000000E+00  0.00000000E+00
