Al   C    Se   H 
   1.0000000000000000     
   6.0191999999999997   0.0000000000000000   0.0000000000000000
   0.0000000000000000  10.1400000000000006   0.0000000000000000
   0.0000000000000000   0.0000000000000000  15.0000000000000000
Al   C    Se   H 
8  4  1  2  
Selective dynamics
Direct
  0.3915488672898788  0.8693437505016222  0.2371925925075234 T T T
  0.8903813972479369  0.8693470887852890  0.2372302494987677 T T T
  0.3972745844724595  0.6125065648243393  0.2526829329114129 T T T
  0.8846499669504440  0.6125110476383201  0.2527011505374617 T T T
  0.4067190729948908  0.3632112583944805  0.2888154439790696 T T T
  0.8752173652551156  0.3632243306234542  0.2888262006674674 T T T
  0.3902459651356515  0.1134122615533550  0.2471191488666142 T T T
  0.8916761063170454  0.1134190285658909  0.2470877845273551 T T T
  0.1409747170148354  0.9897336160864594  0.2416616830076299 T T T
  0.6409601917702681  0.9907086106369872  0.2369330284390603 T T T
  0.1409670732734730  0.4943829401850036  0.3000529958365788 T T T
  0.6409601290926595  0.4905824041039538  0.2453603413205719 T T T
  0.6409617809134815  0.3488727256667380  0.4345083772740778 T T T
  0.6412545630811028  0.2061156697970750  0.4580347677125445 T T T
  0.1409790857510842  0.5235221937612838  0.3717933029138536 T T T
