Al2C                                    
   1.0000000000000000     
     6.0191999999999997    0.0000000000000000    0.0000000000000000
     0.0000000000000000   10.1400000000000006    0.0000000000000000
     0.0000000000000000    0.0000000000000000   15.0000000000000000
   Al   C    O    H 
     8     4     1     2
Selective dynamics
Direct
  0.4617404056702756  0.8181396335357837  0.2908015773015951   T   T   T
  0.9637685644056341  0.8202164942011928  0.2526364327303755   T   T   T
  0.4620537836709010  0.5606595866571841  0.2655000540869218   T   T   T
  0.9624248411943377  0.5606889579244836  0.2438351611895064   T   T   T
  0.4624542751474571  0.3190452425448065  0.2402052004688663   T   T   T
  0.9623543160199398  0.3195067871719416  0.2618315979194922   T   T   T
  0.4632282742988617  0.0575435882323681  0.2465082453619051   T   T   T
  0.9644103587430148  0.0615562741106736  0.2735459919572059   T   T   T
  0.2135709802652099  0.9402011046495107  0.2675486528664204   T   T   T
  0.7140500245155676  0.9408891236294521  0.2691795455141746   T   T   T
  0.2125833270274374  0.4394922919975981  0.2510899701769368   T   T   T
  0.7121047344763664  0.4396409206086457  0.2512356075982793   T   T   T
  0.5056184009990640  0.8397640662036661  0.4276116638981320   T   T   T
  0.6215437017489616  0.9050683593247127  0.4140031606827121   T   T   T
  0.3788648783773111  0.8894810603322346  0.4486671382474585   T   T   T

  0.00000000E+00  0.00000000E+00  0.00000000E+00
  0.00000000E+00  0.00000000E+00  0.00000000E+00
  0.00000000E+00  0.00000000E+00  0.00000000E+00
  0.00000000E+00  0.00000000E+00  0.00000000E+00
  0.00000000E+00  0.00000000E+00  0.00000000E+00
  0.00000000E+00  0.00000000E+00  0.00000000E+00
  0.00000000E+00  0.00000000E+00  0.00000000E+00
  0.00000000E+00  0.00000000E+00  0.00000000E+00
  0.00000000E+00  0.00000000E+00  0.00000000E+00
  0.00000000E+00  0.00000000E+00  0.00000000E+00
  0.00000000E+00  0.00000000E+00  0.00000000E+00
  0.00000000E+00  0.00000000E+00  0.00000000E+00
  0.00000000E+00  0.00000000E+00  0.00000000E+00
  0.00000000E+00  0.00000000E+00  0.00000000E+00
  0.00000000E+00  0.00000000E+00  0.00000000E+00
