Al2C                                    
   1.0000000000000000     
     6.0191999999999997    0.0000000000000000    0.0000000000000000
     0.0000000000000000   10.1400000000000006    0.0000000000000000
     0.0000000000000000    0.0000000000000000   15.0000000000000000
   Al   C    O    H 
     8     4     1     2
Selective dynamics
Direct
  0.4619053928432353  0.8181692415775677  0.2906831495946881   T   T   T
  0.9638111350231279  0.8202501864102506  0.2526830330890136   T   T   T
  0.4621988072468067  0.5606776343992081  0.2656131125007269   T   T   T
  0.9624372356022285  0.5606342068107676  0.2438907313640586   T   T   T
  0.4625445886334323  0.3191346535362123  0.2402090081367378   T   T   T
  0.9623942570796327  0.3194698370020616  0.2618937987849713   T   T   T
  0.4634247397386350  0.0575933736273112  0.2464824981742693   T   T   T
  0.9644505959051120  0.0616443038233874  0.2736248678412207   T   T   T
  0.2136376110970684  0.9402902091611982  0.2674782848847710   T   T   T
  0.7141834133264701  0.9409837167723685  0.2693200737215789   T   T   T
  0.2126541371356476  0.4395187452199112  0.2511068532663742   T   T   T
  0.7121632749521226  0.4396367338707522  0.2512745043146007   T   T   T
  0.5051435086886270  0.8395050180204132  0.4274914479322349   T   T   T
  0.6210141823532911  0.9049368364572230  0.4139888038529652   T   T   T
  0.3788079869349090  0.8894487944356138  0.4484598325417705   T   T   T

  0.00000000E+00  0.00000000E+00  0.00000000E+00
  0.00000000E+00  0.00000000E+00  0.00000000E+00
  0.00000000E+00  0.00000000E+00  0.00000000E+00
  0.00000000E+00  0.00000000E+00  0.00000000E+00
  0.00000000E+00  0.00000000E+00  0.00000000E+00
  0.00000000E+00  0.00000000E+00  0.00000000E+00
  0.00000000E+00  0.00000000E+00  0.00000000E+00
  0.00000000E+00  0.00000000E+00  0.00000000E+00
  0.00000000E+00  0.00000000E+00  0.00000000E+00
  0.00000000E+00  0.00000000E+00  0.00000000E+00
  0.00000000E+00  0.00000000E+00  0.00000000E+00
  0.00000000E+00  0.00000000E+00  0.00000000E+00
  0.00000000E+00  0.00000000E+00  0.00000000E+00
  0.00000000E+00  0.00000000E+00  0.00000000E+00
  0.00000000E+00  0.00000000E+00  0.00000000E+00
