  15  15   0   0
  0.6103469E+02  0.6019200E-09  0.1014000E-08  0.1500000E-08  0.3500000E-15
   1.0000000000000000E-004
  CAR 
 Al2C                                    
      3.29725009    -20.27721853  301     -2.11996635      1.00000000
    -20.277  0.0000E+00  0.0000E+00
    -20.199  0.0000E+00  0.0000E+00
    -20.120  0.0000E+00  0.0000E+00
    -20.041  0.0000E+00  0.0000E+00
    -19.963  0.0000E+00  0.0000E+00
    -19.884  0.0000E+00  0.0000E+00
    -19.806  0.0000E+00  0.0000E+00
    -19.727  0.0000E+00  0.0000E+00
    -19.649  0.0000E+00  0.0000E+00
    -19.570  0.0000E+00  0.0000E+00
    -19.491  0.6216E-14  0.4885E-15
    -19.413  0.4824E-07  0.3790E-08
    -19.334  0.3073E-02  0.2415E-03
    -19.256  0.1871E+01  0.1473E+00
    -19.177  0.1798E+02  0.1560E+01
    -19.098  0.5560E+01  0.1997E+01
    -19.020  0.3495E-01  0.2000E+01
    -18.941  0.2318E-05  0.2000E+01
    -18.863  0.1295E-11  0.2000E+01
    -18.784  0.0000E+00  0.2000E+01
    -18.706  0.0000E+00  0.2000E+01
    -18.627  0.0000E+00  0.2000E+01
    -18.548  0.0000E+00  0.2000E+01
    -18.470  0.0000E+00  0.2000E+01
    -18.391  0.0000E+00  0.2000E+01
    -18.313  0.0000E+00  0.2000E+01
    -18.234  0.0000E+00  0.2000E+01
    -18.156  0.0000E+00  0.2000E+01
    -18.077  0.0000E+00  0.2000E+01
    -17.998  0.0000E+00  0.2000E+01
    -17.920  0.0000E+00  0.2000E+01
    -17.841  0.0000E+00  0.2000E+01
    -17.763  0.0000E+00  0.2000E+01
    -17.684  0.0000E+00  0.2000E+01
    -17.605  0.0000E+00  0.2000E+01
    -17.527  0.0000E+00  0.2000E+01
    -17.448  0.0000E+00  0.2000E+01
    -17.370  0.0000E+00  0.2000E+01
    -17.291  0.0000E+00  0.2000E+01
    -17.213  0.0000E+00  0.2000E+01
    -17.134  0.0000E+00  0.2000E+01
    -17.055  0.0000E+00  0.2000E+01
    -16.977  0.0000E+00  0.2000E+01
    -16.898  0.0000E+00  0.2000E+01
    -16.820  0.0000E+00  0.2000E+01
    -16.741  0.0000E+00  0.2000E+01
    -16.662  0.0000E+00  0.2000E+01
    -16.584  0.0000E+00  0.2000E+01
    -16.505  0.0000E+00  0.2000E+01
    -16.427  0.0000E+00  0.2000E+01
    -16.348  0.0000E+00  0.2000E+01
    -16.270  0.0000E+00  0.2000E+01
    -16.191  0.0000E+00  0.2000E+01
    -16.112  0.0000E+00  0.2000E+01
    -16.034  0.0000E+00  0.2000E+01
    -15.955  0.0000E+00  0.2000E+01
    -15.877  0.0000E+00  0.2000E+01
    -15.798  0.0000E+00  0.2000E+01
    -15.719  0.0000E+00  0.2000E+01
    -15.641  0.4709E-15  0.2000E+01
    -15.562  0.3363E-08  0.2000E+01
    -15.484  0.2139E-03  0.2000E+01
    -15.405  0.1432E+00  0.2011E+01
    -15.327  0.2410E+01  0.2201E+01
    -15.248  0.4183E+01  0.2529E+01
    -15.169  0.9750E+01  0.3296E+01
    -15.091  0.7621E+01  0.3894E+01
    -15.012  0.5798E+01  0.4350E+01
    -14.934  0.6351E+00  0.4400E+01
    -14.855  0.4412E+00  0.4435E+01
    -14.777  0.5672E+01  0.4880E+01
    -14.698  0.7457E+01  0.5466E+01
    -14.619  0.6109E+01  0.5946E+01
    -14.541  0.6806E+00  0.6000E+01
    -14.462  0.2511E-02  0.6000E+01
    -14.384  0.1162E-06  0.6000E+01
    -14.305  0.4461E-03  0.6000E+01
    -14.226  0.3179E+00  0.6025E+01
    -14.148  0.5496E+01  0.6457E+01
    -14.069  0.8665E+01  0.7138E+01
    -13.991  0.5523E+01  0.7572E+01
    -13.912  0.3584E+00  0.7600E+01
    -13.834  0.6033E-03  0.7600E+01
    -13.755  0.1126E-07  0.7600E+01
    -13.676  0.1090E-10  0.7600E+01
    -13.598  0.5959E-05  0.7600E+01
    -13.519  0.3185E-01  0.7603E+01
    -13.441  0.2693E+01  0.7814E+01
    -13.362  0.1036E+02  0.8628E+01
    -13.283  0.6828E+01  0.9165E+01
    -13.205  0.4439E+00  0.9200E+01
    -13.126  0.2883E-02  0.9200E+01
    -13.048  0.6285E+00  0.9250E+01
    -12.969  0.5392E+01  0.9673E+01
    -12.891  0.3953E+01  0.9984E+01
    -12.812  0.2047E+00  0.1000E+02
    -12.733  0.2377E-03  0.1000E+02
    -12.655  0.3173E-08  0.1000E+02
    -12.576  0.3768E-15  0.1000E+02
    -12.498  0.0000E+00  0.1000E+02
    -12.419  0.0000E+00  0.1000E+02
    -12.340  0.0000E+00  0.1000E+02
    -12.262  0.0000E+00  0.1000E+02
    -12.183  0.0000E+00  0.1000E+02
    -12.105  0.0000E+00  0.1000E+02
    -12.026  0.0000E+00  0.1000E+02
    -11.948  0.0000E+00  0.1000E+02
    -11.869  0.0000E+00  0.1000E+02
    -11.790  0.0000E+00  0.1000E+02
    -11.712  0.0000E+00  0.1000E+02
    -11.633  0.0000E+00  0.1000E+02
    -11.555  0.0000E+00  0.1000E+02
    -11.476  0.0000E+00  0.1000E+02
    -11.398  0.0000E+00  0.1000E+02
    -11.319  0.0000E+00  0.1000E+02
    -11.240  0.0000E+00  0.1000E+02
    -11.162  0.0000E+00  0.1000E+02
    -11.083  0.0000E+00  0.1000E+02
    -11.005  0.0000E+00  0.1000E+02
    -10.926  0.9145E-09  0.1000E+02
    -10.847  0.1502E-03  0.1000E+02
    -10.769  0.2835E+00  0.1002E+02
    -10.690  0.1040E+02  0.1084E+02
    -10.612  0.1406E+02  0.1194E+02
    -10.533  0.7064E+00  0.1200E+02
    -10.455  0.5993E-03  0.1200E+02
    -10.376  0.5242E-08  0.1200E+02
    -10.297  0.0000E+00  0.1200E+02
    -10.219  0.0000E+00  0.1200E+02
    -10.140  0.0000E+00  0.1200E+02
    -10.062  0.0000E+00  0.1200E+02
     -9.983  0.0000E+00  0.1200E+02
     -9.904  0.1579E-11  0.1200E+02
     -9.826  0.1206E-05  0.1200E+02
     -9.747  0.7948E-02  0.1200E+02
     -9.669  0.6491E+00  0.1205E+02
     -9.590  0.2821E+01  0.1227E+02
     -9.512  0.1818E+01  0.1242E+02
     -9.433  0.3381E+01  0.1268E+02
     -9.354  0.2718E+01  0.1290E+02
     -9.276  0.2233E+01  0.1307E+02
     -9.197  0.1657E+01  0.1320E+02
     -9.119  0.1792E+01  0.1334E+02
     -9.040  0.3620E+01  0.1363E+02
     -8.961  0.8912E+01  0.1433E+02
     -8.883  0.7690E+01  0.1493E+02
     -8.804  0.1164E+02  0.1585E+02
     -8.726  0.1055E+02  0.1667E+02
     -8.647  0.1335E+02  0.1772E+02
     -8.569  0.1823E+01  0.1787E+02
     -8.490  0.7134E+00  0.1792E+02
     -8.411  0.4924E+01  0.1831E+02
     -8.333  0.1150E+01  0.1840E+02
     -8.254  0.4424E+00  0.1843E+02
     -8.176  0.2497E+01  0.1863E+02
     -8.097  0.1842E+01  0.1878E+02
     -8.018  0.5303E+01  0.1919E+02
     -7.940  0.3044E+01  0.1943E+02
     -7.861  0.8579E+00  0.1950E+02
     -7.783  0.4550E+01  0.1986E+02
     -7.704  0.2015E+01  0.2001E+02
     -7.626  0.5171E+01  0.2042E+02
     -7.547  0.9669E+01  0.2118E+02
     -7.468  0.1930E+01  0.2133E+02
     -7.390  0.3378E+00  0.2136E+02
     -7.311  0.4806E+01  0.2174E+02
     -7.233  0.5052E+01  0.2213E+02
     -7.154  0.2688E+01  0.2234E+02
     -7.076  0.2292E+01  0.2253E+02
     -6.997  0.1685E+00  0.2254E+02
     -6.918  0.1841E+01  0.2268E+02
     -6.840  0.4565E+01  0.2304E+02
     -6.761  0.1231E+02  0.2401E+02
     -6.683  0.3240E+01  0.2426E+02
     -6.604  0.1919E+01  0.2441E+02
     -6.525  0.4628E+01  0.2478E+02
     -6.447  0.2466E+01  0.2497E+02
     -6.368  0.5238E+01  0.2538E+02
     -6.290  0.5181E+01  0.2579E+02
     -6.211  0.5636E+01  0.2623E+02
     -6.133  0.2533E+01  0.2643E+02
     -6.054  0.5659E+01  0.2688E+02
     -5.975  0.1315E+01  0.2698E+02
     -5.897  0.8719E+01  0.2767E+02
     -5.818  0.4210E+01  0.2800E+02
     -5.740  0.1685E+01  0.2813E+02
     -5.661  0.5327E+01  0.2855E+02
     -5.582  0.7386E+01  0.2913E+02
     -5.504  0.5729E+01  0.2958E+02
     -5.425  0.3552E+01  0.2986E+02
     -5.347  0.6744E+00  0.2991E+02
     -5.268  0.4340E+01  0.3025E+02
     -5.190  0.5352E+01  0.3067E+02
     -5.111  0.4816E+01  0.3105E+02
     -5.032  0.1008E+02  0.3184E+02
     -4.954  0.6339E+01  0.3234E+02
     -4.875  0.2373E+01  0.3253E+02
     -4.797  0.2314E+01  0.3271E+02
     -4.718  0.4288E+01  0.3305E+02
     -4.639  0.1121E+02  0.3393E+02
     -4.561  0.1185E+02  0.3486E+02
     -4.482  0.4228E+01  0.3519E+02
     -4.404  0.1278E+01  0.3529E+02
     -4.325  0.7833E+01  0.3591E+02
     -4.247  0.4091E+01  0.3623E+02
     -4.168  0.7526E+00  0.3629E+02
     -4.089  0.5060E+01  0.3668E+02
     -4.011  0.1344E+02  0.3774E+02
     -3.932  0.1137E+02  0.3863E+02
     -3.854  0.9203E+01  0.3936E+02
     -3.775  0.1665E+02  0.4067E+02
     -3.697  0.5197E+01  0.4107E+02
     -3.618  0.4550E+01  0.4143E+02
     -3.539  0.4954E+01  0.4182E+02
     -3.461  0.1884E+01  0.4197E+02
     -3.382  0.2122E+01  0.4214E+02
     -3.304  0.6871E+01  0.4268E+02
     -3.225  0.1305E+02  0.4370E+02
     -3.146  0.7526E+01  0.4429E+02
     -3.068  0.5527E+01  0.4473E+02
     -2.989  0.4407E+01  0.4507E+02
     -2.911  0.7572E+01  0.4567E+02
     -2.832  0.6949E+01  0.4621E+02
     -2.754  0.3790E+01  0.4651E+02
     -2.675  0.2684E+00  0.4653E+02
     -2.596  0.1331E+00  0.4654E+02
     -2.518  0.3462E+01  0.4682E+02
     -2.439  0.5857E+01  0.4728E+02
     -2.361  0.6987E+01  0.4783E+02
     -2.282  0.2193E+01  0.4800E+02
     -2.203  0.3364E-01  0.4800E+02
     -2.125  0.1015E-04  0.4800E+02
     -2.046  0.3194E-10  0.4800E+02
     -1.968  0.0000E+00  0.4800E+02
     -1.889  0.0000E+00  0.4800E+02
     -1.811  0.0000E+00  0.4800E+02
     -1.732  0.0000E+00  0.4800E+02
     -1.653  0.0000E+00  0.4800E+02
     -1.575  0.0000E+00  0.4800E+02
     -1.496  0.0000E+00  0.4800E+02
     -1.418  0.0000E+00  0.4800E+02
     -1.339  0.0000E+00  0.4800E+02
     -1.260  0.1476E-11  0.4800E+02
     -1.182  0.1151E-05  0.4800E+02
     -1.103  0.7715E-02  0.4800E+02
     -1.025  0.6048E+00  0.4805E+02
     -0.946  0.2310E+01  0.4823E+02
     -0.868  0.2073E+01  0.4839E+02
     -0.789  0.1814E+00  0.4841E+02
     -0.710  0.1974E+01  0.4856E+02
     -0.632  0.2037E+01  0.4872E+02
     -0.553  0.5968E+01  0.4919E+02
     -0.475  0.3351E+01  0.4945E+02
     -0.396  0.4490E+00  0.4949E+02
     -0.318  0.1236E+01  0.4959E+02
     -0.239  0.9623E+00  0.4966E+02
     -0.160  0.4945E+01  0.5005E+02
     -0.082  0.1045E+01  0.5013E+02
     -0.003  0.3508E-01  0.5014E+02
      0.075  0.1479E+01  0.5025E+02
      0.154  0.2430E+01  0.5044E+02
      0.233  0.7607E+01  0.5104E+02
      0.311  0.6846E+01  0.5158E+02
      0.390  0.1676E+01  0.5171E+02
      0.468  0.7256E+01  0.5228E+02
      0.547  0.6392E+01  0.5278E+02
      0.625  0.7302E+01  0.5336E+02
      0.704  0.8299E+01  0.5401E+02
      0.783  0.6545E+01  0.5452E+02
      0.861  0.7832E+01  0.5514E+02
      0.940  0.8266E+01  0.5579E+02
      1.018  0.4941E+01  0.5618E+02
      1.097  0.1367E+02  0.5725E+02
      1.176  0.1024E+02  0.5805E+02
      1.254  0.1763E+01  0.5819E+02
      1.333  0.7883E+01  0.5881E+02
      1.411  0.1503E+02  0.5999E+02
      1.490  0.1259E+02  0.6098E+02
      1.568  0.3089E+01  0.6123E+02
      1.647  0.1365E+01  0.6133E+02
      1.726  0.3972E+01  0.6165E+02
      1.804  0.9030E+01  0.6235E+02
      1.883  0.9028E+01  0.6306E+02
      1.961  0.2367E+01  0.6325E+02
      2.040  0.2454E+01  0.6344E+02
      2.119  0.3119E+00  0.6347E+02
      2.197  0.1658E+01  0.6360E+02
      2.276  0.4681E+01  0.6397E+02
      2.354  0.4348E+00  0.6400E+02
      2.433  0.6522E-03  0.6400E+02
      2.511  0.9749E-08  0.6400E+02
      2.590  0.1130E-14  0.6400E+02
      2.669  0.0000E+00  0.6400E+02
      2.747  0.0000E+00  0.6400E+02
      2.826  0.0000E+00  0.6400E+02
      2.904  0.0000E+00  0.6400E+02
      2.983  0.0000E+00  0.6400E+02
      3.062  0.0000E+00  0.6400E+02
      3.140  0.0000E+00  0.6400E+02
      3.219  0.0000E+00  0.6400E+02
      3.297  0.0000E+00  0.6400E+02
