   15   15    1    1
  0.6103469E+02  0.6019200E-09  0.1014000E-08  0.1500000E-08  0.3500000E-15
   1.0000000000000000E-004
  CAR 
 Al2C                                    
     48      8     32

  0.3742002E-15  0.3742002E-15  0.1262379E-14  0.6666667E-01
    1      -19.205624   1.000000
    2      -15.354229   1.000000
    3      -15.181414   1.000000
    4      -13.016645   1.000000
    5      -12.942213   1.000000
    6      -10.703688   1.000000
    7       -9.655390   1.000000
    8       -9.439463   1.000000
    9       -9.372724   1.000000
   10       -8.709287   1.000000
   11       -7.193161   1.000000
   12       -6.754870   1.000000
   13       -6.283861   1.000000
   14       -6.079706   1.000000
   15       -5.269529   1.000000
   16       -5.235417   1.000000
   17       -4.791493   1.000000
   18       -4.601189   1.000000
   19       -3.484295   1.000000
   20       -3.277899   1.000000
   21       -3.242350   1.000000
   22       -2.538854   1.000000
   23       -2.423850   1.000000
   24       -2.358759   1.000000
   25       -1.011089   0.000000
   26       -0.362648   0.000000
   27        0.240990   0.000000
   28        0.617113   0.000000
   29        0.818421   0.000000
   30        0.913596   0.000000
   31        1.389703   0.000000
   32        1.597046   0.000000

  0.2000000E+00  0.3742002E-15  0.1262379E-14  0.1333333E+00
    1      -19.204796   1.000000
    2      -15.216284   1.000000
    3      -15.047054   1.000000
    4      -13.433423   1.000000
    5      -13.330320   1.000000
    6      -10.684074   1.000000
    7       -9.277322   1.000000
    8       -9.010860   1.000000
    9       -8.777602   1.000000
   10       -8.694923   1.000000
   11       -7.141495   1.000000
   12       -6.923161   1.000000
   13       -6.586834   1.000000
   14       -6.112663   1.000000
   15       -5.496510   1.000000
   16       -5.071651   1.000000
   17       -4.674524   1.000000
   18       -4.036921   1.000000
   19       -4.019900   1.000000
   20       -3.982249   1.000000
   21       -3.858632   1.000000
   22       -3.049698   1.000000
   23       -2.803960   1.000000
   24       -2.402686   1.000000
   25       -0.935138   0.000000
   26        0.542075   0.000000
   27        0.658266   0.000000
   28        0.880412   0.000000
   29        0.928119   0.000000
   30        1.072316   0.000000
   31        1.412749   0.000000
   32        1.992170   0.000000

  0.4000000E+00  0.3742002E-15  0.1262379E-14  0.1333333E+00
    1      -19.203458   1.000000
    2      -14.811317   1.000000
    3      -14.653331   1.000000
    4      -14.175673   1.000000
    5      -14.038604   1.000000
    6      -10.670660   1.000000
    7       -8.877860   1.000000
    8       -8.676168   1.000000
    9       -7.979337   1.000000
   10       -7.593193   1.000000
   11       -7.341592   1.000000
   12       -6.775729   1.000000
   13       -6.455681   1.000000
   14       -6.114293   1.000000
   15       -5.908234   1.000000
   16       -5.595204   1.000000
   17       -5.310998   1.000000
   18       -4.939894   1.000000
   19       -4.630280   1.000000
   20       -4.284210   1.000000
   21       -3.882073   1.000000
   22       -3.570136   1.000000
   23       -2.929447   1.000000
   24       -2.489105   1.000000
   25       -0.534513   0.000000
   26        0.240400   0.000000
   27        1.069732   0.000000
   28        1.289142   0.000000
   29        1.435680   0.000000
   30        1.463083   0.000000
   31        1.807888   0.000000
   32        2.225683   0.000000

  0.3742002E-15  0.3333333E+00  0.1262379E-14  0.1333333E+00
    1      -19.205652   1.000000
    2      -15.313692   1.000000
    3      -15.226794   1.000000
    4      -12.998785   1.000000
    5      -12.960969   1.000000
    6      -10.704204   1.000000
    7       -9.593762   1.000000
    8       -9.456618   1.000000
    9       -9.121181   1.000000
   10       -8.708277   1.000000
   11       -8.214286   1.000000
   12       -6.579279   1.000000
   13       -5.907093   1.000000
   14       -5.504731   1.000000
   15       -5.239577   1.000000
   16       -5.153180   1.000000
   17       -4.791191   1.000000
   18       -4.359064   1.000000
   19       -3.806023   1.000000
   20       -3.379303   1.000000
   21       -3.275435   1.000000
   22       -3.245036   1.000000
   23       -2.516528   1.000000
   24       -2.383385   1.000000
   25       -0.719981   0.000000
   26        0.080344   0.000000
   27        0.191853   0.000000
   28        0.423418   0.000000
   29        0.757152   0.000000
   30        0.917793   0.000000
   31        1.309670   0.000000
   32        1.859343   0.000000

  0.2000000E+00  0.3333333E+00  0.1262379E-14  0.1333333E+00
    1      -19.204764   1.000000
    2      -15.176520   1.000000
    3      -15.091453   1.000000
    4      -13.408568   1.000000
    5      -13.356805   1.000000
    6      -10.684368   1.000000
    7       -9.013204   1.000000
    8       -8.934556   1.000000
    9       -8.827072   1.000000
   10       -8.694771   1.000000
   11       -8.069209   1.000000
   12       -6.803069   1.000000
   13       -6.374622   1.000000
   14       -5.920730   1.000000
   15       -5.081848   1.000000
   16       -5.018830   1.000000
   17       -4.684942   1.000000
   18       -4.034464   1.000000
   19       -3.984165   1.000000
   20       -3.825915   1.000000
   21       -3.771530   1.000000
   22       -3.311925   1.000000
   23       -2.967418   1.000000
   24       -2.858829   1.000000
   25       -0.588673   0.000000
   26        0.249172   0.000000
   27        0.555408   0.000000
   28        0.798873   0.000000
   29        1.044729   0.000000
   30        1.105435   0.000000
   31        1.355980   0.000000
   32        1.815949   0.000000

  0.4000000E+00  0.3333333E+00  0.1262379E-14  0.1333333E+00
    1      -19.203408   1.000000
    2      -14.773992   1.000000
    3      -14.694664   1.000000
    4      -14.142970   1.000000
    5      -14.074290   1.000000
    6      -10.670886   1.000000
    7       -8.813377   1.000000
    8       -8.441624   1.000000
    9       -7.813137   1.000000
   10       -7.637026   1.000000
   11       -7.570602   1.000000
   12       -7.292322   1.000000
   13       -6.824227   1.000000
   14       -6.263417   1.000000
   15       -5.716432   1.000000
   16       -5.610147   1.000000
   17       -4.618974   1.000000
   18       -4.556139   1.000000
   19       -4.365924   1.000000
   20       -4.104534   1.000000
   21       -3.842825   1.000000
   22       -3.629358   1.000000
   23       -3.222513   1.000000
   24       -3.128680   1.000000
   25       -0.200702   0.000000
   26        0.449473   0.000000
   27        0.683924   0.000000
   28        1.088247   0.000000
   29        1.375833   0.000000
   30        1.450847   0.000000
   31        1.711281   0.000000
   32        1.854204   0.000000

 -0.4000000E+00  0.3333333E+00  0.1262379E-14  0.1333333E+00
    1      -19.203406   1.000000
    2      -14.773933   1.000000
    3      -14.694726   1.000000
    4      -14.143019   1.000000
    5      -14.074236   1.000000
    6      -10.670931   1.000000
    7       -8.810720   1.000000
    8       -8.449015   1.000000
    9       -7.796951   1.000000
   10       -7.637842   1.000000
   11       -7.575079   1.000000
   12       -7.303382   1.000000
   13       -6.816366   1.000000
   14       -6.269559   1.000000
   15       -5.713377   1.000000
   16       -5.610513   1.000000
   17       -4.624197   1.000000
   18       -4.556311   1.000000
   19       -4.357367   1.000000
   20       -4.106178   1.000000
   21       -3.839289   1.000000
   22       -3.631869   1.000000
   23       -3.222436   1.000000
   24       -3.130164   1.000000
   25       -0.192397   0.000000
   26        0.419698   0.000000
   27        0.668136   0.000000
   28        1.136392   0.000000
   29        1.350117   0.000000
   30        1.478637   0.000000
   31        1.743772   0.000000
   32        2.217428   0.000000

 -0.2000000E+00  0.3333333E+00  0.1262379E-14  0.1333333E+00
    1      -19.204758   1.000000
    2      -15.176489   1.000000
    3      -15.091485   1.000000
    4      -13.408620   1.000000
    5      -13.356751   1.000000
    6      -10.684446   1.000000
    7       -9.007455   1.000000
    8       -8.936731   1.000000
    9       -8.833203   1.000000
   10       -8.693760   1.000000
   11       -8.066378   1.000000
   12       -6.802002   1.000000
   13       -6.378768   1.000000
   14       -5.921267   1.000000
   15       -5.082441   1.000000
   16       -5.018804   1.000000
   17       -4.682483   1.000000
   18       -4.035015   1.000000
   19       -3.984473   1.000000
   20       -3.823697   1.000000
   21       -3.771480   1.000000
   22       -3.306746   1.000000
   23       -2.965973   1.000000
   24       -2.864357   1.000000
   25       -0.586488   0.000000
   26        0.224259   0.000000
   27        0.549815   0.000000
   28        0.801505   0.000000
   29        1.039727   0.000000
   30        1.135306   0.000000
   31        1.363052   0.000000
   32        1.756249   0.000000
