       N       E                     dE             d eps       ncg     rms          ort
DAV:   1     0.557945035984E+03    0.55795E+03   -0.11656E+04   256   0.962E+02
DAV:   2     0.270407288168E+03   -0.28754E+03   -0.26939E+03   256   0.254E+02
DAV:   3     0.134264761554E+03   -0.13614E+03   -0.12746E+03   256   0.196E+02
DAV:   4     0.627567520845E+02   -0.71508E+02   -0.67775E+02   256   0.151E+02
DAV:   5     0.244559541921E+02   -0.38301E+02   -0.36763E+02   256   0.106E+02
DAV:   6     0.424836070908E+01   -0.20208E+02   -0.19445E+02   256   0.753E+01
DAV:   7    -0.641879993750E+01   -0.10667E+02   -0.10300E+02   256   0.524E+01
SDA:   8    -0.583218500168E+02   -0.51903E+02   -0.36246E+02   256   0.906E+02 0.000E+00
DMP:   9    -0.755538959659E+02   -0.17232E+02   -0.51850E+01   256   0.144E+02-0.369E+01
DMP:  10    -0.782809753182E+02   -0.27271E+01   -0.46277E+01   256   0.114E+02 0.383E+00
DMP:  11    -0.809624111298E+02   -0.26814E+01   -0.11505E+01   256   0.223E+01 0.169E+01
DMP:  12    -0.815720905177E+02   -0.60968E+00   -0.66731E+00   256   0.166E+01 0.111E-01
DMP:  13    -0.820654679030E+02   -0.49338E+00   -0.37033E+00   256   0.656E+00 0.707E+00
DMP:  14    -0.823061235063E+02   -0.24066E+00   -0.13796E+00   256   0.257E+00 0.231E+00
DMP:  15    -0.824079014356E+02   -0.10178E+00   -0.74102E-01   256   0.128E+00 0.149E+00
DMP:  16    -0.824620535732E+02   -0.54152E-01   -0.30229E-01   256   0.446E-01 0.810E-01
DMP:  17    -0.824848140190E+02   -0.22760E-01   -0.15021E-01   256   0.236E-01 0.364E-01
DMP:  18    -0.824966380961E+02   -0.11824E-01   -0.73514E-02   256   0.105E-01 0.207E-01
DMP:  19    -0.825023031731E+02   -0.56651E-02   -0.32297E-02   256   0.443E-02 0.954E-02
DMP:  20    -0.825049317206E+02   -0.26285E-02   -0.16071E-02   256   0.216E-02 0.487E-02
DMP:  21    -0.825062639026E+02   -0.13322E-02   -0.78419E-03   256   0.993E-03 0.253E-02
DMP:  22    -0.825069297867E+02   -0.66588E-03   -0.42251E-03   256   0.558E-03 0.131E-02
DMP:  23    -0.825072980156E+02   -0.36823E-03   -0.24615E-03   256   0.330E-03 0.747E-03
DMP:  24    -0.825075150589E+02   -0.21704E-03   -0.14803E-03   256   0.200E-03 0.446E-03
DMP:  25    -0.825076480954E+02   -0.13304E-03   -0.92679E-04   256   0.124E-03 0.281E-03
DMP:  26    -0.825077322316E+02   -0.84136E-04   -0.59480E-04   256   0.797E-04 0.181E-03
DMP:  27    -0.825077864514E+02   -0.54220E-04   -0.39085E-04   256   0.527E-04 0.118E-03
DMP:  28    -0.825078220996E+02   -0.35648E-04   -0.26194E-04   256   0.357E-04 0.781E-04
DMP:  29    -0.825078459252E+02   -0.23826E-04   -0.17626E-04   256   0.240E-04 0.524E-04
DMP:  30    -0.825078619107E+02   -0.15986E-04   -0.11798E-04   256   0.160E-04 0.353E-04
DMP:  31    -0.825078726022E+02   -0.10691E-04   -0.79024E-05   256   0.107E-04 0.238E-04
DMP:  32    -0.825078797698E+02   -0.71676E-05   -0.53947E-05   256   0.733E-05 0.161E-04
   1 F= -.82507880E+02 E0= -.82507880E+02  d E =-.220619E-14
