--------------------------------------------------------------------------
[[53439,1],1]: A high-performance Open MPI point-to-point messaging module
was unable to find any relevant network interfaces:

Module: OpenFabrics (openib)
  Host: compute-0-1

Another transport will be used instead, although this may result in
lower performance.
--------------------------------------------------------------------------
 running on    4 total cores
 distrk:  each k-point on    4 cores,    1 groups
 distr:  one band on    1 cores,    4 groups
 using from now: INCAR     
 vasp.5.4.4.18Apr17-6-g9f103f2a35 (build Dec  6 2019 17:49:40) complex           
 POSCAR found type information on POSCAR  Al C  S  H 
 POSCAR found :  4 types and      15 ions
 scaLAPACK will be used
 LDA part: xc-table for Pade appr. of Perdew
 POSCAR found type information on POSCAR  Al C  S  H 
 POSCAR found :  4 types and      15 ions
 POSCAR, INCAR and KPOINTS ok, starting setup
 FFT: planning ...
[compute-0-1.cluster.gsc.inifta.unlp.edu.ar:24774] 3 more processes have sent help message help-mpi-btl-base.txt / btl:no-nics
[compute-0-1.cluster.gsc.inifta.unlp.edu.ar:24774] Set MCA parameter "orte_base_help_aggregate" to 0 to see all help / error messages
 WAVECAR not read
 entering main loop
       N       E                     dE             d eps       ncg     rms          ort
DAV:   1     0.557945035984E+03    0.55795E+03   -0.11656E+04   256   0.962E+02
DAV:   2     0.270407288168E+03   -0.28754E+03   -0.26939E+03   256   0.254E+02
DAV:   3     0.134264761554E+03   -0.13614E+03   -0.12746E+03   256   0.196E+02
DAV:   4     0.627567520845E+02   -0.71508E+02   -0.67775E+02   256   0.151E+02
DAV:   5     0.244559541921E+02   -0.38301E+02   -0.36763E+02   256   0.106E+02
DAV:   6     0.424836070908E+01   -0.20208E+02   -0.19445E+02   256   0.753E+01
DAV:   7    -0.641879993750E+01   -0.10667E+02   -0.10300E+02   256   0.524E+01
 gam= 0.000 g(H,U,f)=  0.865E+02 0.412E+01 0.794E-13 ort(H,U,f) = 0.000E+00 0.000E+00 0.000E+00
SDA:   8    -0.583218500168E+02   -0.51903E+02   -0.36246E+02   256   0.906E+02 0.000E+00
 gam= 0.382 g(H,U,f)=  0.140E+02 0.334E+00 0.929E-11 ort(H,U,f) =-0.438E+01 0.687E+00-0.123E-10
DMP:   9    -0.755538959659E+02   -0.17232E+02   -0.51850E+01   256   0.144E+02-0.369E+01
 gam= 0.382 g(H,U,f)=  0.110E+02 0.400E+00 0.622E-14 ort(H,U,f) = 0.264E+00 0.119E+00 0.408E-14
DMP:  10    -0.782809753182E+02   -0.27271E+01   -0.46277E+01   256   0.114E+02 0.383E+00
 gam= 0.382 g(H,U,f)=  0.192E+01 0.309E+00 0.116E-16 ort(H,U,f) = 0.127E+01 0.422E+00 0.910E-16
DMP:  11    -0.809624111298E+02   -0.26814E+01   -0.11505E+01   256   0.223E+01 0.169E+01
 gam= 0.382 g(H,U,f)=  0.142E+01 0.247E+00 0.207E-21 ort(H,U,f) =-0.401E+00 0.412E+00 0.140E-21
DMP:  12    -0.815720905177E+02   -0.60968E+00   -0.66731E+00   256   0.166E+01 0.111E-01
 gam= 0.382 g(H,U,f)=  0.498E+00 0.158E+00 0.672E-24 ort(H,U,f) = 0.375E+00 0.332E+00 0.126E-23
DMP:  13    -0.820654679030E+02   -0.49338E+00   -0.37033E+00   256   0.656E+00 0.707E+00
 gam= 0.382 g(H,U,f)=  0.173E+00 0.839E-01-0.830E-36 ort(H,U,f) = 0.302E-01 0.201E+00-0.714E-36
DMP:  14    -0.823061235063E+02   -0.24066E+00   -0.13796E+00   256   0.257E+00 0.231E+00
 gam= 0.382 g(H,U,f)=  0.885E-01 0.397E-01-0.265E-25 ort(H,U,f) = 0.428E-01 0.107E+00-0.529E-25
DMP:  15    -0.824079014356E+02   -0.10178E+00   -0.74102E-01   256   0.128E+00 0.149E+00
 gam= 0.382 g(H,U,f)=  0.259E-01 0.188E-01 0.947E-12 ort(H,U,f) = 0.264E-01 0.546E-01 0.259E-11
DMP:  16    -0.824620535732E+02   -0.54152E-01   -0.30229E-01   256   0.446E-01 0.810E-01
 gam= 0.382 g(H,U,f)=  0.145E-01 0.916E-02 0.101E-11 ort(H,U,f) = 0.894E-02 0.275E-01 0.328E-11
DMP:  17    -0.824848140190E+02   -0.22760E-01   -0.15021E-01   256   0.236E-01 0.364E-01
 gam= 0.382 g(H,U,f)=  0.635E-02 0.411E-02 0.264E-20 ort(H,U,f) = 0.749E-02 0.132E-01 0.837E-20
DMP:  18    -0.824966380961E+02   -0.11824E-01   -0.73514E-02   256   0.105E-01 0.207E-01
 gam= 0.382 g(H,U,f)=  0.268E-02 0.175E-02 0.618E-18 ort(H,U,f) = 0.361E-02 0.593E-02 0.203E-17
DMP:  19    -0.825023031731E+02   -0.56651E-02   -0.32297E-02   256   0.443E-02 0.954E-02
 gam= 0.382 g(H,U,f)=  0.139E-02 0.768E-03 0.228E-16 ort(H,U,f) = 0.223E-02 0.263E-02 0.781E-16
DMP:  20    -0.825049317206E+02   -0.26285E-02   -0.16071E-02   256   0.216E-02 0.487E-02
 gam= 0.382 g(H,U,f)=  0.652E-03 0.341E-03 0.705E-15 ort(H,U,f) = 0.135E-02 0.118E-02 0.269E-14
DMP:  21    -0.825062639026E+02   -0.13322E-02   -0.78419E-03   256   0.993E-03 0.253E-02
 gam= 0.382 g(H,U,f)=  0.405E-03 0.152E-03 0.274E-17 ort(H,U,f) = 0.778E-03 0.528E-03 0.109E-16
DMP:  22    -0.825069297867E+02   -0.66588E-03   -0.42251E-03   256   0.558E-03 0.131E-02
 gam= 0.382 g(H,U,f)=  0.262E-03 0.677E-04 0.884E-16 ort(H,U,f) = 0.513E-03 0.234E-03 0.346E-15
DMP:  23    -0.825072980156E+02   -0.36823E-03   -0.24615E-03   256   0.330E-03 0.747E-03
 gam= 0.382 g(H,U,f)=  0.169E-03 0.303E-04 0.143E-16 ort(H,U,f) = 0.343E-03 0.103E-03 0.671E-16
DMP:  24    -0.825075150589E+02   -0.21704E-03   -0.14803E-03   256   0.200E-03 0.446E-03
 gam= 0.382 g(H,U,f)=  0.110E-03 0.141E-04 0.116E-15 ort(H,U,f) = 0.234E-03 0.465E-04 0.586E-15
DMP:  25    -0.825076480954E+02   -0.13304E-03   -0.92679E-04   256   0.124E-03 0.281E-03
 gam= 0.382 g(H,U,f)=  0.730E-04 0.663E-05 0.282E-18 ort(H,U,f) = 0.159E-03 0.215E-04 0.864E-18
DMP:  26    -0.825077322316E+02   -0.84136E-04   -0.59480E-04   256   0.797E-04 0.181E-03
 gam= 0.382 g(H,U,f)=  0.495E-04 0.319E-05 0.348E-17 ort(H,U,f) = 0.108E-03 0.101E-04 0.132E-16
DMP:  27    -0.825077864514E+02   -0.54220E-04   -0.39085E-04   256   0.527E-04 0.118E-03
 gam= 0.382 g(H,U,f)=  0.341E-04 0.158E-05 0.160E-19 ort(H,U,f) = 0.732E-04 0.486E-05 0.121E-18
DMP:  28    -0.825078220996E+02   -0.35648E-04   -0.26194E-04   256   0.357E-04 0.781E-04
 gam= 0.382 g(H,U,f)=  0.232E-04 0.804E-06 0.457E-19 ort(H,U,f) = 0.500E-04 0.240E-05 0.425E-18
DMP:  29    -0.825078459252E+02   -0.23826E-04   -0.17626E-04   256   0.240E-04 0.524E-04
 gam= 0.382 g(H,U,f)=  0.156E-04 0.423E-06 0.257E-19 ort(H,U,f) = 0.341E-04 0.122E-05 0.155E-18
DMP:  30    -0.825078619107E+02   -0.15986E-04   -0.11798E-04   256   0.160E-04 0.353E-04
 gam= 0.382 g(H,U,f)=  0.104E-04 0.228E-06 0.691E-21 ort(H,U,f) = 0.232E-04 0.642E-06 0.236E-20
DMP:  31    -0.825078726022E+02   -0.10691E-04   -0.79024E-05   256   0.107E-04 0.238E-04
 gam= 0.382 g(H,U,f)=  0.721E-05 0.127E-06 0.254E-20 ort(H,U,f) = 0.158E-04 0.346E-06 0.948E-20
DMP:  32    -0.825078797698E+02   -0.71676E-05   -0.53947E-05   256   0.733E-05 0.161E-04
 final diagonalization
   1 F= -.82507880E+02 E0= -.82507880E+02  d E =-.220619E-14
