<?xml version="1.0" encoding="ISO-8859-1"?>
<modeling>
 <generator>
  <i name="program" type="string">vasp </i>
  <i name="version" type="string">5.4.4.18Apr17-6-g9f103f2a35  </i>
  <i name="subversion" type="string">(build Dec  6 2019 17:49:40) complex            parallel </i>
  <i name="platform" type="string">LinuxGNU </i>
  <i name="date" type="string">2021 11 08 </i>
  <i name="time" type="string">03:43:41 </i>
 </generator>
 <incar>
  <i type="string" name="SYSTEM"> Al2C</i>
  <i type="int" name="ISTART">     0</i>
  <i type="string" name="PREC">accurate</i>
  <i type="string" name="ALGO">Damped</i>
  <i type="int" name="NSIM">     4</i>
  <i type="int" name="NELM">   300</i>
  <i type="int" name="NELMDL">    -7</i>
  <i type="int" name="IBRION">    -1</i>
  <i name="EDIFF">      0.00001000</i>
  <i name="EDIFFG">     -0.01000000</i>
  <i type="int" name="NSW">     0</i>
  <i type="int" name="ISIF">     2</i>
  <i type="int" name="ISYM">     0</i>
  <i name="ENCUT">    450.00000000</i>
  <i name="POTIM">      0.35000000</i>
  <i type="string" name="LREAL"> auto</i>
  <v name="ROPT">     -0.00020000     -0.00020000     -0.00020000     -0.00020000</v>
  <i type="logical" name="LPLANE"> T  </i>
  <i name="TIME">      0.40000000</i>
  <i type="int" name="ISMEAR">     0</i>
  <i name="SIGMA">      0.05000000</i>
  <i type="int" name="NWRITE">     2</i>
  <i type="logical" name="LWAVE"> F  </i>
  <i type="logical" name="LCHARG"> T  </i>
  <i type="logical" name="LSCALU"> F  </i>
  <v type="int" name="KPOINT_BSE">    -1     0     0     0</v>
  <i type="int" name="NELM">   300</i>
  <i type="logical" name="LHFCALC"> T  </i>
  <i type="string" name="GGA"> PE</i>
  <i name="HFSCREEN">      0.20000000</i>
 </incar>
 <structure name="primitive_cell" >
  <crystal>
   <varray name="basis" >
    <v>       6.01920000       0.00000000       0.00000000 </v>
    <v>       0.00000000      10.14000000       0.00000000 </v>
    <v>       0.00000000       0.00000000      15.00000000 </v>
   </varray>
   <i name="volume">    915.52032000 </i>
   <varray name="rec_basis" >
    <v>       0.16613503       0.00000000       0.00000000 </v>
    <v>       0.00000000       0.09861933       0.00000000 </v>
    <v>       0.00000000       0.00000000       0.06666667 </v>
   </varray>
  </crystal>
  <varray name="positions" >
   <v>       0.43387232      -0.12274495       0.25175617 </v>
   <v>      -0.31636106      -0.00138565       0.24203624 </v>
   <v>       0.18376275      -0.00147903       0.24277529 </v>
   <v>       0.43361270       0.11943796       0.23356039 </v>
   <v>       0.43473255      -0.37996010       0.26986543 </v>
   <v>      -0.06633013      -0.12243108       0.23544450 </v>
   <v>      -0.06637127       0.11908979       0.25157373 </v>
   <v>      -0.06647191      -0.38186780       0.24070469 </v>
   <v>       0.26058130      -0.30472490       0.47817479 </v>
   <v>       0.43345174      -0.38335992       0.45815671 </v>
   <v>      -0.31683437       0.49786801       0.25213500 </v>
   <v>       0.18349891       0.49779379       0.25493029 </v>
   <v>       0.29744058      -0.48181220       0.43208324 </v>
   <v>       0.43326171       0.37934719       0.23647906 </v>
   <v>      -0.06707495       0.37712238       0.26032446 </v>
  </varray>
 </structure>
 <varray name="primitive_index" >
  <v type="int" >        1 </v>
  <v type="int" >       10 </v>
  <v type="int" >        9 </v>
  <v type="int" >        7 </v>
  <v type="int" >        3 </v>
  <v type="int" >        2 </v>
  <v type="int" >        8 </v>
  <v type="int" >        4 </v>
  <v type="int" >       14 </v>
  <v type="int" >       13 </v>
  <v type="int" >       12 </v>
  <v type="int" >       11 </v>
  <v type="int" >       15 </v>
  <v type="int" >        5 </v>
  <v type="int" >        6 </v>
 </varray>
 <kpoints>
  <generation param="Gamma">
   <v type="int" name="divisions">       5        3        1 </v>
   <v name="usershift">      0.00000000       0.00000000       0.00000000 </v>
   <v name="genvec1">      0.20000000       0.00000000       0.00000000 </v>
   <v name="genvec2">      0.00000000       0.33333333       0.00000000 </v>
   <v name="genvec3">      0.00000000       0.00000000       1.00000000 </v>
   <v name="shift">      0.00000000       0.00000000       0.00000000 </v>
  </generation>
  <varray name="kpointlist" >
   <v>       0.00000000       0.00000000       0.00000000 </v>
   <v>       0.20000000       0.00000000       0.00000000 </v>
   <v>       0.40000000       0.00000000       0.00000000 </v>
   <v>       0.00000000       0.33333333       0.00000000 </v>
   <v>       0.20000000       0.33333333       0.00000000 </v>
   <v>       0.40000000       0.33333333       0.00000000 </v>
   <v>      -0.40000000       0.33333333       0.00000000 </v>
   <v>      -0.20000000       0.33333333       0.00000000 </v>
  </varray>
  <varray name="weights" >
   <v>       0.06666667 </v>
   <v>       0.13333333 </v>
   <v>       0.13333333 </v>
   <v>       0.13333333 </v>
   <v>       0.13333333 </v>
   <v>       0.13333333 </v>
   <v>       0.13333333 </v>
   <v>       0.13333333 </v>
  </varray>
 </kpoints>
 <parameters>
  <separator name="general" >
   <i type="string" name="SYSTEM">Al2C</i>
   <i type="logical" name="LCOMPAT"> F  </i>
  </separator>
  <separator name="electronic" >
   <i type="string" name="PREC">accura</i>
   <i name="ENMAX">    450.00000000</i>
   <i name="ENAUG">    644.87300000</i>
   <i name="EDIFF">      0.00001000</i>
   <i type="int" name="IALGO">    53</i>
   <i type="int" name="IWAVPR">    10</i>
   <i type="int" name="NBANDS">    32</i>
   <i name="NELECT">     48.00000000</i>
   <i type="int" name="TURBO">     0</i>
   <i type="int" name="IRESTART">     0</i>
   <i type="int" name="NREBOOT">     0</i>
   <i type="int" name="NMIN">     0</i>
   <i name="EREF">      0.00000000</i>
   <separator name="electronic smearing" >
    <i type="int" name="ISMEAR">     0</i>
    <i name="SIGMA">      0.05000000</i>
    <i name="KSPACING">      0.50000000</i>
    <i type="logical" name="KGAMMA"> T  </i>
   </separator>
   <separator name="electronic projectors" >
    <i type="logical" name="LREAL"> T  </i>
    <v name="ROPT">     -0.00020000     -0.00020000     -0.00020000     -0.00020000</v>
    <i type="int" name="LMAXPAW">  -100</i>
    <i type="int" name="LMAXMIX">     2</i>
    <i type="logical" name="NLSPLINE"> F  </i>
   </separator>
   <separator name="electronic startup" >
    <i type="int" name="ISTART">     0</i>
    <i type="int" name="ICHARG">     2</i>
    <i type="int" name="INIWAV">     1</i>
   </separator>
   <separator name="electronic spin" >
    <i type="int" name="ISPIN">     1</i>
    <i type="logical" name="LNONCOLLINEAR"> F  </i>
    <v name="MAGMOM">      1.00000000      1.00000000      1.00000000      1.00000000      1.00000000      1.00000000      1.00000000      1.00000000      1.00000000      1.00000000      1.00000000      1.00000000      1.00000000      1.00000000      1.00000000</v>
    <i name="NUPDOWN">     -1.00000000</i>
    <i type="logical" name="LSORBIT"> F  </i>
    <v name="SAXIS">      0.00000000      0.00000000      1.00000000</v>
    <i type="logical" name="LSPIRAL"> F  </i>
    <v name="QSPIRAL">      0.00000000      0.00000000      0.00000000</v>
    <i type="logical" name="LZEROZ"> F  </i>
   </separator>
   <separator name="electronic exchange-correlation" >
    <i type="logical" name="LASPH"> F  </i>
    <i type="logical" name="LMETAGGA"> F  </i>
   </separator>
   <separator name="electronic convergence" >
    <i type="int" name="NELM">   300</i>
    <i type="int" name="NELMDL">    -7</i>
    <i type="int" name="NELMIN">     2</i>
    <i name="ENINI">    450.00000000</i>
    <separator name="electronic convergence detail" >
     <i type="logical" name="LDIAG"> T  </i>
     <i type="logical" name="LSUBROT"> F  </i>
     <i name="WEIMIN">      0.00000000</i>
     <i name="EBREAK">      0.00000008</i>
     <i name="DEPER">      0.30000000</i>
     <i type="int" name="NRMM">     4</i>
     <i name="TIME">      0.40000000</i>
    </separator>
   </separator>
   <separator name="electronic mixer" >
    <i name="AMIX">      0.40000000</i>
    <i name="BMIX">      1.00000000</i>
    <i name="AMIN">      0.10000000</i>
    <i name="AMIX_MAG">      1.60000000</i>
    <i name="BMIX_MAG">      1.00000000</i>
    <separator name="electronic mixer details" >
     <i type="int" name="IMIX">     4</i>
     <i type="logical" name="MIXFIRST"> F  </i>
     <i type="int" name="MAXMIX">   -45</i>
     <i name="WC">    100.00000000</i>
     <i type="int" name="INIMIX">     1</i>
     <i type="int" name="MIXPRE">     1</i>
     <i type="int" name="MREMOVE">     5</i>
    </separator>
   </separator>
   <separator name="electronic dipolcorrection" >
    <i type="logical" name="LDIPOL"> F  </i>
    <i type="logical" name="LMONO"> F  </i>
    <i type="int" name="IDIPOL">     0</i>
    <i name="EPSILON">      1.00000000</i>
    <v name="DIPOL">   -100.00000000   -100.00000000   -100.00000000</v>
    <i name="EFIELD">      0.00000000</i>
   </separator>
  </separator>
  <separator name="grids" >
   <i type="int" name="NGX">    42</i>
   <i type="int" name="NGY">    70</i>
   <i type="int" name="NGZ">   108</i>
   <i type="int" name="NGXF">    84</i>
   <i type="int" name="NGYF">   140</i>
   <i type="int" name="NGZF">   216</i>
   <i type="logical" name="ADDGRID"> F  </i>
  </separator>
  <separator name="ionic" >
   <i type="int" name="NSW">     0</i>
   <i type="int" name="IBRION">    -1</i>
   <i type="int" name="MDALGO">     0</i>
   <i type="int" name="ISIF">     2</i>
   <i name="PSTRESS">      0.00000000</i>
   <i name="EDIFFG">     -0.01000000</i>
   <i type="int" name="NFREE">     0</i>
   <i name="POTIM">      0.35000000</i>
   <i name="SMASS">     -3.00000000</i>
   <i name="SCALEE">      1.00000000</i>
  </separator>
  <separator name="ionic md" >
   <i name="TEBEG">      0.00010000</i>
   <i name="TEEND">      0.00010000</i>
   <i type="int" name="NBLOCK">     1</i>
   <i type="int" name="KBLOCK">     1</i>
   <i type="int" name="NPACO">   256</i>
   <i name="APACO">     16.00000000</i>
  </separator>
  <separator name="symmetry" >
   <i type="int" name="ISYM">     0</i>
   <i name="SYMPREC">      0.00001000</i>
  </separator>
  <separator name="dos" >
   <i type="int" name="LORBIT">     0</i>
   <v name="RWIGS">     -1.00000000     -1.00000000     -1.00000000     -1.00000000</v>
   <i type="int" name="NEDOS">   301</i>
   <i name="EMIN">     10.00000000</i>
   <i name="EMAX">    -10.00000000</i>
   <i name="EFERMI">      0.00000000</i>
  </separator>
  <separator name="writing" >
   <i type="int" name="NWRITE">     2</i>
   <i type="logical" name="LWAVE"> F  </i>
   <i type="logical" name="LDOWNSAMPLE"> F  </i>
   <i type="logical" name="LCHARG"> T  </i>
   <i type="logical" name="LPARD"> F  </i>
   <i type="logical" name="LVTOT"> F  </i>
   <i type="logical" name="LVHAR"> F  </i>
   <i type="logical" name="LELF"> F  </i>
   <i type="logical" name="LOPTICS"> F  </i>
   <v name="STM">      0.00000000      0.00000000      0.00000000      0.00000000      0.00000000      0.00000000      0.00000000</v>
  </separator>
  <separator name="performance" >
   <i type="int" name="NPAR">     4</i>
   <i type="int" name="NSIM">     4</i>
   <i type="int" name="NBLK">    -1</i>
   <i type="logical" name="LPLANE"> T  </i>
   <i type="logical" name="LSCALAPACK"> T  </i>
   <i type="logical" name="LSCAAWARE"> F  </i>
   <i type="logical" name="LSCALU"> F  </i>
   <i type="logical" name="LASYNC"> F  </i>
   <i type="logical" name="LORBITALREAL"> F  </i>
  </separator>
  <separator name="miscellaneous" >
   <i type="int" name="IDIOT">     3</i>
   <i type="int" name="ISPECIAL">     0</i>
   <i type="logical" name="LMUSIC"> F  </i>
   <v name="POMASS">     26.98200000     12.01100000     32.06600000      1.00000000</v>
   <v name="DARWINR">      0.00000000      0.00000000      0.00000000      0.00000000</v>
   <v name="DARWINV">      1.00000000      1.00000000      1.00000000      1.00000000</v>
   <i type="logical" name="LCORR"> T  </i>
  </separator>
  <i type="logical" name="GGA_COMPAT"> T  </i>
  <i type="logical" name="LBERRY"> F  </i>
  <i type="int" name="ICORELEVEL">     0</i>
  <i type="logical" name="LDAU"> F  </i>
  <i type="int" name="I_CONSTRAINED_M">     0</i>
  <separator name="electronic exchange-correlation" >
   <i type="string" name="GGA">PE</i>
   <i type="int" name="VOSKOWN">     0</i>
   <i type="logical" name="LHFCALC"> T  </i>
   <i type="string" name="PRECFOCK">normal</i>
   <i type="logical" name="LSYMGRAD"> F  </i>
   <i type="logical" name="LHFONE"> F  </i>
   <i type="logical" name="LRHFCALC"> F  </i>
   <i type="logical" name="LTHOMAS"> F  </i>
   <i type="logical" name="LMODELHF"> F  </i>
   <i name="ENCUT4O">     -1.00000000</i>
   <i type="int" name="EXXOEP">     0</i>
   <i type="int" name="FOURORBIT">     0</i>
   <i name="AEXX">      0.25000000</i>
   <i name="HFALPHA">     -1.00000000</i>
   <i name="MCALPHA">      0.00000000</i>
   <i name="ALDAX">      0.75000000</i>
   <i name="AGGAX">      0.75000000</i>
   <i name="ALDAC">      1.00000000</i>
   <i name="AGGAC">      1.00000000</i>
   <i type="int" name="NKREDX">     1</i>
   <i type="int" name="NKREDY">     1</i>
   <i type="int" name="NKREDZ">     1</i>
   <i type="logical" name="SHIFTRED"> F  </i>
   <i type="logical" name="ODDONLY"> F  </i>
   <i type="logical" name="EVENONLY"> F  </i>
   <i type="int" name="LMAXFOCK">     4</i>
   <i type="int" name="NMAXFOCKAE">     1</i>
   <i type="logical" name="LFOCKAEDFT"> F  </i>
   <i name="HFSCREEN">      0.20000000</i>
   <i name="HFSCREENC">      0.20000000</i>
   <i type="int" name="NBANDSGWLOW">     1</i>
  </separator>
  <separator name="vdW DFT" >
   <i type="logical" name="LUSE_VDW"> F  </i>
   <i name="Zab_VDW">     -0.84910000</i>
   <i name="PARAM1">      0.12340000</i>
   <i name="PARAM2">      1.00000000</i>
   <i name="PARAM3">      0.00000000</i>
  </separator>
  <separator name="model GW" >
   <i type="int" name="MODEL_GW">     0</i>
   <i name="MODEL_EPS0">     36.62081280</i>
   <i name="MODEL_ALPHA">      1.00000000</i>
  </separator>
  <separator name="linear response parameters" >
   <i type="logical" name="LEPSILON"> F  </i>
   <i type="logical" name="LRPA"> F  </i>
   <i type="logical" name="LNABLA"> F  </i>
   <i type="logical" name="LVEL"> F  </i>
   <i type="int" name="KINTER">     0</i>
   <i name="CSHIFT">      0.10000000</i>
   <i name="OMEGAMAX">     -1.00000000</i>
   <i name="DEG_THRESHOLD">      0.00200000</i>
   <i name="RTIME">     -0.10000000</i>
   <i name="WPLASMAI">      0.00000000</i>
   <v name="DFIELD">      0.00000000      0.00000000      0.00000000</v>
   <v name="WPLASMA">      0.00000000      0.00000000      0.00000000      0.00000000      0.00000000      0.00000000      0.00000000      0.00000000      0.00000000</v>
  </separator>
  <separator name="orbital magnetization" >
   <i type="logical" name="NUCIND"> F  </i>
   <v name="MAGPOS">      0.00000000      0.00000000      0.00000000</v>
   <i type="logical" name="LNICSALL"> T  </i>
   <i type="logical" name="ORBITALMAG"> F  </i>
   <i type="logical" name="LMAGBLOCH"> F  </i>
   <i type="logical" name="LCHIMAG"> F  </i>
   <i type="logical" name="LGAUGE"> T  </i>
   <i type="int" name="MAGATOM">     0</i>
   <v name="MAGDIPOL">      0.00000000      0.00000000      0.00000000</v>
   <v name="AVECCONST">      0.00000000      0.00000000      0.00000000</v>
  </separator>
  <separator name="response functions" >
   <i type="logical" name="LADDER"> F  </i>
   <i type="logical" name="LRPAFORCE"> F  </i>
   <i type="logical" name="LFXC"> F  </i>
   <i type="logical" name="LHARTREE"> T  </i>
   <i type="int" name="IBSE">     0</i>
   <v type="int" name="KPOINT">    -1     0     0     0</v>
   <i type="logical" name="LTCTE"> F  </i>
   <i type="logical" name="LTETE"> F  </i>
   <i type="logical" name="LTRIPLET"> F  </i>
   <i type="logical" name="LFXCEPS"> F  </i>
   <i type="logical" name="LFXHEG"> F  </i>
   <i type="int" name="NATURALO">     2</i>
   <i type="logical" name="L2ORDER"> F  </i>
   <i type="logical" name="LMP2LT"> F  </i>
   <i type="logical" name="LUSEW"> F  </i>
   <i name="ENCUTGW">     -2.00000000</i>
   <i name="ENCUTGWSOFT">     -2.00000000</i>
   <i name="ENCUTLF">     -1.00000000</i>
   <i type="int" name="LMAXMP2">    -1</i>
   <i name="SCISSOR">      0.00000000</i>
   <i type="int" name="NOMEGA">     0</i>
   <i type="int" name="NOMEGAR">     0</i>
   <i type="int" name="NBANDSGW">    -1</i>
   <i type="int" name="NBANDSO">    -1</i>
   <i type="int" name="NBANDSV">    -1</i>
   <i type="int" name="NELM">   300</i>
   <i type="int" name="NELMHF">     1</i>
   <i type="int" name="DIM">     3</i>
   <i type="int" name="ANTIRES">     0</i>
   <i name="OMEGAMAX">    -30.00000000</i>
   <i name="OMEGAMIN">    -30.00000000</i>
   <i name="OMEGATL">   -200.00000000</i>
   <i type="int" name="OMEGAGRID">   140</i>
   <i name="CSHIFT">     -0.10000000</i>
   <i type="logical" name="SELFENERGY"> F  </i>
   <i type="logical" name="LSPECTRAL"> F  </i>
   <i type="logical" name="LSPECTRALGW"> F  </i>
   <i type="logical" name="LSINGLES"> F  </i>
   <i type="logical" name="LFERMIGW"> F  </i>
   <i type="logical" name="ODDONLYGW"> F  </i>
   <i type="logical" name="EVENONLYGW"> F  </i>
   <i type="int" name="NKREDLFX">     1</i>
   <i type="int" name="NKREDLFY">     1</i>
   <i type="int" name="NKREDLFZ">     1</i>
   <i type="int" name="MAXMEM">  2800</i>
   <i type="int" name="TELESCOPE">     0</i>
   <i type="int" name="TAUPAR">     1</i>
   <i type="int" name="OMEGAPAR">    -1</i>
   <i name="LAMBDA">      1.00000000</i>
  </separator>
  <separator name="External order field" >
   <i name="OFIELD_KAPPA">      0.00000000</i>
   <v name="OFIELD_K">      0.00000000      0.00000000      0.00000000</v>
   <i name="OFIELD_Q6_NEAR">      0.00000000</i>
   <i name="OFIELD_Q6_FAR">      0.00000000</i>
   <i name="OFIELD_A">      0.00000000</i>
  </separator>
 </parameters>
 <atominfo>
  <atoms>      15 </atoms>
  <types>       4 </types>
  <array name="atoms" >
   <dimension dim="1">ion</dimension>
   <field type="string">element</field>
   <field type="int">atomtype</field>
   <set>
    <rc><c>Al</c><c>   1</c></rc>
    <rc><c>Al</c><c>   1</c></rc>
    <rc><c>Al</c><c>   1</c></rc>
    <rc><c>Al</c><c>   1</c></rc>
    <rc><c>Al</c><c>   1</c></rc>
    <rc><c>Al</c><c>   1</c></rc>
    <rc><c>Al</c><c>   1</c></rc>
    <rc><c>Al</c><c>   1</c></rc>
    <rc><c>C </c><c>   2</c></rc>
    <rc><c>C </c><c>   2</c></rc>
    <rc><c>C </c><c>   2</c></rc>
    <rc><c>C </c><c>   2</c></rc>
    <rc><c>S </c><c>   3</c></rc>
    <rc><c>H </c><c>   4</c></rc>
    <rc><c>H </c><c>   4</c></rc>
   </set>
  </array>
  <array name="atomtypes" >
   <dimension dim="1">type</dimension>
   <field type="int">atomspertype</field>
   <field type="string">element</field>
   <field>mass</field>
   <field>valence</field>
   <field type="string">pseudopotential</field>
   <set>
    <rc><c>   8</c><c>Al</c><c>     26.98200000</c><c>      3.00000000</c><c>  PAW Al_GW 19Mar2012                   </c></rc>
    <rc><c>   4</c><c>C </c><c>     12.01100000</c><c>      4.00000000</c><c>  PAW C_GW 28Sep2005                    </c></rc>
    <rc><c>   1</c><c>S </c><c>     32.06600000</c><c>      6.00000000</c><c>  PAW S_GW 19Mar2012                    </c></rc>
    <rc><c>   2</c><c>H </c><c>      1.00000000</c><c>      1.00000000</c><c>  PAW H_GW 21Apr2008                    </c></rc>
   </set>
  </array>
 </atominfo>
 <structure name="initialpos" >
  <crystal>
   <varray name="basis" >
    <v>       6.01920000       0.00000000       0.00000000 </v>
    <v>       0.00000000      10.14000000       0.00000000 </v>
    <v>       0.00000000       0.00000000      15.00000000 </v>
   </varray>
   <i name="volume">    915.52032000 </i>
   <varray name="rec_basis" >
    <v>       0.16613503       0.00000000       0.00000000 </v>
    <v>       0.00000000       0.09861933       0.00000000 </v>
    <v>       0.00000000       0.00000000       0.06666667 </v>
   </varray>
  </crystal>
  <varray name="positions" >
   <v>       0.43387232       0.87725505       0.25175617 </v>
   <v>       0.93366987       0.87756892       0.23544450 </v>
   <v>       0.43473255       0.62003990       0.26986543 </v>
   <v>       0.93352809       0.61813220       0.24070469 </v>
   <v>       0.43326171       0.37934719       0.23647906 </v>
   <v>       0.93292505       0.37712238       0.26032446 </v>
   <v>       0.43361270       0.11943796       0.23356039 </v>
   <v>       0.93362873       0.11908979       0.25157373 </v>
   <v>       0.18376275       0.99852097       0.24277529 </v>
   <v>       0.68363894       0.99861435       0.24203624 </v>
   <v>       0.18349891       0.49779379       0.25493029 </v>
   <v>       0.68316563       0.49786801       0.25213500 </v>
   <v>       0.43345174       0.61664008       0.45815671 </v>
   <v>       0.26058130       0.69527510       0.47817479 </v>
   <v>       0.29744058       0.51818780       0.43208324 </v>
  </varray>
  <varray name="selective"  type="logical" >
   <v type="logical" >  T  T  T </v>
   <v type="logical" >  T  T  T </v>
   <v type="logical" >  T  T  T </v>
   <v type="logical" >  T  T  T </v>
   <v type="logical" >  T  T  T </v>
   <v type="logical" >  T  T  T </v>
   <v type="logical" >  T  T  T </v>
   <v type="logical" >  T  T  T </v>
   <v type="logical" >  T  T  T </v>
   <v type="logical" >  T  T  T </v>
   <v type="logical" >  T  T  T </v>
   <v type="logical" >  T  T  T </v>
   <v type="logical" >  T  T  T </v>
   <v type="logical" >  T  T  T </v>
   <v type="logical" >  T  T  T </v>
  </varray>
  <nose>
   <v>      -3.00000000       0.00000000       0.00010000       0.00010000 </v>
  </nose>
 </structure>
 <calculation>
  <scstep>
   <time name="total">   14.26   14.29</time>
   <energy>
    <i name="alphaZ">     14.13034224 </i>
    <i name="ewald">   1445.50176895 </i>
    <i name="hartreedc">  -2456.06781573 </i>
    <i name="XCdc">   -119.02332612 </i>
    <i name="pawpsdc">   1153.11953838 </i>
    <i name="pawaedc">   -948.04351678 </i>
    <i name="eentropy">     -0.00013413 </i>
    <i name="bandstr">    163.71472294 </i>
    <i name="atom">   1304.61345622 </i>
    <i name="e_fr_energy">    557.94503598 </i>
    <i name="e_wo_entrp">    557.94517011 </i>
    <i name="e_0_energy">    557.94510305 </i>
   </energy>
  </scstep>
  <scstep>
   <time name="total">   15.27   15.28</time>
   <energy>
    <i name="e_fr_energy">    270.40728817 </i>
    <i name="e_wo_entrp">    270.42026271 </i>
    <i name="e_0_energy">    270.41377544 </i>
   </energy>
  </scstep>
  <scstep>
   <time name="total">   15.26   15.28</time>
   <energy>
    <i name="e_fr_energy">    134.26476155 </i>
    <i name="e_wo_entrp">    134.27783879 </i>
    <i name="e_0_energy">    134.27130017 </i>
   </energy>
  </scstep>
  <scstep>
   <time name="total">   15.26   15.27</time>
   <energy>
    <i name="e_fr_energy">     62.75675208 </i>
    <i name="e_wo_entrp">     62.76084996 </i>
    <i name="e_0_energy">     62.75880102 </i>
   </energy>
  </scstep>
  <scstep>
   <time name="total">   15.24   15.26</time>
   <energy>
    <i name="e_fr_energy">     24.45595419 </i>
    <i name="e_wo_entrp">     24.45620642 </i>
    <i name="e_0_energy">     24.45608031 </i>
   </energy>
  </scstep>
  <scstep>
   <time name="total">   15.23   15.27</time>
   <energy>
    <i name="e_fr_energy">      4.24836071 </i>
    <i name="e_wo_entrp">      4.24969127 </i>
    <i name="e_0_energy">      4.24902599 </i>
   </energy>
  </scstep>
  <scstep>
   <time name="total">   15.82   15.87</time>
   <energy>
    <i name="e_fr_energy">     -6.41879994 </i>
    <i name="e_wo_entrp">     -6.41879994 </i>
    <i name="e_0_energy">     -6.41879994 </i>
   </energy>
  </scstep>
  <scstep>
   <time name="total">  288.80  289.52</time>
   <energy>
    <i name="e_fr_energy">    -58.32185002 </i>
    <i name="e_wo_entrp">    -58.32185002 </i>
    <i name="e_0_energy">    -58.32185002 </i>
   </energy>
  </scstep>
  <scstep>
   <time name="total">  288.59  288.77</time>
   <energy>
    <i name="e_fr_energy">    -75.55389597 </i>
    <i name="e_wo_entrp">    -75.55389597 </i>
    <i name="e_0_energy">    -75.55389597 </i>
   </energy>
  </scstep>
  <scstep>
   <time name="total">  287.68  288.44</time>
   <energy>
    <i name="e_fr_energy">    -78.28097532 </i>
    <i name="e_wo_entrp">    -78.28097532 </i>
    <i name="e_0_energy">    -78.28097532 </i>
   </energy>
  </scstep>
  <scstep>
   <time name="total">  288.27  289.15</time>
   <energy>
    <i name="e_fr_energy">    -80.96241113 </i>
    <i name="e_wo_entrp">    -80.96241113 </i>
    <i name="e_0_energy">    -80.96241113 </i>
   </energy>
  </scstep>
  <scstep>
   <time name="total">  289.26  289.40</time>
   <energy>
    <i name="e_fr_energy">    -81.57209052 </i>
    <i name="e_wo_entrp">    -81.57209052 </i>
    <i name="e_0_energy">    -81.57209052 </i>
   </energy>
  </scstep>
  <scstep>
   <time name="total">  288.91  289.56</time>
   <energy>
    <i name="e_fr_energy">    -82.06546790 </i>
    <i name="e_wo_entrp">    -82.06546790 </i>
    <i name="e_0_energy">    -82.06546790 </i>
   </energy>
  </scstep>
  <scstep>
   <time name="total">  289.17  289.83</time>
   <energy>
    <i name="e_fr_energy">    -82.30612351 </i>
    <i name="e_wo_entrp">    -82.30612351 </i>
    <i name="e_0_energy">    -82.30612351 </i>
   </energy>
  </scstep>
  <scstep>
   <time name="total">  288.71  289.68</time>
   <energy>
    <i name="e_fr_energy">    -82.40790144 </i>
    <i name="e_wo_entrp">    -82.40790144 </i>
    <i name="e_0_energy">    -82.40790144 </i>
   </energy>
  </scstep>
  <scstep>
   <time name="total">  288.34  289.25</time>
   <energy>
    <i name="e_fr_energy">    -82.46205357 </i>
    <i name="e_wo_entrp">    -82.46205357 </i>
    <i name="e_0_energy">    -82.46205357 </i>
   </energy>
  </scstep>
  <scstep>
   <time name="total">  288.68  289.56</time>
   <energy>
    <i name="e_fr_energy">    -82.48481402 </i>
    <i name="e_wo_entrp">    -82.48481402 </i>
    <i name="e_0_energy">    -82.48481402 </i>
   </energy>
  </scstep>
  <scstep>
   <time name="total">  288.91  289.76</time>
   <energy>
    <i name="e_fr_energy">    -82.49663810 </i>
    <i name="e_wo_entrp">    -82.49663810 </i>
    <i name="e_0_energy">    -82.49663810 </i>
   </energy>
  </scstep>
  <scstep>
   <time name="total">  289.74  289.89</time>
   <energy>
    <i name="e_fr_energy">    -82.50230317 </i>
    <i name="e_wo_entrp">    -82.50230317 </i>
    <i name="e_0_energy">    -82.50230317 </i>
   </energy>
  </scstep>
  <scstep>
   <time name="total">  288.95  289.08</time>
   <energy>
    <i name="e_fr_energy">    -82.50493172 </i>
    <i name="e_wo_entrp">    -82.50493172 </i>
    <i name="e_0_energy">    -82.50493172 </i>
   </energy>
  </scstep>
  <scstep>
   <time name="total">  289.38  318.79</time>
   <energy>
    <i name="e_fr_energy">    -82.50626390 </i>
    <i name="e_wo_entrp">    -82.50626390 </i>
    <i name="e_0_energy">    -82.50626390 </i>
   </energy>
  </scstep>
  <scstep>
   <time name="total">  288.71  289.58</time>
   <energy>
    <i name="e_fr_energy">    -82.50692979 </i>
    <i name="e_wo_entrp">    -82.50692979 </i>
    <i name="e_0_energy">    -82.50692979 </i>
   </energy>
  </scstep>
  <scstep>
   <time name="total">  289.09  289.57</time>
   <energy>
    <i name="e_fr_energy">    -82.50729802 </i>
    <i name="e_wo_entrp">    -82.50729802 </i>
    <i name="e_0_energy">    -82.50729802 </i>
   </energy>
  </scstep>
  <scstep>
   <time name="total">  289.06  289.91</time>
   <energy>
    <i name="e_fr_energy">    -82.50751506 </i>
    <i name="e_wo_entrp">    -82.50751506 </i>
    <i name="e_0_energy">    -82.50751506 </i>
   </energy>
  </scstep>
  <scstep>
   <time name="total">  288.54  289.66</time>
   <energy>
    <i name="e_fr_energy">    -82.50764810 </i>
    <i name="e_wo_entrp">    -82.50764810 </i>
    <i name="e_0_energy">    -82.50764810 </i>
   </energy>
  </scstep>
  <scstep>
   <time name="total">  289.05  289.78</time>
   <energy>
    <i name="e_fr_energy">    -82.50773223 </i>
    <i name="e_wo_entrp">    -82.50773223 </i>
    <i name="e_0_energy">    -82.50773223 </i>
   </energy>
  </scstep>
  <scstep>
   <time name="total">  289.41  289.70</time>
   <energy>
    <i name="e_fr_energy">    -82.50778645 </i>
    <i name="e_wo_entrp">    -82.50778645 </i>
    <i name="e_0_energy">    -82.50778645 </i>
   </energy>
  </scstep>
  <scstep>
   <time name="total">  289.47  289.84</time>
   <energy>
    <i name="e_fr_energy">    -82.50782210 </i>
    <i name="e_wo_entrp">    -82.50782210 </i>
    <i name="e_0_energy">    -82.50782210 </i>
   </energy>
  </scstep>
  <scstep>
   <time name="total">  288.96  289.69</time>
   <energy>
    <i name="e_fr_energy">    -82.50784593 </i>
    <i name="e_wo_entrp">    -82.50784593 </i>
    <i name="e_0_energy">    -82.50784593 </i>
   </energy>
  </scstep>
  <scstep>
   <time name="total">  289.62  290.28</time>
   <energy>
    <i name="e_fr_energy">    -82.50786191 </i>
    <i name="e_wo_entrp">    -82.50786191 </i>
    <i name="e_0_energy">    -82.50786191 </i>
   </energy>
  </scstep>
  <scstep>
   <time name="total">  289.45  290.21</time>
   <energy>
    <i name="e_fr_energy">    -82.50787260 </i>
    <i name="e_wo_entrp">    -82.50787260 </i>
    <i name="e_0_energy">    -82.50787260 </i>
   </energy>
  </scstep>
  <scstep>
   <time name="total">  572.30  573.63</time>
   <energy>
    <i name="alphaZ">     14.13034224 </i>
    <i name="ewald">   1445.50176895 </i>
    <i name="hartreedc">  -2637.88566572 </i>
    <i name="XCdc">   -112.71453720 </i>
    <i name="pawpsdc">   1768.22976040 </i>
    <i name="pawaedc">  -1564.15776928 </i>
    <i name="eentropy">     -0.00000000 </i>
    <i name="bandstr">   -378.97744468 </i>
    <i name="atom">   1304.61345622 </i>
    <i name="e_fr_energy">    -82.50787977 </i>
    <i name="e_wo_entrp">    -82.50787977 </i>
    <i name="e_0_energy">    -82.50787977 </i>
   </energy>
  </scstep>
  <structure>
   <crystal>
    <varray name="basis" >
     <v>       6.01920000       0.00000000       0.00000000 </v>
     <v>       0.00000000      10.14000000       0.00000000 </v>
     <v>       0.00000000       0.00000000      15.00000000 </v>
    </varray>
    <i name="volume">    915.52032000 </i>
    <varray name="rec_basis" >
     <v>       0.16613503       0.00000000       0.00000000 </v>
     <v>       0.00000000       0.09861933       0.00000000 </v>
     <v>       0.00000000       0.00000000       0.06666667 </v>
    </varray>
   </crystal>
   <varray name="positions" >
    <v>       0.43387232       0.87725505       0.25175617 </v>
    <v>       0.93366987       0.87756892       0.23544450 </v>
    <v>       0.43473255       0.62003990       0.26986543 </v>
    <v>       0.93352809       0.61813220       0.24070469 </v>
    <v>       0.43326171       0.37934719       0.23647906 </v>
    <v>       0.93292505       0.37712238       0.26032446 </v>
    <v>       0.43361270       0.11943796       0.23356039 </v>
    <v>       0.93362873       0.11908979       0.25157373 </v>
    <v>       0.18376275       0.99852097       0.24277529 </v>
    <v>       0.68363894       0.99861435       0.24203624 </v>
    <v>       0.18349891       0.49779379       0.25493029 </v>
    <v>       0.68316563       0.49786801       0.25213500 </v>
    <v>       0.43345174       0.61664008       0.45815671 </v>
    <v>       0.26058130       0.69527510       0.47817479 </v>
    <v>       0.29744058       0.51818780       0.43208324 </v>
   </varray>
  </structure>
  <varray name="forces" >
   <v>      -0.00158426      -0.00160012      -0.00181732 </v>
   <v>       0.00001111       0.00184182      -0.00250301 </v>
   <v>      -0.00136984       0.00097774       0.00068989 </v>
   <v>       0.00010524      -0.00073254      -0.00044790 </v>
   <v>      -0.00148700      -0.00257825      -0.00153132 </v>
   <v>       0.00049209       0.00079030      -0.00047360 </v>
   <v>      -0.00136352      -0.00133999      -0.00167198 </v>
   <v>      -0.00120784      -0.00068167      -0.00143843 </v>
   <v>      -0.00463931       0.00007067       0.00105105 </v>
   <v>       0.00176899       0.00218012       0.00000030 </v>
   <v>      -0.00187356      -0.00029570      -0.00246685 </v>
   <v>      -0.00280901       0.00084027      -0.00034962 </v>
   <v>       0.01458985      -0.00075064      -0.00093011 </v>
   <v>      -0.00467091       0.00189877       0.00189983 </v>
   <v>       0.00403796      -0.00062078       0.00998906 </v>
  </varray>
  <varray name="stress" >
   <v>      -0.17288757       0.06350326       0.05973215 </v>
   <v>       0.06350334      -8.07228525       0.01781198 </v>
   <v>       0.05973214       0.01781190      -1.13601500 </v>
  </varray>
  <energy>
   <i name="e_fr_energy">    -82.50787977 </i>
   <i name="e_wo_entrp">    -82.50787977 </i>
   <i name="e_0_energy">     -0.00000000 </i>
  </energy>
  <time name="totalsc"> 8096.57 8147.48</time>
  <eigenvalues>
   <array>
    <dimension dim="1">band</dimension>
    <dimension dim="2">kpoint</dimension>
    <dimension dim="3">spin</dimension>
    <field>eigene</field>
    <field>occ</field>
    <set>
     <set comment="spin 1">
      <set comment="kpoint 1">
       <r>  -19.2056    1.0000 </r>
       <r>  -15.3542    1.0000 </r>
       <r>  -15.1814    1.0000 </r>
       <r>  -13.0166    1.0000 </r>
       <r>  -12.9422    1.0000 </r>
       <r>  -10.7037    1.0000 </r>
       <r>   -9.6554    1.0000 </r>
       <r>   -9.4395    1.0000 </r>
       <r>   -9.3727    1.0000 </r>
       <r>   -8.7093    1.0000 </r>
       <r>   -7.1932    1.0000 </r>
       <r>   -6.7549    1.0000 </r>
       <r>   -6.2839    1.0000 </r>
       <r>   -6.0797    1.0000 </r>
       <r>   -5.2695    1.0000 </r>
       <r>   -5.2354    1.0000 </r>
       <r>   -4.7915    1.0000 </r>
       <r>   -4.6012    1.0000 </r>
       <r>   -3.4843    1.0000 </r>
       <r>   -3.2779    1.0000 </r>
       <r>   -3.2424    1.0000 </r>
       <r>   -2.5389    1.0000 </r>
       <r>   -2.4239    1.0000 </r>
       <r>   -2.3588    1.0000 </r>
       <r>   -1.0111    0.0000 </r>
       <r>   -0.3626    0.0000 </r>
       <r>    0.2410    0.0000 </r>
       <r>    0.6171    0.0000 </r>
       <r>    0.8184    0.0000 </r>
       <r>    0.9136    0.0000 </r>
       <r>    1.3897    0.0000 </r>
       <r>    1.5970    0.0000 </r>
      </set>
      <set comment="kpoint 2">
       <r>  -19.2048    1.0000 </r>
       <r>  -15.2163    1.0000 </r>
       <r>  -15.0471    1.0000 </r>
       <r>  -13.4334    1.0000 </r>
       <r>  -13.3303    1.0000 </r>
       <r>  -10.6841    1.0000 </r>
       <r>   -9.2773    1.0000 </r>
       <r>   -9.0109    1.0000 </r>
       <r>   -8.7776    1.0000 </r>
       <r>   -8.6949    1.0000 </r>
       <r>   -7.1415    1.0000 </r>
       <r>   -6.9232    1.0000 </r>
       <r>   -6.5868    1.0000 </r>
       <r>   -6.1127    1.0000 </r>
       <r>   -5.4965    1.0000 </r>
       <r>   -5.0717    1.0000 </r>
       <r>   -4.6745    1.0000 </r>
       <r>   -4.0369    1.0000 </r>
       <r>   -4.0199    1.0000 </r>
       <r>   -3.9822    1.0000 </r>
       <r>   -3.8586    1.0000 </r>
       <r>   -3.0497    1.0000 </r>
       <r>   -2.8040    1.0000 </r>
       <r>   -2.4027    1.0000 </r>
       <r>   -0.9351    0.0000 </r>
       <r>    0.5421    0.0000 </r>
       <r>    0.6583    0.0000 </r>
       <r>    0.8804    0.0000 </r>
       <r>    0.9281    0.0000 </r>
       <r>    1.0723    0.0000 </r>
       <r>    1.4127    0.0000 </r>
       <r>    1.9922    0.0000 </r>
      </set>
      <set comment="kpoint 3">
       <r>  -19.2035    1.0000 </r>
       <r>  -14.8113    1.0000 </r>
       <r>  -14.6533    1.0000 </r>
       <r>  -14.1757    1.0000 </r>
       <r>  -14.0386    1.0000 </r>
       <r>  -10.6707    1.0000 </r>
       <r>   -8.8779    1.0000 </r>
       <r>   -8.6762    1.0000 </r>
       <r>   -7.9793    1.0000 </r>
       <r>   -7.5932    1.0000 </r>
       <r>   -7.3416    1.0000 </r>
       <r>   -6.7757    1.0000 </r>
       <r>   -6.4557    1.0000 </r>
       <r>   -6.1143    1.0000 </r>
       <r>   -5.9082    1.0000 </r>
       <r>   -5.5952    1.0000 </r>
       <r>   -5.3110    1.0000 </r>
       <r>   -4.9399    1.0000 </r>
       <r>   -4.6303    1.0000 </r>
       <r>   -4.2842    1.0000 </r>
       <r>   -3.8821    1.0000 </r>
       <r>   -3.5701    1.0000 </r>
       <r>   -2.9294    1.0000 </r>
       <r>   -2.4891    1.0000 </r>
       <r>   -0.5345    0.0000 </r>
       <r>    0.2404    0.0000 </r>
       <r>    1.0697    0.0000 </r>
       <r>    1.2891    0.0000 </r>
       <r>    1.4357    0.0000 </r>
       <r>    1.4631    0.0000 </r>
       <r>    1.8079    0.0000 </r>
       <r>    2.2257    0.0000 </r>
      </set>
      <set comment="kpoint 4">
       <r>  -19.2057    1.0000 </r>
       <r>  -15.3137    1.0000 </r>
       <r>  -15.2268    1.0000 </r>
       <r>  -12.9988    1.0000 </r>
       <r>  -12.9610    1.0000 </r>
       <r>  -10.7042    1.0000 </r>
       <r>   -9.5938    1.0000 </r>
       <r>   -9.4566    1.0000 </r>
       <r>   -9.1212    1.0000 </r>
       <r>   -8.7083    1.0000 </r>
       <r>   -8.2143    1.0000 </r>
       <r>   -6.5793    1.0000 </r>
       <r>   -5.9071    1.0000 </r>
       <r>   -5.5047    1.0000 </r>
       <r>   -5.2396    1.0000 </r>
       <r>   -5.1532    1.0000 </r>
       <r>   -4.7912    1.0000 </r>
       <r>   -4.3591    1.0000 </r>
       <r>   -3.8060    1.0000 </r>
       <r>   -3.3793    1.0000 </r>
       <r>   -3.2754    1.0000 </r>
       <r>   -3.2450    1.0000 </r>
       <r>   -2.5165    1.0000 </r>
       <r>   -2.3834    1.0000 </r>
       <r>   -0.7200    0.0000 </r>
       <r>    0.0803    0.0000 </r>
       <r>    0.1919    0.0000 </r>
       <r>    0.4234    0.0000 </r>
       <r>    0.7572    0.0000 </r>
       <r>    0.9178    0.0000 </r>
       <r>    1.3097    0.0000 </r>
       <r>    1.8593    0.0000 </r>
      </set>
      <set comment="kpoint 5">
       <r>  -19.2048    1.0000 </r>
       <r>  -15.1765    1.0000 </r>
       <r>  -15.0915    1.0000 </r>
       <r>  -13.4086    1.0000 </r>
       <r>  -13.3568    1.0000 </r>
       <r>  -10.6844    1.0000 </r>
       <r>   -9.0132    1.0000 </r>
       <r>   -8.9346    1.0000 </r>
       <r>   -8.8271    1.0000 </r>
       <r>   -8.6948    1.0000 </r>
       <r>   -8.0692    1.0000 </r>
       <r>   -6.8031    1.0000 </r>
       <r>   -6.3746    1.0000 </r>
       <r>   -5.9207    1.0000 </r>
       <r>   -5.0818    1.0000 </r>
       <r>   -5.0188    1.0000 </r>
       <r>   -4.6849    1.0000 </r>
       <r>   -4.0345    1.0000 </r>
       <r>   -3.9842    1.0000 </r>
       <r>   -3.8259    1.0000 </r>
       <r>   -3.7715    1.0000 </r>
       <r>   -3.3119    1.0000 </r>
       <r>   -2.9674    1.0000 </r>
       <r>   -2.8588    1.0000 </r>
       <r>   -0.5887    0.0000 </r>
       <r>    0.2492    0.0000 </r>
       <r>    0.5554    0.0000 </r>
       <r>    0.7989    0.0000 </r>
       <r>    1.0447    0.0000 </r>
       <r>    1.1054    0.0000 </r>
       <r>    1.3560    0.0000 </r>
       <r>    1.8159    0.0000 </r>
      </set>
      <set comment="kpoint 6">
       <r>  -19.2034    1.0000 </r>
       <r>  -14.7740    1.0000 </r>
       <r>  -14.6947    1.0000 </r>
       <r>  -14.1430    1.0000 </r>
       <r>  -14.0743    1.0000 </r>
       <r>  -10.6709    1.0000 </r>
       <r>   -8.8134    1.0000 </r>
       <r>   -8.4416    1.0000 </r>
       <r>   -7.8131    1.0000 </r>
       <r>   -7.6370    1.0000 </r>
       <r>   -7.5706    1.0000 </r>
       <r>   -7.2923    1.0000 </r>
       <r>   -6.8242    1.0000 </r>
       <r>   -6.2634    1.0000 </r>
       <r>   -5.7164    1.0000 </r>
       <r>   -5.6101    1.0000 </r>
       <r>   -4.6190    1.0000 </r>
       <r>   -4.5561    1.0000 </r>
       <r>   -4.3659    1.0000 </r>
       <r>   -4.1045    1.0000 </r>
       <r>   -3.8428    1.0000 </r>
       <r>   -3.6294    1.0000 </r>
       <r>   -3.2225    1.0000 </r>
       <r>   -3.1287    1.0000 </r>
       <r>   -0.2007    0.0000 </r>
       <r>    0.4495    0.0000 </r>
       <r>    0.6839    0.0000 </r>
       <r>    1.0882    0.0000 </r>
       <r>    1.3758    0.0000 </r>
       <r>    1.4508    0.0000 </r>
       <r>    1.7113    0.0000 </r>
       <r>    1.8542    0.0000 </r>
      </set>
      <set comment="kpoint 7">
       <r>  -19.2034    1.0000 </r>
       <r>  -14.7739    1.0000 </r>
       <r>  -14.6947    1.0000 </r>
       <r>  -14.1430    1.0000 </r>
       <r>  -14.0742    1.0000 </r>
       <r>  -10.6709    1.0000 </r>
       <r>   -8.8107    1.0000 </r>
       <r>   -8.4490    1.0000 </r>
       <r>   -7.7970    1.0000 </r>
       <r>   -7.6378    1.0000 </r>
       <r>   -7.5751    1.0000 </r>
       <r>   -7.3034    1.0000 </r>
       <r>   -6.8164    1.0000 </r>
       <r>   -6.2696    1.0000 </r>
       <r>   -5.7134    1.0000 </r>
       <r>   -5.6105    1.0000 </r>
       <r>   -4.6242    1.0000 </r>
       <r>   -4.5563    1.0000 </r>
       <r>   -4.3574    1.0000 </r>
       <r>   -4.1062    1.0000 </r>
       <r>   -3.8393    1.0000 </r>
       <r>   -3.6319    1.0000 </r>
       <r>   -3.2224    1.0000 </r>
       <r>   -3.1302    1.0000 </r>
       <r>   -0.1924    0.0000 </r>
       <r>    0.4197    0.0000 </r>
       <r>    0.6681    0.0000 </r>
       <r>    1.1364    0.0000 </r>
       <r>    1.3501    0.0000 </r>
       <r>    1.4786    0.0000 </r>
       <r>    1.7438    0.0000 </r>
       <r>    2.2174    0.0000 </r>
      </set>
      <set comment="kpoint 8">
       <r>  -19.2048    1.0000 </r>
       <r>  -15.1765    1.0000 </r>
       <r>  -15.0915    1.0000 </r>
       <r>  -13.4086    1.0000 </r>
       <r>  -13.3568    1.0000 </r>
       <r>  -10.6844    1.0000 </r>
       <r>   -9.0075    1.0000 </r>
       <r>   -8.9367    1.0000 </r>
       <r>   -8.8332    1.0000 </r>
       <r>   -8.6938    1.0000 </r>
       <r>   -8.0664    1.0000 </r>
       <r>   -6.8020    1.0000 </r>
       <r>   -6.3788    1.0000 </r>
       <r>   -5.9213    1.0000 </r>
       <r>   -5.0824    1.0000 </r>
       <r>   -5.0188    1.0000 </r>
       <r>   -4.6825    1.0000 </r>
       <r>   -4.0350    1.0000 </r>
       <r>   -3.9845    1.0000 </r>
       <r>   -3.8237    1.0000 </r>
       <r>   -3.7715    1.0000 </r>
       <r>   -3.3067    1.0000 </r>
       <r>   -2.9660    1.0000 </r>
       <r>   -2.8644    1.0000 </r>
       <r>   -0.5865    0.0000 </r>
       <r>    0.2243    0.0000 </r>
       <r>    0.5498    0.0000 </r>
       <r>    0.8015    0.0000 </r>
       <r>    1.0397    0.0000 </r>
       <r>    1.1353    0.0000 </r>
       <r>    1.3631    0.0000 </r>
       <r>    1.7562    0.0000 </r>
      </set>
     </set>
    </set>
   </array>
  </eigenvalues>
  <separator name="orbital magnetization" >
   <v name="MAGDIPOLOUT">      0.00000000      0.00000000      0.00000000</v>
  </separator>
  <dos>
   <i name="efermi">     -2.11996635 </i>
   <total>
    <array>
     <dimension dim="1">gridpoints</dimension>
     <dimension dim="2">spin</dimension>
     <field>energy</field>
     <field>total</field>
     <field>integrated</field>
     <set>
      <set comment="spin 1">
       <r>   -20.2772     0.0000     0.0000 </r>
       <r>   -20.1986     0.0000     0.0000 </r>
       <r>   -20.1201     0.0000     0.0000 </r>
       <r>   -20.0415     0.0000     0.0000 </r>
       <r>   -19.9629     0.0000     0.0000 </r>
       <r>   -19.8843     0.0000     0.0000 </r>
       <r>   -19.8057     0.0000     0.0000 </r>
       <r>   -19.7271     0.0000     0.0000 </r>
       <r>   -19.6486     0.0000     0.0000 </r>
       <r>   -19.5700     0.0000     0.0000 </r>
       <r>   -19.4914     0.0000     0.0000 </r>
       <r>   -19.4128     0.0000     0.0000 </r>
       <r>   -19.3342     0.0031     0.0002 </r>
       <r>   -19.2557     1.8713     0.1473 </r>
       <r>   -19.1771    17.9821     1.5604 </r>
       <r>   -19.0985     5.5598     1.9973 </r>
       <r>   -19.0199     0.0350     2.0000 </r>
       <r>   -18.9413     0.0000     2.0000 </r>
       <r>   -18.8628     0.0000     2.0000 </r>
       <r>   -18.7842     0.0000     2.0000 </r>
       <r>   -18.7056     0.0000     2.0000 </r>
       <r>   -18.6270     0.0000     2.0000 </r>
       <r>   -18.5484     0.0000     2.0000 </r>
       <r>   -18.4698     0.0000     2.0000 </r>
       <r>   -18.3913     0.0000     2.0000 </r>
       <r>   -18.3127     0.0000     2.0000 </r>
       <r>   -18.2341     0.0000     2.0000 </r>
       <r>   -18.1555     0.0000     2.0000 </r>
       <r>   -18.0769     0.0000     2.0000 </r>
       <r>   -17.9984     0.0000     2.0000 </r>
       <r>   -17.9198     0.0000     2.0000 </r>
       <r>   -17.8412     0.0000     2.0000 </r>
       <r>   -17.7626     0.0000     2.0000 </r>
       <r>   -17.6840     0.0000     2.0000 </r>
       <r>   -17.6054     0.0000     2.0000 </r>
       <r>   -17.5269     0.0000     2.0000 </r>
       <r>   -17.4483     0.0000     2.0000 </r>
       <r>   -17.3697     0.0000     2.0000 </r>
       <r>   -17.2911     0.0000     2.0000 </r>
       <r>   -17.2125     0.0000     2.0000 </r>
       <r>   -17.1340     0.0000     2.0000 </r>
       <r>   -17.0554     0.0000     2.0000 </r>
       <r>   -16.9768     0.0000     2.0000 </r>
       <r>   -16.8982     0.0000     2.0000 </r>
       <r>   -16.8196     0.0000     2.0000 </r>
       <r>   -16.7410     0.0000     2.0000 </r>
       <r>   -16.6625     0.0000     2.0000 </r>
       <r>   -16.5839     0.0000     2.0000 </r>
       <r>   -16.5053     0.0000     2.0000 </r>
       <r>   -16.4267     0.0000     2.0000 </r>
       <r>   -16.3481     0.0000     2.0000 </r>
       <r>   -16.2696     0.0000     2.0000 </r>
       <r>   -16.1910     0.0000     2.0000 </r>
       <r>   -16.1124     0.0000     2.0000 </r>
       <r>   -16.0338     0.0000     2.0000 </r>
       <r>   -15.9552     0.0000     2.0000 </r>
       <r>   -15.8767     0.0000     2.0000 </r>
       <r>   -15.7981     0.0000     2.0000 </r>
       <r>   -15.7195     0.0000     2.0000 </r>
       <r>   -15.6409     0.0000     2.0000 </r>
       <r>   -15.5623     0.0000     2.0000 </r>
       <r>   -15.4837     0.0002     2.0000 </r>
       <r>   -15.4052     0.1432     2.0113 </r>
       <r>   -15.3266     2.4102     2.2007 </r>
       <r>   -15.2480     4.1826     2.5293 </r>
       <r>   -15.1694     9.7502     3.2955 </r>
       <r>   -15.0908     7.6205     3.8944 </r>
       <r>   -15.0123     5.7982     4.3500 </r>
       <r>   -14.9337     0.6351     4.3999 </r>
       <r>   -14.8551     0.4412     4.4346 </r>
       <r>   -14.7765     5.6721     4.8803 </r>
       <r>   -14.6979     7.4572     5.4663 </r>
       <r>   -14.6193     6.1088     5.9463 </r>
       <r>   -14.5408     0.6806     5.9998 </r>
       <r>   -14.4622     0.0025     6.0000 </r>
       <r>   -14.3836     0.0000     6.0000 </r>
       <r>   -14.3050     0.0004     6.0000 </r>
       <r>   -14.2264     0.3179     6.0250 </r>
       <r>   -14.1479     5.4957     6.4569 </r>
       <r>   -14.0693     8.6648     7.1378 </r>
       <r>   -13.9907     5.5231     7.5718 </r>
       <r>   -13.9121     0.3584     7.6000 </r>
       <r>   -13.8335     0.0006     7.6000 </r>
       <r>   -13.7549     0.0000     7.6000 </r>
       <r>   -13.6764     0.0000     7.6000 </r>
       <r>   -13.5978     0.0000     7.6000 </r>
       <r>   -13.5192     0.0319     7.6025 </r>
       <r>   -13.4406     2.6928     7.8141 </r>
       <r>   -13.3620    10.3633     8.6285 </r>
       <r>   -13.2835     6.8284     9.1651 </r>
       <r>   -13.2049     0.4439     9.1999 </r>
       <r>   -13.1263     0.0029     9.2002 </r>
       <r>   -13.0477     0.6285     9.2496 </r>
       <r>   -12.9691     5.3918     9.6733 </r>
       <r>   -12.8906     3.9531     9.9839 </r>
       <r>   -12.8120     0.2047    10.0000 </r>
       <r>   -12.7334     0.0002    10.0000 </r>
       <r>   -12.6548     0.0000    10.0000 </r>
       <r>   -12.5762     0.0000    10.0000 </r>
       <r>   -12.4976     0.0000    10.0000 </r>
       <r>   -12.4191     0.0000    10.0000 </r>
       <r>   -12.3405     0.0000    10.0000 </r>
       <r>   -12.2619     0.0000    10.0000 </r>
       <r>   -12.1833     0.0000    10.0000 </r>
       <r>   -12.1047     0.0000    10.0000 </r>
       <r>   -12.0262     0.0000    10.0000 </r>
       <r>   -11.9476     0.0000    10.0000 </r>
       <r>   -11.8690     0.0000    10.0000 </r>
       <r>   -11.7904     0.0000    10.0000 </r>
       <r>   -11.7118     0.0000    10.0000 </r>
       <r>   -11.6332     0.0000    10.0000 </r>
       <r>   -11.5547     0.0000    10.0000 </r>
       <r>   -11.4761     0.0000    10.0000 </r>
       <r>   -11.3975     0.0000    10.0000 </r>
       <r>   -11.3189     0.0000    10.0000 </r>
       <r>   -11.2403     0.0000    10.0000 </r>
       <r>   -11.1618     0.0000    10.0000 </r>
       <r>   -11.0832     0.0000    10.0000 </r>
       <r>   -11.0046     0.0000    10.0000 </r>
       <r>   -10.9260     0.0000    10.0000 </r>
       <r>   -10.8474     0.0002    10.0000 </r>
       <r>   -10.7688     0.2835    10.0223 </r>
       <r>   -10.6903    10.4045    10.8399 </r>
       <r>   -10.6117    14.0561    11.9444 </r>
       <r>   -10.5331     0.7064    12.0000 </r>
       <r>   -10.4545     0.0006    12.0000 </r>
       <r>   -10.3759     0.0000    12.0000 </r>
       <r>   -10.2974     0.0000    12.0000 </r>
       <r>   -10.2188     0.0000    12.0000 </r>
       <r>   -10.1402     0.0000    12.0000 </r>
       <r>   -10.0616     0.0000    12.0000 </r>
       <r>    -9.9830     0.0000    12.0000 </r>
       <r>    -9.9045     0.0000    12.0000 </r>
       <r>    -9.8259     0.0000    12.0000 </r>
       <r>    -9.7473     0.0079    12.0006 </r>
       <r>    -9.6687     0.6491    12.0516 </r>
       <r>    -9.5901     2.8207    12.2733 </r>
       <r>    -9.5115     1.8178    12.4161 </r>
       <r>    -9.4330     3.3811    12.6818 </r>
       <r>    -9.3544     2.7178    12.8954 </r>
       <r>    -9.2758     2.2327    13.0708 </r>
       <r>    -9.1972     1.6573    13.2011 </r>
       <r>    -9.1186     1.7921    13.3419 </r>
       <r>    -9.0401     3.6198    13.6263 </r>
       <r>    -8.9615     8.9116    14.3266 </r>
       <r>    -8.8829     7.6898    14.9309 </r>
       <r>    -8.8043    11.6384    15.8455 </r>
       <r>    -8.7257    10.5452    16.6741 </r>
       <r>    -8.6471    13.3482    17.7230 </r>
       <r>    -8.5686     1.8234    17.8663 </r>
       <r>    -8.4900     0.7134    17.9224 </r>
       <r>    -8.4114     4.9240    18.3093 </r>
       <r>    -8.3328     1.1500    18.3997 </r>
       <r>    -8.2542     0.4424    18.4345 </r>
       <r>    -8.1757     2.4969    18.6307 </r>
       <r>    -8.0971     1.8422    18.7754 </r>
       <r>    -8.0185     5.3027    19.1921 </r>
       <r>    -7.9399     3.0440    19.4313 </r>
       <r>    -7.8613     0.8579    19.4987 </r>
       <r>    -7.7828     4.5498    19.8563 </r>
       <r>    -7.7042     2.0149    20.0146 </r>
       <r>    -7.6256     5.1714    20.4210 </r>
       <r>    -7.5470     9.6688    21.1808 </r>
       <r>    -7.4684     1.9304    21.3325 </r>
       <r>    -7.3898     0.3378    21.3590 </r>
       <r>    -7.3113     4.8064    21.7367 </r>
       <r>    -7.2327     5.0516    22.1337 </r>
       <r>    -7.1541     2.6880    22.3449 </r>
       <r>    -7.0755     2.2920    22.5250 </r>
       <r>    -6.9969     0.1685    22.5383 </r>
       <r>    -6.9184     1.8412    22.6829 </r>
       <r>    -6.8398     4.5654    23.0417 </r>
       <r>    -6.7612    12.3145    24.0094 </r>
       <r>    -6.6826     3.2396    24.2640 </r>
       <r>    -6.6040     1.9191    24.4148 </r>
       <r>    -6.5254     4.6278    24.7784 </r>
       <r>    -6.4469     2.4665    24.9722 </r>
       <r>    -6.3683     5.2379    25.3838 </r>
       <r>    -6.2897     5.1812    25.7910 </r>
       <r>    -6.2111     5.6365    26.2339 </r>
       <r>    -6.1325     2.5328    26.4329 </r>
       <r>    -6.0540     5.6593    26.8777 </r>
       <r>    -5.9754     1.3148    26.9810 </r>
       <r>    -5.8968     8.7187    27.6661 </r>
       <r>    -5.8182     4.2098    27.9969 </r>
       <r>    -5.7396     1.6852    28.1293 </r>
       <r>    -5.6610     5.3266    28.5479 </r>
       <r>    -5.5825     7.3865    29.1284 </r>
       <r>    -5.5039     5.7286    29.5785 </r>
       <r>    -5.4253     3.5525    29.8577 </r>
       <r>    -5.3467     0.6744    29.9107 </r>
       <r>    -5.2681     4.3400    30.2517 </r>
       <r>    -5.1896     5.3522    30.6723 </r>
       <r>    -5.1110     4.8163    31.0508 </r>
       <r>    -5.0324    10.0849    31.8433 </r>
       <r>    -4.9538     6.3390    32.3414 </r>
       <r>    -4.8752     2.3728    32.5278 </r>
       <r>    -4.7967     2.3139    32.7097 </r>
       <r>    -4.7181     4.2883    33.0467 </r>
       <r>    -4.6395    11.2051    33.9272 </r>
       <r>    -4.5609    11.8470    34.8581 </r>
       <r>    -4.4823     4.2284    35.1904 </r>
       <r>    -4.4037     1.2782    35.2909 </r>
       <r>    -4.3252     7.8330    35.9064 </r>
       <r>    -4.2466     4.0911    36.2279 </r>
       <r>    -4.1680     0.7526    36.2870 </r>
       <r>    -4.0894     5.0601    36.6846 </r>
       <r>    -4.0108    13.4375    37.7406 </r>
       <r>    -3.9323    11.3701    38.6341 </r>
       <r>    -3.8537     9.2026    39.3572 </r>
       <r>    -3.7751    16.6496    40.6656 </r>
       <r>    -3.6965     5.1975    41.0740 </r>
       <r>    -3.6179     4.5502    41.4316 </r>
       <r>    -3.5393     4.9536    41.8208 </r>
       <r>    -3.4608     1.8839    41.9689 </r>
       <r>    -3.3822     2.1222    42.1356 </r>
       <r>    -3.3036     6.8711    42.6756 </r>
       <r>    -3.2250    13.0529    43.7013 </r>
       <r>    -3.1464     7.5257    44.2927 </r>
       <r>    -3.0679     5.5275    44.7270 </r>
       <r>    -2.9893     4.4069    45.0733 </r>
       <r>    -2.9107     7.5718    45.6683 </r>
       <r>    -2.8321     6.9493    46.2144 </r>
       <r>    -2.7535     3.7897    46.5122 </r>
       <r>    -2.6749     0.2684    46.5333 </r>
       <r>    -2.5964     0.1331    46.5438 </r>
       <r>    -2.5178     3.4618    46.8158 </r>
       <r>    -2.4392     5.8568    47.2760 </r>
       <r>    -2.3606     6.9868    47.8251 </r>
       <r>    -2.2820     2.1925    47.9974 </r>
       <r>    -2.2035     0.0336    48.0000 </r>
       <r>    -2.1249     0.0000    48.0000 </r>
       <r>    -2.0463     0.0000    48.0000 </r>
       <r>    -1.9677     0.0000    48.0000 </r>
       <r>    -1.8891     0.0000    48.0000 </r>
       <r>    -1.8106     0.0000    48.0000 </r>
       <r>    -1.7320     0.0000    48.0000 </r>
       <r>    -1.6534     0.0000    48.0000 </r>
       <r>    -1.5748     0.0000    48.0000 </r>
       <r>    -1.4962     0.0000    48.0000 </r>
       <r>    -1.4176     0.0000    48.0000 </r>
       <r>    -1.3391     0.0000    48.0000 </r>
       <r>    -1.2605     0.0000    48.0000 </r>
       <r>    -1.1819     0.0000    48.0000 </r>
       <r>    -1.1033     0.0077    48.0006 </r>
       <r>    -1.0247     0.6048    48.0481 </r>
       <r>    -0.9462     2.3096    48.2296 </r>
       <r>    -0.8676     2.0731    48.3925 </r>
       <r>    -0.7890     0.1814    48.4068 </r>
       <r>    -0.7104     1.9742    48.5619 </r>
       <r>    -0.6318     2.0374    48.7220 </r>
       <r>    -0.5532     5.9684    49.1910 </r>
       <r>    -0.4747     3.3506    49.4543 </r>
       <r>    -0.3961     0.4490    49.4896 </r>
       <r>    -0.3175     1.2360    49.5867 </r>
       <r>    -0.2389     0.9623    49.6624 </r>
       <r>    -0.1603     4.9446    50.0509 </r>
       <r>    -0.0818     1.0446    50.1330 </r>
       <r>    -0.0032     0.0351    50.1358 </r>
       <r>     0.0754     1.4792    50.2520 </r>
       <r>     0.1540     2.4304    50.4430 </r>
       <r>     0.2326     7.6069    51.0407 </r>
       <r>     0.3112     6.8462    51.5787 </r>
       <r>     0.3897     1.6763    51.7105 </r>
       <r>     0.4683     7.2556    52.2806 </r>
       <r>     0.5469     6.3917    52.7829 </r>
       <r>     0.6255     7.3021    53.3567 </r>
       <r>     0.7041     8.2987    54.0088 </r>
       <r>     0.7826     6.5453    54.5232 </r>
       <r>     0.8612     7.8316    55.1386 </r>
       <r>     0.9398     8.2658    55.7881 </r>
       <r>     1.0184     4.9410    56.1764 </r>
       <r>     1.0970    13.6653    57.2502 </r>
       <r>     1.1755    10.2385    58.0548 </r>
       <r>     1.2541     1.7630    58.1933 </r>
       <r>     1.3327     7.8828    58.8128 </r>
       <r>     1.4113    15.0330    59.9941 </r>
       <r>     1.4899    12.5868    60.9832 </r>
       <r>     1.5685     3.0892    61.2259 </r>
       <r>     1.6470     1.3648    61.3332 </r>
       <r>     1.7256     3.9721    61.6453 </r>
       <r>     1.8042     9.0300    62.3549 </r>
       <r>     1.8828     9.0280    63.0643 </r>
       <r>     1.9614     2.3666    63.2503 </r>
       <r>     2.0399     2.4539    63.4431 </r>
       <r>     2.1185     0.3119    63.4676 </r>
       <r>     2.1971     1.6581    63.5979 </r>
       <r>     2.2757     4.6812    63.9658 </r>
       <r>     2.3543     0.4348    63.9999 </r>
       <r>     2.4329     0.0007    64.0000 </r>
       <r>     2.5114     0.0000    64.0000 </r>
       <r>     2.5900     0.0000    64.0000 </r>
       <r>     2.6686     0.0000    64.0000 </r>
       <r>     2.7472     0.0000    64.0000 </r>
       <r>     2.8258     0.0000    64.0000 </r>
       <r>     2.9043     0.0000    64.0000 </r>
       <r>     2.9829     0.0000    64.0000 </r>
       <r>     3.0615     0.0000    64.0000 </r>
       <r>     3.1401     0.0000    64.0000 </r>
       <r>     3.2187     0.0000    64.0000 </r>
       <r>     3.2973     0.0000    64.0000 </r>
      </set>
     </set>
    </array>
   </total>
  </dos>
 </calculation>
 <structure name="finalpos" >
  <crystal>
   <varray name="basis" >
    <v>       6.01920000       0.00000000       0.00000000 </v>
    <v>       0.00000000      10.14000000       0.00000000 </v>
    <v>       0.00000000       0.00000000      15.00000000 </v>
   </varray>
   <i name="volume">    915.52032000 </i>
   <varray name="rec_basis" >
    <v>       0.16613503       0.00000000       0.00000000 </v>
    <v>       0.00000000       0.09861933       0.00000000 </v>
    <v>       0.00000000       0.00000000       0.06666667 </v>
   </varray>
  </crystal>
  <varray name="positions" >
   <v>       0.43387232       0.87725505       0.25175617 </v>
   <v>       0.93366987       0.87756892       0.23544450 </v>
   <v>       0.43473255       0.62003990       0.26986543 </v>
   <v>       0.93352809       0.61813220       0.24070469 </v>
   <v>       0.43326171       0.37934719       0.23647906 </v>
   <v>       0.93292505       0.37712238       0.26032446 </v>
   <v>       0.43361270       0.11943796       0.23356039 </v>
   <v>       0.93362873       0.11908979       0.25157373 </v>
   <v>       0.18376275       0.99852097       0.24277529 </v>
   <v>       0.68363894       0.99861435       0.24203624 </v>
   <v>       0.18349891       0.49779379       0.25493029 </v>
   <v>       0.68316563       0.49786801       0.25213500 </v>
   <v>       0.43345174       0.61664008       0.45815671 </v>
   <v>       0.26058130       0.69527510       0.47817479 </v>
   <v>       0.29744058       0.51818780       0.43208324 </v>
  </varray>
  <varray name="selective"  type="logical" >
   <v type="logical" >  T  T  T </v>
   <v type="logical" >  T  T  T </v>
   <v type="logical" >  T  T  T </v>
   <v type="logical" >  T  T  T </v>
   <v type="logical" >  T  T  T </v>
   <v type="logical" >  T  T  T </v>
   <v type="logical" >  T  T  T </v>
   <v type="logical" >  T  T  T </v>
   <v type="logical" >  T  T  T </v>
   <v type="logical" >  T  T  T </v>
   <v type="logical" >  T  T  T </v>
   <v type="logical" >  T  T  T </v>
   <v type="logical" >  T  T  T </v>
   <v type="logical" >  T  T  T </v>
   <v type="logical" >  T  T  T </v>
  </varray>
  <nose>
   <v>      -3.00000000       0.00000000       0.00010000       0.00010000 </v>
  </nose>
 </structure>
</modeling>
