Al   C    Te   H                        
   1.0000000000000000     
     6.0191999999999997    0.0000000000000000    0.0000000000000000
     0.0000000000000000   10.1400000000000006    0.0000000000000000
     0.0000000000000000    0.0000000000000000   15.0000000000000000
   Al   C    Te   H 
     8     4     1     2
Selective dynamics
Direct
  0.4049206432854643  0.8723102680508021  0.2513587328287184   T   T   T
  0.9077850400423410  0.8716648226769467  0.2421577698278217   T   T   T
  0.4121723239283118  0.6168010408129533  0.2593110912391089   T   T   T
  0.9149939203048768  0.6159299255874002  0.2581306388685666   T   T   T
  0.4201689545410305  0.3665901042960507  0.2535158360592891   T   T   T
  0.9059899203760203  0.3694883927257483  0.2629605747848928   T   T   T
  0.4079008206712237  0.1146751359488890  0.2362558107991936   T   T   T
  0.9035581147148530  0.1147702271409270  0.2501710730945093   T   T   T
  0.1559814513954245  0.9944773364446224  0.2451492666283286   T   T   T
  0.6562391182691063  0.9912310992697105  0.2420734725699409   T   T   T
  0.1665119971749478  0.4883483993812797  0.2824814262138181   T   T   T
  0.6631851200082746  0.4974664206142295  0.2462692203405743   T   T   T
  0.5523977516529454  0.3560039285906363  0.4445246543180558   T   T   T
  0.3932742278241680  0.2475430686210688  0.5016580475530817   T   T   T
  0.2946898850496902  0.4336310591330236  0.3729915828189773   T   T   T

  0.00000000E+00  0.00000000E+00  0.00000000E+00
  0.00000000E+00  0.00000000E+00  0.00000000E+00
  0.00000000E+00  0.00000000E+00  0.00000000E+00
  0.00000000E+00  0.00000000E+00  0.00000000E+00
  0.00000000E+00  0.00000000E+00  0.00000000E+00
  0.00000000E+00  0.00000000E+00  0.00000000E+00
  0.00000000E+00  0.00000000E+00  0.00000000E+00
  0.00000000E+00  0.00000000E+00  0.00000000E+00
  0.00000000E+00  0.00000000E+00  0.00000000E+00
  0.00000000E+00  0.00000000E+00  0.00000000E+00
  0.00000000E+00  0.00000000E+00  0.00000000E+00
  0.00000000E+00  0.00000000E+00  0.00000000E+00
  0.00000000E+00  0.00000000E+00  0.00000000E+00
  0.00000000E+00  0.00000000E+00  0.00000000E+00
  0.00000000E+00  0.00000000E+00  0.00000000E+00
