Al   C    Te   H                        
   1.0000000000000000     
     6.0191999999999997    0.0000000000000000    0.0000000000000000
     0.0000000000000000   10.1400000000000006    0.0000000000000000
     0.0000000000000000    0.0000000000000000   15.0000000000000000
   Al   C    Te   H 
     8     4     1     2
Selective dynamics
Direct
  0.4058351024040195  0.8722030188982073  0.2514670130024617   T   T   T
  0.9086000065657736  0.8715892964729418  0.2422452849737735   T   T   T
  0.4127854149466397  0.6166891877246109  0.2589094708623083   T   T   T
  0.9153988407255238  0.6158460034220320  0.2577926403833152   T   T   T
  0.4206541391081930  0.3664460206085815  0.2535062226657115   T   T   T
  0.9066662254307700  0.3694443530182421  0.2625893503708331   T   T   T
  0.4087326622624637  0.1145890710870268  0.2365668923877103   T   T   T
  0.9044945368430040  0.1146489689731090  0.2504832501962944   T   T   T
  0.1568519236314439  0.9943386780261723  0.2453609744929315   T   T   T
  0.6571074529315764  0.9911754146526173  0.2425203358586731   T   T   T
  0.1670250862045735  0.4883962668596655  0.2822402205240605   T   T   T
  0.6637032028892015  0.4972401988278543  0.2459774755941498   T   T   T
  0.5498748986591850  0.3555423122932759  0.4448620066722998   T   T   T
  0.3876956245337531  0.2483234436010770  0.5016301907625675   T   T   T
  0.2936198368631313  0.4343135152352842  0.3727128490138605   T   T   T

  0.00000000E+00  0.00000000E+00  0.00000000E+00
  0.00000000E+00  0.00000000E+00  0.00000000E+00
  0.00000000E+00  0.00000000E+00  0.00000000E+00
  0.00000000E+00  0.00000000E+00  0.00000000E+00
  0.00000000E+00  0.00000000E+00  0.00000000E+00
  0.00000000E+00  0.00000000E+00  0.00000000E+00
  0.00000000E+00  0.00000000E+00  0.00000000E+00
  0.00000000E+00  0.00000000E+00  0.00000000E+00
  0.00000000E+00  0.00000000E+00  0.00000000E+00
  0.00000000E+00  0.00000000E+00  0.00000000E+00
  0.00000000E+00  0.00000000E+00  0.00000000E+00
  0.00000000E+00  0.00000000E+00  0.00000000E+00
  0.00000000E+00  0.00000000E+00  0.00000000E+00
  0.00000000E+00  0.00000000E+00  0.00000000E+00
  0.00000000E+00  0.00000000E+00  0.00000000E+00
