Al2C                                    
   1.0000000000000000     
     6.0191999999999997    0.0000000000000000    0.0000000000000000
     0.0000000000000000   10.1400000000000006    0.0000000000000000
     0.0000000000000000    0.0000000000000000   15.0000000000000000
   Al   C    Se   H 
     8     4     1     2
Selective dynamics
Direct
  0.3445108167668159  0.8687895694163903  0.2492472404075185   T   T   T
  0.8432125400635383  0.8688328044111080  0.2492553884194142   T   T   T
  0.3274059237912225  0.6179367615975000  0.2891158775995554   T   T   T
  0.8603483546558147  0.6179252121561390  0.2891163867602959   T   T   T
  0.3368682942179488  0.3692160519200059  0.2562446094517335   T   T   T
  0.8508820667055677  0.3692300683334178  0.2562418593067837   T   T   T
  0.3433854276066861  0.1113312903397037  0.2421822566723206   T   T   T
  0.8443301047649386  0.1112822251714373  0.2421710399178014   T   T   T
  0.0938156394834848  0.9911647697765436  0.2424658398285411   T   T   T
  0.5939086769385075  0.9917995245642592  0.2440787538436086   T   T   T
  0.0938798483839570  0.4895165732482648  0.2485918106561922   T   T   T
  0.5938866305451327  0.4880225017859861  0.2999902684734157   T   T   T
  0.0938860761301051  0.6354580903453738  0.4331204224085596   T   T   T
  0.5938708490439275  0.4607796536146919  0.3717122645463368   T   T   T
  0.0939796174627054  0.7766083944434352  0.4564659817078981   T   T   T

  0.00000000E+00  0.00000000E+00  0.00000000E+00
  0.00000000E+00  0.00000000E+00  0.00000000E+00
  0.00000000E+00  0.00000000E+00  0.00000000E+00
  0.00000000E+00  0.00000000E+00  0.00000000E+00
  0.00000000E+00  0.00000000E+00  0.00000000E+00
  0.00000000E+00  0.00000000E+00  0.00000000E+00
  0.00000000E+00  0.00000000E+00  0.00000000E+00
  0.00000000E+00  0.00000000E+00  0.00000000E+00
  0.00000000E+00  0.00000000E+00  0.00000000E+00
  0.00000000E+00  0.00000000E+00  0.00000000E+00
  0.00000000E+00  0.00000000E+00  0.00000000E+00
  0.00000000E+00  0.00000000E+00  0.00000000E+00
  0.00000000E+00  0.00000000E+00  0.00000000E+00
  0.00000000E+00  0.00000000E+00  0.00000000E+00
  0.00000000E+00  0.00000000E+00  0.00000000E+00
