Al   C    Se   H                        
   1.0000000000000000     
     6.0191999999999997    0.0000000000000000    0.0000000000000000
     0.0000000000000000   10.1400000000000006    0.0000000000000000
     0.0000000000000000    0.0000000000000000   15.0000000000000000
   Al   C    Se   H 
     8     4     1     2
Selective dynamics
Direct
  0.4124371224104806  0.8642192347449509  0.2360045352118121   T   T   T
  0.9110483321231939  0.8642570550360773  0.2421606104006884   T   T   T
  0.4179954236473762  0.6058474017878126  0.2493689119998663   T   T   T
  0.9028827223183740  0.6099448133742769  0.2568628361520169   T   T   T
  0.4300006416633479  0.3585617805266921  0.2936822700700645   T   T   T
  0.9057447438123205  0.3592303681196967  0.2707244632315025   T   T   T
  0.4120089230378099  0.1086826143273285  0.2507544035979095   T   T   T
  0.9120444571416328  0.1066791628378780  0.2457413671011821   T   T   T
  0.1623122552857268  0.9844204370302378  0.2447430064676155   T   T   T
  0.6616425328489086  0.9851600827427802  0.2376533544956416   T   T   T
  0.1611517126287652  0.4898208706489626  0.2934754716393400   T   T   T
  0.6638695825329179  0.4845151307686351  0.2457111001598946   T   T   T
  0.5831454645580649  0.3555303445855031  0.4450364398708828   T   T   T
  0.4490306735086236  0.2467869787567167  0.4846989569843245   T   T   T
  0.1589940283998388  0.5094642678331027  0.3666913288077467   T   T   T

  0.00000000E+00  0.00000000E+00  0.00000000E+00
  0.00000000E+00  0.00000000E+00  0.00000000E+00
  0.00000000E+00  0.00000000E+00  0.00000000E+00
  0.00000000E+00  0.00000000E+00  0.00000000E+00
  0.00000000E+00  0.00000000E+00  0.00000000E+00
  0.00000000E+00  0.00000000E+00  0.00000000E+00
  0.00000000E+00  0.00000000E+00  0.00000000E+00
  0.00000000E+00  0.00000000E+00  0.00000000E+00
  0.00000000E+00  0.00000000E+00  0.00000000E+00
  0.00000000E+00  0.00000000E+00  0.00000000E+00
  0.00000000E+00  0.00000000E+00  0.00000000E+00
  0.00000000E+00  0.00000000E+00  0.00000000E+00
  0.00000000E+00  0.00000000E+00  0.00000000E+00
  0.00000000E+00  0.00000000E+00  0.00000000E+00
  0.00000000E+00  0.00000000E+00  0.00000000E+00
