   15   15  999    1
  0.6103469E+02  0.6019200E-09  0.1014000E-08  0.1500000E-08  0.3500000E-15
   1.0000000000000000E-004
  CAR 
 Al2C                                    
     48      8     32

  0.3742002E-15  0.3742002E-15  0.1262379E-14  0.6666667E-01
    1      -15.247979   1.000000
    2      -14.607406   1.000000
    3      -13.762757   1.000000
    4      -12.724129   1.000000
    5      -11.636043   1.000000
    6       -8.903509   1.000000
    7       -8.874567   1.000000
    8       -8.589551   1.000000
    9       -7.583086   1.000000
   10       -7.269526   1.000000
   11       -6.623315   1.000000
   12       -6.209437   1.000000
   13       -5.869807   1.000000
   14       -5.141456   1.000000
   15       -5.048207   1.000000
   16       -4.720186   1.000000
   17       -4.317231   1.000000
   18       -3.972637   1.000000
   19       -3.708593   1.000000
   20       -3.473598   1.000000
   21       -3.156538   1.000000
   22       -2.903627   1.000000
   23       -2.537278   1.000000
   24       -2.250827   1.000000
   25       -1.506139   0.000000
   26       -1.078394   0.000000
   27       -0.232662   0.000000
   28       -0.016383   0.000000
   29        0.043841   0.000000
   30        0.460348   0.000000
   31        0.606241   0.000000
   32        0.987887   0.000000

  0.2000000E+00  0.3742002E-15  0.1262379E-14  0.1333333E+00
    1      -15.219891   1.000000
    2      -14.565938   1.000000
    3      -13.638726   1.000000
    4      -12.920059   1.000000
    5      -12.016662   1.000000
    6       -8.739782   1.000000
    7       -8.594576   1.000000
    8       -8.039487   1.000000
    9       -7.411038   1.000000
   10       -7.273896   1.000000
   11       -6.620677   1.000000
   12       -6.513329   1.000000
   13       -6.108214   1.000000
   14       -5.311702   1.000000
   15       -4.884235   1.000000
   16       -4.564526   1.000000
   17       -4.257278   1.000000
   18       -4.082326   1.000000
   19       -3.815246   1.000000
   20       -3.612500   1.000000
   21       -3.551438   1.000000
   22       -3.347131   1.000000
   23       -2.719450   1.000000
   24       -2.521599   1.000000
   25       -1.333751   0.000000
   26       -0.347945   0.000000
   27       -0.279527   0.000000
   28        0.116597   0.000000
   29        0.291968   0.000000
   30        0.681705   0.000000
   31        0.757332   0.000000
   32        0.893367   0.000000

  0.4000000E+00  0.3742002E-15  0.1262379E-14  0.1333333E+00
    1      -15.175655   1.000000
    2      -14.471042   1.000000
    3      -13.302237   1.000000
    4      -13.208343   1.000000
    5      -12.689151   1.000000
    6       -8.343029   1.000000
    7       -8.227858   1.000000
    8       -7.652660   1.000000
    9       -7.213174   1.000000
   10       -6.815605   1.000000
   11       -6.630327   1.000000
   12       -6.273435   1.000000
   13       -5.889403   1.000000
   14       -5.794518   1.000000
   15       -5.290109   1.000000
   16       -5.046104   1.000000
   17       -4.927039   1.000000
   18       -4.373403   1.000000
   19       -4.142425   1.000000
   20       -3.731025   1.000000
   21       -3.531176   1.000000
   22       -3.455044   1.000000
   23       -2.988018   1.000000
   24       -2.550383   1.000000
   25       -1.015434   0.000000
   26       -0.562591   0.000000
   27       -0.123244   0.000000
   28        0.650161   0.000000
   29        0.833663   0.000000
   30        1.150201   0.000000
   31        1.245027   0.000000
   32        1.347602   0.000000

  0.3742002E-15  0.3333333E+00  0.1262379E-14  0.1333333E+00
    1      -15.247448   1.000000
    2      -14.606328   1.000000
    3      -13.766605   1.000000
    4      -12.725966   1.000000
    5      -11.636945   1.000000
    6       -8.857032   1.000000
    7       -8.650427   1.000000
    8       -8.619620   1.000000
    9       -7.918498   1.000000
   10       -7.422895   1.000000
   11       -6.972086   1.000000
   12       -5.743543   1.000000
   13       -5.343815   1.000000
   14       -5.233140   1.000000
   15       -4.852881   1.000000
   16       -4.722027   1.000000
   17       -4.268315   1.000000
   18       -4.008855   1.000000
   19       -3.749834   1.000000
   20       -3.689668   1.000000
   21       -3.347162   1.000000
   22       -3.094026   1.000000
   23       -2.904005   1.000000
   24       -2.245791   1.000000
   25       -1.307145   0.000000
   26       -0.723884   0.000000
   27       -0.400734   0.000000
   28       -0.030787   0.000000
   29        0.383350   0.000000
   30        0.495645   0.000000
   31        0.714470   0.000000
   32        0.837565   0.000000

  0.2000000E+00  0.3333333E+00  0.1262379E-14  0.1333333E+00
    1      -15.219519   1.000000
    2      -14.564806   1.000000
    3      -13.641731   1.000000
    4      -12.921629   1.000000
    5      -12.018595   1.000000
    6       -8.617697   1.000000
    7       -8.469748   1.000000
    8       -8.065390   1.000000
    9       -7.738995   1.000000
   10       -7.298933   1.000000
   11       -7.015485   1.000000
   12       -6.381484   1.000000
   13       -5.745773   1.000000
   14       -5.186600   1.000000
   15       -4.674481   1.000000
   16       -4.600546   1.000000
   17       -4.191024   1.000000
   18       -3.973958   1.000000
   19       -3.843043   1.000000
   20       -3.643704   1.000000
   21       -3.553169   1.000000
   22       -3.397083   1.000000
   23       -3.037311   1.000000
   24       -2.713707   1.000000
   25       -1.250472   0.000000
   26       -0.400622   0.000000
   27       -0.274749   0.000000
   28       -0.021969   0.000000
   29        0.387476   0.000000
   30        0.598458   0.000000
   31        0.847786   0.000000
   32        1.006647   0.000000

  0.4000000E+00  0.3333333E+00  0.1262379E-14  0.1333333E+00
    1      -15.175525   1.000000
    2      -14.470236   1.000000
    3      -13.286886   1.000000
    4      -13.225009   1.000000
    5      -12.694165   1.000000
    6       -8.308685   1.000000
    7       -8.082182   1.000000
    8       -7.499446   1.000000
    9       -7.251233   1.000000
   10       -7.001195   1.000000
   11       -6.794555   1.000000
   12       -6.611515   1.000000
   13       -6.361987   1.000000
   14       -5.418058   1.000000
   15       -5.166319   1.000000
   16       -4.748437   1.000000
   17       -4.438054   1.000000
   18       -4.215955   1.000000
   19       -4.081376   1.000000
   20       -3.745313   1.000000
   21       -3.620134   1.000000
   22       -3.467755   1.000000
   23       -3.214103   1.000000
   24       -2.869814   1.000000
   25       -1.080067   0.000000
   26       -0.375438   0.000000
   27       -0.047764   0.000000
   28        0.422096   0.000000
   29        0.670014   0.000000
   30        0.790814   0.000000
   31        0.976275   0.000000
   32        1.399293   0.000000

 -0.4000000E+00  0.3333333E+00  0.1262379E-14  0.1333333E+00
    1      -15.175507   1.000000
    2      -14.470318   1.000000
    3      -13.282578   1.000000
    4      -13.229610   1.000000
    5      -12.693823   1.000000
    6       -8.289757   1.000000
    7       -8.096838   1.000000
    8       -7.537671   1.000000
    9       -7.267657   1.000000
   10       -6.939229   1.000000
   11       -6.783084   1.000000
   12       -6.577737   1.000000
   13       -6.413504   1.000000
   14       -5.411665   1.000000
   15       -5.179376   1.000000
   16       -4.773426   1.000000
   17       -4.444592   1.000000
   18       -4.173771   1.000000
   19       -4.085609   1.000000
   20       -3.727020   1.000000
   21       -3.641390   1.000000
   22       -3.432340   1.000000
   23       -3.268874   1.000000
   24       -2.859249   1.000000
   25       -0.958953   0.000000
   26       -0.538458   0.000000
   27       -0.125041   0.000000
   28        0.516017   0.000000
   29        0.671857   0.000000
   30        0.814072   0.000000
   31        1.138413   0.000000
   32        1.185190   0.000000

 -0.2000000E+00  0.3333333E+00  0.1262379E-14  0.1333333E+00
    1      -15.219495   1.000000
    2      -14.564918   1.000000
    3      -13.641415   1.000000
    4      -12.922015   1.000000
    5      -12.018469   1.000000
    6       -8.607824   1.000000
    7       -8.467039   1.000000
    8       -8.069220   1.000000
    9       -7.789465   1.000000
   10       -7.245803   1.000000
   11       -7.028265   1.000000
   12       -6.355935   1.000000
   13       -5.753518   1.000000
   14       -5.212199   1.000000
   15       -4.700729   1.000000
   16       -4.576495   1.000000
   17       -4.210112   1.000000
   18       -3.945386   1.000000
   19       -3.773065   1.000000
   20       -3.677789   1.000000
   21       -3.547585   1.000000
   22       -3.485174   1.000000
   23       -2.995810   1.000000
   24       -2.711719   1.000000
   25       -1.146559   0.000000
   26       -0.581408   0.000000
   27       -0.287577   0.000000
   28        0.061888   0.000000
   29        0.362673   0.000000
   30        0.671934   0.000000
   31        0.780902   0.000000
   32        0.975121   0.000000
