Al   C    Se   H                        
   1.0000000000000000     
     6.0191999999999997    0.0000000000000000    0.0000000000000000
     0.0000000000000000   10.1400000000000006    0.0000000000000000
     0.0000000000000000    0.0000000000000000   15.0000000000000000
   Al   C    Se   H 
     8     4     1     2
Selective dynamics
Direct
  0.4124371224104832  0.8642192347449486  0.2360045352118118   T   T   T
  0.9110483321231915  0.8642570550360766  0.2421606104006880   T   T   T
  0.4179954236473736  0.6058474017878146  0.2493689119998671   T   T   T
  0.9028827223183721  0.6099448133742771  0.2568628361520163   T   T   T
  0.4300006416633472  0.3585617805266956  0.2936822700700615   T   T   T
  0.9057447438123207  0.3592303681196993  0.2707244632315029   T   T   T
  0.4120089230378099  0.1086826143273252  0.2507544035979065   T   T   T
  0.9120444571416293  0.1066791628378791  0.2457413671011806   T   T   T
  0.1623122552857294  0.9844204370302394  0.2447430064676160   T   T   T
  0.6616425328489065  0.9851600827427809  0.2376533544956399   T   T   T
  0.1611517126287677  0.4898208706489642  0.2934754716393380   T   T   T
  0.6638695825329209  0.4845151307686349  0.2457111001598964   T   T   T
  0.5831454645580680  0.3555303445855031  0.4450364398708846   T   T   T
  0.4490306735086220  0.2467869787567135  0.4846989569843261   T   T   T
  0.1589940283998415  0.5094642678331036  0.3666913288077485   T   T   T

  0.00000000E+00  0.00000000E+00  0.00000000E+00
  0.00000000E+00  0.00000000E+00  0.00000000E+00
  0.00000000E+00  0.00000000E+00  0.00000000E+00
  0.00000000E+00  0.00000000E+00  0.00000000E+00
  0.00000000E+00  0.00000000E+00  0.00000000E+00
  0.00000000E+00  0.00000000E+00  0.00000000E+00
  0.00000000E+00  0.00000000E+00  0.00000000E+00
  0.00000000E+00  0.00000000E+00  0.00000000E+00
  0.00000000E+00  0.00000000E+00  0.00000000E+00
  0.00000000E+00  0.00000000E+00  0.00000000E+00
  0.00000000E+00  0.00000000E+00  0.00000000E+00
  0.00000000E+00  0.00000000E+00  0.00000000E+00
  0.00000000E+00  0.00000000E+00  0.00000000E+00
  0.00000000E+00  0.00000000E+00  0.00000000E+00
  0.00000000E+00  0.00000000E+00  0.00000000E+00
