 vasp.5.4.4.18Apr17-6-g9f103f2a35 (build Dec  6 2019 17:49:40) complex           
 POSCAR found type information on POSCAR  Al C  Se H 
 06/POSCAR found :  4 types and      15 ions
 scaLAPACK will be used
 LDA part: xc-table for Pade appr. of Perdew
 POSCAR found type information on POSCAR  Al C  Se H 
 00/POSCAR found :  4 types and      15 ions
 POSCAR found type information on POSCAR  Al C  Se H 
 09/POSCAR found :  4 types and      15 ions
 Jacobian:    15.248877391123434     
 POSCAR, INCAR and KPOINTS ok, starting setup
 FFT: planning ...
 WAVECAR not read
 entering main loop
       N       E                     dE             d eps       ncg     rms          rms(c)
DAV:   1     0.303200627700E+03    0.30320E+03   -0.13390E+04   512   0.924E+02
DAV:   2    -0.658964294740E+01   -0.30979E+03   -0.29236E+03   728   0.215E+02
DAV:   3    -0.869387145131E+02   -0.80349E+02   -0.79259E+02   832   0.102E+02
DAV:   4    -0.898438124673E+02   -0.29051E+01   -0.28971E+01   648   0.242E+01
DAV:   5    -0.899697531531E+02   -0.12594E+00   -0.12589E+00   816   0.510E+00
DAV:   6    -0.899712974739E+02   -0.15443E-02   -0.15436E-02   656   0.689E-01
DAV:   7    -0.899714059980E+02   -0.10852E-03   -0.10852E-03   840   0.127E-01    0.185E+01
DAV:   8    -0.727352052041E+02    0.17236E+02   -0.71254E+01   616   0.418E+01    0.547E+00
DAV:   9    -0.724909445155E+02    0.24426E+00   -0.55353E+00   640   0.113E+01    0.375E+00
DAV:  10    -0.719903969625E+02    0.50055E+00   -0.15099E+00   744   0.707E+00    0.104E+00
DAV:  11    -0.719408293935E+02    0.49568E-01   -0.14458E-01   720   0.218E+00    0.567E-01
DAV:  12    -0.719335095609E+02    0.73198E-02   -0.16438E-01   736   0.189E+00    0.391E-01
DAV:  13    -0.719279697524E+02    0.55398E-02   -0.24397E-02   776   0.859E-01    0.205E-01
DAV:  14    -0.719223376169E+02    0.56321E-02   -0.26863E-02   688   0.720E-01    0.131E-01
DAV:  15    -0.719227789250E+02   -0.44131E-03   -0.33589E-03   672   0.326E-01    0.939E-02
DAV:  16    -0.719256383302E+02   -0.28594E-02   -0.59205E-03   680   0.382E-01    0.885E-02
DAV:  17    -0.719272630627E+02   -0.16247E-02   -0.13489E-03   680   0.225E-01    0.412E-02
DAV:  18    -0.719284349928E+02   -0.11719E-02   -0.16139E-03   736   0.186E-01    0.444E-02
DAV:  19    -0.719301645631E+02   -0.17296E-02   -0.70299E-04   728   0.147E-01    0.143E-02
DAV:  20    -0.719309124193E+02   -0.74786E-03   -0.13864E-04   616   0.607E-02    0.885E-03
DAV:  21    -0.719316208729E+02   -0.70845E-03   -0.12727E-04   632   0.408E-02    0.711E-03
DAV:  22    -0.719318187549E+02   -0.19788E-03   -0.29478E-05   648   0.246E-02    0.315E-03
DAV:  23    -0.719319097830E+02   -0.91028E-04   -0.14484E-05   592   0.138E-02    0.224E-03
DAV:  24    -0.719319300724E+02   -0.20289E-04   -0.23037E-06   560   0.614E-03    0.140E-03
DAV:  25    -0.719319403081E+02   -0.10236E-04   -0.15627E-06   432   0.499E-03    0.653E-04
DAV:  26    -0.719319440458E+02   -0.37377E-05   -0.54686E-07   424   0.364E-03    0.547E-04
DAV:  27    -0.719319456336E+02   -0.15878E-05   -0.33482E-07   424   0.240E-03    0.341E-04
DAV:  28    -0.719319460823E+02   -0.44873E-06   -0.13241E-07   440   0.195E-03
   1 F= -.71931946E+02 E0= -.71931946E+02  d E =-.719319E+02
 BRION: g(F)=  0.877E-03 g(S)=  0.000E+00
 reached required accuracy - stopping structural energy minimisation
