Al2C                                    
           1
     6.019200    0.000000    0.000000
     0.000000   10.140000    0.000000
     0.000000    0.000000   15.000000
   Al   C    Se   H 
   8   4   1   2
Direct configuration=     1
   0.41243712  0.86421923  0.23600454
   0.91104833  0.86425706  0.24216061
   0.41799542  0.60584740  0.24936891
   0.90288272  0.60994481  0.25686284
   0.43000064  0.35856178  0.29368227
   0.90574474  0.35923037  0.27072446
   0.41200892  0.10868261  0.25075440
   0.91204446  0.10667916  0.24574137
   0.16231226  0.98442044  0.24474301
   0.66164253  0.98516008  0.23765335
   0.16115171  0.48982087  0.29347547
   0.66386958  0.48451513  0.24571110
   0.58314546  0.35553034  0.44503644
   0.44903067  0.24678698  0.48469896
   0.15899403  0.50946427  0.36669133
