V2O5                                    
   1.0000000000000000     
    15.0000000000000000    0.0000000000000000    0.0000000000000000
     0.0000000000000000   15.0000000000000000    0.0000000000000000
     0.0000000000000000    0.0000000000000000   15.0000000000000000
   Te   H 
     1     2
Selective dynamics
Direct
  0.4846468834229532  0.4846437960184993  0.4999984685698829   T   T   T
  0.5967672103261552  0.4845847240680511  0.5000007647855518   T   T   T
  0.4845859062508941  0.5967714799134520  0.5000007666445653   T   T   T

  0.00000000E+00  0.00000000E+00  0.00000000E+00
  0.00000000E+00  0.00000000E+00  0.00000000E+00
  0.00000000E+00  0.00000000E+00  0.00000000E+00
