V2O5                                    
   1.0000000000000000     
    15.0000000000000000    0.0000000000000000    0.0000000000000000
     0.0000000000000000   15.0000000000000000    0.0000000000000000
     0.0000000000000000    0.0000000000000000   15.0000000000000000
   Te   H 
     1     2
Selective dynamics
Direct
  0.4847004211382833  0.4847015938529394  0.4999989402968292   T   T   T
  0.5962986427890866  0.4850002733589601  0.5000005296508274   T   T   T
  0.4850009360726329  0.5962981327881031  0.5000005300523435   T   T   T

  0.00000000E+00  0.00000000E+00  0.00000000E+00
  0.00000000E+00  0.00000000E+00  0.00000000E+00
  0.00000000E+00  0.00000000E+00  0.00000000E+00
