Al2C                                    
   1.0000000000000000     
     6.0191999999999997    0.0000000000000000    0.0000000000000000
     0.0000000000000000   10.1400000000000006    0.0000000000000000
     0.0000000000000000    0.0000000000000000   15.0000000000000000
   Al   C    Se   H 
     8     4     1     2
Selective dynamics
Direct
  0.3447390744631147  0.8669340141611128  0.2467028356647891   T   T   T
  0.8425772953882696  0.8670242482336179  0.2473228172068399   T   T   T
  0.3291602936138729  0.6184443255804442  0.2903942998255248   T   T   T
  0.8585511436151710  0.6183982408245793  0.2906288951824488   T   T   T
  0.3375525479232679  0.3676948957726802  0.2548449711023904   T   T   T
  0.8498260809070570  0.3677560531976924  0.2545687352575868   T   T   T
  0.3429175545377730  0.1116486729755270  0.2387140809404074   T   T   T
  0.8443469614705001  0.1116602653891031  0.2381082042991577   T   T   T
  0.0936348951018848  0.9900520774987472  0.2387341373702791   T   T   T
  0.5936724488732239  0.9911154518965145  0.2417874793577492   T   T   T
  0.0937551888445034  0.4897547333883390  0.2491422580758618   T   T   T
  0.5938027526969544  0.4865250655285325  0.3028038586136206   T   T   T
  0.0947751274213797  0.6388204538830385  0.4408942003363348   T   T   T
  0.5937647880090402  0.4585992632307295  0.3743371146245717   T   T   T
  0.0950947136943414  0.7834657295635978  0.4610161121424138   T   T   T

  0.00000000E+00  0.00000000E+00  0.00000000E+00
  0.00000000E+00  0.00000000E+00  0.00000000E+00
  0.00000000E+00  0.00000000E+00  0.00000000E+00
  0.00000000E+00  0.00000000E+00  0.00000000E+00
  0.00000000E+00  0.00000000E+00  0.00000000E+00
  0.00000000E+00  0.00000000E+00  0.00000000E+00
  0.00000000E+00  0.00000000E+00  0.00000000E+00
  0.00000000E+00  0.00000000E+00  0.00000000E+00
  0.00000000E+00  0.00000000E+00  0.00000000E+00
  0.00000000E+00  0.00000000E+00  0.00000000E+00
  0.00000000E+00  0.00000000E+00  0.00000000E+00
  0.00000000E+00  0.00000000E+00  0.00000000E+00
  0.00000000E+00  0.00000000E+00  0.00000000E+00
  0.00000000E+00  0.00000000E+00  0.00000000E+00
  0.00000000E+00  0.00000000E+00  0.00000000E+00
