Al2C                                    
   1.0000000000000000     
     6.0191999999999997    0.0000000000000000    0.0000000000000000
     0.0000000000000000   10.1400000000000006    0.0000000000000000
     0.0000000000000000    0.0000000000000000   15.0000000000000000
   Al   C    Te   H 
     8     4     1     2
Selective dynamics
Direct
  0.3918789428369239  0.8702231066273635  0.2351836047881759   T   T   T
  0.8900525912763904  0.8702275232119806  0.2352211633836709   T   T   T
  0.3979219644825167  0.6137310101921236  0.2511117588018246   T   T   T
  0.8839670500018069  0.6137354717412217  0.2511273331149376   T   T   T
  0.4041730973482774  0.3638377711185364  0.2863142647604548   T   T   T
  0.8777463897216538  0.3638347453931581  0.2863028692543759   T   T   T
  0.3902125397269237  0.1141848258677492  0.2449694423133497   T   T   T
  0.8917379040385187  0.1141843287957229  0.2449330036898972   T   T   T
  0.1409865824365862  0.9903280483988729  0.2398080471296115   T   T   T
  0.6409613783233246  0.9916193317783583  0.2346887272892359   T   T   T
  0.1409735786458663  0.4962010258218363  0.2971829056674705   T   T   T
  0.6409488439439415  0.4911049114284889  0.2456237029335687   T   T   T
  0.6410642204943552  0.3435825113211453  0.4481885054526755   T   T   T
  0.6411987803906348  0.1808985184896548  0.4702274410590109   T   T   T
  0.1409470028926063  0.5242003609380415  0.3691172303617296   T   T   T

  0.00000000E+00  0.00000000E+00  0.00000000E+00
  0.00000000E+00  0.00000000E+00  0.00000000E+00
  0.00000000E+00  0.00000000E+00  0.00000000E+00
  0.00000000E+00  0.00000000E+00  0.00000000E+00
  0.00000000E+00  0.00000000E+00  0.00000000E+00
  0.00000000E+00  0.00000000E+00  0.00000000E+00
  0.00000000E+00  0.00000000E+00  0.00000000E+00
  0.00000000E+00  0.00000000E+00  0.00000000E+00
  0.00000000E+00  0.00000000E+00  0.00000000E+00
  0.00000000E+00  0.00000000E+00  0.00000000E+00
  0.00000000E+00  0.00000000E+00  0.00000000E+00
  0.00000000E+00  0.00000000E+00  0.00000000E+00
  0.00000000E+00  0.00000000E+00  0.00000000E+00
  0.00000000E+00  0.00000000E+00  0.00000000E+00
  0.00000000E+00  0.00000000E+00  0.00000000E+00
