V2O5                                    
   1.0000000000000000     
    15.0000000000000000    0.0000000000000000    0.0000000000000000
     0.0000000000000000   15.0000000000000000    0.0000000000000000
     0.0000000000000000    0.0000000000000000   15.0000000000000000
   Se   H 
     1     2
Selective dynamics
Direct
  0.4891110871302419  0.4891110448087664  0.4999999476052757   T   T   T
  0.5883210449015807  0.4885679084972597  0.5000000261234110   T   T   T
  0.4885678679681799  0.5883210466939836  0.5000000262713135   T   T   T

  0.00000000E+00  0.00000000E+00  0.00000000E+00
  0.00000000E+00  0.00000000E+00  0.00000000E+00
  0.00000000E+00  0.00000000E+00  0.00000000E+00
