  15  15   0   0
  0.6103469E+02  0.6019200E-09  0.1014000E-08  0.1500000E-08  0.3500000E-15
   1.0000000000000000E-004
  CAR 
 Al2C                                    
      3.32141304    -17.30154619  301     -2.10500310      1.00000000
    -17.302  0.0000E+00  0.0000E+00
    -17.233  0.0000E+00  0.0000E+00
    -17.164  0.0000E+00  0.0000E+00
    -17.095  0.0000E+00  0.0000E+00
    -17.027  0.0000E+00  0.0000E+00
    -16.958  0.0000E+00  0.0000E+00
    -16.889  0.0000E+00  0.0000E+00
    -16.820  0.0000E+00  0.0000E+00
    -16.752  0.0000E+00  0.0000E+00
    -16.683  0.0000E+00  0.0000E+00
    -16.614  0.3260E-11  0.2241E-12
    -16.545  0.6747E-06  0.4638E-07
    -16.477  0.3618E-02  0.2488E-03
    -16.408  0.5748E+00  0.3976E-01
    -16.339  0.4031E+01  0.3169E+00
    -16.270  0.6826E+01  0.7861E+00
    -16.202  0.5691E+01  0.1177E+01
    -16.133  0.5752E+00  0.1217E+01
    -16.064  0.5175E+01  0.1573E+01
    -15.995  0.5850E+01  0.1975E+01
    -15.927  0.3665E+00  0.2000E+01
    -15.858  0.8338E-03  0.2000E+01
    -15.789  0.5300E-07  0.2000E+01
    -15.720  0.8527E-13  0.2000E+01
    -15.652  0.0000E+00  0.2000E+01
    -15.583  0.9152E-14  0.2000E+01
    -15.514  0.8048E-08  0.2000E+01
    -15.445  0.1787E-03  0.2000E+01
    -15.377  0.1115E+00  0.2008E+01
    -15.308  0.2486E+01  0.2179E+01
    -15.239  0.3307E+01  0.2406E+01
    -15.171  0.6056E+01  0.2822E+01
    -15.102  0.1151E+02  0.3614E+01
    -15.033  0.5383E+01  0.3984E+01
    -14.964  0.2408E+00  0.4000E+01
    -14.896  0.9720E+00  0.4067E+01
    -14.827  0.7931E+01  0.4612E+01
    -14.758  0.1202E+02  0.5439E+01
    -14.689  0.7766E+01  0.5972E+01
    -14.621  0.4004E+00  0.6000E+01
    -14.552  0.8405E-03  0.6000E+01
    -14.483  0.3113E-02  0.6000E+01
    -14.414  0.7472E+00  0.6052E+01
    -14.346  0.6990E+01  0.6532E+01
    -14.277  0.4335E+01  0.6830E+01
    -14.208  0.6775E+01  0.7296E+01
    -14.139  0.9344E+01  0.7938E+01
    -14.071  0.9636E+01  0.8601E+01
    -14.002  0.2809E+01  0.8794E+01
    -13.933  0.9095E-01  0.8800E+01
    -13.864  0.1184E-03  0.8800E+01
    -13.796  0.4267E-08  0.8800E+01
    -13.727  0.3876E-14  0.8800E+01
    -13.658  0.1709E-10  0.8800E+01
    -13.589  0.2756E-05  0.8800E+01
    -13.521  0.1154E-01  0.8801E+01
    -13.452  0.1447E+01  0.8900E+01
    -13.383  0.7697E+01  0.9429E+01
    -13.314  0.2446E+01  0.9598E+01
    -13.246  0.3582E-01  0.9600E+01
    -13.177  0.2522E-04  0.9600E+01
    -13.108  0.1868E-01  0.9601E+01
    -13.039  0.1246E+01  0.9687E+01
    -12.971  0.3842E+01  0.9951E+01
    -12.902  0.7066E+00  0.1000E+02
    -12.833  0.5489E-02  0.1000E+02
    -12.764  0.1274E-05  0.1000E+02
    -12.696  0.7666E-11  0.1000E+02
    -12.627  0.0000E+00  0.1000E+02
    -12.558  0.0000E+00  0.1000E+02
    -12.490  0.0000E+00  0.1000E+02
    -12.421  0.0000E+00  0.1000E+02
    -12.352  0.0000E+00  0.1000E+02
    -12.283  0.0000E+00  0.1000E+02
    -12.215  0.0000E+00  0.1000E+02
    -12.146  0.0000E+00  0.1000E+02
    -12.077  0.0000E+00  0.1000E+02
    -12.008  0.0000E+00  0.1000E+02
    -11.940  0.0000E+00  0.1000E+02
    -11.871  0.0000E+00  0.1000E+02
    -11.802  0.0000E+00  0.1000E+02
    -11.733  0.0000E+00  0.1000E+02
    -11.665  0.0000E+00  0.1000E+02
    -11.596  0.0000E+00  0.1000E+02
    -11.527  0.0000E+00  0.1000E+02
    -11.458  0.0000E+00  0.1000E+02
    -11.390  0.0000E+00  0.1000E+02
    -11.321  0.0000E+00  0.1000E+02
    -11.252  0.0000E+00  0.1000E+02
    -11.183  0.0000E+00  0.1000E+02
    -11.115  0.0000E+00  0.1000E+02
    -11.046  0.0000E+00  0.1000E+02
    -10.977  0.0000E+00  0.1000E+02
    -10.908  0.0000E+00  0.1000E+02
    -10.840  0.0000E+00  0.1000E+02
    -10.771  0.0000E+00  0.1000E+02
    -10.702  0.0000E+00  0.1000E+02
    -10.633  0.0000E+00  0.1000E+02
    -10.565  0.0000E+00  0.1000E+02
    -10.496  0.0000E+00  0.1000E+02
    -10.427  0.0000E+00  0.1000E+02
    -10.358  0.0000E+00  0.1000E+02
    -10.290  0.0000E+00  0.1000E+02
    -10.221  0.0000E+00  0.1000E+02
    -10.152  0.0000E+00  0.1000E+02
    -10.084  0.0000E+00  0.1000E+02
    -10.015  0.1690E-13  0.1000E+02
     -9.946  0.1023E-07  0.1000E+02
     -9.877  0.1596E-03  0.1000E+02
     -9.809  0.7600E-01  0.1001E+02
     -9.740  0.1756E+01  0.1013E+02
     -9.671  0.4406E+01  0.1043E+02
     -9.602  0.2041E+01  0.1057E+02
     -9.534  0.3578E+01  0.1082E+02
     -9.465  0.6641E+01  0.1127E+02
     -9.396  0.1177E+02  0.1208E+02
     -9.327  0.3127E+01  0.1230E+02
     -9.259  0.4601E+01  0.1261E+02
     -9.190  0.3018E+01  0.1282E+02
     -9.121  0.6003E+01  0.1323E+02
     -9.052  0.7533E+01  0.1375E+02
     -8.984  0.1734E+01  0.1387E+02
     -8.915  0.3242E+01  0.1409E+02
     -8.846  0.1092E+02  0.1484E+02
     -8.777  0.5030E+01  0.1519E+02
     -8.709  0.1371E+01  0.1528E+02
     -8.640  0.2390E+01  0.1545E+02
     -8.571  0.4449E+00  0.1548E+02
     -8.502  0.3432E+01  0.1571E+02
     -8.434  0.3930E+01  0.1598E+02
     -8.365  0.1208E+01  0.1607E+02
     -8.296  0.3808E+01  0.1633E+02
     -8.227  0.1309E+01  0.1642E+02
     -8.159  0.4405E+01  0.1672E+02
     -8.090  0.7041E+01  0.1721E+02
     -8.021  0.3684E+01  0.1746E+02
     -7.952  0.4785E+01  0.1779E+02
     -7.884  0.1113E+02  0.1855E+02
     -7.815  0.5185E+01  0.1891E+02
     -7.746  0.2691E+01  0.1909E+02
     -7.677  0.1485E+01  0.1920E+02
     -7.609  0.1402E+00  0.1921E+02
     -7.540  0.3485E+01  0.1945E+02
     -7.471  0.1294E+02  0.2034E+02
     -7.403  0.1079E+02  0.2108E+02
     -7.334  0.3376E+01  0.2131E+02
     -7.265  0.2738E+01  0.2150E+02
     -7.196  0.7638E+01  0.2202E+02
     -7.128  0.5145E+01  0.2238E+02
     -7.059  0.1645E+01  0.2249E+02
     -6.990  0.9443E+01  0.2314E+02
     -6.921  0.9772E+01  0.2381E+02
     -6.853  0.1868E+01  0.2394E+02
     -6.784  0.3865E+01  0.2420E+02
     -6.715  0.2326E+01  0.2436E+02
     -6.646  0.2254E+01  0.2452E+02
     -6.578  0.2102E+00  0.2453E+02
     -6.509  0.3105E+00  0.2455E+02
     -6.440  0.3161E+01  0.2477E+02
     -6.371  0.5337E+01  0.2514E+02
     -6.303  0.7798E+01  0.2567E+02
     -6.234  0.4445E+01  0.2598E+02
     -6.165  0.2824E+00  0.2600E+02
     -6.096  0.7158E-03  0.2600E+02
     -6.028  0.5713E-03  0.2600E+02
     -5.959  0.2533E+00  0.2602E+02
     -5.890  0.4556E+01  0.2633E+02
     -5.821  0.7749E+01  0.2686E+02
     -5.753  0.5183E+01  0.2722E+02
     -5.684  0.8382E+01  0.2780E+02
     -5.615  0.1019E+02  0.2850E+02
     -5.546  0.7483E+01  0.2901E+02
     -5.478  0.2485E+01  0.2918E+02
     -5.409  0.3164E+01  0.2940E+02
     -5.340  0.2930E+01  0.2960E+02
     -5.271  0.2337E+01  0.2976E+02
     -5.203  0.6091E+01  0.3018E+02
     -5.134  0.7313E+01  0.3068E+02
     -5.065  0.4198E+01  0.3097E+02
     -4.997  0.7543E+01  0.3149E+02
     -4.928  0.1210E+02  0.3232E+02
     -4.859  0.7307E+01  0.3282E+02
     -4.790  0.8802E+01  0.3343E+02
     -4.722  0.1070E+02  0.3416E+02
     -4.653  0.1528E+01  0.3427E+02
     -4.584  0.2418E+01  0.3444E+02
     -4.515  0.8202E+01  0.3500E+02
     -4.447  0.1320E+02  0.3591E+02
     -4.378  0.1076E+02  0.3665E+02
     -4.309  0.2795E+01  0.3684E+02
     -4.240  0.6432E+01  0.3728E+02
     -4.172  0.1156E+02  0.3808E+02
     -4.103  0.5666E+01  0.3847E+02
     -4.034  0.9379E+01  0.3911E+02
     -3.965  0.7715E+01  0.3964E+02
     -3.897  0.4142E+01  0.3993E+02
     -3.828  0.9995E+01  0.4061E+02
     -3.759  0.5986E+01  0.4102E+02
     -3.690  0.9013E+01  0.4164E+02
     -3.622  0.8210E+01  0.4221E+02
     -3.553  0.3676E+01  0.4246E+02
     -3.484  0.5940E+01  0.4287E+02
     -3.415  0.9404E+01  0.4352E+02
     -3.347  0.6938E+01  0.4399E+02
     -3.278  0.5367E+01  0.4436E+02
     -3.209  0.6494E+01  0.4481E+02
     -3.140  0.4861E+01  0.4514E+02
     -3.072  0.5830E+01  0.4554E+02
     -3.003  0.8581E+00  0.4560E+02
     -2.934  0.1934E+01  0.4573E+02
     -2.865  0.1042E+02  0.4645E+02
     -2.797  0.7145E+01  0.4694E+02
     -2.728  0.4432E+01  0.4725E+02
     -2.659  0.4584E+01  0.4756E+02
     -2.591  0.5573E+00  0.4760E+02
     -2.522  0.3875E-02  0.4760E+02
     -2.453  0.5489E-01  0.4760E+02
     -2.384  0.1923E+01  0.4774E+02
     -2.316  0.3469E+01  0.4797E+02
     -2.247  0.3702E+00  0.4800E+02
     -2.178  0.1575E-02  0.4800E+02
     -2.109  0.1971E-06  0.4800E+02
     -2.041  0.6424E-12  0.4800E+02
     -1.972  0.0000E+00  0.4800E+02
     -1.903  0.0000E+00  0.4800E+02
     -1.834  0.0000E+00  0.4800E+02
     -1.766  0.0000E+00  0.4800E+02
     -1.697  0.0000E+00  0.4800E+02
     -1.628  0.0000E+00  0.4800E+02
     -1.559  0.0000E+00  0.4800E+02
     -1.491  0.0000E+00  0.4800E+02
     -1.422  0.0000E+00  0.4800E+02
     -1.353  0.0000E+00  0.4800E+02
     -1.284  0.0000E+00  0.4800E+02
     -1.216  0.1850E-11  0.4800E+02
     -1.147  0.3351E-06  0.4800E+02
     -1.078  0.1570E-02  0.4800E+02
     -1.009  0.2186E+00  0.4802E+02
     -0.941  0.1272E+01  0.4810E+02
     -0.872  0.4493E+00  0.4813E+02
     -0.803  0.7265E+00  0.4818E+02
     -0.734  0.3199E+01  0.4840E+02
     -0.666  0.5662E+01  0.4879E+02
     -0.597  0.5475E+01  0.4917E+02
     -0.528  0.2328E+01  0.4933E+02
     -0.459  0.6423E+01  0.4977E+02
     -0.391  0.4384E+01  0.5007E+02
     -0.322  0.1011E+01  0.5014E+02
     -0.253  0.1995E+01  0.5028E+02
     -0.184  0.1690E+01  0.5039E+02
     -0.116  0.7707E-01  0.5040E+02
     -0.047  0.1037E-02  0.5040E+02
      0.022  0.3424E+00  0.5042E+02
      0.090  0.5797E+01  0.5082E+02
      0.159  0.8787E+01  0.5143E+02
      0.228  0.6092E+01  0.5184E+02
      0.297  0.6137E+01  0.5227E+02
      0.365  0.9539E+01  0.5292E+02
      0.434  0.4951E+01  0.5326E+02
      0.503  0.3625E+01  0.5351E+02
      0.572  0.5268E+01  0.5387E+02
      0.640  0.9608E+01  0.5453E+02
      0.709  0.5909E+01  0.5494E+02
      0.778  0.4075E+01  0.5522E+02
      0.847  0.6493E+01  0.5567E+02
      0.915  0.7300E+01  0.5617E+02
      0.984  0.7503E+01  0.5668E+02
      1.053  0.6929E+01  0.5716E+02
      1.122  0.5102E+01  0.5751E+02
      1.190  0.7124E+01  0.5800E+02
      1.259  0.8528E+01  0.5859E+02
      1.328  0.6374E+01  0.5903E+02
      1.397  0.6500E+01  0.5947E+02
      1.465  0.1015E+02  0.6017E+02
      1.534  0.6188E+01  0.6060E+02
      1.603  0.5896E+01  0.6100E+02
      1.672  0.5011E+01  0.6135E+02
      1.740  0.4409E+01  0.6165E+02
      1.809  0.8646E+01  0.6224E+02
      1.878  0.8706E+01  0.6284E+02
      1.947  0.3331E+01  0.6307E+02
      2.015  0.1789E+01  0.6319E+02
      2.084  0.9064E-01  0.6320E+02
      2.153  0.3834E+00  0.6323E+02
      2.222  0.3608E+01  0.6347E+02
      2.290  0.3454E+01  0.6371E+02
      2.359  0.1240E+01  0.6380E+02
      2.428  0.2532E+01  0.6397E+02
      2.496  0.4161E+00  0.6400E+02
      2.565  0.2840E-02  0.6400E+02
      2.634  0.5740E-06  0.6400E+02
      2.703  0.2997E-11  0.6400E+02
      2.771  0.0000E+00  0.6400E+02
      2.840  0.0000E+00  0.6400E+02
      2.909  0.0000E+00  0.6400E+02
      2.978  0.0000E+00  0.6400E+02
      3.046  0.0000E+00  0.6400E+02
      3.115  0.0000E+00  0.6400E+02
      3.184  0.0000E+00  0.6400E+02
      3.253  0.0000E+00  0.6400E+02
      3.321  0.0000E+00  0.6400E+02
