   15   15    1    1
  0.6103469E+02  0.6019200E-09  0.1014000E-08  0.1500000E-08  0.3500000E-15
   1.0000000000000000E-004
  CAR 
 Al2C                                    
     48      8     32

  0.3742002E-15  0.3742002E-15  0.1262379E-14  0.6666667E-01
    1      -16.364139   1.000000
    2      -15.298321   1.000000
    3      -14.770208   1.000000
    4      -14.078081   1.000000
    5      -13.011331   1.000000
    6       -9.743662   1.000000
    7       -9.718629   1.000000
    8       -9.435329   1.000000
    9       -8.317305   1.000000
   10       -7.870557   1.000000
   11       -7.050645   1.000000
   12       -6.830932   1.000000
   13       -6.426550   1.000000
   14       -5.567814   1.000000
   15       -5.495468   1.000000
   16       -5.197039   1.000000
   17       -4.752575   1.000000
   18       -4.396030   1.000000
   19       -4.005291   1.000000
   20       -3.713117   1.000000
   21       -3.279432   1.000000
   22       -3.276251   1.000000
   23       -2.763782   1.000000
   24       -2.374405   1.000000
   25       -0.966698   0.000000
   26       -0.529950   0.000000
   27        0.358909   0.000000
   28        0.514919   0.000000
   29        0.832861   0.000000
   30        0.908639   0.000000
   31        0.977741   0.000000
   32        1.704029   0.000000

  0.2000000E+00  0.3742002E-15  0.1262379E-14  0.1333333E+00
    1      -16.270556   1.000000
    2      -15.166385   1.000000
    3      -14.846572   1.000000
    4      -14.217965   1.000000
    5      -13.410310   1.000000
    6       -9.564094   1.000000
    7       -9.417064   1.000000
    8       -8.867774   1.000000
    9       -8.078223   1.000000
   10       -7.859245   1.000000
   11       -7.257147   1.000000
   12       -6.991171   1.000000
   13       -6.703173   1.000000
   14       -5.853059   1.000000
   15       -5.166186   1.000000
   16       -4.985397   1.000000
   17       -4.762973   1.000000
   18       -4.525861   1.000000
   19       -4.246520   1.000000
   20       -4.029173   1.000000
   21       -3.713487   1.000000
   22       -3.434674   1.000000
   23       -2.867441   1.000000
   24       -2.731092   1.000000
   25       -0.696389   0.000000
   26        0.117082   0.000000
   27        0.324255   0.000000
   28        0.753485   0.000000
   29        1.041115   0.000000
   30        1.076223   0.000000
   31        1.397572   0.000000
   32        1.855347   0.000000

  0.4000000E+00  0.3742002E-15  0.1262379E-14  0.1333333E+00
    1      -16.061873   1.000000
    2      -15.109963   1.000000
    3      -14.749924   1.000000
    4      -14.360844   1.000000
    5      -14.131044   1.000000
    6       -9.115510   1.000000
    7       -9.064474   1.000000
    8       -8.335949   1.000000
    9       -7.755597   1.000000
   10       -7.503662   1.000000
   11       -7.232373   1.000000
   12       -6.813581   1.000000
   13       -6.458022   1.000000
   14       -6.364651   1.000000
   15       -5.740325   1.000000
   16       -5.594824   1.000000
   17       -5.429941   1.000000
   18       -4.762536   1.000000
   19       -4.391892   1.000000
   20       -4.266786   1.000000
   21       -3.729648   1.000000
   22       -3.614006   1.000000
   23       -3.169862   1.000000
   24       -2.700295   1.000000
   25       -0.417645   0.000000
   26        0.121315   0.000000
   27        0.457050   0.000000
   28        1.151754   0.000000
   29        1.407288   0.000000
   30        1.616388   0.000000
   31        1.944652   0.000000
   32        2.384006   0.000000

  0.3742002E-15  0.3333333E+00  0.1262379E-14  0.1333333E+00
    1      -16.361544   1.000000
    2      -15.305635   1.000000
    3      -14.768488   1.000000
    4      -14.078283   1.000000
    5      -13.012113   1.000000
    6       -9.685779   1.000000
    7       -9.508245   1.000000
    8       -9.446252   1.000000
    9       -8.691181   1.000000
   10       -8.107130   1.000000
   11       -7.377654   1.000000
   12       -6.357446   1.000000
   13       -5.817165   1.000000
   14       -5.625090   1.000000
   15       -5.340872   1.000000
   16       -5.113198   1.000000
   17       -4.787617   1.000000
   18       -4.451889   1.000000
   19       -4.066771   1.000000
   20       -3.943999   1.000000
   21       -3.406023   1.000000
   22       -3.279392   1.000000
   23       -3.263101   1.000000
   24       -2.367215   1.000000
   25       -0.771678   0.000000
   26       -0.257175   0.000000
   27        0.282105   0.000000
   28        0.552464   0.000000
   29        0.798403   0.000000
   30        1.277095   0.000000
   31        1.534353   0.000000
   32        1.770376   0.000000

  0.2000000E+00  0.3333333E+00  0.1262379E-14  0.1333333E+00
    1      -16.268320   1.000000
    2      -15.171743   1.000000
    3      -14.846838   1.000000
    4      -14.217194   1.000000
    5      -13.411801   1.000000
    6       -9.434612   1.000000
    7       -9.271864   1.000000
    8       -8.900941   1.000000
    9       -8.499045   1.000000
   10       -7.924440   1.000000
   11       -7.464547   1.000000
   12       -6.999373   1.000000
   13       -6.296998   1.000000
   14       -5.634780   1.000000
   15       -5.021091   1.000000
   16       -4.923092   1.000000
   17       -4.808293   1.000000
   18       -4.470555   1.000000
   19       -4.175348   1.000000
   20       -4.046711   1.000000
   21       -3.848535   1.000000
   22       -3.513211   1.000000
   23       -3.115802   1.000000
   24       -2.861527   1.000000
   25       -0.650443   0.000000
   26        0.083662   0.000000
   27        0.351447   0.000000
   28        0.649650   0.000000
   29        0.887628   0.000000
   30        1.229937   0.000000
   31        1.391352   0.000000
   32        1.802920   0.000000

  0.4000000E+00  0.3333333E+00  0.1262379E-14  0.1333333E+00
    1      -16.060762   1.000000
    2      -15.103589   1.000000
    3      -14.761176   1.000000
    4      -14.360543   1.000000
    5      -14.132188   1.000000
    6       -9.126812   1.000000
    7       -8.848495   1.000000
    8       -8.163888   1.000000
    9       -7.941689   1.000000
   10       -7.527054   1.000000
   11       -7.458500   1.000000
   12       -7.186807   1.000000
   13       -6.969781   1.000000
   14       -5.893358   1.000000
   15       -5.711737   1.000000
   16       -5.216031   1.000000
   17       -4.945140   1.000000
   18       -4.565123   1.000000
   19       -4.447088   1.000000
   20       -4.210630   1.000000
   21       -3.844758   1.000000
   22       -3.674823   1.000000
   23       -3.418752   1.000000
   24       -2.906705   1.000000
   25       -0.485272   0.000000
   26        0.212368   0.000000
   27        0.607048   0.000000
   28        0.975216   0.000000
   29        1.207947   0.000000
   30        1.670236   0.000000
   31        1.826924   0.000000
   32        2.240362   0.000000

 -0.4000000E+00  0.3333333E+00  0.1262379E-14  0.1333333E+00
    1      -16.060762   1.000000
    2      -15.103600   1.000000
    3      -14.761148   1.000000
    4      -14.360572   1.000000
    5      -14.132177   1.000000
    6       -9.126806   1.000000
    7       -8.848365   1.000000
    8       -8.164339   1.000000
    9       -7.942185   1.000000
   10       -7.527307   1.000000
   11       -7.456569   1.000000
   12       -7.186056   1.000000
   13       -6.971412   1.000000
   14       -5.893527   1.000000
   15       -5.711546   1.000000
   16       -5.216758   1.000000
   17       -4.945731   1.000000
   18       -4.564020   1.000000
   19       -4.446511   1.000000
   20       -4.210291   1.000000
   21       -3.844133   1.000000
   22       -3.675541   1.000000
   23       -3.419615   1.000000
   24       -2.906451   1.000000
   25       -0.485014   0.000000
   26        0.211082   0.000000
   27        0.607340   0.000000
   28        0.971819   0.000000
   29        1.172470   0.000000
   30        1.451266   0.000000
   31        1.801937   0.000000
   32        2.199595   0.000000

 -0.2000000E+00  0.3333333E+00  0.1262379E-14  0.1333333E+00
    1      -16.268320   1.000000
    2      -15.171752   1.000000
    3      -14.846821   1.000000
    4      -14.217204   1.000000
    5      -13.411800   1.000000
    6       -9.434483   1.000000
    7       -9.271989   1.000000
    8       -8.900892   1.000000
    9       -8.499221   1.000000
   10       -7.924567   1.000000
   11       -7.464478   1.000000
   12       -6.998303   1.000000
   13       -6.297726   1.000000
   14       -5.635857   1.000000
   15       -5.022520   1.000000
   16       -4.921930   1.000000
   17       -4.807462   1.000000
   18       -4.470268   1.000000
   19       -4.174424   1.000000
   20       -4.047488   1.000000
   21       -3.847580   1.000000
   22       -3.514260   1.000000
   23       -3.115597   1.000000
   24       -2.861515   1.000000
   25       -0.650399   0.000000
   26        0.082587   0.000000
   27        0.352297   0.000000
   28        0.643878   0.000000
   29        0.858063   0.000000
   30        1.290705   0.000000
   31        1.460722   0.000000
   32        1.557074   0.000000
