       N       E                     dE             d eps       ncg     rms          ort
DAV:   1     0.557172211848E+03    0.55717E+03   -0.11509E+04   256   0.962E+02
DAV:   2     0.271699643855E+03   -0.28547E+03   -0.26847E+03   256   0.258E+02
DAV:   3     0.134828348659E+03   -0.13687E+03   -0.12881E+03   256   0.194E+02
DAV:   4     0.633291271745E+02   -0.71499E+02   -0.67918E+02   256   0.151E+02
DAV:   5     0.247933077488E+02   -0.38536E+02   -0.36857E+02   256   0.106E+02
DAV:   6     0.412097712687E+01   -0.20672E+02   -0.19979E+02   256   0.769E+01
DAV:   7    -0.693521668131E+01   -0.11056E+02   -0.10683E+02   256   0.534E+01
SDA:   8    -0.572278820301E+02   -0.50293E+02   -0.35945E+02   256   0.899E+02 0.000E+00
DMP:   9    -0.743367451681E+02   -0.17109E+02   -0.61074E+01   256   0.166E+02-0.352E+01
DMP:  10    -0.777382824065E+02   -0.34015E+01   -0.45046E+01   256   0.107E+02 0.144E+01
DMP:  11    -0.803070713494E+02   -0.25688E+01   -0.11855E+01   256   0.240E+01 0.147E+01
DMP:  12    -0.809676360311E+02   -0.66056E+00   -0.67721E+00   256   0.162E+01 0.194E+00
DMP:  13    -0.814455924870E+02   -0.47796E+00   -0.31945E+00   256   0.563E+00 0.618E+00
DMP:  14    -0.816457117381E+02   -0.20012E+00   -0.11344E+00   256   0.220E+00 0.166E+00
DMP:  15    -0.817266800764E+02   -0.80968E-01   -0.56437E-01   256   0.995E-01 0.109E+00
DMP:  16    -0.817663438585E+02   -0.39664E-01   -0.21991E-01   256   0.347E-01 0.532E-01
DMP:  17    -0.817821756119E+02   -0.15832E-01   -0.10399E-01   256   0.173E-01 0.228E-01
DMP:  18    -0.817898269139E+02   -0.76513E-02   -0.44762E-02   256   0.671E-02 0.117E-01
DMP:  19    -0.817930207699E+02   -0.31939E-02   -0.16749E-02   256   0.244E-02 0.457E-02
DMP:  20    -0.817942698509E+02   -0.12491E-02   -0.71545E-03   256   0.104E-02 0.197E-02
DMP:  21    -0.817948138938E+02   -0.54404E-03   -0.29036E-03   256   0.386E-03 0.890E-03
DMP:  22    -0.817950364528E+02   -0.22256E-03   -0.12329E-03   256   0.169E-03 0.364E-03
DMP:  23    -0.817951330351E+02   -0.96582E-04   -0.55310E-04   256   0.762E-04 0.162E-03
DMP:  24    -0.817951765015E+02   -0.43466E-04   -0.23468E-04   256   0.311E-04 0.722E-04
DMP:  25    -0.817951955713E+02   -0.19070E-04   -0.10347E-04   256   0.135E-04 0.323E-04
DMP:  26    -0.817952045257E+02   -0.89544E-05   -0.49727E-05   256   0.633E-05 0.160E-04
   1 F= -.81795205E+02 E0= -.81795205E+02  d E =-.659539E-12
