Al2C                                    
   1.0000000000000000     
     6.0191999999999997    0.0000000000000000    0.0000000000000000
     0.0000000000000000   10.1400000000000006    0.0000000000000000
     0.0000000000000000    0.0000000000000000   15.0000000000000000
   Al   C    Te   H 
     8     4     1     2
Selective dynamics
Direct
  0.3417674445630461  0.8631926537581434  0.2455645924189191   T   T   T
  0.8402487512618206  0.8632531795226243  0.2458087659859914   T   T   T
  0.3278860068736662  0.6142660792266499  0.2883026607480491   T   T   T
  0.8545488785503996  0.6142488725771466  0.2882396774218438   T   T   T
  0.3343701042964292  0.3636823979445378  0.2553048714787486   T   T   T
  0.8479233999121356  0.3636873256083014  0.2551501201032232   T   T   T
  0.3403623946599730  0.1073137646741293  0.2380698961551396   T   T   T
  0.8419941680368465  0.1073279108624255  0.2378524793685036   T   T   T
  0.0910844496934795  0.9860391147587672  0.2367056641973203   T   T   T
  0.5911223458978048  0.9870376782384671  0.2410783125259711   T   T   T
  0.0911668679589002  0.4861033204315288  0.2490937688180626   T   T   T
  0.5912296522877133  0.4820730806288293  0.3006477930743791   T   T   T
  0.0917031062870518  0.6434960170117844  0.4501301597970588   T   T   T
  0.5913476811622634  0.4556839276203956  0.3728455817685552   T   T   T
  0.0932156151188217  0.8078881682605292  0.4652056561382177   T   T   T

  0.00000000E+00  0.00000000E+00  0.00000000E+00
  0.00000000E+00  0.00000000E+00  0.00000000E+00
  0.00000000E+00  0.00000000E+00  0.00000000E+00
  0.00000000E+00  0.00000000E+00  0.00000000E+00
  0.00000000E+00  0.00000000E+00  0.00000000E+00
  0.00000000E+00  0.00000000E+00  0.00000000E+00
  0.00000000E+00  0.00000000E+00  0.00000000E+00
  0.00000000E+00  0.00000000E+00  0.00000000E+00
  0.00000000E+00  0.00000000E+00  0.00000000E+00
  0.00000000E+00  0.00000000E+00  0.00000000E+00
  0.00000000E+00  0.00000000E+00  0.00000000E+00
  0.00000000E+00  0.00000000E+00  0.00000000E+00
  0.00000000E+00  0.00000000E+00  0.00000000E+00
  0.00000000E+00  0.00000000E+00  0.00000000E+00
  0.00000000E+00  0.00000000E+00  0.00000000E+00
