<?xml version="1.0" encoding="ISO-8859-1"?>
<modeling>
 <generator>
  <i name="program" type="string">vasp </i>
  <i name="version" type="string">5.4.4.18Apr17-6-g9f103f2a35  </i>
  <i name="subversion" type="string">(build Dec  6 2019 17:49:40) complex            parallel </i>
  <i name="platform" type="string">LinuxGNU </i>
  <i name="date" type="string">2022 05 24 </i>
  <i name="time" type="string">21:09:30 </i>
 </generator>
 <incar>
  <i type="string" name="SYSTEM"> Al2C</i>
  <i type="int" name="ISTART">     0</i>
  <i type="string" name="PREC">accurate</i>
  <i type="string" name="ALGO">Damped</i>
  <i type="int" name="NSIM">     4</i>
  <i type="int" name="NELM">   300</i>
  <i type="int" name="NELMDL">    -7</i>
  <i type="int" name="IBRION">    -1</i>
  <i name="EDIFF">      0.00001000</i>
  <i name="EDIFFG">     -0.01000000</i>
  <i type="int" name="NSW">     0</i>
  <i type="int" name="ISIF">     2</i>
  <i type="int" name="ISYM">     0</i>
  <i name="ENCUT">    450.00000000</i>
  <i name="POTIM">      0.35000000</i>
  <i type="string" name="LREAL"> auto</i>
  <v name="ROPT">     -0.00020000     -0.00020000     -0.00020000     -0.00020000</v>
  <i type="logical" name="LPLANE"> T  </i>
  <i name="TIME">      0.40000000</i>
  <i type="int" name="ISMEAR">     0</i>
  <i name="SIGMA">      0.05000000</i>
  <i type="int" name="NWRITE">     2</i>
  <i type="logical" name="LWAVE"> F  </i>
  <i type="logical" name="LCHARG"> T  </i>
  <i type="logical" name="LSCALU"> F  </i>
  <v type="int" name="KPOINT_BSE">    -1     0     0     0</v>
  <i type="int" name="NELM">   300</i>
  <i type="logical" name="LHFCALC"> T  </i>
  <i type="string" name="GGA"> PE</i>
  <i name="HFSCREEN">      0.20000000</i>
 </incar>
 <structure name="primitive_cell" >
  <crystal>
   <varray name="basis" >
    <v>       6.01920000       0.00000000       0.00000000 </v>
    <v>       0.00000000      10.14000000       0.00000000 </v>
    <v>       0.00000000       0.00000000      15.00000000 </v>
   </varray>
   <i name="volume">    915.52032000 </i>
   <varray name="rec_basis" >
    <v>       0.16613503       0.00000000       0.00000000 </v>
    <v>       0.00000000       0.09861933       0.00000000 </v>
    <v>       0.00000000       0.00000000       0.06666667 </v>
   </varray>
  </crystal>
  <varray name="positions" >
   <v>       0.34176744      -0.13680735       0.24556459 </v>
   <v>      -0.40887765      -0.01296232       0.24107831 </v>
   <v>       0.09108445      -0.01396089       0.23670566 </v>
   <v>       0.34036239       0.10731376       0.23806990 </v>
   <v>       0.32788601      -0.38573392       0.28830266 </v>
   <v>      -0.15975125      -0.13674682       0.24580877 </v>
   <v>       0.09321562      -0.19211183       0.46520566 </v>
   <v>      -0.15800583       0.10732791       0.23785248 </v>
   <v>      -0.14545112      -0.38575113       0.28823968 </v>
   <v>       0.09170311      -0.35650398       0.45013016 </v>
   <v>       0.09116687       0.48610332       0.24909377 </v>
   <v>      -0.40877035       0.48207308       0.30064779 </v>
   <v>      -0.40865232       0.45568393       0.37284558 </v>
   <v>       0.33437010       0.36368240       0.25530487 </v>
   <v>      -0.15207660       0.36368733       0.25515012 </v>
  </varray>
 </structure>
 <varray name="primitive_index" >
  <v type="int" >        1 </v>
  <v type="int" >       10 </v>
  <v type="int" >        9 </v>
  <v type="int" >        7 </v>
  <v type="int" >        3 </v>
  <v type="int" >        2 </v>
  <v type="int" >       15 </v>
  <v type="int" >        8 </v>
  <v type="int" >        4 </v>
  <v type="int" >       13 </v>
  <v type="int" >       11 </v>
  <v type="int" >       12 </v>
  <v type="int" >       14 </v>
  <v type="int" >        5 </v>
  <v type="int" >        6 </v>
 </varray>
 <kpoints>
  <generation param="Gamma">
   <v type="int" name="divisions">       5        3        1 </v>
   <v name="usershift">      0.00000000       0.00000000       0.00000000 </v>
   <v name="genvec1">      0.20000000       0.00000000       0.00000000 </v>
   <v name="genvec2">      0.00000000       0.33333333       0.00000000 </v>
   <v name="genvec3">      0.00000000       0.00000000       1.00000000 </v>
   <v name="shift">      0.00000000       0.00000000       0.00000000 </v>
  </generation>
  <varray name="kpointlist" >
   <v>       0.00000000       0.00000000       0.00000000 </v>
   <v>       0.20000000       0.00000000       0.00000000 </v>
   <v>       0.40000000       0.00000000       0.00000000 </v>
   <v>       0.00000000       0.33333333       0.00000000 </v>
   <v>       0.20000000       0.33333333       0.00000000 </v>
   <v>       0.40000000       0.33333333       0.00000000 </v>
   <v>      -0.40000000       0.33333333       0.00000000 </v>
   <v>      -0.20000000       0.33333333       0.00000000 </v>
  </varray>
  <varray name="weights" >
   <v>       0.06666667 </v>
   <v>       0.13333333 </v>
   <v>       0.13333333 </v>
   <v>       0.13333333 </v>
   <v>       0.13333333 </v>
   <v>       0.13333333 </v>
   <v>       0.13333333 </v>
   <v>       0.13333333 </v>
  </varray>
 </kpoints>
 <parameters>
  <separator name="general" >
   <i type="string" name="SYSTEM">Al2C</i>
   <i type="logical" name="LCOMPAT"> F  </i>
  </separator>
  <separator name="electronic" >
   <i type="string" name="PREC">accura</i>
   <i name="ENMAX">    450.00000000</i>
   <i name="ENAUG">    644.87300000</i>
   <i name="EDIFF">      0.00001000</i>
   <i type="int" name="IALGO">    53</i>
   <i type="int" name="IWAVPR">    10</i>
   <i type="int" name="NBANDS">    32</i>
   <i name="NELECT">     48.00000000</i>
   <i type="int" name="TURBO">     0</i>
   <i type="int" name="IRESTART">     0</i>
   <i type="int" name="NREBOOT">     0</i>
   <i type="int" name="NMIN">     0</i>
   <i name="EREF">      0.00000000</i>
   <separator name="electronic smearing" >
    <i type="int" name="ISMEAR">     0</i>
    <i name="SIGMA">      0.05000000</i>
    <i name="KSPACING">      0.50000000</i>
    <i type="logical" name="KGAMMA"> T  </i>
   </separator>
   <separator name="electronic projectors" >
    <i type="logical" name="LREAL"> T  </i>
    <v name="ROPT">     -0.00020000     -0.00020000     -0.00020000     -0.00020000</v>
    <i type="int" name="LMAXPAW">  -100</i>
    <i type="int" name="LMAXMIX">     2</i>
    <i type="logical" name="NLSPLINE"> F  </i>
   </separator>
   <separator name="electronic startup" >
    <i type="int" name="ISTART">     0</i>
    <i type="int" name="ICHARG">     2</i>
    <i type="int" name="INIWAV">     1</i>
   </separator>
   <separator name="electronic spin" >
    <i type="int" name="ISPIN">     1</i>
    <i type="logical" name="LNONCOLLINEAR"> F  </i>
    <v name="MAGMOM">      1.00000000      1.00000000      1.00000000      1.00000000      1.00000000      1.00000000      1.00000000      1.00000000      1.00000000      1.00000000      1.00000000      1.00000000      1.00000000      1.00000000      1.00000000</v>
    <i name="NUPDOWN">     -1.00000000</i>
    <i type="logical" name="LSORBIT"> F  </i>
    <v name="SAXIS">      0.00000000      0.00000000      1.00000000</v>
    <i type="logical" name="LSPIRAL"> F  </i>
    <v name="QSPIRAL">      0.00000000      0.00000000      0.00000000</v>
    <i type="logical" name="LZEROZ"> F  </i>
   </separator>
   <separator name="electronic exchange-correlation" >
    <i type="logical" name="LASPH"> F  </i>
    <i type="logical" name="LMETAGGA"> F  </i>
   </separator>
   <separator name="electronic convergence" >
    <i type="int" name="NELM">   300</i>
    <i type="int" name="NELMDL">    -7</i>
    <i type="int" name="NELMIN">     2</i>
    <i name="ENINI">    450.00000000</i>
    <separator name="electronic convergence detail" >
     <i type="logical" name="LDIAG"> T  </i>
     <i type="logical" name="LSUBROT"> F  </i>
     <i name="WEIMIN">      0.00000000</i>
     <i name="EBREAK">      0.00000008</i>
     <i name="DEPER">      0.30000000</i>
     <i type="int" name="NRMM">     4</i>
     <i name="TIME">      0.40000000</i>
    </separator>
   </separator>
   <separator name="electronic mixer" >
    <i name="AMIX">      0.40000000</i>
    <i name="BMIX">      1.00000000</i>
    <i name="AMIN">      0.10000000</i>
    <i name="AMIX_MAG">      1.60000000</i>
    <i name="BMIX_MAG">      1.00000000</i>
    <separator name="electronic mixer details" >
     <i type="int" name="IMIX">     4</i>
     <i type="logical" name="MIXFIRST"> F  </i>
     <i type="int" name="MAXMIX">   -45</i>
     <i name="WC">    100.00000000</i>
     <i type="int" name="INIMIX">     1</i>
     <i type="int" name="MIXPRE">     1</i>
     <i type="int" name="MREMOVE">     5</i>
    </separator>
   </separator>
   <separator name="electronic dipolcorrection" >
    <i type="logical" name="LDIPOL"> F  </i>
    <i type="logical" name="LMONO"> F  </i>
    <i type="int" name="IDIPOL">     0</i>
    <i name="EPSILON">      1.00000000</i>
    <v name="DIPOL">   -100.00000000   -100.00000000   -100.00000000</v>
    <i name="EFIELD">      0.00000000</i>
   </separator>
  </separator>
  <separator name="grids" >
   <i type="int" name="NGX">    42</i>
   <i type="int" name="NGY">    70</i>
   <i type="int" name="NGZ">   108</i>
   <i type="int" name="NGXF">    84</i>
   <i type="int" name="NGYF">   140</i>
   <i type="int" name="NGZF">   216</i>
   <i type="logical" name="ADDGRID"> F  </i>
  </separator>
  <separator name="ionic" >
   <i type="int" name="NSW">     0</i>
   <i type="int" name="IBRION">    -1</i>
   <i type="int" name="MDALGO">     0</i>
   <i type="int" name="ISIF">     2</i>
   <i name="PSTRESS">      0.00000000</i>
   <i name="EDIFFG">     -0.01000000</i>
   <i type="int" name="NFREE">     0</i>
   <i name="POTIM">      0.35000000</i>
   <i name="SMASS">     -3.00000000</i>
   <i name="SCALEE">      1.00000000</i>
  </separator>
  <separator name="ionic md" >
   <i name="TEBEG">      0.00010000</i>
   <i name="TEEND">      0.00010000</i>
   <i type="int" name="NBLOCK">     1</i>
   <i type="int" name="KBLOCK">     1</i>
   <i type="int" name="NPACO">   256</i>
   <i name="APACO">     16.00000000</i>
  </separator>
  <separator name="symmetry" >
   <i type="int" name="ISYM">     0</i>
   <i name="SYMPREC">      0.00001000</i>
  </separator>
  <separator name="dos" >
   <i type="int" name="LORBIT">     0</i>
   <v name="RWIGS">     -1.00000000     -1.00000000     -1.00000000     -1.00000000</v>
   <i type="int" name="NEDOS">   301</i>
   <i name="EMIN">     10.00000000</i>
   <i name="EMAX">    -10.00000000</i>
   <i name="EFERMI">      0.00000000</i>
  </separator>
  <separator name="writing" >
   <i type="int" name="NWRITE">     2</i>
   <i type="logical" name="LWAVE"> F  </i>
   <i type="logical" name="LDOWNSAMPLE"> F  </i>
   <i type="logical" name="LCHARG"> T  </i>
   <i type="logical" name="LPARD"> F  </i>
   <i type="logical" name="LVTOT"> F  </i>
   <i type="logical" name="LVHAR"> F  </i>
   <i type="logical" name="LELF"> F  </i>
   <i type="logical" name="LOPTICS"> F  </i>
   <v name="STM">      0.00000000      0.00000000      0.00000000      0.00000000      0.00000000      0.00000000      0.00000000</v>
  </separator>
  <separator name="performance" >
   <i type="int" name="NPAR">     4</i>
   <i type="int" name="NSIM">     4</i>
   <i type="int" name="NBLK">    -1</i>
   <i type="logical" name="LPLANE"> T  </i>
   <i type="logical" name="LSCALAPACK"> T  </i>
   <i type="logical" name="LSCAAWARE"> F  </i>
   <i type="logical" name="LSCALU"> F  </i>
   <i type="logical" name="LASYNC"> F  </i>
   <i type="logical" name="LORBITALREAL"> F  </i>
  </separator>
  <separator name="miscellaneous" >
   <i type="int" name="IDIOT">     3</i>
   <i type="int" name="ISPECIAL">     0</i>
   <i type="logical" name="LMUSIC"> F  </i>
   <v name="POMASS">     26.98200000     12.01100000    127.60000000      1.00000000</v>
   <v name="DARWINR">      0.00000000      0.00000000      0.00000000      0.00000000</v>
   <v name="DARWINV">      1.00000000      1.00000000      1.00000000      1.00000000</v>
   <i type="logical" name="LCORR"> T  </i>
  </separator>
  <i type="logical" name="GGA_COMPAT"> T  </i>
  <i type="logical" name="LBERRY"> F  </i>
  <i type="int" name="ICORELEVEL">     0</i>
  <i type="logical" name="LDAU"> F  </i>
  <i type="int" name="I_CONSTRAINED_M">     0</i>
  <separator name="electronic exchange-correlation" >
   <i type="string" name="GGA">PE</i>
   <i type="int" name="VOSKOWN">     0</i>
   <i type="logical" name="LHFCALC"> T  </i>
   <i type="string" name="PRECFOCK">normal</i>
   <i type="logical" name="LSYMGRAD"> F  </i>
   <i type="logical" name="LHFONE"> F  </i>
   <i type="logical" name="LRHFCALC"> F  </i>
   <i type="logical" name="LTHOMAS"> F  </i>
   <i type="logical" name="LMODELHF"> F  </i>
   <i name="ENCUT4O">     -1.00000000</i>
   <i type="int" name="EXXOEP">     0</i>
   <i type="int" name="FOURORBIT">     0</i>
   <i name="AEXX">      0.25000000</i>
   <i name="HFALPHA">     -1.00000000</i>
   <i name="MCALPHA">      0.00000000</i>
   <i name="ALDAX">      0.75000000</i>
   <i name="AGGAX">      0.75000000</i>
   <i name="ALDAC">      1.00000000</i>
   <i name="AGGAC">      1.00000000</i>
   <i type="int" name="NKREDX">     1</i>
   <i type="int" name="NKREDY">     1</i>
   <i type="int" name="NKREDZ">     1</i>
   <i type="logical" name="SHIFTRED"> F  </i>
   <i type="logical" name="ODDONLY"> F  </i>
   <i type="logical" name="EVENONLY"> F  </i>
   <i type="int" name="LMAXFOCK">     4</i>
   <i type="int" name="NMAXFOCKAE">     1</i>
   <i type="logical" name="LFOCKAEDFT"> F  </i>
   <i name="HFSCREEN">      0.20000000</i>
   <i name="HFSCREENC">      0.20000000</i>
   <i type="int" name="NBANDSGWLOW">     1</i>
  </separator>
  <separator name="vdW DFT" >
   <i type="logical" name="LUSE_VDW"> F  </i>
   <i name="Zab_VDW">     -0.84910000</i>
   <i name="PARAM1">      0.12340000</i>
   <i name="PARAM2">      1.00000000</i>
   <i name="PARAM3">      0.00000000</i>
  </separator>
  <separator name="model GW" >
   <i type="int" name="MODEL_GW">     0</i>
   <i name="MODEL_EPS0">     36.62081280</i>
   <i name="MODEL_ALPHA">      1.00000000</i>
  </separator>
  <separator name="linear response parameters" >
   <i type="logical" name="LEPSILON"> F  </i>
   <i type="logical" name="LRPA"> F  </i>
   <i type="logical" name="LNABLA"> F  </i>
   <i type="logical" name="LVEL"> F  </i>
   <i type="int" name="KINTER">     0</i>
   <i name="CSHIFT">      0.10000000</i>
   <i name="OMEGAMAX">     -1.00000000</i>
   <i name="DEG_THRESHOLD">      0.00200000</i>
   <i name="RTIME">     -0.10000000</i>
   <i name="WPLASMAI">      0.00000000</i>
   <v name="DFIELD">      0.00000000      0.00000000      0.00000000</v>
   <v name="WPLASMA">      0.00000000      0.00000000      0.00000000      0.00000000      0.00000000      0.00000000      0.00000000      0.00000000      0.00000000</v>
  </separator>
  <separator name="orbital magnetization" >
   <i type="logical" name="NUCIND"> F  </i>
   <v name="MAGPOS">      0.00000000      0.00000000      0.00000000</v>
   <i type="logical" name="LNICSALL"> T  </i>
   <i type="logical" name="ORBITALMAG"> F  </i>
   <i type="logical" name="LMAGBLOCH"> F  </i>
   <i type="logical" name="LCHIMAG"> F  </i>
   <i type="logical" name="LGAUGE"> T  </i>
   <i type="int" name="MAGATOM">     0</i>
   <v name="MAGDIPOL">      0.00000000      0.00000000      0.00000000</v>
   <v name="AVECCONST">      0.00000000      0.00000000      0.00000000</v>
  </separator>
  <separator name="response functions" >
   <i type="logical" name="LADDER"> F  </i>
   <i type="logical" name="LRPAFORCE"> F  </i>
   <i type="logical" name="LFXC"> F  </i>
   <i type="logical" name="LHARTREE"> T  </i>
   <i type="int" name="IBSE">     0</i>
   <v type="int" name="KPOINT">    -1     0     0     0</v>
   <i type="logical" name="LTCTE"> F  </i>
   <i type="logical" name="LTETE"> F  </i>
   <i type="logical" name="LTRIPLET"> F  </i>
   <i type="logical" name="LFXCEPS"> F  </i>
   <i type="logical" name="LFXHEG"> F  </i>
   <i type="int" name="NATURALO">     2</i>
   <i type="logical" name="L2ORDER"> F  </i>
   <i type="logical" name="LMP2LT"> F  </i>
   <i type="logical" name="LUSEW"> F  </i>
   <i name="ENCUTGW">     -2.00000000</i>
   <i name="ENCUTGWSOFT">     -2.00000000</i>
   <i name="ENCUTLF">     -1.00000000</i>
   <i type="int" name="LMAXMP2">    -1</i>
   <i name="SCISSOR">      0.00000000</i>
   <i type="int" name="NOMEGA">     0</i>
   <i type="int" name="NOMEGAR">     0</i>
   <i type="int" name="NBANDSGW">    -1</i>
   <i type="int" name="NBANDSO">    -1</i>
   <i type="int" name="NBANDSV">    -1</i>
   <i type="int" name="NELM">   300</i>
   <i type="int" name="NELMHF">     1</i>
   <i type="int" name="DIM">     3</i>
   <i type="int" name="ANTIRES">     0</i>
   <i name="OMEGAMAX">    -30.00000000</i>
   <i name="OMEGAMIN">    -30.00000000</i>
   <i name="OMEGATL">   -200.00000000</i>
   <i type="int" name="OMEGAGRID">   140</i>
   <i name="CSHIFT">     -0.10000000</i>
   <i type="logical" name="SELFENERGY"> F  </i>
   <i type="logical" name="LSPECTRAL"> F  </i>
   <i type="logical" name="LSPECTRALGW"> F  </i>
   <i type="logical" name="LSINGLES"> F  </i>
   <i type="logical" name="LFERMIGW"> F  </i>
   <i type="logical" name="ODDONLYGW"> F  </i>
   <i type="logical" name="EVENONLYGW"> F  </i>
   <i type="int" name="NKREDLFX">     1</i>
   <i type="int" name="NKREDLFY">     1</i>
   <i type="int" name="NKREDLFZ">     1</i>
   <i type="int" name="MAXMEM">  2800</i>
   <i type="int" name="TELESCOPE">     0</i>
   <i type="int" name="TAUPAR">     1</i>
   <i type="int" name="OMEGAPAR">    -1</i>
   <i name="LAMBDA">      1.00000000</i>
  </separator>
  <separator name="External order field" >
   <i name="OFIELD_KAPPA">      0.00000000</i>
   <v name="OFIELD_K">      0.00000000      0.00000000      0.00000000</v>
   <i name="OFIELD_Q6_NEAR">      0.00000000</i>
   <i name="OFIELD_Q6_FAR">      0.00000000</i>
   <i name="OFIELD_A">      0.00000000</i>
  </separator>
 </parameters>
 <atominfo>
  <atoms>      15 </atoms>
  <types>       4 </types>
  <array name="atoms" >
   <dimension dim="1">ion</dimension>
   <field type="string">element</field>
   <field type="int">atomtype</field>
   <set>
    <rc><c>Al</c><c>   1</c></rc>
    <rc><c>Al</c><c>   1</c></rc>
    <rc><c>Al</c><c>   1</c></rc>
    <rc><c>Al</c><c>   1</c></rc>
    <rc><c>Al</c><c>   1</c></rc>
    <rc><c>Al</c><c>   1</c></rc>
    <rc><c>Al</c><c>   1</c></rc>
    <rc><c>Al</c><c>   1</c></rc>
    <rc><c>C </c><c>   2</c></rc>
    <rc><c>C </c><c>   2</c></rc>
    <rc><c>C </c><c>   2</c></rc>
    <rc><c>C </c><c>   2</c></rc>
    <rc><c>Te</c><c>   3</c></rc>
    <rc><c>H </c><c>   4</c></rc>
    <rc><c>H </c><c>   4</c></rc>
   </set>
  </array>
  <array name="atomtypes" >
   <dimension dim="1">type</dimension>
   <field type="int">atomspertype</field>
   <field type="string">element</field>
   <field>mass</field>
   <field>valence</field>
   <field type="string">pseudopotential</field>
   <set>
    <rc><c>   8</c><c>Al</c><c>     26.98200000</c><c>      3.00000000</c><c>  PAW Al_GW 19Mar2012                   </c></rc>
    <rc><c>   4</c><c>C </c><c>     12.01100000</c><c>      4.00000000</c><c>  PAW C_GW 28Sep2005                    </c></rc>
    <rc><c>   1</c><c>Te</c><c>    127.60000000</c><c>      6.00000000</c><c>  PAW Te_GW 22Mar2012                   </c></rc>
    <rc><c>   2</c><c>H </c><c>      1.00000000</c><c>      1.00000000</c><c>  PAW H_GW 21Apr2008                    </c></rc>
   </set>
  </array>
 </atominfo>
 <structure name="initialpos" >
  <crystal>
   <varray name="basis" >
    <v>       6.01920000       0.00000000       0.00000000 </v>
    <v>       0.00000000      10.14000000       0.00000000 </v>
    <v>       0.00000000       0.00000000      15.00000000 </v>
   </varray>
   <i name="volume">    915.52032000 </i>
   <varray name="rec_basis" >
    <v>       0.16613503       0.00000000       0.00000000 </v>
    <v>       0.00000000       0.09861933       0.00000000 </v>
    <v>       0.00000000       0.00000000       0.06666667 </v>
   </varray>
  </crystal>
  <varray name="positions" >
   <v>       0.34176744       0.86319265       0.24556459 </v>
   <v>       0.84024875       0.86325318       0.24580877 </v>
   <v>       0.32788601       0.61426608       0.28830266 </v>
   <v>       0.85454888       0.61424887       0.28823968 </v>
   <v>       0.33437010       0.36368240       0.25530487 </v>
   <v>       0.84792340       0.36368733       0.25515012 </v>
   <v>       0.34036239       0.10731376       0.23806990 </v>
   <v>       0.84199417       0.10732791       0.23785248 </v>
   <v>       0.09108445       0.98603911       0.23670566 </v>
   <v>       0.59112235       0.98703768       0.24107831 </v>
   <v>       0.09116687       0.48610332       0.24909377 </v>
   <v>       0.59122965       0.48207308       0.30064779 </v>
   <v>       0.09170311       0.64349602       0.45013016 </v>
   <v>       0.59134768       0.45568393       0.37284558 </v>
   <v>       0.09321562       0.80788817       0.46520566 </v>
  </varray>
  <varray name="selective"  type="logical" >
   <v type="logical" >  T  T  T </v>
   <v type="logical" >  T  T  T </v>
   <v type="logical" >  T  T  T </v>
   <v type="logical" >  T  T  T </v>
   <v type="logical" >  T  T  T </v>
   <v type="logical" >  T  T  T </v>
   <v type="logical" >  T  T  T </v>
   <v type="logical" >  T  T  T </v>
   <v type="logical" >  T  T  T </v>
   <v type="logical" >  T  T  T </v>
   <v type="logical" >  T  T  T </v>
   <v type="logical" >  T  T  T </v>
   <v type="logical" >  T  T  T </v>
   <v type="logical" >  T  T  T </v>
   <v type="logical" >  T  T  T </v>
  </varray>
  <nose>
   <v>      -3.00000000       0.00000000       0.00010000       0.00010000 </v>
  </nose>
 </structure>
 <calculation>
  <scstep>
   <time name="total">   13.82   13.86</time>
   <energy>
    <i name="alphaZ">     13.10177784 </i>
    <i name="ewald">   1481.15367417 </i>
    <i name="hartreedc">  -2455.34075738 </i>
    <i name="XCdc">   -147.90646670 </i>
    <i name="pawpsdc">   1131.56821490 </i>
    <i name="pawaedc">   -901.58210649 </i>
    <i name="eentropy">     -0.00992459 </i>
    <i name="bandstr">    184.99456747 </i>
    <i name="atom">   1251.19323263 </i>
    <i name="e_fr_energy">    557.17221185 </i>
    <i name="e_wo_entrp">    557.18213644 </i>
    <i name="e_0_energy">    557.17717414 </i>
   </energy>
  </scstep>
  <scstep>
   <time name="total">   15.22   15.23</time>
   <energy>
    <i name="e_fr_energy">    271.69964385 </i>
    <i name="e_wo_entrp">    271.70588300 </i>
    <i name="e_0_energy">    271.70276343 </i>
   </energy>
  </scstep>
  <scstep>
   <time name="total">   15.17   15.23</time>
   <energy>
    <i name="e_fr_energy">    134.82834866 </i>
    <i name="e_wo_entrp">    134.83428791 </i>
    <i name="e_0_energy">    134.83131828 </i>
   </energy>
  </scstep>
  <scstep>
   <time name="total">   15.16   15.23</time>
   <energy>
    <i name="e_fr_energy">     63.32912717 </i>
    <i name="e_wo_entrp">     63.34022304 </i>
    <i name="e_0_energy">     63.33467511 </i>
   </energy>
  </scstep>
  <scstep>
   <time name="total">   15.18   15.24</time>
   <energy>
    <i name="e_fr_energy">     24.79330775 </i>
    <i name="e_wo_entrp">     24.79741958 </i>
    <i name="e_0_energy">     24.79536367 </i>
   </energy>
  </scstep>
  <scstep>
   <time name="total">   15.16   15.23</time>
   <energy>
    <i name="e_fr_energy">      4.12097713 </i>
    <i name="e_wo_entrp">      4.12604233 </i>
    <i name="e_0_energy">      4.12350973 </i>
   </energy>
  </scstep>
  <scstep>
   <time name="total">   15.75   15.82</time>
   <energy>
    <i name="e_fr_energy">     -6.93521668 </i>
    <i name="e_wo_entrp">     -6.93521668 </i>
    <i name="e_0_energy">     -6.93521668 </i>
   </energy>
  </scstep>
  <scstep>
   <time name="total">  294.13  295.06</time>
   <energy>
    <i name="e_fr_energy">    -57.22788203 </i>
    <i name="e_wo_entrp">    -57.22788203 </i>
    <i name="e_0_energy">    -57.22788203 </i>
   </energy>
  </scstep>
  <scstep>
   <time name="total">  295.49  296.29</time>
   <energy>
    <i name="e_fr_energy">    -74.33674517 </i>
    <i name="e_wo_entrp">    -74.33674517 </i>
    <i name="e_0_energy">    -74.33674517 </i>
   </energy>
  </scstep>
  <scstep>
   <time name="total">  294.31  294.65</time>
   <energy>
    <i name="e_fr_energy">    -77.73828241 </i>
    <i name="e_wo_entrp">    -77.73828241 </i>
    <i name="e_0_energy">    -77.73828241 </i>
   </energy>
  </scstep>
  <scstep>
   <time name="total">  294.92  295.84</time>
   <energy>
    <i name="e_fr_energy">    -80.30707135 </i>
    <i name="e_wo_entrp">    -80.30707135 </i>
    <i name="e_0_energy">    -80.30707135 </i>
   </energy>
  </scstep>
  <scstep>
   <time name="total">  295.49  296.35</time>
   <energy>
    <i name="e_fr_energy">    -80.96763603 </i>
    <i name="e_wo_entrp">    -80.96763603 </i>
    <i name="e_0_energy">    -80.96763603 </i>
   </energy>
  </scstep>
  <scstep>
   <time name="total">  295.76  296.61</time>
   <energy>
    <i name="e_fr_energy">    -81.44559249 </i>
    <i name="e_wo_entrp">    -81.44559249 </i>
    <i name="e_0_energy">    -81.44559249 </i>
   </energy>
  </scstep>
  <scstep>
   <time name="total">  295.55  296.45</time>
   <energy>
    <i name="e_fr_energy">    -81.64571174 </i>
    <i name="e_wo_entrp">    -81.64571174 </i>
    <i name="e_0_energy">    -81.64571174 </i>
   </energy>
  </scstep>
  <scstep>
   <time name="total">  295.06  296.02</time>
   <energy>
    <i name="e_fr_energy">    -81.72668008 </i>
    <i name="e_wo_entrp">    -81.72668008 </i>
    <i name="e_0_energy">    -81.72668008 </i>
   </energy>
  </scstep>
  <scstep>
   <time name="total">  296.00  296.09</time>
   <energy>
    <i name="e_fr_energy">    -81.76634386 </i>
    <i name="e_wo_entrp">    -81.76634386 </i>
    <i name="e_0_energy">    -81.76634386 </i>
   </energy>
  </scstep>
  <scstep>
   <time name="total">  295.39  296.50</time>
   <energy>
    <i name="e_fr_energy">    -81.78217561 </i>
    <i name="e_wo_entrp">    -81.78217561 </i>
    <i name="e_0_energy">    -81.78217561 </i>
   </energy>
  </scstep>
  <scstep>
   <time name="total">  293.57  294.72</time>
   <energy>
    <i name="e_fr_energy">    -81.78982691 </i>
    <i name="e_wo_entrp">    -81.78982691 </i>
    <i name="e_0_energy">    -81.78982691 </i>
   </energy>
  </scstep>
  <scstep>
   <time name="total">  293.88  293.97</time>
   <energy>
    <i name="e_fr_energy">    -81.79302077 </i>
    <i name="e_wo_entrp">    -81.79302077 </i>
    <i name="e_0_energy">    -81.79302077 </i>
   </energy>
  </scstep>
  <scstep>
   <time name="total">  291.65  292.79</time>
   <energy>
    <i name="e_fr_energy">    -81.79426985 </i>
    <i name="e_wo_entrp">    -81.79426985 </i>
    <i name="e_0_energy">    -81.79426985 </i>
   </energy>
  </scstep>
  <scstep>
   <time name="total">  293.32  294.49</time>
   <energy>
    <i name="e_fr_energy">    -81.79481389 </i>
    <i name="e_wo_entrp">    -81.79481389 </i>
    <i name="e_0_energy">    -81.79481389 </i>
   </energy>
  </scstep>
  <scstep>
   <time name="total">  292.75  293.84</time>
   <energy>
    <i name="e_fr_energy">    -81.79503645 </i>
    <i name="e_wo_entrp">    -81.79503645 </i>
    <i name="e_0_energy">    -81.79503645 </i>
   </energy>
  </scstep>
  <scstep>
   <time name="total">  294.41  295.34</time>
   <energy>
    <i name="e_fr_energy">    -81.79513304 </i>
    <i name="e_wo_entrp">    -81.79513304 </i>
    <i name="e_0_energy">    -81.79513304 </i>
   </energy>
  </scstep>
  <scstep>
   <time name="total">  293.51  294.41</time>
   <energy>
    <i name="e_fr_energy">    -81.79517650 </i>
    <i name="e_wo_entrp">    -81.79517650 </i>
    <i name="e_0_energy">    -81.79517650 </i>
   </energy>
  </scstep>
  <scstep>
   <time name="total">  295.39  295.68</time>
   <energy>
    <i name="e_fr_energy">    -81.79519557 </i>
    <i name="e_wo_entrp">    -81.79519557 </i>
    <i name="e_0_energy">    -81.79519557 </i>
   </energy>
  </scstep>
  <scstep>
   <time name="total">  580.31  580.88</time>
   <energy>
    <i name="alphaZ">     13.10177784 </i>
    <i name="ewald">   1481.15367417 </i>
    <i name="hartreedc">  -2619.07303333 </i>
    <i name="XCdc">   -141.95619899 </i>
    <i name="pawpsdc">   1694.66146006 </i>
    <i name="pawaedc">  -1465.45536587 </i>
    <i name="eentropy">     -0.00000000 </i>
    <i name="bandstr">   -370.84172902 </i>
    <i name="atom">   1251.19323263 </i>
    <i name="e_fr_energy">    -81.79520453 </i>
    <i name="e_wo_entrp">    -81.79520453 </i>
    <i name="e_0_energy">    -81.79520453 </i>
   </energy>
  </scstep>
  <structure>
   <crystal>
    <varray name="basis" >
     <v>       6.01920000       0.00000000       0.00000000 </v>
     <v>       0.00000000      10.14000000       0.00000000 </v>
     <v>       0.00000000       0.00000000      15.00000000 </v>
    </varray>
    <i name="volume">    915.52032000 </i>
    <varray name="rec_basis" >
     <v>       0.16613503       0.00000000       0.00000000 </v>
     <v>       0.00000000       0.09861933       0.00000000 </v>
     <v>       0.00000000       0.00000000       0.06666667 </v>
    </varray>
   </crystal>
   <varray name="positions" >
    <v>       0.34176744       0.86319265       0.24556459 </v>
    <v>       0.84024875       0.86325318       0.24580877 </v>
    <v>       0.32788601       0.61426608       0.28830266 </v>
    <v>       0.85454888       0.61424887       0.28823968 </v>
    <v>       0.33437010       0.36368240       0.25530487 </v>
    <v>       0.84792340       0.36368733       0.25515012 </v>
    <v>       0.34036239       0.10731376       0.23806990 </v>
    <v>       0.84199417       0.10732791       0.23785248 </v>
    <v>       0.09108445       0.98603911       0.23670566 </v>
    <v>       0.59112235       0.98703768       0.24107831 </v>
    <v>       0.09116687       0.48610332       0.24909377 </v>
    <v>       0.59122965       0.48207308       0.30064779 </v>
    <v>       0.09170311       0.64349602       0.45013016 </v>
    <v>       0.59134768       0.45568393       0.37284558 </v>
    <v>       0.09321562       0.80788817       0.46520566 </v>
   </varray>
  </structure>
  <varray name="forces" >
   <v>       0.00854565       0.25780710       0.01009104 </v>
   <v>       0.00522889       0.25286624       0.00525367 </v>
   <v>      -0.07422981      -0.18719250       0.01471406 </v>
   <v>       0.07307910      -0.18237168       0.01840533 </v>
   <v>      -0.11018517       0.28136158       0.06056036 </v>
   <v>       0.11261479       0.28256409       0.06342599 </v>
   <v>       0.00504156      -0.31044865       0.01506105 </v>
   <v>      -0.01581274      -0.30971254       0.01594406 </v>
   <v>       0.00486194       0.04085950       0.02610762 </v>
   <v>      -0.00684213       0.03979462      -0.01102038 </v>
   <v>       0.00015527      -0.14098665       0.10813838 </v>
   <v>      -0.00131645      -0.03729204       0.01200823 </v>
   <v>       0.00447097       0.25255745      -0.11727359 </v>
   <v>      -0.00010586       0.03642352      -0.18889495 </v>
   <v>      -0.00550602      -0.27623004      -0.03252089 </v>
  </varray>
  <varray name="stress" >
   <v>      -7.88359544      -0.07032366      -0.00958496 </v>
   <v>      -0.07032355     -13.12791359      -0.36873461 </v>
   <v>      -0.00958498      -0.36873451      -2.44776777 </v>
  </varray>
  <energy>
   <i name="e_fr_energy">    -81.79520453 </i>
   <i name="e_wo_entrp">    -81.79520453 </i>
   <i name="e_0_energy">     -0.00000000 </i>
  </energy>
  <time name="totalsc"> 6495.71 6519.31</time>
  <eigenvalues>
   <array>
    <dimension dim="1">band</dimension>
    <dimension dim="2">kpoint</dimension>
    <dimension dim="3">spin</dimension>
    <field>eigene</field>
    <field>occ</field>
    <set>
     <set comment="spin 1">
      <set comment="kpoint 1">
       <r>  -16.3641    1.0000 </r>
       <r>  -15.2983    1.0000 </r>
       <r>  -14.7702    1.0000 </r>
       <r>  -14.0781    1.0000 </r>
       <r>  -13.0113    1.0000 </r>
       <r>   -9.7437    1.0000 </r>
       <r>   -9.7186    1.0000 </r>
       <r>   -9.4353    1.0000 </r>
       <r>   -8.3173    1.0000 </r>
       <r>   -7.8706    1.0000 </r>
       <r>   -7.0506    1.0000 </r>
       <r>   -6.8309    1.0000 </r>
       <r>   -6.4266    1.0000 </r>
       <r>   -5.5678    1.0000 </r>
       <r>   -5.4955    1.0000 </r>
       <r>   -5.1970    1.0000 </r>
       <r>   -4.7526    1.0000 </r>
       <r>   -4.3960    1.0000 </r>
       <r>   -4.0053    1.0000 </r>
       <r>   -3.7131    1.0000 </r>
       <r>   -3.2794    1.0000 </r>
       <r>   -3.2763    1.0000 </r>
       <r>   -2.7638    1.0000 </r>
       <r>   -2.3744    1.0000 </r>
       <r>   -0.9667    0.0000 </r>
       <r>   -0.5300    0.0000 </r>
       <r>    0.3589    0.0000 </r>
       <r>    0.5149    0.0000 </r>
       <r>    0.8329    0.0000 </r>
       <r>    0.9086    0.0000 </r>
       <r>    0.9777    0.0000 </r>
       <r>    1.7040    0.0000 </r>
      </set>
      <set comment="kpoint 2">
       <r>  -16.2706    1.0000 </r>
       <r>  -15.1664    1.0000 </r>
       <r>  -14.8466    1.0000 </r>
       <r>  -14.2180    1.0000 </r>
       <r>  -13.4103    1.0000 </r>
       <r>   -9.5641    1.0000 </r>
       <r>   -9.4171    1.0000 </r>
       <r>   -8.8678    1.0000 </r>
       <r>   -8.0782    1.0000 </r>
       <r>   -7.8592    1.0000 </r>
       <r>   -7.2571    1.0000 </r>
       <r>   -6.9912    1.0000 </r>
       <r>   -6.7032    1.0000 </r>
       <r>   -5.8531    1.0000 </r>
       <r>   -5.1662    1.0000 </r>
       <r>   -4.9854    1.0000 </r>
       <r>   -4.7630    1.0000 </r>
       <r>   -4.5259    1.0000 </r>
       <r>   -4.2465    1.0000 </r>
       <r>   -4.0292    1.0000 </r>
       <r>   -3.7135    1.0000 </r>
       <r>   -3.4347    1.0000 </r>
       <r>   -2.8674    1.0000 </r>
       <r>   -2.7311    1.0000 </r>
       <r>   -0.6964    0.0000 </r>
       <r>    0.1171    0.0000 </r>
       <r>    0.3243    0.0000 </r>
       <r>    0.7535    0.0000 </r>
       <r>    1.0411    0.0000 </r>
       <r>    1.0762    0.0000 </r>
       <r>    1.3976    0.0000 </r>
       <r>    1.8553    0.0000 </r>
      </set>
      <set comment="kpoint 3">
       <r>  -16.0619    1.0000 </r>
       <r>  -15.1100    1.0000 </r>
       <r>  -14.7499    1.0000 </r>
       <r>  -14.3608    1.0000 </r>
       <r>  -14.1310    1.0000 </r>
       <r>   -9.1155    1.0000 </r>
       <r>   -9.0645    1.0000 </r>
       <r>   -8.3359    1.0000 </r>
       <r>   -7.7556    1.0000 </r>
       <r>   -7.5037    1.0000 </r>
       <r>   -7.2324    1.0000 </r>
       <r>   -6.8136    1.0000 </r>
       <r>   -6.4580    1.0000 </r>
       <r>   -6.3647    1.0000 </r>
       <r>   -5.7403    1.0000 </r>
       <r>   -5.5948    1.0000 </r>
       <r>   -5.4299    1.0000 </r>
       <r>   -4.7625    1.0000 </r>
       <r>   -4.3919    1.0000 </r>
       <r>   -4.2668    1.0000 </r>
       <r>   -3.7296    1.0000 </r>
       <r>   -3.6140    1.0000 </r>
       <r>   -3.1699    1.0000 </r>
       <r>   -2.7003    1.0000 </r>
       <r>   -0.4176    0.0000 </r>
       <r>    0.1213    0.0000 </r>
       <r>    0.4571    0.0000 </r>
       <r>    1.1518    0.0000 </r>
       <r>    1.4073    0.0000 </r>
       <r>    1.6164    0.0000 </r>
       <r>    1.9447    0.0000 </r>
       <r>    2.3840    0.0000 </r>
      </set>
      <set comment="kpoint 4">
       <r>  -16.3615    1.0000 </r>
       <r>  -15.3056    1.0000 </r>
       <r>  -14.7685    1.0000 </r>
       <r>  -14.0783    1.0000 </r>
       <r>  -13.0121    1.0000 </r>
       <r>   -9.6858    1.0000 </r>
       <r>   -9.5082    1.0000 </r>
       <r>   -9.4463    1.0000 </r>
       <r>   -8.6912    1.0000 </r>
       <r>   -8.1071    1.0000 </r>
       <r>   -7.3777    1.0000 </r>
       <r>   -6.3574    1.0000 </r>
       <r>   -5.8172    1.0000 </r>
       <r>   -5.6251    1.0000 </r>
       <r>   -5.3409    1.0000 </r>
       <r>   -5.1132    1.0000 </r>
       <r>   -4.7876    1.0000 </r>
       <r>   -4.4519    1.0000 </r>
       <r>   -4.0668    1.0000 </r>
       <r>   -3.9440    1.0000 </r>
       <r>   -3.4060    1.0000 </r>
       <r>   -3.2794    1.0000 </r>
       <r>   -3.2631    1.0000 </r>
       <r>   -2.3672    1.0000 </r>
       <r>   -0.7717    0.0000 </r>
       <r>   -0.2572    0.0000 </r>
       <r>    0.2821    0.0000 </r>
       <r>    0.5525    0.0000 </r>
       <r>    0.7984    0.0000 </r>
       <r>    1.2771    0.0000 </r>
       <r>    1.5344    0.0000 </r>
       <r>    1.7704    0.0000 </r>
      </set>
      <set comment="kpoint 5">
       <r>  -16.2683    1.0000 </r>
       <r>  -15.1717    1.0000 </r>
       <r>  -14.8468    1.0000 </r>
       <r>  -14.2172    1.0000 </r>
       <r>  -13.4118    1.0000 </r>
       <r>   -9.4346    1.0000 </r>
       <r>   -9.2719    1.0000 </r>
       <r>   -8.9009    1.0000 </r>
       <r>   -8.4990    1.0000 </r>
       <r>   -7.9244    1.0000 </r>
       <r>   -7.4645    1.0000 </r>
       <r>   -6.9994    1.0000 </r>
       <r>   -6.2970    1.0000 </r>
       <r>   -5.6348    1.0000 </r>
       <r>   -5.0211    1.0000 </r>
       <r>   -4.9231    1.0000 </r>
       <r>   -4.8083    1.0000 </r>
       <r>   -4.4706    1.0000 </r>
       <r>   -4.1753    1.0000 </r>
       <r>   -4.0467    1.0000 </r>
       <r>   -3.8485    1.0000 </r>
       <r>   -3.5132    1.0000 </r>
       <r>   -3.1158    1.0000 </r>
       <r>   -2.8615    1.0000 </r>
       <r>   -0.6504    0.0000 </r>
       <r>    0.0837    0.0000 </r>
       <r>    0.3514    0.0000 </r>
       <r>    0.6497    0.0000 </r>
       <r>    0.8876    0.0000 </r>
       <r>    1.2299    0.0000 </r>
       <r>    1.3914    0.0000 </r>
       <r>    1.8029    0.0000 </r>
      </set>
      <set comment="kpoint 6">
       <r>  -16.0608    1.0000 </r>
       <r>  -15.1036    1.0000 </r>
       <r>  -14.7612    1.0000 </r>
       <r>  -14.3605    1.0000 </r>
       <r>  -14.1322    1.0000 </r>
       <r>   -9.1268    1.0000 </r>
       <r>   -8.8485    1.0000 </r>
       <r>   -8.1639    1.0000 </r>
       <r>   -7.9417    1.0000 </r>
       <r>   -7.5271    1.0000 </r>
       <r>   -7.4585    1.0000 </r>
       <r>   -7.1868    1.0000 </r>
       <r>   -6.9698    1.0000 </r>
       <r>   -5.8934    1.0000 </r>
       <r>   -5.7117    1.0000 </r>
       <r>   -5.2160    1.0000 </r>
       <r>   -4.9451    1.0000 </r>
       <r>   -4.5651    1.0000 </r>
       <r>   -4.4471    1.0000 </r>
       <r>   -4.2106    1.0000 </r>
       <r>   -3.8448    1.0000 </r>
       <r>   -3.6748    1.0000 </r>
       <r>   -3.4188    1.0000 </r>
       <r>   -2.9067    1.0000 </r>
       <r>   -0.4853    0.0000 </r>
       <r>    0.2124    0.0000 </r>
       <r>    0.6070    0.0000 </r>
       <r>    0.9752    0.0000 </r>
       <r>    1.2079    0.0000 </r>
       <r>    1.6702    0.0000 </r>
       <r>    1.8269    0.0000 </r>
       <r>    2.2404    0.0000 </r>
      </set>
      <set comment="kpoint 7">
       <r>  -16.0608    1.0000 </r>
       <r>  -15.1036    1.0000 </r>
       <r>  -14.7611    1.0000 </r>
       <r>  -14.3606    1.0000 </r>
       <r>  -14.1322    1.0000 </r>
       <r>   -9.1268    1.0000 </r>
       <r>   -8.8484    1.0000 </r>
       <r>   -8.1643    1.0000 </r>
       <r>   -7.9422    1.0000 </r>
       <r>   -7.5273    1.0000 </r>
       <r>   -7.4566    1.0000 </r>
       <r>   -7.1861    1.0000 </r>
       <r>   -6.9714    1.0000 </r>
       <r>   -5.8935    1.0000 </r>
       <r>   -5.7115    1.0000 </r>
       <r>   -5.2168    1.0000 </r>
       <r>   -4.9457    1.0000 </r>
       <r>   -4.5640    1.0000 </r>
       <r>   -4.4465    1.0000 </r>
       <r>   -4.2103    1.0000 </r>
       <r>   -3.8441    1.0000 </r>
       <r>   -3.6755    1.0000 </r>
       <r>   -3.4196    1.0000 </r>
       <r>   -2.9065    1.0000 </r>
       <r>   -0.4850    0.0000 </r>
       <r>    0.2111    0.0000 </r>
       <r>    0.6073    0.0000 </r>
       <r>    0.9718    0.0000 </r>
       <r>    1.1725    0.0000 </r>
       <r>    1.4513    0.0000 </r>
       <r>    1.8019    0.0000 </r>
       <r>    2.1996    0.0000 </r>
      </set>
      <set comment="kpoint 8">
       <r>  -16.2683    1.0000 </r>
       <r>  -15.1718    1.0000 </r>
       <r>  -14.8468    1.0000 </r>
       <r>  -14.2172    1.0000 </r>
       <r>  -13.4118    1.0000 </r>
       <r>   -9.4345    1.0000 </r>
       <r>   -9.2720    1.0000 </r>
       <r>   -8.9009    1.0000 </r>
       <r>   -8.4992    1.0000 </r>
       <r>   -7.9246    1.0000 </r>
       <r>   -7.4645    1.0000 </r>
       <r>   -6.9983    1.0000 </r>
       <r>   -6.2977    1.0000 </r>
       <r>   -5.6359    1.0000 </r>
       <r>   -5.0225    1.0000 </r>
       <r>   -4.9219    1.0000 </r>
       <r>   -4.8075    1.0000 </r>
       <r>   -4.4703    1.0000 </r>
       <r>   -4.1744    1.0000 </r>
       <r>   -4.0475    1.0000 </r>
       <r>   -3.8476    1.0000 </r>
       <r>   -3.5143    1.0000 </r>
       <r>   -3.1156    1.0000 </r>
       <r>   -2.8615    1.0000 </r>
       <r>   -0.6504    0.0000 </r>
       <r>    0.0826    0.0000 </r>
       <r>    0.3523    0.0000 </r>
       <r>    0.6439    0.0000 </r>
       <r>    0.8581    0.0000 </r>
       <r>    1.2907    0.0000 </r>
       <r>    1.4607    0.0000 </r>
       <r>    1.5571    0.0000 </r>
      </set>
     </set>
    </set>
   </array>
  </eigenvalues>
  <separator name="orbital magnetization" >
   <v name="MAGDIPOLOUT">      0.00000000      0.00000000      0.00000000</v>
  </separator>
  <dos>
   <i name="efermi">     -2.10500310 </i>
   <total>
    <array>
     <dimension dim="1">gridpoints</dimension>
     <dimension dim="2">spin</dimension>
     <field>energy</field>
     <field>total</field>
     <field>integrated</field>
     <set>
      <set comment="spin 1">
       <r>   -17.3015     0.0000     0.0000 </r>
       <r>   -17.2328     0.0000     0.0000 </r>
       <r>   -17.1641     0.0000     0.0000 </r>
       <r>   -17.0953     0.0000     0.0000 </r>
       <r>   -17.0266     0.0000     0.0000 </r>
       <r>   -16.9578     0.0000     0.0000 </r>
       <r>   -16.8891     0.0000     0.0000 </r>
       <r>   -16.8203     0.0000     0.0000 </r>
       <r>   -16.7516     0.0000     0.0000 </r>
       <r>   -16.6829     0.0000     0.0000 </r>
       <r>   -16.6141     0.0000     0.0000 </r>
       <r>   -16.5454     0.0000     0.0000 </r>
       <r>   -16.4766     0.0036     0.0002 </r>
       <r>   -16.4079     0.5748     0.0398 </r>
       <r>   -16.3391     4.0313     0.3169 </r>
       <r>   -16.2704     6.8258     0.7861 </r>
       <r>   -16.2017     5.6914     1.1774 </r>
       <r>   -16.1329     0.5752     1.2169 </r>
       <r>   -16.0642     5.1748     1.5726 </r>
       <r>   -15.9954     5.8496     1.9747 </r>
       <r>   -15.9267     0.3665     1.9999 </r>
       <r>   -15.8579     0.0008     2.0000 </r>
       <r>   -15.7892     0.0000     2.0000 </r>
       <r>   -15.7205     0.0000     2.0000 </r>
       <r>   -15.6517     0.0000     2.0000 </r>
       <r>   -15.5830     0.0000     2.0000 </r>
       <r>   -15.5142     0.0000     2.0000 </r>
       <r>   -15.4455     0.0002     2.0000 </r>
       <r>   -15.3767     0.1115     2.0077 </r>
       <r>   -15.3080     2.4860     2.1786 </r>
       <r>   -15.2393     3.3073     2.4059 </r>
       <r>   -15.1705     6.0555     2.8222 </r>
       <r>   -15.1018    11.5140     3.6137 </r>
       <r>   -15.0330     5.3832     3.9838 </r>
       <r>   -14.9643     0.2408     4.0003 </r>
       <r>   -14.8955     0.9720     4.0671 </r>
       <r>   -14.8268     7.9314     4.6124 </r>
       <r>   -14.7580    12.0181     5.4385 </r>
       <r>   -14.6893     7.7663     5.9724 </r>
       <r>   -14.6206     0.4004     5.9999 </r>
       <r>   -14.5518     0.0008     6.0000 </r>
       <r>   -14.4831     0.0031     6.0002 </r>
       <r>   -14.4143     0.7472     6.0516 </r>
       <r>   -14.3456     6.9900     6.5321 </r>
       <r>   -14.2768     4.3352     6.8301 </r>
       <r>   -14.2081     6.7752     7.2959 </r>
       <r>   -14.1394     9.3438     7.9382 </r>
       <r>   -14.0706     9.6362     8.6006 </r>
       <r>   -14.0019     2.8095     8.7937 </r>
       <r>   -13.9331     0.0910     8.8000 </r>
       <r>   -13.8644     0.0001     8.8000 </r>
       <r>   -13.7956     0.0000     8.8000 </r>
       <r>   -13.7269     0.0000     8.8000 </r>
       <r>   -13.6582     0.0000     8.8000 </r>
       <r>   -13.5894     0.0000     8.8000 </r>
       <r>   -13.5207     0.0115     8.8008 </r>
       <r>   -13.4519     1.4469     8.9003 </r>
       <r>   -13.3832     7.6974     9.4294 </r>
       <r>   -13.3144     2.4458     9.5975 </r>
       <r>   -13.2457     0.0358     9.6000 </r>
       <r>   -13.1770     0.0000     9.6000 </r>
       <r>   -13.1082     0.0187     9.6013 </r>
       <r>   -13.0395     1.2462     9.6870 </r>
       <r>   -12.9707     3.8418     9.9511 </r>
       <r>   -12.9020     0.7066     9.9996 </r>
       <r>   -12.8332     0.0055    10.0000 </r>
       <r>   -12.7645     0.0000    10.0000 </r>
       <r>   -12.6958     0.0000    10.0000 </r>
       <r>   -12.6270     0.0000    10.0000 </r>
       <r>   -12.5583     0.0000    10.0000 </r>
       <r>   -12.4895     0.0000    10.0000 </r>
       <r>   -12.4208     0.0000    10.0000 </r>
       <r>   -12.3520     0.0000    10.0000 </r>
       <r>   -12.2833     0.0000    10.0000 </r>
       <r>   -12.2145     0.0000    10.0000 </r>
       <r>   -12.1458     0.0000    10.0000 </r>
       <r>   -12.0771     0.0000    10.0000 </r>
       <r>   -12.0083     0.0000    10.0000 </r>
       <r>   -11.9396     0.0000    10.0000 </r>
       <r>   -11.8708     0.0000    10.0000 </r>
       <r>   -11.8021     0.0000    10.0000 </r>
       <r>   -11.7333     0.0000    10.0000 </r>
       <r>   -11.6646     0.0000    10.0000 </r>
       <r>   -11.5959     0.0000    10.0000 </r>
       <r>   -11.5271     0.0000    10.0000 </r>
       <r>   -11.4584     0.0000    10.0000 </r>
       <r>   -11.3896     0.0000    10.0000 </r>
       <r>   -11.3209     0.0000    10.0000 </r>
       <r>   -11.2521     0.0000    10.0000 </r>
       <r>   -11.1834     0.0000    10.0000 </r>
       <r>   -11.1147     0.0000    10.0000 </r>
       <r>   -11.0459     0.0000    10.0000 </r>
       <r>   -10.9772     0.0000    10.0000 </r>
       <r>   -10.9084     0.0000    10.0000 </r>
       <r>   -10.8397     0.0000    10.0000 </r>
       <r>   -10.7709     0.0000    10.0000 </r>
       <r>   -10.7022     0.0000    10.0000 </r>
       <r>   -10.6335     0.0000    10.0000 </r>
       <r>   -10.5647     0.0000    10.0000 </r>
       <r>   -10.4960     0.0000    10.0000 </r>
       <r>   -10.4272     0.0000    10.0000 </r>
       <r>   -10.3585     0.0000    10.0000 </r>
       <r>   -10.2897     0.0000    10.0000 </r>
       <r>   -10.2210     0.0000    10.0000 </r>
       <r>   -10.1523     0.0000    10.0000 </r>
       <r>   -10.0835     0.0000    10.0000 </r>
       <r>   -10.0148     0.0000    10.0000 </r>
       <r>    -9.9460     0.0000    10.0000 </r>
       <r>    -9.8773     0.0002    10.0000 </r>
       <r>    -9.8085     0.0760    10.0052 </r>
       <r>    -9.7398     1.7564    10.1260 </r>
       <r>    -9.6711     4.4057    10.4288 </r>
       <r>    -9.6023     2.0415    10.5692 </r>
       <r>    -9.5336     3.5779    10.8151 </r>
       <r>    -9.4648     6.6414    11.2717 </r>
       <r>    -9.3961    11.7665    12.0805 </r>
       <r>    -9.3273     3.1269    12.2955 </r>
       <r>    -9.2586     4.6008    12.6118 </r>
       <r>    -9.1898     3.0184    12.8193 </r>
       <r>    -9.1211     6.0034    13.2320 </r>
       <r>    -9.0524     7.5331    13.7498 </r>
       <r>    -8.9836     1.7338    13.8690 </r>
       <r>    -8.9149     3.2422    14.0919 </r>
       <r>    -8.8461    10.9229    14.8428 </r>
       <r>    -8.7774     5.0305    15.1886 </r>
       <r>    -8.7086     1.3711    15.2828 </r>
       <r>    -8.6399     2.3896    15.4471 </r>
       <r>    -8.5712     0.4449    15.4777 </r>
       <r>    -8.5024     3.4320    15.7136 </r>
       <r>    -8.4337     3.9296    15.9837 </r>
       <r>    -8.3649     1.2085    16.0668 </r>
       <r>    -8.2962     3.8082    16.3286 </r>
       <r>    -8.2274     1.3094    16.4186 </r>
       <r>    -8.1587     4.4054    16.7214 </r>
       <r>    -8.0900     7.0409    17.2055 </r>
       <r>    -8.0212     3.6840    17.4587 </r>
       <r>    -7.9525     4.7854    17.7877 </r>
       <r>    -7.8837    11.1316    18.5529 </r>
       <r>    -7.8150     5.1847    18.9093 </r>
       <r>    -7.7462     2.6907    19.0943 </r>
       <r>    -7.6775     1.4853    19.1964 </r>
       <r>    -7.6088     0.1402    19.2060 </r>
       <r>    -7.5400     3.4853    19.4456 </r>
       <r>    -7.4713    12.9397    20.3351 </r>
       <r>    -7.4025    10.7927    21.0770 </r>
       <r>    -7.3338     3.3758    21.3091 </r>
       <r>    -7.2650     2.7376    21.4973 </r>
       <r>    -7.1963     7.6380    22.0224 </r>
       <r>    -7.1276     5.1452    22.3761 </r>
       <r>    -7.0588     1.6454    22.4892 </r>
       <r>    -6.9901     9.4430    23.1383 </r>
       <r>    -6.9213     9.7719    23.8101 </r>
       <r>    -6.8526     1.8676    23.9384 </r>
       <r>    -6.7838     3.8648    24.2041 </r>
       <r>    -6.7151     2.3260    24.3640 </r>
       <r>    -6.6464     2.2535    24.5189 </r>
       <r>    -6.5776     0.2102    24.5334 </r>
       <r>    -6.5089     0.3105    24.5547 </r>
       <r>    -6.4401     3.1610    24.7720 </r>
       <r>    -6.3714     5.3368    25.1389 </r>
       <r>    -6.3026     7.7981    25.6750 </r>
       <r>    -6.2339     4.4453    25.9805 </r>
       <r>    -6.1651     0.2824    26.0000 </r>
       <r>    -6.0964     0.0007    26.0000 </r>
       <r>    -6.0277     0.0006    26.0000 </r>
       <r>    -5.9589     0.2533    26.0175 </r>
       <r>    -5.8902     4.5563    26.3307 </r>
       <r>    -5.8214     7.7489    26.8634 </r>
       <r>    -5.7527     5.1825    27.2196 </r>
       <r>    -5.6839     8.3817    27.7958 </r>
       <r>    -5.6152    10.1916    28.4964 </r>
       <r>    -5.5465     7.4834    29.0108 </r>
       <r>    -5.4777     2.4851    29.1817 </r>
       <r>    -5.4090     3.1639    29.3992 </r>
       <r>    -5.3402     2.9298    29.6006 </r>
       <r>    -5.2715     2.3371    29.7612 </r>
       <r>    -5.2027     6.0907    30.1799 </r>
       <r>    -5.1340     7.3130    30.6826 </r>
       <r>    -5.0653     4.1980    30.9712 </r>
       <r>    -4.9965     7.5429    31.4897 </r>
       <r>    -4.9278    12.0999    32.3215 </r>
       <r>    -4.8590     7.3074    32.8239 </r>
       <r>    -4.7903     8.8025    33.4290 </r>
       <r>    -4.7215    10.6954    34.1642 </r>
       <r>    -4.6528     1.5276    34.2692 </r>
       <r>    -4.5841     2.4183    34.4355 </r>
       <r>    -4.5153     8.2017    34.9993 </r>
       <r>    -4.4466    13.2030    35.9069 </r>
       <r>    -4.3778    10.7649    36.6469 </r>
       <r>    -4.3091     2.7949    36.8390 </r>
       <r>    -4.2403     6.4315    37.2812 </r>
       <r>    -4.1716    11.5580    38.0757 </r>
       <r>    -4.1029     5.6664    38.4652 </r>
       <r>    -4.0341     9.3793    39.1100 </r>
       <r>    -3.9654     7.7147    39.6403 </r>
       <r>    -3.8966     4.1415    39.9250 </r>
       <r>    -3.8279     9.9953    40.6121 </r>
       <r>    -3.7591     5.9858    41.0236 </r>
       <r>    -3.6904     9.0131    41.6432 </r>
       <r>    -3.6216     8.2099    42.2076 </r>
       <r>    -3.5529     3.6758    42.4603 </r>
       <r>    -3.4842     5.9403    42.8686 </r>
       <r>    -3.4154     9.4042    43.5151 </r>
       <r>    -3.3467     6.9379    43.9920 </r>
       <r>    -3.2779     5.3673    44.3610 </r>
       <r>    -3.2092     6.4939    44.8074 </r>
       <r>    -3.1404     4.8610    45.1416 </r>
       <r>    -3.0717     5.8305    45.5424 </r>
       <r>    -3.0030     0.8581    45.6014 </r>
       <r>    -2.9342     1.9337    45.7343 </r>
       <r>    -2.8655    10.4181    46.4505 </r>
       <r>    -2.7967     7.1454    46.9417 </r>
       <r>    -2.7280     4.4318    47.2463 </r>
       <r>    -2.6592     4.5839    47.5614 </r>
       <r>    -2.5905     0.5573    47.5997 </r>
       <r>    -2.5218     0.0039    47.6000 </r>
       <r>    -2.4530     0.0549    47.6038 </r>
       <r>    -2.3843     1.9226    47.7359 </r>
       <r>    -2.3155     3.4694    47.9744 </r>
       <r>    -2.2468     0.3702    47.9999 </r>
       <r>    -2.1780     0.0016    48.0000 </r>
       <r>    -2.1093     0.0000    48.0000 </r>
       <r>    -2.0406     0.0000    48.0000 </r>
       <r>    -1.9718     0.0000    48.0000 </r>
       <r>    -1.9031     0.0000    48.0000 </r>
       <r>    -1.8343     0.0000    48.0000 </r>
       <r>    -1.7656     0.0000    48.0000 </r>
       <r>    -1.6968     0.0000    48.0000 </r>
       <r>    -1.6281     0.0000    48.0000 </r>
       <r>    -1.5594     0.0000    48.0000 </r>
       <r>    -1.4906     0.0000    48.0000 </r>
       <r>    -1.4219     0.0000    48.0000 </r>
       <r>    -1.3531     0.0000    48.0000 </r>
       <r>    -1.2844     0.0000    48.0000 </r>
       <r>    -1.2156     0.0000    48.0000 </r>
       <r>    -1.1469     0.0000    48.0000 </r>
       <r>    -1.0782     0.0016    48.0001 </r>
       <r>    -1.0094     0.2186    48.0151 </r>
       <r>    -0.9407     1.2718    48.1026 </r>
       <r>    -0.8719     0.4493    48.1335 </r>
       <r>    -0.8032     0.7265    48.1834 </r>
       <r>    -0.7344     3.1987    48.4033 </r>
       <r>    -0.6657     5.6616    48.7925 </r>
       <r>    -0.5969     5.4750    49.1689 </r>
       <r>    -0.5282     2.3283    49.3289 </r>
       <r>    -0.4595     6.4234    49.7705 </r>
       <r>    -0.3907     4.3837    50.0718 </r>
       <r>    -0.3220     1.0112    50.1413 </r>
       <r>    -0.2532     1.9954    50.2785 </r>
       <r>    -0.1845     1.6902    50.3947 </r>
       <r>    -0.1157     0.0771    50.4000 </r>
       <r>    -0.0470     0.0010    50.4001 </r>
       <r>     0.0217     0.3424    50.4236 </r>
       <r>     0.0905     5.7973    50.8221 </r>
       <r>     0.1592     8.7868    51.4262 </r>
       <r>     0.2280     6.0918    51.8449 </r>
       <r>     0.2967     6.1366    52.2668 </r>
       <r>     0.3655     9.5394    52.9225 </r>
       <r>     0.4342     4.9514    53.2629 </r>
       <r>     0.5029     3.6251    53.5121 </r>
       <r>     0.5717     5.2682    53.8743 </r>
       <r>     0.6404     9.6076    54.5347 </r>
       <r>     0.7092     5.9092    54.9409 </r>
       <r>     0.7779     4.0745    55.2210 </r>
       <r>     0.8467     6.4927    55.6674 </r>
       <r>     0.9154     7.2995    56.1692 </r>
       <r>     0.9841     7.5031    56.6849 </r>
       <r>     1.0529     6.9286    57.1612 </r>
       <r>     1.1216     5.1017    57.5119 </r>
       <r>     1.1904     7.1239    58.0017 </r>
       <r>     1.2591     8.5282    58.5879 </r>
       <r>     1.3279     6.3743    59.0261 </r>
       <r>     1.3966     6.5002    59.4730 </r>
       <r>     1.4653    10.1532    60.1709 </r>
       <r>     1.5341     6.1876    60.5963 </r>
       <r>     1.6028     5.8956    61.0016 </r>
       <r>     1.6716     5.0112    61.3460 </r>
       <r>     1.7403     4.4088    61.6491 </r>
       <r>     1.8091     8.6463    62.2435 </r>
       <r>     1.8778     8.7060    62.8420 </r>
       <r>     1.9465     3.3307    63.0709 </r>
       <r>     2.0153     1.7886    63.1939 </r>
       <r>     2.0840     0.0906    63.2001 </r>
       <r>     2.1528     0.3834    63.2265 </r>
       <r>     2.2215     3.6082    63.4745 </r>
       <r>     2.2903     3.4536    63.7119 </r>
       <r>     2.3590     1.2397    63.7972 </r>
       <r>     2.4278     2.5317    63.9712 </r>
       <r>     2.4965     0.4161    63.9998 </r>
       <r>     2.5652     0.0028    64.0000 </r>
       <r>     2.6340     0.0000    64.0000 </r>
       <r>     2.7027     0.0000    64.0000 </r>
       <r>     2.7715     0.0000    64.0000 </r>
       <r>     2.8402     0.0000    64.0000 </r>
       <r>     2.9090     0.0000    64.0000 </r>
       <r>     2.9777     0.0000    64.0000 </r>
       <r>     3.0464     0.0000    64.0000 </r>
       <r>     3.1152     0.0000    64.0000 </r>
       <r>     3.1839     0.0000    64.0000 </r>
       <r>     3.2527     0.0000    64.0000 </r>
       <r>     3.3214     0.0000    64.0000 </r>
      </set>
     </set>
    </array>
   </total>
  </dos>
 </calculation>
 <structure name="finalpos" >
  <crystal>
   <varray name="basis" >
    <v>       6.01920000       0.00000000       0.00000000 </v>
    <v>       0.00000000      10.14000000       0.00000000 </v>
    <v>       0.00000000       0.00000000      15.00000000 </v>
   </varray>
   <i name="volume">    915.52032000 </i>
   <varray name="rec_basis" >
    <v>       0.16613503       0.00000000       0.00000000 </v>
    <v>       0.00000000       0.09861933       0.00000000 </v>
    <v>       0.00000000       0.00000000       0.06666667 </v>
   </varray>
  </crystal>
  <varray name="positions" >
   <v>       0.34176744       0.86319265       0.24556459 </v>
   <v>       0.84024875       0.86325318       0.24580877 </v>
   <v>       0.32788601       0.61426608       0.28830266 </v>
   <v>       0.85454888       0.61424887       0.28823968 </v>
   <v>       0.33437010       0.36368240       0.25530487 </v>
   <v>       0.84792340       0.36368733       0.25515012 </v>
   <v>       0.34036239       0.10731376       0.23806990 </v>
   <v>       0.84199417       0.10732791       0.23785248 </v>
   <v>       0.09108445       0.98603911       0.23670566 </v>
   <v>       0.59112235       0.98703768       0.24107831 </v>
   <v>       0.09116687       0.48610332       0.24909377 </v>
   <v>       0.59122965       0.48207308       0.30064779 </v>
   <v>       0.09170311       0.64349602       0.45013016 </v>
   <v>       0.59134768       0.45568393       0.37284558 </v>
   <v>       0.09321562       0.80788817       0.46520566 </v>
  </varray>
  <varray name="selective"  type="logical" >
   <v type="logical" >  T  T  T </v>
   <v type="logical" >  T  T  T </v>
   <v type="logical" >  T  T  T </v>
   <v type="logical" >  T  T  T </v>
   <v type="logical" >  T  T  T </v>
   <v type="logical" >  T  T  T </v>
   <v type="logical" >  T  T  T </v>
   <v type="logical" >  T  T  T </v>
   <v type="logical" >  T  T  T </v>
   <v type="logical" >  T  T  T </v>
   <v type="logical" >  T  T  T </v>
   <v type="logical" >  T  T  T </v>
   <v type="logical" >  T  T  T </v>
   <v type="logical" >  T  T  T </v>
   <v type="logical" >  T  T  T </v>
  </varray>
  <nose>
   <v>      -3.00000000       0.00000000       0.00010000       0.00010000 </v>
  </nose>
 </structure>
</modeling>
