Al2C                                    
   1.0000000000000000     
     6.0191999999999997    0.0000000000000000    0.0000000000000000
     0.0000000000000000   10.1400000000000006    0.0000000000000000
     0.0000000000000000    0.0000000000000000   15.0000000000000000
   Al   C    O    H 
     8     4     1     2
Selective dynamics
Direct
  0.4633290732159661  0.8177325360261077  0.2954870964105298   T   T   T
  0.9645446648550186  0.8196173229284580  0.2352332696234573   T   T   T
  0.4637915590670112  0.5568929552696761  0.2765157796620979   T   T   T
  0.9638250875230668  0.5569205088133794  0.2260105784424180   T   T   T
  0.4643619229668386  0.3179301956360729  0.2256506929095333   T   T   T
  0.9644354646855000  0.3194862633434011  0.2755799873080158   T   T   T
  0.4651696982138857  0.0531351771001318  0.2321095088708892   T   T   T
  0.9662901046318026  0.0581056267064416  0.2838911580871391   T   T   T
  0.2152665193697601  0.9371985086796935  0.2623414196109107   T   T   T
  0.7151903805102720  0.9379571400802379  0.2652020232510962   T   T   T
  0.2143365726185081  0.4374980692069362  0.2494350135463571   T   T   T
  0.7139120390704914  0.4374545100798264  0.2501532006792865   T   T   T
  0.5003233350702587  0.8491021902509043  0.4373679326348442   T   T   T
  0.6164268987984307  0.9169031433244798  0.4294049714073766   T   T   T
  0.3695675459635288  0.8959593436785067  0.4598173675560303   T   T   T

  0.00000000E+00  0.00000000E+00  0.00000000E+00
  0.00000000E+00  0.00000000E+00  0.00000000E+00
  0.00000000E+00  0.00000000E+00  0.00000000E+00
  0.00000000E+00  0.00000000E+00  0.00000000E+00
  0.00000000E+00  0.00000000E+00  0.00000000E+00
  0.00000000E+00  0.00000000E+00  0.00000000E+00
  0.00000000E+00  0.00000000E+00  0.00000000E+00
  0.00000000E+00  0.00000000E+00  0.00000000E+00
  0.00000000E+00  0.00000000E+00  0.00000000E+00
  0.00000000E+00  0.00000000E+00  0.00000000E+00
  0.00000000E+00  0.00000000E+00  0.00000000E+00
  0.00000000E+00  0.00000000E+00  0.00000000E+00
  0.00000000E+00  0.00000000E+00  0.00000000E+00
  0.00000000E+00  0.00000000E+00  0.00000000E+00
  0.00000000E+00  0.00000000E+00  0.00000000E+00
