  15  15   0   0
  0.6103469E+02  0.6019200E-09  0.1014000E-08  0.1500000E-08  0.3500000E-15
   1.0000000000000000E-004
  CAR 
 Al2C                                    
      2.46875776    -26.44100604  301     -1.66895218      1.00000000
    -26.441  0.0000E+00  0.0000E+00
    -26.345  0.0000E+00  0.0000E+00
    -26.248  0.0000E+00  0.0000E+00
    -26.152  0.0000E+00  0.0000E+00
    -26.056  0.0000E+00  0.0000E+00
    -25.959  0.0000E+00  0.0000E+00
    -25.863  0.0000E+00  0.0000E+00
    -25.766  0.0000E+00  0.0000E+00
    -25.670  0.0000E+00  0.0000E+00
    -25.574  0.0000E+00  0.0000E+00
    -25.477  0.0000E+00  0.0000E+00
    -25.381  0.1698E-13  0.1637E-14
    -25.285  0.2097E-06  0.2021E-07
    -25.188  0.2136E-02  0.2058E-03
    -25.092  0.4137E-01  0.4193E-02
    -24.996  0.8374E-02  0.4999E-02
    -24.899  0.5293E-05  0.5000E-02
    -24.803  0.3108E-11  0.5000E-02
    -24.706  0.0000E+00  0.5000E-02
    -24.610  0.0000E+00  0.5000E-02
    -24.514  0.0000E+00  0.5000E-02
    -24.417  0.0000E+00  0.5000E-02
    -24.321  0.0000E+00  0.5000E-02
    -24.225  0.0000E+00  0.5000E-02
    -24.128  0.0000E+00  0.5000E-02
    -24.032  0.0000E+00  0.5000E-02
    -23.935  0.0000E+00  0.5000E-02
    -23.839  0.0000E+00  0.5000E-02
    -23.743  0.0000E+00  0.5000E-02
    -23.646  0.0000E+00  0.5000E-02
    -23.550  0.0000E+00  0.5000E-02
    -23.454  0.0000E+00  0.5000E-02
    -23.357  0.0000E+00  0.5000E-02
    -23.261  0.0000E+00  0.5000E-02
    -23.165  0.0000E+00  0.5000E-02
    -23.068  0.0000E+00  0.5000E-02
    -22.972  0.0000E+00  0.5000E-02
    -22.875  0.0000E+00  0.5000E-02
    -22.779  0.0000E+00  0.5000E-02
    -22.683  0.0000E+00  0.5000E-02
    -22.586  0.0000E+00  0.5000E-02
    -22.490  0.0000E+00  0.5000E-02
    -22.394  0.0000E+00  0.5000E-02
    -22.297  0.0000E+00  0.5000E-02
    -22.201  0.0000E+00  0.5000E-02
    -22.105  0.0000E+00  0.5000E-02
    -22.008  0.0000E+00  0.5000E-02
    -21.912  0.0000E+00  0.5000E-02
    -21.815  0.0000E+00  0.5000E-02
    -21.719  0.0000E+00  0.5000E-02
    -21.623  0.0000E+00  0.5000E-02
    -21.526  0.0000E+00  0.5000E-02
    -21.430  0.0000E+00  0.5000E-02
    -21.334  0.0000E+00  0.5000E-02
    -21.237  0.0000E+00  0.5000E-02
    -21.141  0.0000E+00  0.5000E-02
    -21.045  0.0000E+00  0.5000E-02
    -20.948  0.0000E+00  0.5000E-02
    -20.852  0.0000E+00  0.5000E-02
    -20.755  0.0000E+00  0.5000E-02
    -20.659  0.0000E+00  0.5000E-02
    -20.563  0.0000E+00  0.5000E-02
    -20.466  0.0000E+00  0.5000E-02
    -20.370  0.0000E+00  0.5000E-02
    -20.274  0.0000E+00  0.5000E-02
    -20.177  0.0000E+00  0.5000E-02
    -20.081  0.0000E+00  0.5000E-02
    -19.984  0.0000E+00  0.5000E-02
    -19.888  0.0000E+00  0.5000E-02
    -19.792  0.0000E+00  0.5000E-02
    -19.695  0.0000E+00  0.5000E-02
    -19.599  0.0000E+00  0.5000E-02
    -19.503  0.0000E+00  0.5000E-02
    -19.406  0.0000E+00  0.5000E-02
    -19.310  0.0000E+00  0.5000E-02
    -19.214  0.0000E+00  0.5000E-02
    -19.117  0.0000E+00  0.5000E-02
    -19.021  0.0000E+00  0.5000E-02
    -18.924  0.0000E+00  0.5000E-02
    -18.828  0.0000E+00  0.5000E-02
    -18.732  0.0000E+00  0.5000E-02
    -18.635  0.0000E+00  0.5000E-02
    -18.539  0.0000E+00  0.5000E-02
    -18.443  0.0000E+00  0.5000E-02
    -18.346  0.0000E+00  0.5000E-02
    -18.250  0.0000E+00  0.5000E-02
    -18.154  0.0000E+00  0.5000E-02
    -18.057  0.0000E+00  0.5000E-02
    -17.961  0.0000E+00  0.5000E-02
    -17.864  0.0000E+00  0.5000E-02
    -17.768  0.0000E+00  0.5000E-02
    -17.672  0.0000E+00  0.5000E-02
    -17.575  0.0000E+00  0.5000E-02
    -17.479  0.0000E+00  0.5000E-02
    -17.383  0.0000E+00  0.5000E-02
    -17.286  0.0000E+00  0.5000E-02
    -17.190  0.0000E+00  0.5000E-02
    -17.094  0.0000E+00  0.5000E-02
    -16.997  0.0000E+00  0.5000E-02
    -16.901  0.0000E+00  0.5000E-02
    -16.804  0.0000E+00  0.5000E-02
    -16.708  0.0000E+00  0.5000E-02
    -16.612  0.0000E+00  0.5000E-02
    -16.515  0.0000E+00  0.5000E-02
    -16.419  0.0000E+00  0.5000E-02
    -16.323  0.0000E+00  0.5000E-02
    -16.226  0.0000E+00  0.5000E-02
    -16.130  0.0000E+00  0.5000E-02
    -16.033  0.0000E+00  0.5000E-02
    -15.937  0.0000E+00  0.5000E-02
    -15.841  0.0000E+00  0.5000E-02
    -15.744  0.0000E+00  0.5000E-02
    -15.648  0.0000E+00  0.5000E-02
    -15.552  0.0000E+00  0.5000E-02
    -15.455  0.0000E+00  0.5000E-02
    -15.359  0.0000E+00  0.5000E-02
    -15.263  0.0000E+00  0.5000E-02
    -15.166  0.0000E+00  0.5000E-02
    -15.070  0.0000E+00  0.5000E-02
    -14.973  0.0000E+00  0.5000E-02
    -14.877  0.0000E+00  0.5000E-02
    -14.781  0.0000E+00  0.5000E-02
    -14.684  0.0000E+00  0.5000E-02
    -14.588  0.0000E+00  0.5000E-02
    -14.492  0.0000E+00  0.5000E-02
    -14.395  0.0000E+00  0.5000E-02
    -14.299  0.0000E+00  0.5000E-02
    -14.203  0.0000E+00  0.5000E-02
    -14.106  0.0000E+00  0.5000E-02
    -14.010  0.0000E+00  0.5000E-02
    -13.913  0.0000E+00  0.5000E-02
    -13.817  0.0000E+00  0.5000E-02
    -13.721  0.0000E+00  0.5000E-02
    -13.624  0.2202E-12  0.5000E-02
    -13.528  0.3897E-06  0.5000E-02
    -13.432  0.8392E-03  0.5081E-02
    -13.335  0.9451E-02  0.5992E-02
    -13.239  0.2381E-01  0.8286E-02
    -13.143  0.1763E-01  0.9985E-02
    -13.046  0.2949E-01  0.1283E-01
    -12.950  0.4921E-02  0.1330E-01
    -12.853  0.2692E-01  0.1590E-01
    -12.757  0.2094E-01  0.1791E-01
    -12.661  0.1840E-01  0.1969E-01
    -12.564  0.3251E-02  0.2000E-01
    -12.468  0.3820E-05  0.2000E-01
    -12.372  0.1128E-04  0.2000E-01
    -12.275  0.4897E-02  0.2047E-01
    -12.179  0.2288E-01  0.2268E-01
    -12.082  0.1341E-01  0.2397E-01
    -11.986  0.3120E-03  0.2400E-01
    -11.890  0.2276E-07  0.2400E-01
    -11.793  0.1467E-09  0.2400E-01
    -11.697  0.2497E-04  0.2400E-01
    -11.601  0.7355E-02  0.2471E-01
    -11.504  0.2803E-01  0.2741E-01
    -11.408  0.6079E-02  0.2800E-01
    -11.312  0.3513E-04  0.2800E-01
    -11.215  0.5213E-02  0.2850E-01
    -11.119  0.1454E-01  0.2991E-01
    -11.022  0.9822E-03  0.3000E-01
    -10.926  0.2977E-06  0.3000E-01
    -10.830  0.1062E-12  0.3000E-01
    -10.733  0.0000E+00  0.3000E-01
    -10.637  0.0000E+00  0.3000E-01
    -10.541  0.0000E+00  0.3000E-01
    -10.444  0.0000E+00  0.3000E-01
    -10.348  0.0000E+00  0.3000E-01
    -10.252  0.0000E+00  0.3000E-01
    -10.155  0.0000E+00  0.3000E-01
    -10.059  0.9305E-15  0.3000E-01
     -9.962  0.2177E-07  0.3000E-01
     -9.866  0.5468E-03  0.3005E-01
     -9.770  0.3162E-01  0.3310E-01
     -9.673  0.1963E-01  0.3499E-01
     -9.577  0.8406E-04  0.3500E-01
     -9.481  0.5150E-09  0.3500E-01
     -9.384  0.3072E-17  0.3500E-01
     -9.288  0.0000E+00  0.3500E-01
     -9.192  0.0000E+00  0.3500E-01
     -9.095  0.0000E+00  0.3500E-01
     -8.999  0.0000E+00  0.3500E-01
     -8.902  0.0000E+00  0.3500E-01
     -8.806  0.0000E+00  0.3500E-01
     -8.710  0.1114E-16  0.3500E-01
     -8.613  0.7107E-09  0.3500E-01
     -8.517  0.4021E-04  0.3500E-01
     -8.421  0.4713E-02  0.3546E-01
     -8.324  0.5560E-02  0.3599E-01
     -8.228  0.2491E-03  0.3602E-01
     -8.131  0.1648E-01  0.3761E-01
     -8.035  0.1705E-01  0.3925E-01
     -7.939  0.1879E-01  0.4106E-01
     -7.842  0.1256E-01  0.4227E-01
     -7.746  0.4225E-02  0.4268E-01
     -7.650  0.9123E-02  0.4356E-01
     -7.553  0.2367E-01  0.4584E-01
     -7.457  0.1574E-01  0.4735E-01
     -7.361  0.4509E-02  0.4779E-01
     -7.264  0.1659E-01  0.4939E-01
     -7.168  0.1552E-01  0.5088E-01
     -7.071  0.1222E-02  0.5100E-01
     -6.975  0.1904E-02  0.5118E-01
     -6.879  0.6020E-02  0.5176E-01
     -6.782  0.1538E-01  0.5325E-01
     -6.686  0.5812E-02  0.5381E-01
     -6.590  0.1171E-01  0.5493E-01
     -6.493  0.1110E-01  0.5600E-01
     -6.397  0.1164E-01  0.5713E-01
     -6.301  0.1229E-01  0.5831E-01
     -6.204  0.2799E-03  0.5834E-01
     -6.108  0.5502E-02  0.5887E-01
     -6.011  0.1675E-01  0.6048E-01
     -5.915  0.8616E-02  0.6131E-01
     -5.819  0.6356E-02  0.6192E-01
     -5.722  0.2403E-02  0.6216E-01
     -5.626  0.2331E-01  0.6440E-01
     -5.530  0.1257E-01  0.6561E-01
     -5.433  0.8506E-02  0.6643E-01
     -5.337  0.5720E-02  0.6698E-01
     -5.241  0.1575E-02  0.6714E-01
     -5.144  0.2366E-02  0.6736E-01
     -5.048  0.1771E-01  0.6907E-01
     -4.951  0.1121E-01  0.7015E-01
     -4.855  0.2720E-02  0.7041E-01
     -4.759  0.1690E-01  0.7204E-01
     -4.662  0.1895E-01  0.7387E-01
     -4.566  0.3200E-01  0.7695E-01
     -4.470  0.1098E-01  0.7801E-01
     -4.373  0.1979E-01  0.7992E-01
     -4.277  0.2550E-01  0.8237E-01
     -4.180  0.3732E-01  0.8597E-01
     -4.084  0.4497E-02  0.8640E-01
     -3.988  0.1126E-01  0.8749E-01
     -3.891  0.4750E-02  0.8795E-01
     -3.795  0.1398E-01  0.8929E-01
     -3.699  0.1478E-01  0.9072E-01
     -3.602  0.1151E-01  0.9183E-01
     -3.506  0.1866E-01  0.9363E-01
     -3.410  0.2162E-01  0.9571E-01
     -3.313  0.1628E-01  0.9728E-01
     -3.217  0.3329E-01  0.1005E+00
     -3.120  0.3850E-01  0.1042E+00
     -3.024  0.8333E-02  0.1050E+00
     -2.928  0.2989E-02  0.1053E+00
     -2.831  0.2176E-01  0.1074E+00
     -2.735  0.4528E-02  0.1078E+00
     -2.639  0.2001E-01  0.1097E+00
     -2.542  0.3763E-01  0.1134E+00
     -2.446  0.2386E-01  0.1157E+00
     -2.350  0.9742E-02  0.1166E+00
     -2.253  0.7379E-02  0.1173E+00
     -2.157  0.5085E-02  0.1178E+00
     -2.060  0.6705E-02  0.1185E+00
     -1.964  0.9630E-02  0.1194E+00
     -1.868  0.6192E-02  0.1200E+00
     -1.771  0.1744E-03  0.1200E+00
     -1.675  0.9780E-08  0.1200E+00
     -1.579  0.4409E-15  0.1200E+00
     -1.482  0.0000E+00  0.1200E+00
     -1.386  0.4424E-14  0.1200E+00
     -1.290  0.4279E-07  0.1200E+00
     -1.193  0.3455E-03  0.1200E+00
     -1.097  0.5615E-02  0.1206E+00
     -1.000  0.5926E-02  0.1211E+00
     -0.904  0.1669E-01  0.1228E+00
     -0.808  0.9822E-02  0.1237E+00
     -0.711  0.5091E-02  0.1242E+00
     -0.615  0.1976E-01  0.1261E+00
     -0.519  0.1240E-01  0.1273E+00
     -0.422  0.1472E-01  0.1287E+00
     -0.326  0.7326E-02  0.1294E+00
     -0.229  0.1719E-01  0.1311E+00
     -0.133  0.1622E-01  0.1326E+00
     -0.037  0.2022E-01  0.1346E+00
      0.060  0.2504E-01  0.1370E+00
      0.156  0.1919E-01  0.1388E+00
      0.252  0.2115E-01  0.1409E+00
      0.349  0.1728E-01  0.1425E+00
      0.445  0.8684E-02  0.1434E+00
      0.541  0.3168E-01  0.1464E+00
      0.638  0.1625E-01  0.1480E+00
      0.734  0.1730E-01  0.1497E+00
      0.831  0.3020E-01  0.1526E+00
      0.927  0.2874E-01  0.1554E+00
      1.023  0.2504E-01  0.1578E+00
      1.120  0.1680E-01  0.1594E+00
      1.216  0.6114E-02  0.1600E+00
      1.312  0.2866E-03  0.1600E+00
      1.409  0.2833E-07  0.1600E+00
      1.505  0.2312E-14  0.1600E+00
      1.601  0.0000E+00  0.1600E+00
      1.698  0.0000E+00  0.1600E+00
      1.794  0.0000E+00  0.1600E+00
      1.891  0.0000E+00  0.1600E+00
      1.987  0.0000E+00  0.1600E+00
      2.083  0.0000E+00  0.1600E+00
      2.180  0.0000E+00  0.1600E+00
      2.276  0.0000E+00  0.1600E+00
      2.372  0.0000E+00  0.1600E+00
      2.469  0.0000E+00  0.1600E+00
