   15   15  400    1
  0.6103469E+02  0.6019200E-09  0.1014000E-08  0.1500000E-08  0.3500000E-15
   1.0000000000000000E-004
  CAR 
 Al2C                                    
     48      8     32

  0.3742002E-15  0.3742002E-15  0.1262379E-14  0.6666667E-01
    1      -25.126894   1.000000
    2      -13.396948   1.000000
    3      -13.228630   1.000000
    4      -12.916007   1.000000
    5      -11.216467   1.000000
    6      -11.157906   1.000000
    7       -9.800263   1.000000
    8       -8.434067   1.000000
    9       -8.148711   1.000000
   10       -8.036623   1.000000
   11       -7.555710   1.000000
   12       -6.015138   1.000000
   13       -5.593014   1.000000
   14       -5.232192   1.000000
   15       -4.948072   1.000000
   16       -4.402741   1.000000
   17       -4.258496   1.000000
   18       -3.808314   1.000000
   19       -3.455389   1.000000
   20       -2.519968   1.000000
   21       -2.497715   1.000000
   22       -2.342049   1.000000
   23       -2.143184   1.000000
   24       -2.040159   1.000000
   25       -0.987138   0.000000
   26       -0.770414   0.000000
   27       -0.179295   0.000000
   28       -0.112002   0.000000
   29       -0.059491   0.000000
   30        0.054028   0.000000
   31        0.711947   0.000000
   32        0.741935   0.000000

  0.2000000E+00  0.3742002E-15  0.1262379E-14  0.1333333E+00
    1      -25.126895   1.000000
    2      -13.289895   1.000000
    3      -13.118642   1.000000
    4      -12.891683   1.000000
    5      -11.599298   1.000000
    6      -11.510598   1.000000
    7       -9.785179   1.000000
    8       -8.145007   1.000000
    9       -7.887933   1.000000
   10       -7.583555   1.000000
   11       -7.270832   1.000000
   12       -5.961210   1.000000
   13       -5.861229   1.000000
   14       -5.484635   1.000000
   15       -4.708913   1.000000
   16       -4.546132   1.000000
   17       -4.229553   1.000000
   18       -3.727286   1.000000
   19       -3.209250   1.000000
   20       -3.170307   1.000000
   21       -3.150237   1.000000
   22       -2.854418   1.000000
   23       -2.556975   1.000000
   24       -1.936910   1.000000
   25       -1.134976   0.000000
   26       -0.610541   0.000000
   27       -0.065854   0.000000
   28        0.178614   0.000000
   29        0.262576   0.000000
   30        0.721029   0.000000
   31        0.872487   0.000000
   32        1.035312   0.000000

  0.4000000E+00  0.3742002E-15  0.1262379E-14  0.1333333E+00
    1      -25.126866   1.000000
    2      -13.098636   1.000000
    3      -12.817238   1.000000
    4      -12.680617   1.000000
    5      -12.266341   1.000000
    6      -12.145642   1.000000
    7       -9.772058   1.000000
    8       -7.981876   1.000000
    9       -7.460443   1.000000
   10       -6.787637   1.000000
   11       -6.410092   1.000000
   12       -6.113597   1.000000
   13       -5.564203   1.000000
   14       -5.406195   1.000000
   15       -5.052893   1.000000
   16       -4.605962   1.000000
   17       -4.323214   1.000000
   18       -4.286775   1.000000
   19       -4.239890   1.000000
   20       -3.882984   1.000000
   21       -3.595143   1.000000
   22       -3.231936   1.000000
   23       -2.406640   1.000000
   24       -2.003308   1.000000
   25       -0.968614   0.000000
   26       -0.424448   0.000000
   27        0.035046   0.000000
   28        0.484489   0.000000
   29        0.511490   0.000000
   30        0.754320   0.000000
   31        0.858193   0.000000
   32        1.154678   0.000000

  0.3742002E-15  0.3333333E+00  0.1262379E-14  0.1333333E+00
    1      -25.126926   1.000000
    2      -13.369554   1.000000
    3      -13.258610   1.000000
    4      -12.918375   1.000000
    5      -11.202430   1.000000
    6      -11.172562   1.000000
    7       -9.796470   1.000000
    8       -8.408180   1.000000
    9       -8.142916   1.000000
   10       -7.842691   1.000000
   11       -7.547296   1.000000
   12       -6.954023   1.000000
   13       -5.076168   1.000000
   14       -4.801899   1.000000
   15       -4.676952   1.000000
   16       -4.461520   1.000000
   17       -4.338763   1.000000
   18       -3.679015   1.000000
   19       -3.459550   1.000000
   20       -2.891522   1.000000
   21       -2.515556   1.000000
   22       -2.502301   1.000000
   23       -2.327001   1.000000
   24       -2.160646   1.000000
   25       -0.987312   0.000000
   26       -0.682471   0.000000
   27       -0.426363   0.000000
   28       -0.117932   0.000000
   29        0.034357   0.000000
   30        0.417834   0.000000
   31        0.487002   0.000000
   32        0.909510   0.000000

  0.2000000E+00  0.3333333E+00  0.1262379E-14  0.1333333E+00
    1      -25.126781   1.000000
    2      -13.268271   1.000000
    3      -13.139866   1.000000
    4      -12.896256   1.000000
    5      -11.577855   1.000000
    6      -11.533418   1.000000
    7       -9.781951   1.000000
    8       -8.121545   1.000000
    9       -7.661776   1.000000
   10       -7.566566   1.000000
   11       -7.313557   1.000000
   12       -6.827364   1.000000
   13       -5.671077   1.000000
   14       -5.059594   1.000000
   15       -4.610892   1.000000
   16       -4.413046   1.000000
   17       -4.260986   1.000000
   18       -3.369243   1.000000
   19       -3.249980   1.000000
   20       -3.185891   1.000000
   21       -3.128733   1.000000
   22       -2.894068   1.000000
   23       -2.635449   1.000000
   24       -2.567216   1.000000
   25       -0.884629   0.000000
   26       -0.511072   0.000000
   27       -0.279765   0.000000
   28        0.108803   0.000000
   29        0.297078   0.000000
   30        0.547034   0.000000
   31        0.744379   0.000000
   32        0.982578   0.000000

  0.4000000E+00  0.3333333E+00  0.1262379E-14  0.1333333E+00
    1      -25.126730   1.000000
    2      -13.095511   1.000000
    3      -12.796616   1.000000
    4      -12.707644   1.000000
    5      -12.238841   1.000000
    6      -12.176169   1.000000
    7       -9.769980   1.000000
    8       -7.969655   1.000000
    9       -7.217593   1.000000
   10       -6.643760   1.000000
   11       -6.511273   1.000000
   12       -6.376512   1.000000
   13       -6.066655   1.000000
   14       -5.660766   1.000000
   15       -4.787800   1.000000
   16       -4.639194   1.000000
   17       -4.210459   1.000000
   18       -4.027328   1.000000
   19       -3.797480   1.000000
   20       -3.575947   1.000000
   21       -3.475740   1.000000
   22       -3.279430   1.000000
   23       -2.693187   1.000000
   24       -2.587833   1.000000
   25       -0.649051   0.000000
   26       -0.222470   0.000000
   27       -0.028985   0.000000
   28        0.211329   0.000000
   29        0.524299   0.000000
   30        0.810467   0.000000
   31        0.924349   0.000000
   32        1.037377   0.000000

 -0.4000000E+00  0.3333333E+00  0.1262379E-14  0.1333333E+00
    1      -25.126753   1.000000
    2      -13.095597   1.000000
    3      -12.796624   1.000000
    4      -12.707696   1.000000
    5      -12.238842   1.000000
    6      -12.176162   1.000000
    7       -9.769882   1.000000
    8       -7.970383   1.000000
    9       -7.214227   1.000000
   10       -6.639699   1.000000
   11       -6.523223   1.000000
   12       -6.374386   1.000000
   13       -6.064658   1.000000
   14       -5.659789   1.000000
   15       -4.786918   1.000000
   16       -4.640762   1.000000
   17       -4.212249   1.000000
   18       -4.026468   1.000000
   19       -3.801111   1.000000
   20       -3.558520   1.000000
   21       -3.476910   1.000000
   22       -3.289952   1.000000
   23       -2.690118   1.000000
   24       -2.590624   1.000000
   25       -0.656940   0.000000
   26       -0.223740   0.000000
   27       -0.015117   0.000000
   28        0.202849   0.000000
   29        0.540252   0.000000
   30        0.797881   0.000000
   31        0.909364   0.000000
   32        1.066773   0.000000

 -0.2000000E+00  0.3333333E+00  0.1262379E-14  0.1333333E+00
    1      -25.126799   1.000000
    2      -13.268236   1.000000
    3      -13.139926   1.000000
    4      -12.896245   1.000000
    5      -11.577935   1.000000
    6      -11.533337   1.000000
    7       -9.781972   1.000000
    8       -8.122428   1.000000
    9       -7.663144   1.000000
   10       -7.562862   1.000000
   11       -7.312534   1.000000
   12       -6.830063   1.000000
   13       -5.672665   1.000000
   14       -5.059236   1.000000
   15       -4.612501   1.000000
   16       -4.411349   1.000000
   17       -4.258815   1.000000
   18       -3.368263   1.000000
   19       -3.257298   1.000000
   20       -3.184308   1.000000
   21       -3.125186   1.000000
   22       -2.879436   1.000000
   23       -2.644576   1.000000
   24       -2.570891   1.000000
   25       -0.893960   0.000000
   26       -0.519942   0.000000
   27       -0.257720   0.000000
   28        0.098483   0.000000
   29        0.307584   0.000000
   30        0.556442   0.000000
   31        0.728278   0.000000
   32        0.963779   0.000000
