       N       E                     dE             d eps       ncg     rms          rms(c)
DAV:   1     0.338666946490E+03    0.33867E+03   -0.13718E+04   544   0.924E+02
DAV:   2     0.257897288380E+02   -0.31288E+03   -0.29220E+03   736   0.219E+02
DAV:   3    -0.738562589367E+02   -0.99646E+02   -0.98611E+02   776   0.115E+02
DAV:   4    -0.784711654871E+02   -0.46149E+01   -0.46053E+01   656   0.310E+01
DAV:   5    -0.786428486842E+02   -0.17168E+00   -0.17164E+00   768   0.626E+00
DAV:   6    -0.786461359787E+02   -0.32873E-02   -0.32870E-02   712   0.104E+00
DAV:   7    -0.786462470884E+02   -0.11111E-03   -0.11110E-03   768   0.151E-01    0.239E+01
DAV:   8    -0.549405682297E+02    0.23706E+02   -0.11561E+02   648   0.545E+01    0.102E+01
DAV:   9    -0.548763076801E+02    0.64261E-01   -0.63109E+00   656   0.113E+01    0.680E+00
DAV:  10    -0.542539677611E+02    0.62234E+00   -0.21262E+00   656   0.887E+00    0.102E+00
DAV:  11    -0.541910541201E+02    0.62914E-01   -0.26054E-01   696   0.244E+00    0.771E-01
DAV:  12    -0.541671517863E+02    0.23902E-01   -0.64563E-02   728   0.119E+00    0.537E-01
DAV:  13    -0.541272238062E+02    0.39928E-01   -0.48043E-02   704   0.107E+00    0.233E-01
DAV:  14    -0.541187880594E+02    0.84357E-02   -0.12058E-02   680   0.597E-01    0.221E-01
DAV:  15    -0.541151194630E+02    0.36686E-02   -0.96820E-03   640   0.650E-01    0.182E-01
DAV:  16    -0.541070082476E+02    0.81112E-02   -0.93336E-03   600   0.522E-01    0.460E-02
DAV:  17    -0.541035478195E+02    0.34604E-02   -0.97899E-03   528   0.398E-01    0.302E-02
DAV:  18    -0.541056584993E+02   -0.21107E-02   -0.12422E-03   648   0.153E-01    0.399E-02
DAV:  19    -0.541124261499E+02   -0.67677E-02   -0.24702E-03   568   0.137E-01    0.286E-02
DAV:  20    -0.541141237888E+02   -0.16976E-02   -0.71420E-04   680   0.927E-02    0.159E-02
DAV:  21    -0.541149005745E+02   -0.77679E-03   -0.38676E-04   544   0.573E-02    0.809E-03
DAV:  22    -0.541149483573E+02   -0.47783E-04   -0.24329E-05   544   0.256E-02    0.687E-03
DAV:  23    -0.541149715910E+02   -0.23234E-04   -0.11863E-05   400   0.194E-02    0.377E-03
DAV:  24    -0.541149791935E+02   -0.76026E-05   -0.21254E-06   448   0.860E-03
   1 F= -.54114979E+02 E0= -.54114979E+02  d E =-.541150E+02
       N       E                     dE             d eps       ncg     rms          rms(c)
DAV:   1    -0.541209539353E+02   -0.59823E-02   -0.14981E-01   568   0.252E+00    0.110E-01
DAV:   2    -0.541214253876E+02   -0.47145E-03   -0.56947E-03   640   0.424E-01    0.896E-02
DAV:   3    -0.541213783942E+02    0.46993E-04   -0.36283E-04   800   0.113E-01    0.624E-02
DAV:   4    -0.541213986169E+02   -0.20223E-04   -0.97434E-05   656   0.607E-02    0.294E-02
DAV:   5    -0.541214121686E+02   -0.13552E-04   -0.18829E-05   416   0.287E-02    0.554E-03
DAV:   6    -0.541214134873E+02   -0.13187E-05   -0.57594E-06   440   0.164E-02
   2 F= -.54121413E+02 E0= -.54121413E+02  d E =-.643429E-02
       N       E                     dE             d eps       ncg     rms          rms(c)
DAV:   1    -0.541222658674E+02   -0.85370E-03   -0.50738E-02   568   0.147E+00    0.647E-02
DAV:   2    -0.541224299599E+02   -0.16409E-03   -0.19677E-03   648   0.247E-01    0.526E-02
DAV:   3    -0.541224151733E+02    0.14787E-04   -0.11712E-04   728   0.638E-02    0.370E-02
DAV:   4    -0.541224240571E+02   -0.88838E-05   -0.31102E-05   544   0.357E-02
   3 F= -.54122424E+02 E0= -.54122424E+02  d E =-.744486E-02
       N       E                     dE             d eps       ncg     rms          rms(c)
DAV:   1    -0.541270721051E+02   -0.46569E-02   -0.24049E-01   520   0.331E+00    0.154E-01
DAV:   2    -0.541276632196E+02   -0.59111E-03   -0.69144E-03   632   0.478E-01    0.881E-02
DAV:   3    -0.541276475829E+02    0.15637E-04   -0.15950E-04   728   0.869E-02    0.589E-02
DAV:   4    -0.541276892148E+02   -0.41632E-04   -0.21530E-04   552   0.881E-02    0.133E-02
DAV:   5    -0.541276882894E+02    0.92542E-06   -0.46799E-05   528   0.397E-02
   4 F= -.54127688E+02 E0= -.54127688E+02  d E =-.526423E-02
       N       E                     dE             d eps       ncg     rms          rms(c)
DAV:   1    -0.541292872213E+02   -0.15980E-02   -0.19636E+00   520   0.946E+00    0.438E-01
DAV:   2    -0.541343582185E+02   -0.50710E-02   -0.56476E-02   640   0.138E+00    0.249E-01
DAV:   3    -0.541341782649E+02    0.17995E-03   -0.12786E-03   728   0.242E-01    0.166E-01
DAV:   4    -0.541343128925E+02   -0.13463E-03   -0.16590E-03   576   0.241E-01    0.329E-02
DAV:   5    -0.541343205764E+02   -0.76839E-05   -0.37462E-04   624   0.104E-01    0.263E-02
DAV:   6    -0.541343273492E+02   -0.67727E-05   -0.22592E-05   488   0.308E-02
   5 F= -.54134327E+02 E0= -.54134327E+02  d E =-.119033E-01
       N       E                     dE             d eps       ncg     rms          rms(c)
DAV:   1    -0.541361575776E+02   -0.18370E-02   -0.17879E-02   536   0.876E-01    0.397E-02
DAV:   2    -0.541362021253E+02   -0.44548E-04   -0.52833E-04   648   0.133E-01    0.246E-02
DAV:   3    -0.541362039871E+02   -0.18618E-05   -0.13666E-05   496   0.256E-02
   6 F= -.54136204E+02 E0= -.54136204E+02  d E =-.187664E-02
       N       E                     dE             d eps       ncg     rms          rms(c)
DAV:   1    -0.541408585879E+02   -0.46565E-02   -0.15746E-01   520   0.261E+00    0.119E-01
DAV:   2    -0.541412308201E+02   -0.37223E-03   -0.43657E-03   672   0.386E-01    0.725E-02
DAV:   3    -0.541412306225E+02    0.19761E-06   -0.12608E-04   712   0.719E-02    0.471E-02
DAV:   4    -0.541412738091E+02   -0.43187E-04   -0.10719E-04   584   0.632E-02    0.945E-03
DAV:   5    -0.541412729914E+02    0.81769E-06   -0.19556E-05   520   0.302E-02
   7 F= -.54141273E+02 E0= -.54141273E+02  d E =-.694564E-02
       N       E                     dE             d eps       ncg     rms          rms(c)
DAV:   1    -0.541472254716E+02   -0.59517E-02   -0.63571E-01   520   0.524E+00    0.239E-01
DAV:   2    -0.541488065527E+02   -0.15811E-02   -0.17893E-02   672   0.781E-01    0.147E-01
DAV:   3    -0.541487703371E+02    0.36216E-04   -0.50170E-04   712   0.144E-01    0.958E-02
DAV:   4    -0.541488770918E+02   -0.10675E-03   -0.44774E-04   592   0.126E-01    0.189E-02
DAV:   5    -0.541488735888E+02    0.35029E-05   -0.88838E-05   608   0.626E-02
   8 F= -.54148874E+02 E0= -.54148874E+02  d E =-.145462E-01
       N       E                     dE             d eps       ncg     rms          rms(c)
DAV:   1    -0.541476045536E+02    0.12725E-02   -0.25399E+00   520   0.105E+01    0.477E-01
DAV:   2    -0.541540202582E+02   -0.64157E-02   -0.70954E-02   672   0.156E+00    0.296E-01
DAV:   3    -0.541538809473E+02    0.13931E-03   -0.19549E-03   736   0.279E-01    0.194E-01
DAV:   4    -0.541541655522E+02   -0.28460E-03   -0.17113E-03   616   0.246E-01    0.347E-02
DAV:   5    -0.541541575239E+02    0.80283E-05   -0.33074E-04   592   0.115E-01    0.255E-02
DAV:   6    -0.541541718368E+02   -0.14313E-04   -0.50476E-05   648   0.414E-02    0.162E-02
DAV:   7    -0.541541824215E+02   -0.10585E-04   -0.64437E-06   376   0.242E-02    0.851E-03
DAV:   8    -0.541541989816E+02   -0.16560E-04   -0.90189E-06   344   0.161E-02    0.397E-03
DAV:   9    -0.541542055984E+02   -0.66168E-05   -0.20465E-06   400   0.111E-02
   9 F= -.54154206E+02 E0= -.54154206E+02  d E =-.198782E-01
       N       E                     dE             d eps       ncg     rms          rms(c)
DAV:   1    -0.541585415422E+02   -0.43426E-02   -0.57977E-01   512   0.513E+00    0.212E-01
DAV:   2    -0.541596530782E+02   -0.11115E-02   -0.14031E-02   656   0.705E-01    0.137E-01
DAV:   3    -0.541596199833E+02    0.33095E-04   -0.46755E-04   768   0.137E-01    0.820E-02
DAV:   4    -0.541596572114E+02   -0.37228E-04   -0.23799E-04   512   0.102E-01    0.296E-02
DAV:   5    -0.541596909359E+02   -0.33725E-04   -0.70260E-05   512   0.433E-02    0.154E-02
DAV:   6    -0.541596895101E+02    0.14259E-05   -0.10022E-05   512   0.243E-02
  10 F= -.54159690E+02 E0= -.54159690E+02  d E =-.548391E-02
       N       E                     dE             d eps       ncg     rms          rms(c)
DAV:   1    -0.541584832677E+02    0.12077E-02   -0.33515E+00   512   0.124E+01    0.501E-01
DAV:   2    -0.541651849328E+02   -0.67017E-02   -0.80766E-02   672   0.167E+00    0.343E-01
DAV:   3    -0.541649012940E+02    0.28364E-03   -0.27987E-03   776   0.332E-01    0.210E-01
DAV:   4    -0.541649826236E+02   -0.81330E-04   -0.13678E-03   584   0.239E-01    0.720E-02
DAV:   5    -0.541651094073E+02   -0.12678E-03   -0.43079E-04   592   0.105E-01    0.356E-02
DAV:   6    -0.541650990013E+02    0.10406E-04   -0.67479E-05   736   0.587E-02    0.223E-02
DAV:   7    -0.541651204496E+02   -0.21448E-04   -0.35417E-05   488   0.353E-02    0.790E-03
DAV:   8    -0.541651256791E+02   -0.52295E-05   -0.56628E-06   424   0.202E-02
  11 F= -.54165126E+02 E0= -.54165126E+02  d E =-.109201E-01
       N       E                     dE             d eps       ncg     rms          rms(c)
DAV:   1    -0.541707534124E+02   -0.56330E-02   -0.46984E-01   512   0.474E+00    0.175E-01
DAV:   2    -0.541716230528E+02   -0.86964E-03   -0.11374E-02   616   0.660E-01    0.947E-02
DAV:   3    -0.541715730703E+02    0.49982E-04   -0.36046E-04   752   0.129E-01    0.588E-02
DAV:   4    -0.541716388480E+02   -0.65778E-04   -0.27600E-04   520   0.939E-02    0.186E-02
DAV:   5    -0.541716548569E+02   -0.16009E-04   -0.53410E-05   608   0.406E-02    0.119E-02
DAV:   6    -0.541716655989E+02   -0.10742E-04   -0.77265E-06   336   0.214E-02    0.474E-03
DAV:   7    -0.541716717426E+02   -0.61436E-05   -0.41563E-06   416   0.154E-02
  12 F= -.54171672E+02 E0= -.54171672E+02  d E =-.654606E-02
       N       E                     dE             d eps       ncg     rms          rms(c)
DAV:   1    -0.541742175544E+02   -0.25520E-02   -0.42294E+00   512   0.142E+01    0.529E-01
DAV:   2    -0.541824723153E+02   -0.82548E-02   -0.10332E-01   672   0.202E+00    0.283E-01
DAV:   3    -0.541819189933E+02    0.55332E-03   -0.32047E-03   696   0.386E-01    0.177E-01
DAV:   4    -0.541821405108E+02   -0.22152E-03   -0.26124E-03   640   0.287E-01    0.586E-02
DAV:   5    -0.541822186885E+02   -0.78178E-04   -0.48289E-04   672   0.125E-01    0.374E-02
DAV:   6    -0.541822581152E+02   -0.39427E-04   -0.13285E-04   720   0.773E-02    0.167E-02
DAV:   7    -0.541822657754E+02   -0.76602E-05   -0.15327E-05   424   0.306E-02
  13 F= -.54182266E+02 E0= -.54182266E+02  d E =-.171401E-01
       N       E                     dE             d eps       ncg     rms          rms(c)
DAV:   1    -0.541898164843E+02   -0.75584E-02   -0.76923E-01   512   0.599E+00    0.208E-01
DAV:   2    -0.541913159580E+02   -0.14995E-02   -0.20368E-02   672   0.873E-01    0.161E-01
DAV:   3    -0.541911895971E+02    0.12636E-03   -0.63251E-04   728   0.159E-01    0.122E-01
DAV:   4    -0.541912014269E+02   -0.11830E-04   -0.53889E-04   592   0.138E-01    0.392E-02
DAV:   5    -0.541912329811E+02   -0.31554E-04   -0.16332E-04   680   0.737E-02    0.194E-02
DAV:   6    -0.541912471716E+02   -0.14190E-04   -0.59476E-05   672   0.495E-02    0.121E-02
DAV:   7    -0.541912539674E+02   -0.67958E-05   -0.78350E-06   392   0.207E-02
  14 F= -.54191254E+02 E0= -.54191254E+02  d E =-.898819E-02
       N       E                     dE             d eps       ncg     rms          rms(c)
DAV:   1    -0.541926549717E+02   -0.14078E-02   -0.62327E-01   512   0.538E+00    0.185E-01
DAV:   2    -0.541938710598E+02   -0.12161E-02   -0.16498E-02   672   0.783E-01    0.145E-01
DAV:   3    -0.541937653311E+02    0.10573E-03   -0.49485E-04   736   0.141E-01    0.109E-01
DAV:   4    -0.541937848095E+02   -0.19478E-04   -0.44711E-04   576   0.126E-01    0.335E-02
DAV:   5    -0.541938115252E+02   -0.26716E-04   -0.13165E-04   672   0.653E-02    0.167E-02
DAV:   6    -0.541938244190E+02   -0.12894E-04   -0.39840E-05   584   0.413E-02    0.101E-02
DAV:   7    -0.541938307096E+02   -0.62906E-05   -0.64815E-06   408   0.198E-02
  15 F= -.54193831E+02 E0= -.54193831E+02  d E =-.115649E-01
       N       E                     dE             d eps       ncg     rms          rms(c)
DAV:   1    -0.541994092844E+02   -0.55849E-02   -0.70072E-01   512   0.577E+00    0.178E-01
DAV:   2    -0.542005617597E+02   -0.11525E-02   -0.15540E-02   688   0.759E-01    0.125E-01
DAV:   3    -0.542004557373E+02    0.10602E-03   -0.44042E-04   680   0.134E-01    0.721E-02
DAV:   4    -0.542005078642E+02   -0.52127E-04   -0.41866E-04   552   0.111E-01    0.205E-02
DAV:   5    -0.542005253402E+02   -0.17476E-04   -0.10508E-04   632   0.592E-02    0.162E-02
DAV:   6    -0.542005348102E+02   -0.94699E-05   -0.10429E-05   368   0.185E-02
  16 F= -.54200535E+02 E0= -.54200535E+02  d E =-.670410E-02
       N       E                     dE             d eps       ncg     rms          rms(c)
DAV:   1    -0.542002814048E+02    0.24394E-03   -0.44395E+00   512   0.146E+01    0.445E-01
DAV:   2    -0.542080730161E+02   -0.77916E-02   -0.98390E-02   680   0.191E+00    0.324E-01
DAV:   3    -0.542073562140E+02    0.71680E-03   -0.28391E-03   680   0.339E-01    0.190E-01
DAV:   4    -0.542073640209E+02   -0.78069E-05   -0.28037E-03   632   0.288E-01    0.542E-02
DAV:   5    -0.542074203561E+02   -0.56335E-04   -0.70709E-04   648   0.159E-01    0.389E-02
DAV:   6    -0.542074477036E+02   -0.27347E-04   -0.87083E-05   656   0.467E-02    0.298E-02
DAV:   7    -0.542074731381E+02   -0.25434E-04   -0.39161E-05   552   0.422E-02    0.158E-02
DAV:   8    -0.542074943009E+02   -0.21163E-04   -0.79906E-06   416   0.235E-02    0.623E-03
DAV:   9    -0.542075282102E+02   -0.33909E-04   -0.86954E-06   384   0.164E-02    0.397E-03
DAV:  10    -0.542075824156E+02   -0.54205E-04   -0.22328E-05   504   0.198E-02    0.329E-03
DAV:  11    -0.542076054322E+02   -0.23017E-04   -0.34384E-06   448   0.136E-02    0.183E-03
DAV:  12    -0.542076242528E+02   -0.18821E-04   -0.35091E-06   408   0.989E-03    0.175E-03
DAV:  13    -0.542076337874E+02   -0.95345E-05   -0.12038E-06   448   0.812E-03
  17 F= -.54207634E+02 E0= -.54207634E+02  d E =-.138031E-01
       N       E                     dE             d eps       ncg     rms          rms(c)
DAV:   1    -0.542108396858E+02   -0.32154E-02   -0.72322E-01   520   0.566E+00    0.218E-01
DAV:   2    -0.542121615064E+02   -0.13218E-02   -0.19644E-02   656   0.852E-01    0.170E-01
DAV:   3    -0.542120884094E+02    0.73097E-04   -0.77246E-04   720   0.167E-01    0.124E-01
DAV:   4    -0.542120886729E+02   -0.26352E-06   -0.43859E-04   592   0.142E-01    0.549E-02
DAV:   5    -0.542121316948E+02   -0.43022E-04   -0.16458E-04   528   0.758E-02    0.217E-02
DAV:   6    -0.542121255582E+02    0.61365E-05   -0.54785E-05   664   0.535E-02
  18 F= -.54212126E+02 E0= -.54212126E+02  d E =-.449177E-02
       N       E                     dE             d eps       ncg     rms          rms(c)
DAV:   1    -0.542121491455E+02   -0.17451E-04   -0.31419E-03   520   0.372E-01    0.151E-02
DAV:   2    -0.542121515356E+02   -0.23901E-05   -0.78715E-05   504   0.565E-02
  19 F= -.54212152E+02 E0= -.54212152E+02  d E =-.451775E-02
       N       E                     dE             d eps       ncg     rms          rms(c)
DAV:   1    -0.542140308864E+02   -0.18817E-02   -0.53818E-02   600   0.157E+00    0.746E-02
DAV:   2    -0.542141150596E+02   -0.84173E-04   -0.18464E-03   608   0.302E-01    0.635E-02
DAV:   3    -0.542140985516E+02    0.16508E-04   -0.11562E-04   664   0.683E-02    0.443E-02
DAV:   4    -0.542141013211E+02   -0.27694E-05   -0.33617E-05   448   0.407E-02
  20 F= -.54214101E+02 E0= -.54214101E+02  d E =-.194979E-02
       N       E                     dE             d eps       ncg     rms          rms(c)
DAV:   1    -0.542143423857E+02   -0.24383E-03   -0.14855E-02   608   0.829E-01    0.424E-02
DAV:   2    -0.542143604583E+02   -0.18073E-04   -0.49910E-04   640   0.161E-01    0.309E-02
DAV:   3    -0.542143580298E+02    0.24285E-05   -0.37874E-05   592   0.382E-02
  21 F= -.54214358E+02 E0= -.54214358E+02  d E =-.220649E-02
       N       E                     dE             d eps       ncg     rms          rms(c)
DAV:   1    -0.542156413085E+02   -0.12809E-02   -0.15467E-01   512   0.268E+00    0.879E-02
DAV:   2    -0.542158193353E+02   -0.17803E-03   -0.28202E-03   696   0.310E-01    0.784E-02
DAV:   3    -0.542158100884E+02    0.92470E-05   -0.94196E-05   736   0.607E-02
  22 F= -.54215810E+02 E0= -.54215810E+02  d E =-.145206E-02
       N       E                     dE             d eps       ncg     rms          rms(c)
DAV:   1    -0.542160759409E+02   -0.25661E-03   -0.83610E-02   512   0.198E+00    0.889E-02
DAV:   2    -0.542161342157E+02   -0.58275E-04   -0.14384E-03   696   0.231E-01    0.705E-02
DAV:   3    -0.542161418551E+02   -0.76394E-05   -0.96680E-05   672   0.625E-02
  23 F= -.54216142E+02 E0= -.54216142E+02  d E =-.178383E-02
       N       E                     dE             d eps       ncg     rms          rms(c)
DAV:   1    -0.542169511810E+02   -0.81697E-03   -0.55564E-02   528   0.171E+00    0.575E-02
DAV:   2    -0.542170399373E+02   -0.88756E-04   -0.13273E-03   704   0.225E-01    0.461E-02
DAV:   3    -0.542170328966E+02    0.70407E-05   -0.33137E-05   576   0.388E-02
  24 F= -.54217033E+02 E0= -.54217033E+02  d E =-.891041E-03
       N       E                     dE             d eps       ncg     rms          rms(c)
DAV:   1    -0.542172271392E+02   -0.18720E-03   -0.48448E-02   512   0.160E+00    0.491E-02
DAV:   2    -0.542172938788E+02   -0.66740E-04   -0.10615E-03   704   0.205E-01    0.403E-02
DAV:   3    -0.542172889993E+02    0.48795E-05   -0.27057E-05   552   0.354E-02
  25 F= -.54217289E+02 E0= -.54217289E+02  d E =-.114714E-02
       N       E                     dE             d eps       ncg     rms          rms(c)
DAV:   1    -0.542178340438E+02   -0.54016E-03   -0.34860E-02   528   0.137E+00    0.380E-02
DAV:   2    -0.542178795125E+02   -0.45469E-04   -0.82361E-04   672   0.180E-01    0.352E-02
DAV:   3    -0.542178731346E+02    0.63779E-05   -0.18519E-05   464   0.309E-02
  26 F= -.54217873E+02 E0= -.54217873E+02  d E =-.584135E-03
       N       E                     dE             d eps       ncg     rms          rms(c)
DAV:   1    -0.542180261061E+02   -0.14659E-03   -0.41829E-02   528   0.149E+00    0.420E-02
DAV:   2    -0.542180704578E+02   -0.44352E-04   -0.89829E-04   688   0.191E-01    0.389E-02
DAV:   3    -0.542180638937E+02    0.65641E-05   -0.26770E-05   568   0.342E-02
  27 F= -.54218064E+02 E0= -.54218064E+02  d E =-.774894E-03
       N       E                     dE             d eps       ncg     rms          rms(c)
DAV:   1    -0.542183321916E+02   -0.26173E-03   -0.12142E-02   528   0.778E-01    0.254E-02
DAV:   2    -0.542183424439E+02   -0.10252E-04   -0.24411E-04   664   0.958E-02    0.189E-02
DAV:   3    -0.542183442004E+02   -0.17564E-05   -0.70409E-06   440   0.206E-02
  28 F= -.54218344E+02 E0= -.54218344E+02  d E =-.280307E-03
       N       E                     dE             d eps       ncg     rms          rms(c)
DAV:   1    -0.542184986808E+02   -0.15624E-03   -0.51151E-02   512   0.159E+00    0.510E-02
DAV:   2    -0.542185505511E+02   -0.51870E-04   -0.10536E-03   656   0.200E-01    0.381E-02
DAV:   3    -0.542185463284E+02    0.42226E-05   -0.41640E-05   616   0.451E-02
  29 F= -.54218546E+02 E0= -.54218546E+02  d E =-.482435E-03
       N       E                     dE             d eps       ncg     rms          rms(c)
DAV:   1    -0.542187931137E+02   -0.24256E-03   -0.15267E-02   528   0.884E-01    0.313E-02
DAV:   2    -0.542188152678E+02   -0.22154E-04   -0.35679E-04   680   0.117E-01    0.252E-02
DAV:   3    -0.542188147627E+02    0.50506E-06   -0.10317E-05   448   0.236E-02
  30 F= -.54218815E+02 E0= -.54218815E+02  d E =-.268434E-03
       N       E                     dE             d eps       ncg     rms          rms(c)
DAV:   1    -0.542188765602E+02   -0.61292E-04   -0.13376E-02   528   0.828E-01    0.307E-02
DAV:   2    -0.542188931762E+02   -0.16616E-04   -0.29242E-04   608   0.106E-01    0.246E-02
DAV:   3    -0.542188924132E+02    0.76299E-06   -0.89705E-06   448   0.218E-02
  31 F= -.54218892E+02 E0= -.54218892E+02  d E =-.346085E-03
       N       E                     dE             d eps       ncg     rms          rms(c)
DAV:   1    -0.542190205374E+02   -0.12736E-03   -0.11546E-02   528   0.760E-01    0.337E-02
DAV:   2    -0.542190319476E+02   -0.11410E-04   -0.28479E-04   624   0.107E-01    0.276E-02
DAV:   3    -0.542190299363E+02    0.20113E-05   -0.13059E-05   464   0.243E-02
  32 F= -.54219030E+02 E0= -.54219030E+02  d E =-.137523E-03
       N       E                     dE             d eps       ncg     rms          rms(c)
DAV:   1    -0.542190365476E+02   -0.46000E-05   -0.48040E-04   528   0.157E-01    0.126E-02
DAV:   2    -0.542190364584E+02    0.89236E-07   -0.73517E-06   448   0.208E-02
  33 F= -.54219036E+02 E0= -.54219036E+02  d E =-.144045E-03
       N       E                     dE             d eps       ncg     rms          rms(c)
DAV:   1    -0.542191425839E+02   -0.10604E-03   -0.11764E-02   528   0.761E-01    0.218E-02
DAV:   2    -0.542191554501E+02   -0.12866E-04   -0.22420E-04   576   0.874E-02    0.154E-02
DAV:   3    -0.542191542678E+02    0.11822E-05   -0.64736E-06   448   0.181E-02
  34 F= -.54219154E+02 E0= -.54219154E+02  d E =-.117809E-03
       N       E                     dE             d eps       ncg     rms          rms(c)
DAV:   1    -0.542191759662E+02   -0.20516E-04   -0.68467E-02   512   0.184E+00    0.492E-02
DAV:   2    -0.542192549054E+02   -0.78939E-04   -0.12586E-03   576   0.207E-01    0.386E-02
DAV:   3    -0.542192478455E+02    0.70599E-05   -0.39784E-05   648   0.393E-02
  35 F= -.54219248E+02 E0= -.54219248E+02  d E =-.211387E-03
       N       E                     dE             d eps       ncg     rms          rms(c)
DAV:   1    -0.542193303731E+02   -0.75468E-04   -0.72525E-03   512   0.611E-01    0.207E-02
DAV:   2    -0.542193391045E+02   -0.87315E-05   -0.13249E-04   624   0.694E-02    0.147E-02
DAV:   3    -0.542193399325E+02   -0.82801E-06   -0.34764E-06   408   0.137E-02
  36 F= -.54219340E+02 E0= -.54219340E+02  d E =-.920871E-04
       N       E                     dE             d eps       ncg     rms          rms(c)
DAV:   1    -0.542193497405E+02   -0.10636E-04   -0.67891E-02   512   0.186E+00    0.542E-02
DAV:   2    -0.542194520041E+02   -0.10226E-03   -0.13328E-03   600   0.216E-01    0.389E-02
DAV:   3    -0.542194451260E+02    0.68780E-05   -0.28927E-05   576   0.367E-02
  37 F= -.54219445E+02 E0= -.54219445E+02  d E =-.197281E-03
       N       E                     dE             d eps       ncg     rms          rms(c)
DAV:   1    -0.542195704907E+02   -0.11849E-03   -0.11111E-02   512   0.767E-01    0.206E-02
DAV:   2    -0.542195815858E+02   -0.11095E-04   -0.19273E-04   584   0.879E-02    0.172E-02
DAV:   3    -0.542195803955E+02    0.11903E-05   -0.53525E-06   448   0.180E-02
  38 F= -.54219580E+02 E0= -.54219580E+02  d E =-.135269E-03
       N       E                     dE             d eps       ncg     rms          rms(c)
DAV:   1    -0.542196304928E+02   -0.48907E-04   -0.52271E-02   512   0.165E+00    0.448E-02
DAV:   2    -0.542196883961E+02   -0.57903E-04   -0.91937E-04   584   0.194E-01    0.344E-02
DAV:   3    -0.542196808165E+02    0.75796E-05   -0.34321E-05   592   0.411E-02
  39 F= -.54219681E+02 E0= -.54219681E+02  d E =-.235690E-03
       N       E                     dE             d eps       ncg     rms          rms(c)
DAV:   1    -0.542197772497E+02   -0.88854E-04   -0.35649E-02   512   0.133E+00    0.377E-02
DAV:   2    -0.542198170874E+02   -0.39838E-04   -0.61260E-04   584   0.144E-01    0.279E-02
DAV:   3    -0.542198164113E+02    0.67604E-06   -0.17537E-05   512   0.275E-02
  40 F= -.54219816E+02 E0= -.54219816E+02  d E =-.135595E-03
       N       E                     dE             d eps       ncg     rms          rms(c)
DAV:   1    -0.542196304034E+02    0.18668E-03   -0.26698E-01   512   0.364E+00    0.963E-02
DAV:   2    -0.542199708958E+02   -0.34049E-03   -0.46665E-03   616   0.395E-01    0.767E-02
DAV:   3    -0.542199515963E+02    0.19299E-04   -0.13974E-04   760   0.728E-02    0.497E-02
DAV:   4    -0.542199674384E+02   -0.15842E-04   -0.11599E-04   608   0.673E-02    0.246E-02
DAV:   5    -0.542199784134E+02   -0.10975E-04   -0.28838E-05   448   0.310E-02    0.128E-02
DAV:   6    -0.542199790078E+02   -0.59436E-06   -0.18594E-05   488   0.347E-02
  41 F= -.54219979E+02 E0= -.54219979E+02  d E =-.298191E-03
       N       E                     dE             d eps       ncg     rms          rms(c)
DAV:   1    -0.542200866907E+02   -0.10828E-03   -0.37217E-02   512   0.137E+00    0.397E-02
DAV:   2    -0.542201386369E+02   -0.51946E-04   -0.71110E-04   584   0.157E-01    0.281E-02
DAV:   3    -0.542201351753E+02    0.34616E-05   -0.13851E-05   504   0.273E-02
  42 F= -.54220135E+02 E0= -.54220135E+02  d E =-.156168E-03
       N       E                     dE             d eps       ncg     rms          rms(c)
DAV:   1    -0.542199311486E+02    0.20749E-03   -0.26594E-01   512   0.368E+00    0.106E-01
DAV:   2    -0.542203264578E+02   -0.39531E-03   -0.48930E-03   624   0.414E-01    0.714E-02
DAV:   3    -0.542203016626E+02    0.24795E-04   -0.11328E-04   736   0.710E-02    0.477E-02
DAV:   4    -0.542203240288E+02   -0.22366E-04   -0.18994E-04   584   0.857E-02    0.170E-02
DAV:   5    -0.542203257356E+02   -0.17068E-05   -0.37828E-05   504   0.338E-02
  43 F= -.54220326E+02 E0= -.54220326E+02  d E =-.346728E-03
       N       E                     dE             d eps       ncg     rms          rms(c)
DAV:   1    -0.542204242717E+02   -0.10024E-03   -0.36044E-02   512   0.135E+00    0.411E-02
DAV:   2    -0.542204772408E+02   -0.52969E-04   -0.69743E-04   600   0.162E-01    0.292E-02
DAV:   3    -0.542204735706E+02    0.36702E-05   -0.18086E-05   512   0.315E-02
  44 F= -.54220474E+02 E0= -.54220474E+02  d E =-.147835E-03
       N       E                     dE             d eps       ncg     rms          rms(c)
DAV:   1    -0.542204530225E+02    0.24218E-04   -0.53274E-02   512   0.165E+00    0.505E-02
DAV:   2    -0.542205216860E+02   -0.68664E-04   -0.93946E-04   616   0.189E-01    0.350E-02
DAV:   3    -0.542205188466E+02    0.28394E-05   -0.26480E-05   544   0.362E-02
  45 F= -.54220519E+02 E0= -.54220519E+02  d E =-.193111E-03
       N       E                     dE             d eps       ncg     rms          rms(c)
DAV:   1    -0.542206030457E+02   -0.81360E-04   -0.45244E-02   512   0.149E+00    0.468E-02
DAV:   2    -0.542206655993E+02   -0.62554E-04   -0.81095E-04   600   0.166E-01    0.281E-02
DAV:   3    -0.542206651669E+02    0.43237E-06   -0.20903E-05   512   0.309E-02
  46 F= -.54220665E+02 E0= -.54220665E+02  d E =-.146320E-03
       N       E                     dE             d eps       ncg     rms          rms(c)
DAV:   1    -0.542202915578E+02    0.37404E-03   -0.41258E-01   512   0.450E+00    0.139E-01
DAV:   2    -0.542209086689E+02   -0.61711E-03   -0.74770E-03   640   0.502E-01    0.851E-02
DAV:   3    -0.542208851850E+02    0.23484E-04   -0.19565E-04   752   0.894E-02    0.533E-02
DAV:   4    -0.542209191631E+02   -0.33978E-04   -0.21046E-04   584   0.894E-02    0.187E-02
DAV:   5    -0.542209240810E+02   -0.49178E-05   -0.40870E-05   512   0.347E-02
  47 F= -.54220924E+02 E0= -.54220924E+02  d E =-.405234E-03
       N       E                     dE             d eps       ncg     rms          rms(c)
DAV:   1    -0.542208793273E+02    0.39836E-04   -0.41361E-02   512   0.142E+00    0.448E-02
DAV:   2    -0.542209458135E+02   -0.66486E-04   -0.80544E-04   600   0.163E-01    0.273E-02
DAV:   3    -0.542209439610E+02    0.18525E-05   -0.16635E-05   512   0.293E-02
  48 F= -.54220944E+02 E0= -.54220944E+02  d E =-.425114E-03
       N       E                     dE             d eps       ncg     rms          rms(c)
DAV:   1    -0.542210215634E+02   -0.75750E-04   -0.65388E-02   512   0.179E+00    0.579E-02
DAV:   2    -0.542211325752E+02   -0.11101E-03   -0.13493E-03   616   0.215E-01    0.398E-02
DAV:   3    -0.542211271419E+02    0.54333E-05   -0.27238E-05   528   0.382E-02
  49 F= -.54221127E+02 E0= -.54221127E+02  d E =-.183181E-03
       N       E                     dE             d eps       ncg     rms          rms(c)
DAV:   1    -0.542211369312E+02   -0.43560E-05   -0.20998E-03   536   0.327E-01    0.107E-02
DAV:   2    -0.542211394611E+02   -0.25299E-05   -0.29877E-05   480   0.353E-02
  50 F= -.54221139E+02 E0= -.54221139E+02  d E =-.195500E-03
       N       E                     dE             d eps       ncg     rms          rms(c)
DAV:   1    -0.542212416848E+02   -0.10475E-03   -0.31934E-02   512   0.125E+00    0.418E-02
DAV:   2    -0.542212919419E+02   -0.50257E-04   -0.66028E-04   672   0.152E-01    0.263E-02
DAV:   3    -0.542212910955E+02    0.84639E-06   -0.19653E-05   512   0.320E-02
  51 F= -.54221291E+02 E0= -.54221291E+02  d E =-.151634E-03
       N       E                     dE             d eps       ncg     rms          rms(c)
DAV:   1    -0.542212989976E+02   -0.70556E-05   -0.21465E-02   512   0.103E+00    0.336E-02
DAV:   2    -0.542213319827E+02   -0.32985E-04   -0.41995E-04   664   0.121E-01    0.208E-02
DAV:   3    -0.542213328540E+02   -0.87128E-06   -0.11058E-05   488   0.243E-02
  52 F= -.54221333E+02 E0= -.54221333E+02  d E =-.193393E-03
       N       E                     dE             d eps       ncg     rms          rms(c)
DAV:   1    -0.542214215817E+02   -0.89599E-04   -0.44487E-02   512   0.141E+00    0.437E-02
DAV:   2    -0.542214818807E+02   -0.60299E-04   -0.84008E-04   600   0.158E-01    0.319E-02
DAV:   3    -0.542214814412E+02    0.43944E-06   -0.22037E-05   528   0.309E-02
  53 F= -.54221481E+02 E0= -.54221481E+02  d E =-.148587E-03
       N       E                     dE             d eps       ncg     rms          rms(c)
DAV:   1    -0.542214835989E+02   -0.17182E-05   -0.34925E-02   512   0.125E+00    0.416E-02
DAV:   2    -0.542215269016E+02   -0.43303E-04   -0.63428E-04   632   0.137E-01    0.324E-02
DAV:   3    -0.542215278393E+02   -0.93767E-06   -0.17552E-05   512   0.274E-02
  54 F= -.54221528E+02 E0= -.54221528E+02  d E =-.194985E-03
       N       E                     dE             d eps       ncg     rms          rms(c)
DAV:   1    -0.542215886746E+02   -0.61773E-04   -0.42457E-02   512   0.144E+00    0.454E-02
DAV:   2    -0.542216568685E+02   -0.68194E-04   -0.87523E-04   632   0.176E-01    0.335E-02
DAV:   3    -0.542216544243E+02    0.24442E-05   -0.18482E-05   512   0.313E-02
  55 F= -.54221654E+02 E0= -.54221654E+02  d E =-.126585E-03
       N       E                     dE             d eps       ncg     rms          rms(c)
DAV:   1    -0.542216681922E+02   -0.11324E-04   -0.11959E-03   512   0.248E-01    0.837E-03
DAV:   2    -0.542216692019E+02   -0.10097E-05   -0.17025E-05   504   0.270E-02
  56 F= -.54221669E+02 E0= -.54221669E+02  d E =-.141363E-03
       N       E                     dE             d eps       ncg     rms          rms(c)
DAV:   1    -0.542217148424E+02   -0.46650E-04   -0.92584E-03   512   0.665E-01    0.309E-02
DAV:   2    -0.542217274341E+02   -0.12592E-04   -0.23128E-04   648   0.983E-02    0.214E-02
DAV:   3    -0.542217296323E+02   -0.21982E-05   -0.13236E-05   488   0.271E-02
  57 F= -.54221730E+02 E0= -.54221730E+02  d E =-.604304E-04
       N       E                     dE             d eps       ncg     rms          rms(c)
DAV:   1    -0.542217337111E+02   -0.62770E-05   -0.76200E-06   336   0.206E-02    0.406E-03
DAV:   2    -0.542217344841E+02   -0.77291E-06   -0.14095E-06   304   0.104E-02
  58 F= -.54221734E+02 E0= -.54221734E+02  d E =-.652821E-04
       N       E                     dE             d eps       ncg     rms          rms(c)
DAV:   1    -0.542217875848E+02   -0.53874E-04   -0.24111E-02   512   0.107E+00    0.312E-02
DAV:   2    -0.542218198459E+02   -0.32261E-04   -0.47757E-04   568   0.124E-01    0.215E-02
DAV:   3    -0.542218194843E+02    0.36156E-06   -0.87365E-06   448   0.225E-02
  59 F= -.54221819E+02 E0= -.54221819E+02  d E =-.850003E-04
       N       E                     dE             d eps       ncg     rms          rms(c)
DAV:   1    -0.542218228635E+02   -0.30176E-05   -0.30613E-02   512   0.121E+00    0.361E-02
DAV:   2    -0.542218625412E+02   -0.39678E-04   -0.57737E-04   584   0.137E-01    0.239E-02
DAV:   3    -0.542218631046E+02   -0.56341E-06   -0.12333E-05   496   0.255E-02
  60 F= -.54221863E+02 E0= -.54221863E+02  d E =-.128621E-03
       N       E                     dE             d eps       ncg     rms          rms(c)
DAV:   1    -0.542218780106E+02   -0.15469E-04   -0.24852E-02   512   0.109E+00    0.343E-02
DAV:   2    -0.542219189861E+02   -0.40976E-04   -0.56202E-04   688   0.136E-01    0.266E-02
DAV:   3    -0.542219172604E+02    0.17256E-05   -0.92481E-06   480   0.227E-02
  61 F= -.54221917E+02 E0= -.54221917E+02  d E =-.541558E-04
       N       E                     dE             d eps       ncg     rms          rms(c)
DAV:   1    -0.542219263645E+02   -0.73785E-05   -0.43848E-04   536   0.141E-01    0.556E-03
DAV:   2    -0.542219278166E+02   -0.14520E-05   -0.19572E-05   488   0.241E-02
  62 F= -.54221928E+02 E0= -.54221928E+02  d E =-.647119E-04
       N       E                     dE             d eps       ncg     rms          rms(c)
DAV:   1    -0.542219652282E+02   -0.38864E-04   -0.57432E-03   512   0.539E-01    0.186E-02
DAV:   2    -0.542219738253E+02   -0.85971E-05   -0.12915E-04   624   0.683E-02    0.961E-03
DAV:   3    -0.542219742700E+02   -0.44478E-06   -0.37299E-06   384   0.147E-02
  63 F= -.54221974E+02 E0= -.54221974E+02  d E =-.464535E-04
       N       E                     dE             d eps       ncg     rms          rms(c)
DAV:   1    -0.542219790322E+02   -0.52069E-05   -0.16456E-02   512   0.916E-01    0.304E-02
DAV:   2    -0.542220020683E+02   -0.23036E-04   -0.35145E-04   688   0.113E-01    0.170E-02
DAV:   3    -0.542220025025E+02   -0.43420E-06   -0.10426E-05   440   0.242E-02
  64 F= -.54222003E+02 E0= -.54222003E+02  d E =-.746859E-04
       N       E                     dE             d eps       ncg     rms          rms(c)
DAV:   1    -0.542220354145E+02   -0.33346E-04   -0.44574E-03   512   0.464E-01    0.159E-02
DAV:   2    -0.542220412856E+02   -0.58711E-05   -0.11055E-04   512   0.610E-02    0.132E-02
DAV:   3    -0.542220411155E+02    0.17007E-06   -0.37975E-06   368   0.147E-02
  65 F= -.54222041E+02 E0= -.54222041E+02  d E =-.386130E-04
       N       E                     dE             d eps       ncg     rms          rms(c)
DAV:   1    -0.542220448983E+02   -0.36127E-05   -0.53250E-04   512   0.162E-01    0.603E-03
DAV:   2    -0.542220452570E+02   -0.35867E-06   -0.10170E-05   400   0.196E-02
  66 F= -.54222045E+02 E0= -.54222045E+02  d E =-.427545E-04
       N       E                     dE             d eps       ncg     rms          rms(c)
DAV:   1    -0.542220697705E+02   -0.24872E-04   -0.34053E-03   512   0.414E-01    0.145E-02
DAV:   2    -0.542220739768E+02   -0.42063E-05   -0.73308E-05   584   0.514E-02
  67 F= -.54222074E+02 E0= -.54222074E+02  d E =-.287198E-04
       N       E                     dE             d eps       ncg     rms          rms(c)
DAV:   1    -0.542220823433E+02   -0.12573E-04   -0.25727E-03   512   0.360E-01    0.140E-02
DAV:   2    -0.542220839113E+02   -0.15680E-05   -0.50565E-05   568   0.442E-02
  68 F= -.54222084E+02 E0= -.54222084E+02  d E =-.386543E-04
       N       E                     dE             d eps       ncg     rms          rms(c)
DAV:   1    -0.542221043265E+02   -0.21983E-04   -0.92004E-04   512   0.205E-01    0.122E-02
DAV:   2    -0.542221054621E+02   -0.11357E-05   -0.21416E-05   448   0.324E-02
  69 F= -.54222105E+02 E0= -.54222105E+02  d E =-.215509E-04
       N       E                     dE             d eps       ncg     rms          rms(c)
DAV:   1    -0.542221094899E+02   -0.51634E-05   -0.38119E-04   536   0.132E-01    0.895E-03
DAV:   2    -0.542221095649E+02   -0.74997E-07   -0.81233E-06   384   0.204E-02
  70 F= -.54222110E+02 E0= -.54222110E+02  d E =-.256536E-04
       N       E                     dE             d eps       ncg     rms          rms(c)
DAV:   1    -0.542221242979E+02   -0.14808E-04   -0.59932E-04   512   0.176E-01    0.754E-03
DAV:   2    -0.542221250169E+02   -0.71905E-06   -0.12220E-05   400   0.226E-02
  71 F= -.54222125E+02 E0= -.54222125E+02  d E =-.154520E-04
       N       E                     dE             d eps       ncg     rms          rms(c)
DAV:   1    -0.542221377444E+02   -0.13446E-04   -0.32906E-03   512   0.410E-01    0.151E-02
DAV:   2    -0.542221408487E+02   -0.31043E-05   -0.68088E-05   648   0.525E-02
  72 F= -.54222141E+02 E0= -.54222141E+02  d E =-.312838E-04
       N       E                     dE             d eps       ncg     rms          rms(c)
DAV:   1    -0.542221610838E+02   -0.23339E-04   -0.23803E-03   512   0.327E-01    0.149E-02
DAV:   2    -0.542221629991E+02   -0.19153E-05   -0.43405E-05   456   0.377E-02
  73 F= -.54222163E+02 E0= -.54222163E+02  d E =-.221504E-04
       N       E                     dE             d eps       ncg     rms          rms(c)
DAV:   1    -0.542221691303E+02   -0.80465E-05   -0.59930E-03   512   0.517E-01    0.209E-02
DAV:   2    -0.542221738645E+02   -0.47342E-05   -0.11139E-04   592   0.600E-02    0.164E-02
DAV:   3    -0.542221749315E+02   -0.10669E-05   -0.50286E-06   352   0.163E-02
  74 F= -.54222175E+02 E0= -.54222175E+02  d E =-.340828E-04
       N       E                     dE             d eps       ncg     rms          rms(c)
DAV:   1    -0.542221931854E+02   -0.19321E-04   -0.19641E-03   512   0.315E-01    0.111E-02
DAV:   2    -0.542221954054E+02   -0.22199E-05   -0.36079E-05   496   0.382E-02
  75 F= -.54222195E+02 E0= -.54222195E+02  d E =-.204739E-04
       N       E                     dE             d eps       ncg     rms          rms(c)
DAV:   1    -0.542222062368E+02   -0.13051E-04   -0.78082E-03   512   0.626E-01    0.222E-02
DAV:   2    -0.542222153811E+02   -0.91443E-05   -0.15339E-04   672   0.762E-02    0.142E-02
DAV:   3    -0.542222157340E+02   -0.35291E-06   -0.50101E-06   408   0.163E-02
  76 F= -.54222216E+02 E0= -.54222216E+02  d E =-.408025E-04
       N       E                     dE             d eps       ncg     rms          rms(c)
DAV:   1    -0.542222449312E+02   -0.29550E-04   -0.20356E-03   520   0.312E-01    0.177E-02
DAV:   2    -0.542222461527E+02   -0.12216E-05   -0.48724E-05   456   0.521E-02
  77 F= -.54222246E+02 E0= -.54222246E+02  d E =-.304187E-04
       N       E                     dE             d eps       ncg     rms          rms(c)
DAV:   1    -0.542222473972E+02   -0.24660E-05   -0.42360E-05   592   0.453E-02    0.655E-03
DAV:   2    -0.542222476267E+02   -0.22947E-06   -0.14052E-06   272   0.900E-03
  78 F= -.54222248E+02 E0= -.54222248E+02  d E =-.318927E-04
       N       E                     dE             d eps       ncg     rms          rms(c)
DAV:   1    -0.542222652238E+02   -0.17827E-04   -0.25647E-03   512   0.353E-01    0.125E-02
DAV:   2    -0.542222689933E+02   -0.37694E-05   -0.56362E-05   472   0.469E-02
  79 F= -.54222269E+02 E0= -.54222269E+02  d E =-.213666E-04
       N       E                     dE             d eps       ncg     rms          rms(c)
DAV:   1    -0.542222758373E+02   -0.10613E-04   -0.18019E-03   512   0.296E-01    0.129E-02
DAV:   2    -0.542222772463E+02   -0.14090E-05   -0.37241E-05   552   0.397E-02
  80 F= -.54222277E+02 E0= -.54222277E+02  d E =-.296196E-04
       N       E                     dE             d eps       ncg     rms          rms(c)
DAV:   1    -0.542222930764E+02   -0.17239E-04   -0.54750E-03   512   0.473E-01    0.199E-02
DAV:   2    -0.542222975538E+02   -0.44774E-05   -0.10629E-04   480   0.571E-02    0.147E-02
DAV:   3    -0.542222986706E+02   -0.11168E-05   -0.52163E-06   336   0.171E-02
  81 F= -.54222299E+02 E0= -.54222299E+02  d E =-.214244E-04
       N       E                     dE             d eps       ncg     rms          rms(c)
DAV:   1    -0.542223014576E+02   -0.39039E-05   -0.15546E-04   544   0.809E-02    0.506E-03
DAV:   2    -0.542223016758E+02   -0.21815E-06   -0.28070E-06   256   0.102E-02
  82 F= -.54222302E+02 E0= -.54222302E+02  d E =-.244295E-04
       N       E                     dE             d eps       ncg     rms          rms(c)
DAV:   1    -0.542223140088E+02   -0.12551E-04   -0.20842E-03   512   0.314E-01    0.105E-02
DAV:   2    -0.542223158322E+02   -0.18234E-05   -0.42931E-05   432   0.405E-02
  83 F= -.54222316E+02 E0= -.54222316E+02  d E =-.141564E-04
       N       E                     dE             d eps       ncg     rms          rms(c)
DAV:   1    -0.542223214309E+02   -0.74221E-05   -0.22930E-03   512   0.330E-01    0.131E-02
DAV:   2    -0.542223227748E+02   -0.13439E-05   -0.46726E-05   584   0.424E-02
  84 F= -.54222323E+02 E0= -.54222323E+02  d E =-.210990E-04
       N       E                     dE             d eps       ncg     rms          rms(c)
DAV:   1    -0.542223417434E+02   -0.20313E-04   -0.22702E-03   512   0.319E-01    0.188E-02
DAV:   2    -0.542223426976E+02   -0.95414E-06   -0.51511E-05   480   0.526E-02
  85 F= -.54222343E+02 E0= -.54222343E+02  d E =-.199228E-04
       N       E                     dE             d eps       ncg     rms          rms(c)
DAV:   1    -0.542223451442E+02   -0.34008E-05   -0.65414E-06   336   0.190E-02    0.515E-03
DAV:   2    -0.542223461495E+02   -0.10053E-05   -0.21154E-06   272   0.123E-02
  86 F= -.54222346E+02 E0= -.54222346E+02  d E =-.233747E-04
       N       E                     dE             d eps       ncg     rms          rms(c)
DAV:   1    -0.542223601425E+02   -0.14998E-04   -0.21511E-03   512   0.326E-01    0.106E-02
DAV:   2    -0.542223620985E+02   -0.19559E-05   -0.43182E-05   432   0.416E-02
  87 F= -.54222362E+02 E0= -.54222362E+02  d E =-.159490E-04
       N       E                     dE             d eps       ncg     rms          rms(c)
DAV:   1    -0.542223668184E+02   -0.66759E-05   -0.72099E-03   512   0.597E-01    0.207E-02
DAV:   2    -0.542223739891E+02   -0.71707E-05   -0.15035E-04   656   0.759E-02    0.127E-02
DAV:   3    -0.542223752299E+02   -0.12409E-05   -0.45709E-06   344   0.159E-02
  88 F= -.54222375E+02 E0= -.54222375E+02  d E =-.290804E-04
       N       E                     dE             d eps       ncg     rms          rms(c)
DAV:   1    -0.542223923060E+02   -0.18317E-04   -0.18223E-03   512   0.288E-01    0.102E-02
DAV:   2    -0.542223934603E+02   -0.11543E-05   -0.32750E-05   400   0.328E-02
  89 F= -.54222393E+02 E0= -.54222393E+02  d E =-.182304E-04
       N       E                     dE             d eps       ncg     rms          rms(c)
DAV:   1    -0.542223999026E+02   -0.75966E-05   -0.67682E-03   512   0.553E-01    0.192E-02
DAV:   2    -0.542224061350E+02   -0.62324E-05   -0.13151E-04   568   0.634E-02    0.147E-02
DAV:   3    -0.542224074448E+02   -0.13098E-05   -0.35761E-06   312   0.138E-02
  90 F= -.54222407E+02 E0= -.54222407E+02  d E =-.322149E-04
       N       E                     dE             d eps       ncg     rms          rms(c)
DAV:   1    -0.542224113433E+02   -0.52084E-05   -0.12758E-03   512   0.242E-01    0.894E-03
DAV:   2    -0.542224119000E+02   -0.55665E-06   -0.21772E-05   400   0.267E-02
  91 F= -.54222412E+02 E0= -.54222412E+02  d E =-.366701E-04
       N       E                     dE             d eps       ncg     rms          rms(c)
DAV:   1    -0.542224220414E+02   -0.10698E-04   -0.15287E-03   512   0.270E-01    0.103E-02
DAV:   2    -0.542224232338E+02   -0.11923E-05   -0.28855E-05   432   0.327E-02
  92 F= -.54222423E+02 E0= -.54222423E+02  d E =-.113338E-04
       N       E                     dE             d eps       ncg     rms          rms(c)
DAV:   1    -0.542224302555E+02   -0.82141E-05   -0.13724E-02   512   0.810E-01    0.269E-02
DAV:   2    -0.542224471861E+02   -0.16931E-04   -0.27371E-04   600   0.970E-02    0.171E-02
DAV:   3    -0.542224486154E+02   -0.14293E-05   -0.54199E-06   384   0.173E-02
  93 F= -.54222449E+02 E0= -.54222449E+02  d E =-.367154E-04
       N       E                     dE             d eps       ncg     rms          rms(c)
DAV:   1    -0.542223892398E+02    0.57946E-04   -0.54375E-02   512   0.162E+00    0.504E-02
DAV:   2    -0.542224710330E+02   -0.81793E-04   -0.10619E-03   568   0.191E-01    0.294E-02
DAV:   3    -0.542224714067E+02   -0.37368E-06   -0.21426E-05   512   0.328E-02
  94 F= -.54222471E+02 E0= -.54222471E+02  d E =-.595067E-04
       N       E                     dE             d eps       ncg     rms          rms(c)
DAV:   1    -0.542225075748E+02   -0.36542E-04   -0.24467E-03   520   0.348E-01    0.141E-02
DAV:   2    -0.542225100675E+02   -0.24927E-05   -0.43827E-05   520   0.433E-02
  95 F= -.54222510E+02 E0= -.54222510E+02  d E =-.386608E-04
       N       E                     dE             d eps       ncg     rms          rms(c)
DAV:   1    -0.542225235808E+02   -0.16006E-04   -0.11822E-02   512   0.756E-01    0.315E-02
DAV:   2    -0.542225401209E+02   -0.16540E-04   -0.25188E-04   600   0.101E-01    0.178E-02
DAV:   3    -0.542225421805E+02   -0.20595E-05   -0.76596E-06   440   0.229E-02
  96 F= -.54222542E+02 E0= -.54222542E+02  d E =-.707738E-04
       N       E                     dE             d eps       ncg     rms          rms(c)
DAV:   1    -0.542224278582E+02    0.11226E-03   -0.46760E-02   512   0.151E+00    0.573E-02
DAV:   2    -0.542225060172E+02   -0.78159E-04   -0.97631E-04   584   0.198E-01    0.316E-02
DAV:   3    -0.542225062561E+02   -0.23889E-06   -0.29869E-05   544   0.423E-02
  97 F= -.54222506E+02 E0= -.54222506E+02  d E =-.348493E-04
       N       E                     dE             d eps       ncg     rms          rms(c)
DAV:   1    -0.542224984844E+02    0.75327E-05   -0.29475E-02   512   0.119E+00    0.421E-02
DAV:   2    -0.542225490962E+02   -0.50612E-04   -0.66859E-04   568   0.163E-01    0.234E-02
DAV:   3    -0.542225463979E+02    0.26983E-05   -0.19403E-05   512   0.346E-02
  98 F= -.54222546E+02 E0= -.54222546E+02  d E =-.749912E-04
       N       E                     dE             d eps       ncg     rms          rms(c)
DAV:   1    -0.542225471004E+02    0.19959E-05   -0.19795E-03   512   0.306E-01    0.102E-02
DAV:   2    -0.542225524109E+02   -0.53106E-05   -0.51319E-05   432   0.452E-02
  99 F= -.54222552E+02 E0= -.54222552E+02  d E =-.810042E-04
       N       E                     dE             d eps       ncg     rms          rms(c)
DAV:   1    -0.542225516560E+02   -0.45557E-05   -0.70589E-04   512   0.185E-01    0.679E-03
DAV:   2    -0.542225534305E+02   -0.17744E-05   -0.16017E-05   400   0.251E-02
 100 F= -.54222553E+02 E0= -.54222553E+02  d E =-.820238E-04
       N       E                     dE             d eps       ncg     rms          rms(c)
DAV:   1    -0.542225690210E+02   -0.17365E-04   -0.43515E-03   512   0.457E-01    0.145E-02
DAV:   2    -0.542225752046E+02   -0.61836E-05   -0.92111E-05   520   0.581E-02
 101 F= -.54222575E+02 E0= -.54222575E+02  d E =-.217741E-04
       N       E                     dE             d eps       ncg     rms          rms(c)
DAV:   1    -0.542225863964E+02   -0.17375E-04   -0.37181E-03   512   0.421E-01    0.171E-02
DAV:   2    -0.542225894387E+02   -0.30423E-05   -0.73916E-05   528   0.539E-02
 102 F= -.54222589E+02 E0= -.54222589E+02  d E =-.360082E-04
       N       E                     dE             d eps       ncg     rms          rms(c)
DAV:   1    -0.542225849018E+02    0.14946E-05   -0.14803E-02   512   0.841E-01    0.318E-02
DAV:   2    -0.542226054785E+02   -0.20577E-04   -0.30422E-04   576   0.106E-01    0.184E-02
DAV:   3    -0.542226084668E+02   -0.29883E-05   -0.79159E-06   448   0.218E-02
 103 F= -.54222608E+02 E0= -.54222608E+02  d E =-.550363E-04
       N       E                     dE             d eps       ncg     rms          rms(c)
DAV:   1    -0.542226381438E+02   -0.32665E-04   -0.83218E-03   512   0.593E-01    0.229E-02
DAV:   2    -0.542226454494E+02   -0.73056E-05   -0.15822E-04   496   0.706E-02    0.145E-02
DAV:   3    -0.542226466177E+02   -0.11683E-05   -0.59343E-06   448   0.181E-02
 104 F= -.54222647E+02 E0= -.54222647E+02  d E =-.381510E-04
