Al2C                                    
           1
     6.019200    0.000000    0.000000
     0.000000   10.140000    0.000000
     0.000000    0.000000   15.000000
   Al   C    O    H 
   8   4   1   2
Direct configuration=     1
   0.45956017  0.81699549  0.29247750
   0.96228505  0.81952205  0.25127703
   0.46147087  0.56051369  0.26648880
   0.96182521  0.56087032  0.23984974
   0.46232393  0.31809265  0.23665735
   0.96212214  0.31886840  0.26326218
   0.46346142  0.05746612  0.24541315
   0.96444812  0.06195149  0.27667092
   0.21313328  0.93969673  0.26649710
   0.71326625  0.94063278  0.27272104
   0.21215946  0.43919817  0.24883231
   0.71173967  0.43936681  0.25022805
   0.50822267  0.84007088  0.43056384
   0.62278890  0.90636751  0.41148783
   0.38196372  0.89228041  0.45177314
Direct configuration=     2
   0.45939695  0.81637050  0.29217914
   0.96227678  0.81916436  0.25101709
   0.46147337  0.56088133  0.26671803
   0.96181127  0.56125319  0.23962248
   0.46233387  0.31775284  0.23643447
   0.96213203  0.31849790  0.26346405
   0.46346863  0.05781371  0.24507923
   0.96442286  0.06234830  0.27690044
   0.21317421  0.93967791  0.26652247
   0.71332899  0.94067947  0.27258937
   0.21218745  0.43919639  0.24887566
   0.71172470  0.43936152  0.25025197
   0.50832159  0.84032158  0.43066715
   0.62287461  0.90630533  0.41189533
   0.38184355  0.89226917  0.45198312
Direct configuration=     3
   0.45930206  0.81600717  0.29200569
   0.96227198  0.81895643  0.25086598
   0.46147482  0.56109504  0.26685129
   0.96180317  0.56147576  0.23949037
   0.46233964  0.31755530  0.23630490
   0.96213778  0.31828252  0.26358141
   0.46347283  0.05801577  0.24488511
   0.96440818  0.06257898  0.27703387
   0.21319800  0.93966696  0.26653722
   0.71336547  0.94070661  0.27251283
   0.21220372  0.43919535  0.24890086
   0.71171600  0.43935845  0.25026587
   0.50837909  0.84046732  0.43072721
   0.62292443  0.90626918  0.41213223
   0.38177370  0.89226264  0.45210518
Direct configuration=     4
   0.45925350  0.81588149  0.29166039
   0.96225806  0.81906274  0.25052574
   0.46147979  0.56095771  0.26710976
   0.96179312  0.56142568  0.23917790
   0.46234718  0.31759330  0.23600861
   0.96215693  0.31835023  0.26385190
   0.46349775  0.05795028  0.24450014
   0.96440930  0.06252628  0.27733270
   0.21320381  0.93964456  0.26653082
   0.71334091  0.94071409  0.27226975
   0.21220802  0.43922192  0.24897014
   0.71172723  0.43937885  0.25030489
   0.50797547  0.84043552  0.43095395
   0.62338528  0.90648767  0.41263389
   0.38173451  0.89226316  0.45236941
Direct configuration=     5
   0.45911474  0.81552228  0.29067347
   0.96221826  0.81936661  0.24955328
   0.46149398  0.56056520  0.26784850
   0.96176440  0.56128253  0.23828482
   0.46236873  0.31770190  0.23516177
   0.96221166  0.31854377  0.26462501
   0.46356900  0.05776307  0.24339980
   0.96441249  0.06237567  0.27818683
   0.21322043  0.93958051  0.26651253
   0.71327073  0.94073548  0.27157497
   0.21222029  0.43929786  0.24916815
   0.71175935  0.43943716  0.25041645
   0.50682181  0.84034465  0.43160202
   0.62470249  0.90711216  0.41406776
   0.38162251  0.89226464  0.45312463
Direct configuration=     6
   0.45911986  0.81552307  0.29058141
   0.96221480  0.81941497  0.24943489
   0.46149656  0.56050269  0.26793292
   0.96176235  0.56125546  0.23817767
   0.46237056  0.31772939  0.23506060
   0.96221784  0.31858020  0.26472137
   0.46356884  0.05772260  0.24327527
   0.96441774  0.06234232  0.27828444
   0.21322127  0.93957716  0.26650272
   0.71325097  0.94072940  0.27149084
   0.21221949  0.43930148  0.24919039
   0.71176467  0.43943868  0.25042844
   0.50687932  0.84037963  0.43164769
   0.62471341  0.90710864  0.41425000
   0.38155319  0.89228780  0.45322133
Direct configuration=     7
   0.45913523  0.81552544  0.29030524
   0.96220445  0.81956006  0.24907975
   0.46150430  0.56031516  0.26818616
   0.96175622  0.56117427  0.23785620
   0.46237606  0.31781185  0.23475710
   0.96223638  0.31868949  0.26501046
   0.46356835  0.05760118  0.24290169
   0.96443350  0.06224227  0.27857728
   0.21322380  0.93956709  0.26647329
   0.71319167  0.94071117  0.27123846
   0.21221707  0.43931236  0.24925709
   0.71178062  0.43944324  0.25046443
   0.50705183  0.84048456  0.43178470
   0.62474616  0.90709808  0.41479672
   0.38134524  0.89235727  0.45351143
Direct configuration=     8
   0.45916597  0.81553018  0.28975290
   0.96218374  0.81985025  0.24836945
   0.46151977  0.55994010  0.26869264
   0.96174395  0.56101187  0.23721328
   0.46238706  0.31797677  0.23415008
   0.96227345  0.31890807  0.26558862
   0.46356739  0.05735834  0.24215453
   0.96446501  0.06204216  0.27916297
   0.21322886  0.93954695  0.26641443
   0.71307307  0.94067471  0.27073369
   0.21221223  0.43933413  0.24939051
   0.71181252  0.43945235  0.25053640
   0.50739685  0.84069444  0.43205871
   0.62481166  0.90707694  0.41589016
   0.38092933  0.89249623  0.45409162
Direct configuration=     9
   0.45922745  0.81553967  0.28864823
   0.96214232  0.82043062  0.24694886
   0.46155073  0.55918997  0.26970560
   0.96171942  0.56068708  0.23592742
   0.46240904  0.31830662  0.23293606
   0.96234760  0.31934522  0.26674495
   0.46356545  0.05687265  0.24066021
   0.96452803  0.06164196  0.28033434
   0.21323899  0.93950668  0.26629671
   0.71283588  0.94060178  0.26972415
   0.21220255  0.43937766  0.24965734
   0.71187632  0.43947057  0.25068034
   0.50808690  0.84111420  0.43260674
   0.62494267  0.90703467  0.41807706
   0.38009751  0.89277413  0.45525201
Direct configuration=    10
   0.45941064  0.81568440  0.28841195
   0.96211847  0.82059235  0.24633609
   0.46156817  0.55897949  0.27010388
   0.96172270  0.56063580  0.23540159
   0.46241065  0.31839563  0.23244037
   0.96236981  0.31945372  0.26726449
   0.46351166  0.05670699  0.24009441
   0.96451983  0.06151481  0.28076577
   0.21323255  0.93951210  0.26619494
   0.71275705  0.94053677  0.26928087
   0.21217603  0.43934013  0.24974586
   0.71191866  0.43942094  0.25072060
   0.50778515  0.84146221  0.43292527
   0.62488295  0.90700539  0.41892561
   0.38038655  0.89265276  0.45558828
Direct configuration=    11
   0.45985023  0.81603166  0.28784502
   0.96206124  0.82098044  0.24486575
   0.46161003  0.55847442  0.27105958
   0.96173054  0.56051275  0.23413986
   0.46241452  0.31860923  0.23125098
   0.96242309  0.31971406  0.26851112
   0.46338259  0.05630947  0.23873678
   0.96450013  0.06120972  0.28180098
   0.21321710  0.93952510  0.26595076
   0.71256791  0.94038078  0.26821723
   0.21211238  0.43925010  0.24995827
   0.71202026  0.43930187  0.25081721
   0.50706110  0.84229725  0.43368959
   0.62473967  0.90693511  0.42096172
   0.38108009  0.89236153  0.45639515
Direct configuration=    12
   0.46019223  0.81626979  0.28797254
   0.96206727  0.82098686  0.24420431
   0.46163784  0.55848212  0.27142868
   0.96175314  0.56055974  0.23363052
   0.46240521  0.31858845  0.23077314
   0.96242563  0.31968641  0.26909970
   0.46324802  0.05628548  0.23824521
   0.96440364  0.06116443  0.28213115
   0.21316813  0.93955077  0.26576567
   0.71260825  0.94029833  0.26774296
   0.21206504  0.43914985  0.25000299
   0.71208281  0.43918637  0.25081968
   0.50671144  0.84212479  0.43396408
   0.62492347  0.90715178  0.42168424
   0.38107875  0.89240830  0.45673513
Direct configuration=    13
   0.46121824  0.81698420  0.28835511
   0.96208535  0.82100613  0.24221999
   0.46172127  0.55850523  0.27253599
   0.96182091  0.56070070  0.23210251
   0.46237727  0.31852613  0.22933960
   0.96243326  0.31960349  0.27086545
   0.46284431  0.05621351  0.23677051
   0.96411417  0.06102853  0.28312164
   0.21302125  0.93962778  0.26521039
   0.71272925  0.94005098  0.26632016
   0.21192304  0.43884908  0.25013716
   0.71227047  0.43883988  0.25082708
   0.50566247  0.84160743  0.43478754
   0.62547487  0.90780179  0.42385180
   0.38107473  0.89254863  0.45775506
Direct configuration=    14
   0.46163063  0.81733591  0.28890123
   0.96224009  0.82098349  0.24126461
   0.46177561  0.55855958  0.27299535
   0.96185992  0.56057625  0.23143477
   0.46235622  0.31853641  0.22873304
   0.96240976  0.31960293  0.27172109
   0.46261954  0.05626747  0.23615796
   0.96391394  0.06091809  0.28344461
   0.21294519  0.93965004  0.26489136
   0.71287670  0.94002173  0.26568040
   0.21190936  0.43873639  0.25014949
   0.71231298  0.43870888  0.25078561
   0.50636627  0.84160805  0.43500232
   0.62500089  0.90765618  0.42479197
   0.38055378  0.89273208  0.45824618
Direct configuration=    15
   0.46200180  0.81765249  0.28939279
   0.96237936  0.82096311  0.24040469
   0.46182453  0.55860851  0.27340881
   0.96189503  0.56046424  0.23083375
   0.46233727  0.31854567  0.22818709
   0.96238860  0.31960243  0.27249124
   0.46241722  0.05631603  0.23560661
   0.96373372  0.06081868  0.28373531
   0.21287673  0.93967008  0.26460421
   0.71300942  0.93999540  0.26510456
   0.21189706  0.43863496  0.25016060
   0.71235124  0.43859098  0.25074827
   0.50699974  0.84160861  0.43519565
   0.62457427  0.90752511  0.42563821
   0.38008488  0.89289721  0.45868823
Direct configuration=    16
   0.46230280  0.81800982  0.29012878
   0.96263092  0.82097678  0.23944426
   0.46188552  0.55861087  0.27382221
   0.96193613  0.56013188  0.23020473
   0.46231090  0.31864751  0.22764589
   0.96235399  0.31969848  0.27333742
   0.46222138  0.05636104  0.23504148
   0.96351784  0.06063219  0.28395598
   0.21285884  0.93966294  0.26427873
   0.71313967  0.94004009  0.26450071
   0.21194535  0.43857050  0.25014319
   0.71233622  0.43851416  0.25067965
   0.50678206  0.84181690  0.43553607
   0.62440952  0.90747204  0.42646874
   0.38013974  0.89274829  0.45901215
Direct configuration=    17
   0.46306005  0.81890882  0.29198044
   0.96326380  0.82101117  0.23702796
   0.46203896  0.55861682  0.27486228
   0.96203952  0.55929570  0.22862218
   0.46224456  0.31890373  0.22628432
   0.96226689  0.31994011  0.27546629
   0.46172870  0.05647429  0.23361970
   0.96297470  0.06016301  0.28451116
   0.21281382  0.93964496  0.26345986
   0.71346737  0.94015254  0.26298152
   0.21206686  0.43840833  0.25009939
   0.71229842  0.43832088  0.25050702
   0.50623441  0.84234095  0.43639253
   0.62399504  0.90733854  0.42855825
   0.38027775  0.89237363  0.45982709
Direct configuration=    18
   0.46304974  0.81918091  0.29255929
   0.96348452  0.82112585  0.23632204
   0.46208253  0.55849262  0.27513632
   0.96207351  0.55881968  0.22817851
   0.46221955  0.31913875  0.22599285
   0.96225877  0.32019755  0.27602100
   0.46171169  0.05634213  0.23322037
   0.96294289  0.05992212  0.28455947
   0.21300875  0.93957672  0.26329142
   0.71330077  0.94018871  0.26265443
   0.21216640  0.43843560  0.25007514
   0.71221609  0.43835236  0.25043911
   0.50517747  0.84204246  0.43664611
   0.62505480  0.90783661  0.42904387
   0.38002338  0.89224143  0.46006008
Direct configuration=    19
   0.46305042  0.81916291  0.29252101
   0.96346993  0.82111827  0.23636873
   0.46207965  0.55850083  0.27511820
   0.96207126  0.55885116  0.22820785
   0.46222121  0.31912321  0.22601212
   0.96225931  0.32018052  0.27598431
   0.46171281  0.05635087  0.23324677
   0.96294499  0.05993805  0.28455627
   0.21299586  0.93958124  0.26330256
   0.71331179  0.94018631  0.26267606
   0.21215981  0.43843380  0.25007674
   0.71222153  0.43835028  0.25044360
   0.50524736  0.84206220  0.43662934
   0.62498472  0.90780368  0.42901175
   0.38004020  0.89225018  0.46004467
Direct configuration=    20
   0.46285630  0.81922352  0.29274448
   0.96355014  0.82121634  0.23611060
   0.46209104  0.55841119  0.27520692
   0.96208770  0.55857554  0.22804305
   0.46220983  0.31928858  0.22598922
   0.96227414  0.32038342  0.27612585
   0.46180159  0.05619352  0.23309975
   0.96306445  0.05979994  0.28448698
   0.21316898  0.93951107  0.26330530
   0.71310823  0.94016692  0.26267800
   0.21222393  0.43849137  0.25006580
   0.71215992  0.43841938  0.25040986
   0.50550531  0.84208143  0.43659780
   0.62528945  0.90783612  0.42915119
   0.37937984  0.89229514  0.46018522
Direct configuration=    21
   0.46275290  0.81925581  0.29286351
   0.96359287  0.82126858  0.23597310
   0.46209710  0.55836344  0.27525417
   0.96209646  0.55842873  0.22795527
   0.46220377  0.31937667  0.22597702
   0.96228204  0.32049150  0.27620124
   0.46184888  0.05610970  0.23302143
   0.96312808  0.05972637  0.28445007
   0.21326120  0.93947370  0.26330676
   0.71299980  0.94015659  0.26267903
   0.21225809  0.43852204  0.25005997
   0.71212709  0.43845618  0.25039189
   0.50564271  0.84209168  0.43658099
   0.62545177  0.90785340  0.42922546
   0.37902810  0.89231909  0.46026008
Direct configuration=    22
   0.46249041  0.81922067  0.29307977
   0.96361135  0.82134298  0.23573413
   0.46209577  0.55834350  0.27534393
   0.96211492  0.55823912  0.22777737
   0.46219383  0.31949371  0.22600765
   0.96230756  0.32066472  0.27628740
   0.46199371  0.05594291  0.23287541
   0.96330896  0.05961793  0.28433129
   0.21337372  0.93938005  0.26335498
   0.71287569  0.94008500  0.26277718
   0.21231249  0.43859153  0.25005603
   0.71207890  0.43854196  0.25035905
   0.50556472  0.84251088  0.43660114
   0.62562521  0.90778538  0.42933262
   0.37882363  0.89213315  0.46028206
Direct configuration=    23
   0.46229564  0.81919461  0.29324023
   0.96362506  0.82139819  0.23555681
   0.46209479  0.55832870  0.27541052
   0.96212862  0.55809843  0.22764538
   0.46218646  0.31958055  0.22603037
   0.96232650  0.32079325  0.27635133
   0.46210117  0.05581915  0.23276707
   0.96344317  0.05953746  0.28424316
   0.21345721  0.93931057  0.26339076
   0.71278360  0.94003189  0.26285001
   0.21235285  0.43864308  0.25005311
   0.71204314  0.43860561  0.25033467
   0.50550685  0.84282193  0.43661608
   0.62575389  0.90773490  0.42941214
   0.37867192  0.89199518  0.46029836
Direct configuration=    24
   0.46213451  0.81907634  0.29341048
   0.96353802  0.82137625  0.23537889
   0.46207769  0.55844049  0.27550019
   0.96214422  0.55815798  0.22746273
   0.46218704  0.31954546  0.22607526
   0.96234473  0.32080998  0.27638215
   0.46223631  0.05571990  0.23265138
   0.96356736  0.05953600  0.28413353
   0.21339806  0.93923536  0.26344067
   0.71290828  0.93990471  0.26299192
   0.21236785  0.43868735  0.25006383
   0.71204421  0.43866003  0.25031902
   0.50524568  0.84291745  0.43659020
   0.62605583  0.90789575  0.42948478
   0.37852106  0.89193045  0.46031496
Direct configuration=    25
   0.46198201  0.81896441  0.29357163
   0.96345563  0.82135549  0.23521049
   0.46206151  0.55854630  0.27558506
   0.96215898  0.55821434  0.22728986
   0.46218759  0.31951225  0.22611775
   0.96236199  0.32082581  0.27641133
   0.46236423  0.05562596  0.23254188
   0.96368491  0.05953461  0.28402977
   0.21334208  0.93916417  0.26348791
   0.71302629  0.93978433  0.26312625
   0.21238204  0.43872926  0.25007397
   0.71204522  0.43871154  0.25030420
   0.50499849  0.84300786  0.43656570
   0.62634162  0.90804799  0.42955354
   0.37837827  0.89186918  0.46033067
Direct configuration=    26
   0.46189954  0.81889190  0.29369825
   0.96337700  0.82131955  0.23508762
   0.46204659  0.55862702  0.27565206
   0.96216942  0.55829637  0.22714043
   0.46219561  0.31946866  0.22615580
   0.96237031  0.32082108  0.27641618
   0.46246346  0.05552697  0.23246913
   0.96375473  0.05955354  0.28395257
   0.21330241  0.93910618  0.26351397
   0.71312893  0.93967192  0.26324866
   0.21238727  0.43876302  0.25008834
   0.71205371  0.43875226  0.25029786
   0.50512404  0.84307525  0.43649526
   0.62633867  0.90811083  0.42961756
   0.37815918  0.89190893  0.46036632
Direct configuration=    27
   0.46180822  0.81881162  0.29383847
   0.96328992  0.82127974  0.23495156
   0.46203007  0.55871641  0.27572626
   0.96218099  0.55838720  0.22697496
   0.46220449  0.31942038  0.22619793
   0.96237952  0.32081585  0.27642154
   0.46257334  0.05541735  0.23238857
   0.96383205  0.05957451  0.28386709
   0.21325848  0.93904198  0.26354284
   0.71324259  0.93954744  0.26338421
   0.21239306  0.43880041  0.25010424
   0.71206311  0.43879736  0.25029084
   0.50526307  0.84314988  0.43641726
   0.62633540  0.90818042  0.42968844
   0.37791656  0.89195294  0.46040579
Direct configuration=    28
   0.46182313  0.81882721  0.29389990
   0.96326212  0.82125993  0.23490716
   0.46202564  0.55870734  0.27575391
   0.96218411  0.55841562  0.22689075
   0.46222040  0.31941265  0.22622096
   0.96237501  0.32083235  0.27639838
   0.46262300  0.05531174  0.23237790
   0.96383161  0.05958409  0.28384000
   0.21328519  0.93900867  0.26353134
   0.71324739  0.93949018  0.26345188
   0.21239139  0.43882040  0.25011748
   0.71207122  0.43882240  0.25029384
   0.50525526  0.84323513  0.43639771
   0.62618718  0.90821076  0.42972500
   0.37798822  0.89195503  0.46039380
Direct configuration=    29
   0.46185347  0.81885894  0.29402496
   0.96320552  0.82121958  0.23481674
   0.46201662  0.55868887  0.27581021
   0.96219045  0.55847348  0.22671929
   0.46225279  0.31939691  0.22626784
   0.96236585  0.32086595  0.27635120
   0.46272410  0.05509672  0.23235618
   0.96383072  0.05960359  0.28378484
   0.21333958  0.93894086  0.26350793
   0.71325717  0.93937360  0.26358963
   0.21238799  0.43886110  0.25014443
   0.71208774  0.43887337  0.25029996
   0.50523936  0.84340871  0.43635792
   0.62588539  0.90827253  0.42979943
   0.37813412  0.89195928  0.46036941
Direct configuration=    30
   0.46190616  0.81888825  0.29409782
   0.96320206  0.82120716  0.23478288
   0.46201689  0.55864654  0.27584176
   0.96219285  0.55847093  0.22661413
   0.46228053  0.31939626  0.22629642
   0.96235355  0.32091251  0.27630011
   0.46278339  0.05495504  0.23236196
   0.96380966  0.05959607  0.28376401
   0.21336370  0.93889858  0.26346601
   0.71326476  0.93931893  0.26366895
   0.21238147  0.43888199  0.25016082
   0.71210021  0.43890577  0.25030553
   0.50510818  0.84337814  0.43633921
   0.62581029  0.90842985  0.42983754
   0.37819718  0.89200747  0.46036284
Direct configuration=    31
   0.46195608  0.81891602  0.29416685
   0.96319877  0.82119539  0.23475078
   0.46201714  0.55860644  0.27587166
   0.96219513  0.55846851  0.22651448
   0.46230681  0.31939565  0.22632350
   0.96234190  0.32095663  0.27625171
   0.46283957  0.05482079  0.23236744
   0.96378970  0.05958895  0.28374427
   0.21338656  0.93885852  0.26342629
   0.71327196  0.93926712  0.26374410
   0.21237529  0.43890179  0.25017634
   0.71211204  0.43893647  0.25031082
   0.50498388  0.84334917  0.43632148
   0.62573912  0.90857892  0.42987366
   0.37825692  0.89205313  0.46035662
Direct configuration=    32
   0.46199996  0.81889812  0.29422457
   0.96323688  0.82118932  0.23474436
   0.46202273  0.55857607  0.27589950
   0.96219867  0.55843460  0.22643242
   0.46233168  0.31938534  0.22634293
   0.96232899  0.32099819  0.27619525
   0.46287606  0.05474943  0.23238183
   0.96377906  0.05956475  0.28374057
   0.21335816  0.93882412  0.26336614
   0.71332789  0.93924133  0.26380662
   0.21237466  0.43890480  0.25018234
   0.71211774  0.43895701  0.25031137
   0.50507548  0.84333439  0.43629478
   0.62560201  0.90868608  0.42989868
   0.37814091  0.89214994  0.46037864
Direct configuration=    33
   0.46200934  0.81889429  0.29423691
   0.96324503  0.82118803  0.23474299
   0.46202392  0.55856958  0.27590546
   0.96219943  0.55842735  0.22641487
   0.46233700  0.31938313  0.22634709
   0.96232622  0.32100708  0.27618318
   0.46288387  0.05473417  0.23238491
   0.96377678  0.05955957  0.28373978
   0.21335209  0.93881677  0.26335327
   0.71333985  0.93923581  0.26381999
   0.21237452  0.43890544  0.25018363
   0.71211896  0.43896140  0.25031148
   0.50509507  0.84333123  0.43628907
   0.62557269  0.90870899  0.42990403
   0.37811610  0.89217065  0.46038335
Direct configuration=    34
   0.46203132  0.81884109  0.29427569
   0.96329859  0.82117355  0.23475273
   0.46202951  0.55856078  0.27592933
   0.96220689  0.55839050  0.22635759
   0.46235442  0.31936180  0.22635739
   0.96231717  0.32101981  0.27613470
   0.46290216  0.05472878  0.23240209
   0.96378714  0.05953865  0.28374840
   0.21332117  0.93879085  0.26329234
   0.71340782  0.93923136  0.26386224
   0.21239008  0.43889135  0.25017731
   0.71211006  0.43896527  0.25030496
   0.50507828  0.84341838  0.43631033
   0.62545456  0.90878203  0.42991182
   0.37808171  0.89219929  0.46038308
Direct configuration=    35
   0.46208459  0.81871215  0.29436968
   0.96342840  0.82113846  0.23477633
   0.46204306  0.55853944  0.27598718
   0.96222498  0.55830121  0.22621878
   0.46239664  0.31931012  0.22638236
   0.96229522  0.32105066  0.27601720
   0.46294649  0.05471573  0.23244372
   0.96381223  0.05948793  0.28376929
   0.21324623  0.93872802  0.26314465
   0.71357258  0.93922058  0.26396464
   0.21242780  0.43885718  0.25016199
   0.71208849  0.43897465  0.25028916
   0.50503758  0.84362961  0.43636187
   0.62516824  0.90895906  0.42993072
   0.37799835  0.89226870  0.46038244
Direct configuration=    36
   0.46209480  0.81868233  0.29439227
   0.96345962  0.82111458  0.23478463
   0.46204433  0.55853006  0.27600553
   0.96223489  0.55827957  0.22617630
   0.46240781  0.31929159  0.22638871
   0.96229094  0.32103897  0.27598237
   0.46296384  0.05471396  0.23246136
   0.96383501  0.05948120  0.28377906
   0.21328030  0.93870476  0.26309469
   0.71358970  0.93921178  0.26400160
   0.21244887  0.43884193  0.25015031
   0.71207670  0.43897356  0.25027866
   0.50496637  0.84367616  0.43638844
   0.62513643  0.90905674  0.42992979
   0.37794125  0.89229630  0.46038626
Direct configuration=    37
   0.46212543  0.81859288  0.29446005
   0.96355329  0.82104291  0.23480953
   0.46204813  0.55850191  0.27606059
   0.96226464  0.55821465  0.22604889
   0.46244131  0.31923602  0.22640776
   0.96227810  0.32100390  0.27587789
   0.46301590  0.05470865  0.23251429
   0.96390335  0.05946101  0.28380835
   0.21338251  0.93863499  0.26294482
   0.71364109  0.93918540  0.26411250
   0.21251210  0.43879619  0.25011528
   0.71204132  0.43897031  0.25024717
   0.50475275  0.84381580  0.43646815
   0.62504100  0.90934979  0.42992700
   0.37776996  0.89237909  0.46039771
Direct configuration=    38
   0.46213015  0.81858376  0.29447782
   0.96356652  0.82100476  0.23481882
   0.46204437  0.55848082  0.27608092
   0.96228260  0.55819576  0.22600192
   0.46245273  0.31921368  0.22641230
   0.96227841  0.32096624  0.27584114
   0.46305069  0.05469999  0.23254072
   0.96395751  0.05945382  0.28382013
   0.21348553  0.93860383  0.26288545
   0.71362468  0.93916185  0.26416752
   0.21253400  0.43877396  0.25009111
   0.71203617  0.43896209  0.25022612
   0.50476261  0.84388082  0.43649492
   0.62496434  0.90946607  0.42992155
   0.37760055  0.89244604  0.46041955
Direct configuration=    39
   0.46214017  0.81856441  0.29451552
   0.96359460  0.82092382  0.23483853
   0.46203640  0.55843610  0.27612404
   0.96232069  0.55815569  0.22590227
   0.46247696  0.31916627  0.22642193
   0.96227907  0.32088635  0.27576318
   0.46312450  0.05468161  0.23259679
   0.96407239  0.05943857  0.28384512
   0.21370407  0.93853774  0.26275951
   0.71358988  0.93911191  0.26428423
   0.21258047  0.43872681  0.25003985
   0.71202525  0.43894464  0.25018147
   0.50478353  0.84401875  0.43655170
   0.62480172  0.90971277  0.42990999
   0.37724117  0.89258806  0.46046587
Direct configuration=    40
   0.46214366  0.81857975  0.29452667
   0.96357202  0.82088894  0.23484922
   0.46202773  0.55839699  0.27614144
   0.96234785  0.55813309  0.22586096
   0.46249222  0.31914138  0.22641881
   0.96229020  0.32082955  0.27572905
   0.46320411  0.05466753  0.23262910
   0.96417606  0.05939899  0.28385153
   0.21380727  0.93850219  0.26270124
   0.71360057  0.93907287  0.26436164
   0.21257343  0.43869459  0.24999797
   0.71205782  0.43892036  0.25014561
   0.50472279  0.84417659  0.43660982
   0.62464970  0.90984806  0.42989724
   0.37710544  0.89264261  0.46047970
Direct configuration=    41
   0.46215317  0.81862149  0.29455701
   0.96351058  0.82079405  0.23487829
   0.46200415  0.55829058  0.27618876
   0.96242173  0.55807161  0.22574857
   0.46253375  0.31907367  0.22641030
   0.96232046  0.32067503  0.27563621
   0.46342071  0.05462924  0.23271702
   0.96445811  0.05929130  0.28386898
   0.21408805  0.93840547  0.26254272
   0.71362964  0.93896663  0.26457223
   0.21255427  0.43860692  0.24988402
   0.71214643  0.43885429  0.25004803
   0.50455753  0.84460603  0.43676794
   0.62423610  0.91021614  0.42986258
   0.37673617  0.89279102  0.46051733
Direct configuration=    42
   0.46215983  0.81861844  0.29457048
   0.96347591  0.82077139  0.23488907
   0.46200310  0.55824003  0.27619711
   0.96244574  0.55803910  0.22572073
   0.46255997  0.31904886  0.22639486
   0.96234215  0.32062309  0.27560625
   0.46354834  0.05462158  0.23274478
   0.96459018  0.05921134  0.28386688
   0.21408740  0.93837285  0.26249454
   0.71373593  0.93893384  0.26465966
   0.21253479  0.43856536  0.24983258
   0.71219676  0.43881400  0.25000654
   0.50442125  0.84473138  0.43683090
   0.62409261  0.91042369  0.42984453
   0.37657691  0.89287854  0.46054107
Direct configuration=    43
   0.46217774  0.81861023  0.29460677
   0.96338256  0.82071035  0.23491809
   0.46200026  0.55810391  0.27621961
   0.96251040  0.55795155  0.22564577
   0.46263059  0.31898205  0.22635327
   0.96240055  0.32048322  0.27552557
   0.46389202  0.05460094  0.23281952
   0.96494581  0.05899600  0.28386122
   0.21408564  0.93828503  0.26236481
   0.71402214  0.93884554  0.26489510
   0.21248234  0.43845343  0.24969408
   0.71233228  0.43870551  0.24989481
   0.50405427  0.84506891  0.43700045
   0.62370622  0.91098259  0.42979594
   0.37614804  0.89311422  0.46060500
Direct configuration=    44
   0.46218127  0.81857849  0.29462895
   0.96335969  0.82067082  0.23492573
   0.46201437  0.55804085  0.27621612
   0.96252352  0.55791229  0.22562833
   0.46267083  0.31895542  0.22632263
   0.96243256  0.32042864  0.27549808
   0.46405201  0.05458551  0.23284547
   0.96509464  0.05891765  0.28385778
   0.21408076  0.93824922  0.26232013
   0.71414464  0.93882277  0.26499403
   0.21249592  0.43840277  0.24963563
   0.71236282  0.43865425  0.24985158
   0.50403173  0.84520542  0.43704483
   0.62342989  0.91120341  0.42977874
   0.37589624  0.89326599  0.46065197
Direct configuration=    45
   0.46218563  0.81853930  0.29465632
   0.96333145  0.82062202  0.23493517
   0.46203179  0.55796301  0.27621182
   0.96253971  0.55786383  0.22560680
   0.46272050  0.31892254  0.22628481
   0.96247207  0.32036127  0.27546414
   0.46424949  0.05456645  0.23287750
   0.96527836  0.05882094  0.28385353
   0.21407474  0.93820502  0.26226497
   0.71429585  0.93879466  0.26511614
   0.21251268  0.43834023  0.24956349
   0.71240051  0.43859098  0.24979821
   0.50400391  0.84537391  0.43709963
   0.62308879  0.91147600  0.42975752
   0.37558541  0.89345333  0.46070994
Direct configuration=    46
   0.46218841  0.81848070  0.29468801
   0.96334181  0.82055885  0.23493743
   0.46206537  0.55790160  0.27619171
   0.96253533  0.55782349  0.22560522
   0.46276973  0.31889155  0.22623707
   0.96251284  0.32031198  0.27544419
   0.46439816  0.05453143  0.23289692
   0.96540118  0.05879161  0.28385442
   0.21414619  0.93816224  0.26222964
   0.71436072  0.93878571  0.26521328
   0.21257544  0.43828881  0.24950589
   0.71239670  0.43853758  0.24976256
   0.50386699  0.84553509  0.43715073
   0.62276266  0.91170607  0.42974026
   0.37544934  0.89358678  0.46074266
Direct configuration=    47
   0.46219675  0.81830490  0.29478306
   0.96337289  0.82036935  0.23494419
   0.46216613  0.55771736  0.27613138
   0.96252220  0.55770249  0.22560048
   0.46291745  0.31879858  0.22609384
   0.96263515  0.32016411  0.27538434
   0.46484416  0.05442636  0.23295516
   0.96576965  0.05870362  0.28385709
   0.21436053  0.93803391  0.26212366
   0.71455535  0.93875885  0.26550471
   0.21276371  0.43813454  0.24933312
   0.71238526  0.43837740  0.24965563
   0.50345623  0.84601861  0.43730403
   0.62178429  0.91239630  0.42968846
   0.37504112  0.89398712  0.46084084
Direct configuration=    48
   0.46219936  0.81824975  0.29481288
   0.96338265  0.82030990  0.23494631
   0.46219774  0.55765956  0.27611245
   0.96251808  0.55766452  0.22559900
   0.46296380  0.31876940  0.22604891
   0.96267352  0.32011772  0.27536556
   0.46498410  0.05439339  0.23297344
   0.96588526  0.05867601  0.28385793
   0.21442778  0.93799365  0.26209041
   0.71461641  0.93875042  0.26559615
   0.21282278  0.43808613  0.24927890
   0.71238167  0.43832714  0.24962207
   0.50332735  0.84617031  0.43735214
   0.62147732  0.91261287  0.42967220
   0.37491304  0.89411272  0.46087164
Direct configuration=    49
   0.46223492  0.81819763  0.29486472
   0.96345610  0.82028205  0.23496623
   0.46224797  0.55761831  0.27607288
   0.96252308  0.55759049  0.22561326
   0.46301371  0.31867165  0.22596556
   0.96274382  0.32009585  0.27534292
   0.46503813  0.05430885  0.23297740
   0.96596118  0.05870112  0.28387146
   0.21464106  0.93791682  0.26205537
   0.71461467  0.93869994  0.26568583
   0.21282940  0.43805513  0.24922737
   0.71247289  0.43828015  0.24960864
   0.50299933  0.84628536  0.43740570
   0.62123821  0.91293567  0.42963437
   0.37475639  0.89425448  0.46090832
Direct configuration=    50
   0.46224172  0.81818766  0.29487463
   0.96347014  0.82027672  0.23497004
   0.46225757  0.55761043  0.27606531
   0.96252404  0.55757633  0.22561598
   0.46302326  0.31865295  0.22594962
   0.96275727  0.32009166  0.27533859
   0.46504847  0.05429269  0.23297815
   0.96597570  0.05870592  0.28387405
   0.21468184  0.93790213  0.26204867
   0.71461434  0.93869029  0.26570298
   0.21283066  0.43804920  0.24921751
   0.71249033  0.43827117  0.24960607
   0.50293661  0.84630736  0.43741594
   0.62119248  0.91299740  0.42962713
   0.37472644  0.89428159  0.46091533
Direct configuration=    51
   0.46229897  0.81814381  0.29493299
   0.96357076  0.82028313  0.23500138
   0.46230729  0.55758254  0.27602249
   0.96254361  0.55751594  0.22563313
   0.46306272  0.31854953  0.22586580
   0.96283581  0.32008689  0.27531971
   0.46503699  0.05419764  0.23296651
   0.96601732  0.05873094  0.28389052
   0.21484390  0.93783539  0.26202361
   0.71461994  0.93862891  0.26576364
   0.21283546  0.43803368  0.24918362
   0.71258186  0.43823229  0.24961248
   0.50283853  0.84644670  0.43743091
   0.62089633  0.91320214  0.42959034
   0.37448137  0.89442396  0.46096288
Direct configuration=    52
   0.46234653  0.81810737  0.29498147
   0.96365435  0.82028845  0.23502742
   0.46234859  0.55755938  0.27598691
   0.96255987  0.55746577  0.22564737
   0.46309551  0.31846361  0.22579616
   0.96290106  0.32008293  0.27530403
   0.46502745  0.05411868  0.23295684
   0.96605190  0.05875171  0.28390421
   0.21497854  0.93777994  0.26200278
   0.71462460  0.93857791  0.26581404
   0.21283945  0.43802079  0.24915545
   0.71265791  0.43819998  0.24961781
   0.50275705  0.84656248  0.43744335
   0.62065029  0.91337224  0.42955976
   0.37427777  0.89454225  0.46100238
Direct configuration=    53
   0.46242648  0.81805885  0.29504455
   0.96375943  0.82030602  0.23506770
   0.46239719  0.55752537  0.27594569
   0.96259731  0.55746120  0.22565867
   0.46312829  0.31840523  0.22572588
   0.96298268  0.32007799  0.27529124
   0.46500289  0.05402774  0.23292539
   0.96607679  0.05873280  0.28391876
   0.21497290  0.93774676  0.26199310
   0.71471412  0.93852939  0.26585071
   0.21293111  0.43799780  0.24913090
   0.71266524  0.43814642  0.24963668
   0.50261742  0.84676647  0.43746623
   0.62037376  0.91349946  0.42952011
   0.37412523  0.89461199  0.46102438
Direct configuration=    54
   0.46249761  0.81801569  0.29510067
   0.96385292  0.82032165  0.23510354
   0.46244042  0.55749512  0.27590902
   0.96263062  0.55745713  0.22566872
   0.46315745  0.31835329  0.22566335
   0.96305530  0.32007360  0.27527987
   0.46498104  0.05394683  0.23289741
   0.96609893  0.05871597  0.28393171
   0.21496789  0.93771724  0.26198449
   0.71479377  0.93848623  0.26588332
   0.21301266  0.43797734  0.24910906
   0.71267176  0.43809876  0.24965347
   0.50249320  0.84694796  0.43748658
   0.62012776  0.91361264  0.42948484
   0.37398953  0.89467404  0.46104396
Direct configuration=    55
   0.46259232  0.81796518  0.29517326
   0.96395591  0.82030849  0.23515355
   0.46250671  0.55744410  0.27586924
   0.96268893  0.55749296  0.22567753
   0.46320133  0.31832780  0.22559521
   0.96315570  0.32005796  0.27527020
   0.46498529  0.05384040  0.23283936
   0.96611879  0.05866762  0.28394942
   0.21488460  0.93770673  0.26199602
   0.71491118  0.93845114  0.26590893
   0.21316638  0.43794187  0.24908039
   0.71264612  0.43802379  0.24968050
   0.50221644  0.84706379  0.43750609
   0.61998456  0.91383806  0.42942755
   0.37375660  0.89476360  0.46107273
Direct configuration=    56
   0.46260933  0.81795611  0.29518630
   0.96397441  0.82030612  0.23516254
   0.46251862  0.55743494  0.27586210
   0.96269940  0.55749939  0.22567911
   0.46320921  0.31832322  0.22558298
   0.96317374  0.32005515  0.27526847
   0.46498606  0.05382128  0.23282894
   0.96612236  0.05865893  0.28395261
   0.21486964  0.93770484  0.26199809
   0.71493227  0.93844483  0.26591353
   0.21319400  0.43793550  0.24907524
   0.71264151  0.43801033  0.24968536
   0.50216673  0.84708460  0.43750959
   0.61995884  0.91387855  0.42941726
   0.37371476  0.89477968  0.46107790
Direct configuration=    57
   0.46264770  0.81794135  0.29523353
   0.96401566  0.82024543  0.23519768
   0.46258425  0.55739544  0.27584906
   0.96274770  0.55751916  0.22568702
   0.46325582  0.31831656  0.22554476
   0.96325145  0.32003481  0.27526459
   0.46502840  0.05374524  0.23276884
   0.96612949  0.05863140  0.28396933
   0.21486759  0.93770523  0.26203110
   0.71493792  0.93843166  0.26591995
   0.21325098  0.43791687  0.24905132
   0.71268730  0.43796823  0.24970268
   0.50212159  0.84714894  0.43749216
   0.61981127  0.91401501  0.42937737
   0.37343374  0.89487816  0.46111061
Direct configuration=    58
   0.46264700  0.81794162  0.29523267
   0.96401490  0.82024654  0.23519704
   0.46258305  0.55739616  0.27584930
   0.96274682  0.55751880  0.22568688
   0.46325497  0.31831668  0.22554546
   0.96325003  0.32003519  0.27526466
   0.46502763  0.05374662  0.23276993
   0.96612936  0.05863190  0.28396903
   0.21486763  0.93770522  0.26203050
   0.71493781  0.93843190  0.26591983
   0.21324994  0.43791721  0.24905175
   0.71268647  0.43796900  0.24970237
   0.50212242  0.84714776  0.43749248
   0.61981396  0.91401252  0.42937809
   0.37343887  0.89487636  0.46111001
Direct configuration=    59
   0.46264727  0.81794765  0.29527229
   0.96402297  0.82016092  0.23523166
   0.46266031  0.55736120  0.27585409
   0.96279532  0.55751039  0.22569762
   0.46331539  0.31830901  0.22551680
   0.96332736  0.32000730  0.27526262
   0.46509268  0.05368529  0.23269720
   0.96613075  0.05861631  0.28398772
   0.21492483  0.93769770  0.26208416
   0.71489244  0.93841512  0.26591553
   0.21325699  0.43790909  0.24902279
   0.71280825  0.43794353  0.24971543
   0.50199915  0.84728205  0.43748885
   0.61962297  0.91412212  0.42934116
   0.37327418  0.89492580  0.46111207
Direct configuration=    60
   0.46264758  0.81795451  0.29531736
   0.96403214  0.82006355  0.23527104
   0.46274817  0.55732145  0.27585954
   0.96285047  0.55750082  0.22570983
   0.46338411  0.31830028  0.22548421
   0.96341531  0.31997560  0.27526030
   0.46516666  0.05361553  0.23261449
   0.96613233  0.05859858  0.28400899
   0.21498988  0.93768915  0.26214519
   0.71484083  0.93839604  0.26591063
   0.21326501  0.43789985  0.24898986
   0.71294676  0.43791457  0.24973028
   0.50185895  0.84743478  0.43748472
   0.61940575  0.91424677  0.42929916
   0.37308689  0.89498202  0.46111441
Direct configuration=    61
   0.46260679  0.81796161  0.29534714
   0.96402265  0.82004089  0.23531105
   0.46281975  0.55730124  0.27588608
   0.96289533  0.55745255  0.22572146
   0.46345576  0.31829278  0.22546448
   0.96348580  0.31993949  0.27525928
   0.46520017  0.05360085  0.23254233
   0.96613587  0.05856794  0.28402156
   0.21498508  0.93766093  0.26220300
   0.71488151  0.93835075  0.26589255
   0.21332749  0.43789761  0.24895815
   0.71302864  0.43790885  0.24973610
   0.50162931  0.84750172  0.43749659
   0.61928075  0.91440248  0.42926919
   0.37301596  0.89501379  0.46109104
Direct configuration=    62
   0.46261135  0.81796082  0.29534380
   0.96402371  0.82004343  0.23530657
   0.46281175  0.55730350  0.27588311
   0.96289031  0.55745795  0.22572016
   0.46344775  0.31829362  0.22546669
   0.96347791  0.31994353  0.27525939
   0.46519642  0.05360249  0.23255040
   0.96613547  0.05857137  0.28402015
   0.21498562  0.93766409  0.26219654
   0.71487696  0.93835581  0.26589457
   0.21332050  0.43789786  0.24896170
   0.71301948  0.43790949  0.24973545
   0.50165500  0.84749423  0.43749526
   0.61929474  0.91438507  0.42927255
   0.37302389  0.89501024  0.46109365
Direct configuration=    63
   0.46257416  0.81796286  0.29536264
   0.96401927  0.82004296  0.23533561
   0.46285958  0.55729447  0.27590975
   0.96292495  0.55741749  0.22572772
   0.46350421  0.31829075  0.22545530
   0.96352939  0.31991555  0.27525885
   0.46520451  0.05359930  0.23250316
   0.96614116  0.05854428  0.28402714
   0.21496525  0.93764372  0.26223344
   0.71492007  0.93831960  0.26587791
   0.21339449  0.43789148  0.24894114
   0.71305234  0.43790580  0.24973797
   0.50160117  0.84753243  0.43749004
   0.61916096  0.91447655  0.42925721
   0.37291934  0.89505624  0.46108213
Direct configuration=    64
   0.46251076  0.81796635  0.29539474
   0.96401170  0.82004217  0.23538511
   0.46294113  0.55727909  0.27595517
   0.96298400  0.55734852  0.22574060
   0.46360045  0.31828587  0.22543588
   0.96361714  0.31986786  0.27525792
   0.46521830  0.05359387  0.23242262
   0.96615086  0.05849809  0.28403904
   0.21493054  0.93760899  0.26229634
   0.71499357  0.93825788  0.26584950
   0.21352063  0.43788061  0.24890608
   0.71310836  0.43789952  0.24974228
   0.50150940  0.84759755  0.43748115
   0.61893292  0.91463249  0.42923107
   0.37274111  0.89513465  0.46106250
Direct configuration=    65
   0.46250442  0.81796353  0.29540399
   0.96402507  0.82002184  0.23539671
   0.46296363  0.55728302  0.27597892
   0.96301914  0.55734183  0.22574186
   0.46364208  0.31828947  0.22542798
   0.96365574  0.31985811  0.27525606
   0.46520682  0.05356974  0.23240833
   0.96615348  0.05848795  0.28404324
   0.21494633  0.93761458  0.26231260
   0.71495231  0.93824902  0.26583339
   0.21357291  0.43785633  0.24889753
   0.71311981  0.43788137  0.24974645
   0.50154216  0.84765287  0.43747718
   0.61880149  0.91466229  0.42922740
   0.37266549  0.89516153  0.46104836
Direct configuration=    66
   0.46250216  0.81796252  0.29540730
   0.96402985  0.82001458  0.23540086
   0.46297166  0.55728443  0.27598741
   0.96303170  0.55733944  0.22574230
   0.46365696  0.31829076  0.22542516
   0.96366953  0.31985463  0.27525540
   0.46520271  0.05356112  0.23240322
   0.96615441  0.05848433  0.28404474
   0.21495197  0.93761658  0.26231841
   0.71493757  0.93824586  0.26582763
   0.21359159  0.43784766  0.24889448
   0.71312390  0.43787488  0.24974794
   0.50155386  0.84767264  0.43747576
   0.61875453  0.91467294  0.42922608
   0.37263848  0.89517113  0.46104331
Direct configuration=    67
   0.46251068  0.81795711  0.29541429
   0.96405009  0.81998871  0.23540771
   0.46298842  0.55728751  0.27601225
   0.96307282  0.55733926  0.22574228
   0.46369899  0.31829073  0.22541665
   0.96370834  0.31985042  0.27525288
   0.46518563  0.05353159  0.23239903
   0.96614875  0.05847815  0.28404773
   0.21497383  0.93762852  0.26232738
   0.71487790  0.93824601  0.26580985
   0.21362724  0.43782006  0.24889170
   0.71313962  0.43785485  0.24975387
   0.50150809  0.84771034  0.43748302
   0.61868103  0.91472876  0.42922215
   0.37259944  0.89518150  0.46101921
Direct configuration=    68
   0.46251813  0.81795238  0.29542038
   0.96406775  0.81996612  0.23541369
   0.46300305  0.55729019  0.27603393
   0.96310872  0.55733909  0.22574226
   0.46373566  0.31829070  0.22540923
   0.96374222  0.31984675  0.27525069
   0.46517073  0.05350581  0.23239538
   0.96614380  0.05847275  0.28405033
   0.21499291  0.93763894  0.26233520
   0.71482583  0.93824615  0.26579432
   0.21365835  0.43779597  0.24888928
   0.71315334  0.43783736  0.24975904
   0.50146814  0.84774325  0.43748936
   0.61861688  0.91477749  0.42921872
   0.37256536  0.89519054  0.46099818
Direct configuration=    69
   0.46253127  0.81794701  0.29542358
   0.96407871  0.81996260  0.23541574
   0.46300971  0.55727860  0.27604790
   0.96313374  0.55733289  0.22574291
   0.46375812  0.31827893  0.22540292
   0.96376008  0.31984497  0.27524969
   0.46515682  0.05350193  0.23239795
   0.96612409  0.05846958  0.28404927
   0.21497736  0.93763877  0.26233537
   0.71482900  0.93824508  0.26578209
   0.21365927  0.43778917  0.24889342
   0.71318002  0.43783614  0.24976502
   0.50143619  0.84773148  0.43749233
   0.61862077  0.91483315  0.42921667
   0.37251573  0.89520319  0.46098513
Direct configuration=    70
   0.46253990  0.81794348  0.29542568
   0.96408591  0.81996028  0.23541709
   0.46301409  0.55727099  0.27605709
   0.96315018  0.55732881  0.22574333
   0.46377288  0.31827120  0.22539877
   0.96377182  0.31984379  0.27524904
   0.46514767  0.05349938  0.23239964
   0.96611113  0.05846749  0.28404857
   0.21496714  0.93763866  0.26233549
   0.71483108  0.93824439  0.26577405
   0.21365987  0.43778470  0.24889614
   0.71319756  0.43783534  0.24976896
   0.50141519  0.84772375  0.43749428
   0.61862333  0.91486973  0.42921532
   0.37248312  0.89521150  0.46097655
Direct configuration=    71
   0.46255249  0.81793803  0.29542824
   0.96409447  0.81996137  0.23541771
   0.46302008  0.55725327  0.27606923
   0.96317160  0.55732164  0.22574419
   0.46379202  0.31825841  0.22539313
   0.96378426  0.31984011  0.27524909
   0.46513341  0.05350146  0.23240348
   0.96608816  0.05846548  0.28404607
   0.21494462  0.93763295  0.26233408
   0.71484767  0.93823985  0.26576263
   0.21366408  0.43778232  0.24890220
   0.71322513  0.43783867  0.24977553
   0.50142503  0.84773771  0.43749557
   0.61859627  0.91490076  0.42921599
   0.37243157  0.89522147  0.46096287
Direct configuration=    72
   0.46258202  0.81792526  0.29543423
   0.96411454  0.81996394  0.23541915
   0.46303412  0.55721172  0.27609770
   0.96322186  0.55730482  0.22574620
   0.46383693  0.31822840  0.22537990
   0.96381344  0.31983146  0.27524920
   0.46509994  0.05350635  0.23241249
   0.96603427  0.05846075  0.28404020
   0.21489181  0.93761955  0.26233077
   0.71488660  0.93822920  0.26573586
   0.21367395  0.43777672  0.24891640
   0.71328981  0.43784648  0.24979096
   0.50144810  0.84777045  0.43749859
   0.61853280  0.91497353  0.42921757
   0.37231067  0.89524486  0.46093077
Direct configuration=    73
   0.46259527  0.81792007  0.29543555
   0.96412175  0.81996124  0.23541675
   0.46304579  0.55718797  0.27611259
   0.96324591  0.55730192  0.22574732
   0.46386002  0.31822125  0.22537518
   0.96382550  0.31982363  0.27525145
   0.46508346  0.05350591  0.23241860
   0.96601025  0.05846133  0.28403565
   0.21488587  0.93761146  0.26233000
   0.71488825  0.93822182  0.26572263
   0.21370029  0.43776968  0.24892462
   0.71330665  0.43784867  0.24979908
   0.50143938  0.84781780  0.43750576
   0.61847843  0.91499970  0.42922048
   0.37228406  0.89524103  0.46090434
Direct configuration=    74
   0.46261642  0.81791179  0.29543766
   0.96413327  0.81995692  0.23541292
   0.46306443  0.55715007  0.27613635
   0.96328431  0.55729729  0.22574910
   0.46389688  0.31820984  0.22536764
   0.96384475  0.31981113  0.27525505
   0.46505713  0.05350520  0.23242836
   0.96597190  0.05846226  0.28402839
   0.21487638  0.93759855  0.26232878
   0.71489088  0.93821003  0.26570150
   0.21374234  0.43775843  0.24893775
   0.71333354  0.43785217  0.24981204
   0.50142545  0.84789340  0.43751721
   0.61839162  0.91504149  0.42922511
   0.37224157  0.89523492  0.46086214
Direct configuration=    75
   0.46262847  0.81790451  0.29543568
   0.96413779  0.81994637  0.23540568
   0.46308661  0.55712692  0.27615689
   0.96331302  0.55729878  0.22575138
   0.46392665  0.31821075  0.22536482
   0.96385795  0.31980098  0.27526021
   0.46504084  0.05349743  0.23243605
   0.96595335  0.05846173  0.28402046
   0.21489490  0.93759077  0.26233088
   0.71486349  0.93820072  0.26568539
   0.21378777  0.43773967  0.24894849
   0.71334427  0.43784689  0.24982182
   0.50140872  0.84792544  0.43752214
   0.61834814  0.91509911  0.42922943
   0.37217889  0.89524343  0.46083070
Direct configuration=    76
   0.46265218  0.81789020  0.29543180
   0.96414670  0.81992561  0.23539142
   0.46313029  0.55708135  0.27619733
   0.96336955  0.55730171  0.22575586
   0.46398527  0.31821255  0.22535926
   0.96388394  0.31978098  0.27527036
   0.46500877  0.05348212  0.23245119
   0.96591683  0.05846068  0.28400483
   0.21493135  0.93757545  0.26233502
   0.71480956  0.93818239  0.26565366
   0.21387722  0.43770273  0.24896964
   0.71336539  0.43783651  0.24984106
   0.50137578  0.84798851  0.43753184
   0.61826253  0.91521254  0.42923793
   0.37205549  0.89526018  0.46076882
Direct configuration=    77
   0.46265733  0.81787294  0.29542698
   0.96414624  0.81991773  0.23538079
   0.46316299  0.55707803  0.27622435
   0.96340419  0.55729218  0.22576249
   0.46401969  0.31821087  0.22535927
   0.96390111  0.31977690  0.27527774
   0.46500227  0.05347522  0.23245375
   0.96591701  0.05844330  0.28399157
   0.21493408  0.93756840  0.26234335
   0.71478926  0.93817165  0.26563587
   0.21389248  0.43767542  0.24898169
   0.71340634  0.43782256  0.24985129
   0.50139958  0.84798811  0.43752349
   0.61822259  0.91529859  0.42924489
   0.37191570  0.89530160  0.46074249
Direct configuration=    78
   0.46265806  0.81787050  0.29542630
   0.96414617  0.81991662  0.23537929
   0.46316760  0.55707756  0.27622815
   0.96340907  0.55729084  0.22576343
   0.46402454  0.31821064  0.22535927
   0.96390353  0.31977632  0.27527878
   0.46500136  0.05347425  0.23245412
   0.96591704  0.05844085  0.28398970
   0.21493446  0.93756740  0.26234452
   0.71478640  0.93817014  0.26563336
   0.21389463  0.43767158  0.24898338
   0.71341211  0.43782059  0.24985273
   0.50140293  0.84798805  0.43752232
   0.61821696  0.91531071  0.42924587
   0.37189600  0.89530743  0.46073878
Direct configuration=    79
   0.46265690  0.81785026  0.29542205
   0.96414159  0.81991428  0.23536885
   0.46320049  0.55708701  0.27625348
   0.96344324  0.55727010  0.22577303
   0.46405482  0.31820427  0.22536275
   0.96392247  0.31977220  0.27528765
   0.46500702  0.05347185  0.23244971
   0.96593259  0.05841218  0.28397524
   0.21491339  0.93755982  0.26235691
   0.71479435  0.93816025  0.26561898
   0.21388225  0.43765187  0.24899344
   0.71346516  0.43780739  0.24986027
   0.50137394  0.84802084  0.43752127
   0.61816020  0.91538463  0.42925442
   0.37182246  0.89532652  0.46070195
Direct configuration=    80
   0.46265592  0.81783326  0.29541848
   0.96413774  0.81991232  0.23536008
   0.46322810  0.55709494  0.27627475
   0.96347194  0.55725268  0.22578109
   0.46408025  0.31819893  0.22536567
   0.96393838  0.31976874  0.27529510
   0.46501177  0.05346984  0.23244602
   0.96594566  0.05838811  0.28396309
   0.21489570  0.93755345  0.26236731
   0.71480103  0.93815195  0.26560691
   0.21387185  0.43763532  0.24900189
   0.71350970  0.43779631  0.24986660
   0.50134958  0.84804838  0.43752038
   0.61811254  0.91544670  0.42926160
   0.37176071  0.89534255  0.46067103
Direct configuration=    81
   0.46265410  0.81782948  0.29541627
   0.96413115  0.81990365  0.23534996
   0.46325014  0.55708666  0.27629002
   0.96349900  0.55723636  0.22578952
   0.46409868  0.31819779  0.22537402
   0.96395708  0.31974590  0.27530718
   0.46502221  0.05346453  0.23243751
   0.96595989  0.05837291  0.28395301
   0.21489737  0.93754009  0.26237951
   0.71481106  0.93814156  0.26559556
   0.21389971  0.43763524  0.24901182
   0.71351411  0.43779382  0.24987325
   0.50132152  0.84812219  0.43752119
   0.61801467  0.91548092  0.42927074
   0.37174019  0.89534241  0.46063045
Direct configuration=    82
   0.46265378  0.81782881  0.29541588
   0.96412999  0.81990212  0.23534818
   0.46325401  0.55708520  0.27629270
   0.96350376  0.55723349  0.22579100
   0.46410192  0.31819759  0.22537548
   0.96396036  0.31974188  0.27530930
   0.46502404  0.05346359  0.23243602
   0.96596239  0.05837024  0.28395123
   0.21489766  0.93753773  0.26238165
   0.71481282  0.93813973  0.26559357
   0.21390461  0.43763522  0.24901356
   0.71351489  0.43779338  0.24987442
   0.50131659  0.84813517  0.43752133
   0.61799746  0.91548694  0.42927235
   0.37173658  0.89534239  0.46062331
Direct configuration=    83
   0.46265678  0.81783289  0.29541494
   0.96412589  0.81988803  0.23533901
   0.46326998  0.55706933  0.27630291
   0.96352461  0.55722121  0.22579848
   0.46411347  0.31819804  0.22538568
   0.96397861  0.31971512  0.27532163
   0.46503531  0.05345380  0.23242650
   0.96597312  0.05836238  0.28394475
   0.21491569  0.93752260  0.26239164
   0.71481617  0.93813001  0.26558313
   0.21394986  0.43764054  0.24902386
   0.71350559  0.43779367  0.24988079
   0.50130383  0.84817010  0.43751298
   0.61793119  0.91553463  0.42927948
   0.37167076  0.89536113  0.46059422
Direct configuration=    84
   0.46265993  0.81783717  0.29541395
   0.96412159  0.81987325  0.23532940
   0.46328674  0.55705269  0.27631362
   0.96354649  0.55720834  0.22580633
   0.46412559  0.31819851  0.22539638
   0.96399776  0.31968704  0.27533457
   0.46504713  0.05344352  0.23241651
   0.96598437  0.05835413  0.28393795
   0.21493461  0.93750673  0.26240211
   0.71481968  0.93811982  0.26557218
   0.21399734  0.43764613  0.24903466
   0.71349584  0.43779398  0.24988748
   0.50129044  0.84820675  0.43750422
   0.61786166  0.91558465  0.42928695
   0.37160170  0.89538079  0.46056369
Direct configuration=    85
   0.46267737  0.81783860  0.29541537
   0.96412629  0.81985495  0.23532084
   0.46330355  0.55704436  0.27632380
   0.96356303  0.55719453  0.22581508
   0.46413547  0.31819341  0.22540794
   0.96401890  0.31967314  0.27534551
   0.46505851  0.05342934  0.23240383
   0.96599449  0.05834269  0.28393317
   0.21494977  0.93749261  0.26240868
   0.71482556  0.93811270  0.26555834
   0.21402136  0.43764566  0.24904999
   0.71351632  0.43778628  0.24989670
   0.50124117  0.84819756  0.43749318
   0.61784502  0.91567269  0.42929103
   0.37149405  0.89541496  0.46053654
Direct configuration=    86
   0.46267799  0.81783865  0.29541542
   0.96412646  0.81985430  0.23532054
   0.46330415  0.55704407  0.27632416
   0.96356362  0.55719404  0.22581539
   0.46413582  0.31819323  0.22540835
   0.96401965  0.31967265  0.27534590
   0.46505892  0.05342884  0.23240338
   0.96599485  0.05834229  0.28393300
   0.21495031  0.93749211  0.26240891
   0.71482576  0.93811245  0.26555785
   0.21402221  0.43764564  0.24905053
   0.71351704  0.43778601  0.24989702
   0.50123943  0.84819723  0.43749279
   0.61784443  0.91567581  0.42929117
   0.37149024  0.89541617  0.46053558
Direct configuration=    87
   0.46270583  0.81783221  0.29542016
   0.96414196  0.81983936  0.23531605
   0.46332064  0.55704857  0.27633212
   0.96357145  0.55718188  0.22582276
   0.46414346  0.31818213  0.22541742
   0.96403819  0.31967775  0.27535185
   0.46506392  0.05341563  0.23239155
   0.96600326  0.05832812  0.28393115
   0.21495054  0.93748451  0.26240880
   0.71483897  0.93810997  0.26554505
   0.21400829  0.43763420  0.24906533
   0.71356328  0.43776940  0.24990664
   0.50120217  0.84822729  0.43748800
   0.61780383  0.91572823  0.42929467
   0.37141508  0.89543422  0.46050845
Direct configuration=    88
   0.46275700  0.81782038  0.29542886
   0.96417043  0.81981191  0.23530780
   0.46335094  0.55705685  0.27634674
   0.96358584  0.55715953  0.22583630
   0.46415750  0.31816174  0.22543408
   0.96407225  0.31968714  0.27536278
   0.46507311  0.05339135  0.23236981
   0.96601873  0.05830210  0.28392775
   0.21495097  0.93747056  0.26240859
   0.71486324  0.93810540  0.26552155
   0.21398270  0.43761317  0.24909252
   0.71364825  0.43773888  0.24992433
   0.50113373  0.84828253  0.43747920
   0.61772922  0.91582456  0.42930110
   0.37127696  0.89546739  0.46045859
Direct configuration=    89
   0.46277796  0.81781711  0.29543277
   0.96418390  0.81980333  0.23530543
   0.46336449  0.55705476  0.27635122
   0.96359123  0.55715412  0.22584100
   0.46416408  0.31815545  0.22544120
   0.96408534  0.31968532  0.27536816
   0.46507395  0.05338206  0.23236128
   0.96602478  0.05829524  0.28392720
   0.21495620  0.93746261  0.26240661
   0.71487353  0.93810165  0.26551138
   0.21399047  0.43760548  0.24910391
   0.71366076  0.43772716  0.24993174
   0.50112013  0.84832449  0.43747608
   0.61767578  0.91584723  0.42930454
   0.37122827  0.89547746  0.46043751
Direct configuration=    90
   0.46281776  0.81781092  0.29544020
   0.96420947  0.81978704  0.23530093
   0.46339022  0.55705080  0.27635971
   0.96360147  0.55714385  0.22584991
   0.46417659  0.31814351  0.22545471
   0.96411019  0.31968187  0.27537836
   0.46507556  0.05336440  0.23234507
   0.96603628  0.05828224  0.28392616
   0.21496612  0.93744753  0.26240284
   0.71489308  0.93809454  0.26549206
   0.21400521  0.43759088  0.24912553
   0.71368452  0.43770489  0.24994581
   0.50109430  0.84840417  0.43747015
   0.61757431  0.91589028  0.42931108
   0.37113580  0.89549658  0.46039747
Direct configuration=    91
   0.46283547  0.81780816  0.29544350
   0.96422085  0.81977979  0.23529893
   0.46340167  0.55704904  0.27636349
   0.96360603  0.55713928  0.22585388
   0.46418216  0.31813819  0.22546072
   0.96412125  0.31968034  0.27538291
   0.46507627  0.05335655  0.23233786
   0.96604139  0.05827645  0.28392569
   0.21497054  0.93744081  0.26240117
   0.71490177  0.93809137  0.26548347
   0.21401177  0.43758438  0.24913515
   0.71369509  0.43769499  0.24995208
   0.50108281  0.84843962  0.43746752
   0.61752916  0.91590944  0.42931399
   0.37109465  0.89550509  0.46037965
Direct configuration=    92
   0.46285749  0.81780679  0.29544698
   0.96423545  0.81977279  0.23529680
   0.46341752  0.55704110  0.27636766
   0.96361300  0.55713476  0.22585874
   0.46419027  0.31813239  0.22546875
   0.96413490  0.31967174  0.27539009
   0.46507651  0.05334686  0.23232883
   0.96604839  0.05827179  0.28392539
   0.21498208  0.93743036  0.26239839
   0.71491159  0.93808520  0.26547240
   0.21403476  0.43757972  0.24914728
   0.71369041  0.43768512  0.24996015
   0.50105487  0.84847063  0.43746386
   0.61748592  0.91594475  0.42931709
   0.37103771  0.89551949  0.46035758
Direct configuration=    93
   0.46292355  0.81780267  0.29545740
   0.96427923  0.81975178  0.23529044
   0.46346510  0.55701730  0.27638018
   0.96363393  0.55712121  0.22587334
   0.46421459  0.31811500  0.22549283
   0.96417586  0.31964594  0.27541165
   0.46507723  0.05331779  0.23230172
   0.96606937  0.05825780  0.28392449
   0.21501670  0.93739901  0.26239003
   0.71494104  0.93806671  0.26543918
   0.21410375  0.43756575  0.24918370
   0.71367637  0.43765552  0.24998437
   0.50097104  0.84856364  0.43745289
   0.61735620  0.91605069  0.42932640
   0.37086690  0.89556269  0.46029138
Direct configuration=    94
   0.46305567  0.81779443  0.29547825
   0.96436680  0.81970977  0.23527770
   0.46356024  0.55696969  0.27640522
   0.96367579  0.55709410  0.22590252
   0.46426324  0.31808020  0.22554099
   0.96425777  0.31959435  0.27545478
   0.46507866  0.05325966  0.23224752
   0.96611133  0.05822984  0.28392269
   0.21508596  0.93733630  0.26237333
   0.71499994  0.93802973  0.26537274
   0.21424172  0.43753780  0.24925653
   0.71364829  0.43759633  0.25003280
   0.50080339  0.84874966  0.43743096
   0.61709676  0.91626256  0.42934501
   0.37052528  0.89564908  0.46015896
Direct configuration=    95
   0.46308670  0.81779111  0.29548155
   0.96438712  0.81970130  0.23527415
   0.46358408  0.55695913  0.27641354
   0.96368844  0.55708155  0.22591157
   0.46427485  0.31806730  0.22555274
   0.96427691  0.31958162  0.27546659
   0.46508232  0.05324622  0.23223328
   0.96612471  0.05822083  0.28392112
   0.21510479  0.93732019  0.26236911
   0.71501739  0.93802011  0.26535486
   0.21426536  0.43753359  0.24927540
   0.71365611  0.43758250  0.25004555
   0.50074973  0.84877212  0.43742393
   0.61705011  0.91633489  0.42934940
   0.37042226  0.89568104  0.46012722
Direct configuration=    96
   0.46315240  0.81778409  0.29548853
   0.96443014  0.81968335  0.23526665
   0.46363458  0.55693676  0.27643116
   0.96371522  0.55705497  0.22593072
   0.46429942  0.31803998  0.22557760
   0.96431744  0.31955467  0.27549160
   0.46509007  0.05321774  0.23220313
   0.96615304  0.05820174  0.28391779
   0.21514467  0.93728608  0.26236017
   0.71505433  0.93799973  0.26531699
   0.21431542  0.43752468  0.24931535
   0.71367265  0.43755323  0.25007257
   0.50063608  0.84881967  0.43740904
   0.61695132  0.91648807  0.42935870
   0.37020407  0.89574873  0.46005999
Direct configuration=    97
   0.46328381  0.81777006  0.29550250
   0.96451619  0.81964746  0.23525163
   0.46373556  0.55689203  0.27646641
   0.96376879  0.55700181  0.22596902
   0.46434858  0.31798532  0.22562734
   0.96439849  0.31950077  0.27554164
   0.46510557  0.05316078  0.23214284
   0.96620971  0.05816357  0.28391113
   0.21522443  0.93721787  0.26234230
   0.71512823  0.93795897  0.26524126
   0.21441554  0.43750687  0.24939525
   0.71370575  0.43749469  0.25012659
   0.50040879  0.84891477  0.43737926
   0.61675374  0.91679442  0.42937731
   0.36976770  0.89588410  0.45992554
Direct configuration=    98
   0.46318081  0.81778106  0.29549155
   0.96444874  0.81967559  0.23526340
   0.46365640  0.55692709  0.27643878
   0.96372680  0.55704348  0.22593900
   0.46431005  0.31802816  0.22558835
   0.96433495  0.31954302  0.27550242
   0.46509342  0.05320543  0.23219010
   0.96616529  0.05819349  0.28391635
   0.21516191  0.93727134  0.26235631
   0.71507030  0.93799092  0.26530062
   0.21433706  0.43752083  0.24933262
   0.71367981  0.43754058  0.25008424
   0.50058696  0.84884022  0.43740260
   0.61690862  0.91655428  0.42936273
   0.37010976  0.89577799  0.46003093
Direct configuration=    99
   0.46320686  0.81777828  0.29549432
   0.96446580  0.81966848  0.23526042
   0.46367643  0.55691822  0.27644577
   0.96373742  0.55703294  0.22594659
   0.46431979  0.31801733  0.22559821
   0.96435102  0.31953233  0.27551234
   0.46509650  0.05319413  0.23217815
   0.96617652  0.05818592  0.28391503
   0.21517772  0.93725781  0.26235276
   0.71508496  0.93798284  0.26528561
   0.21435691  0.43751730  0.24934846
   0.71368637  0.43752897  0.25009495
   0.50054189  0.84885908  0.43739670
   0.61686944  0.91661502  0.42936642
   0.37002323  0.89580483  0.46000427
Direct configuration=   100
   0.46319087  0.81777998  0.29549262
   0.96445533  0.81967285  0.23526225
   0.46366414  0.55692367  0.27644148
   0.96373090  0.55703941  0.22594193
   0.46431381  0.31802398  0.22559216
   0.96434116  0.31953889  0.27550625
   0.46509461  0.05320106  0.23218548
   0.96616963  0.05819057  0.28391584
   0.21516802  0.93726611  0.26235494
   0.71507596  0.93798780  0.26529482
   0.21434473  0.43751947  0.24933874
   0.71368234  0.43753609  0.25008838
   0.50056955  0.84884751  0.43740032
   0.61689348  0.91657774  0.42936415
   0.37007633  0.89578836  0.46002063
Direct configuration=   101
   0.46322188  0.81777058  0.29549289
   0.96447571  0.81966255  0.23525683
   0.46369138  0.55691750  0.27645628
   0.96374994  0.55701328  0.22595616
   0.46432467  0.31800204  0.22560479
   0.96436132  0.31952828  0.27552133
   0.46510755  0.05318698  0.23216871
   0.96619307  0.05817323  0.28391137
   0.21518907  0.93725023  0.26235163
   0.71510199  0.93798000  0.26527465
   0.21434211  0.43751599  0.24935992
   0.71373226  0.43751913  0.25010262
   0.50052094  0.84889223  0.43739120
   0.61680340  0.91665274  0.42937222
   0.36995558  0.89582872  0.45997941
Direct configuration=   102
   0.46325047  0.81776190  0.29549314
   0.96449449  0.81965307  0.23525183
   0.46371649  0.55691181  0.27646993
   0.96376750  0.55698919  0.22596927
   0.46433469  0.31798182  0.22561643
   0.96437990  0.31951850  0.27553524
   0.46511948  0.05317399  0.23215325
   0.96621469  0.05815725  0.28390725
   0.21520847  0.93723559  0.26234858
   0.71512599  0.93797280  0.26525604
   0.21433969  0.43751279  0.24937945
   0.71377828  0.43750349  0.25011575
   0.50047613  0.84893347  0.43738278
   0.61672035  0.91672188  0.42937967
   0.36984425  0.89586594  0.45994140
Direct configuration=   103
   0.46330764  0.81774455  0.29549363
   0.96453207  0.81963409  0.23524183
   0.46376672  0.55690043  0.27649723
   0.96380261  0.55694101  0.22599551
   0.46435472  0.31794137  0.22563971
   0.96441707  0.31949893  0.27556305
   0.46514334  0.05314802  0.23212232
   0.96625792  0.05812528  0.28389901
   0.21524729  0.93720630  0.26234247
   0.71517399  0.93795841  0.26521884
   0.21433485  0.43750638  0.24941851
   0.71387032  0.43747222  0.25014200
   0.50038651  0.84901594  0.43736595
   0.61655423  0.91686018  0.42939455
   0.36962158  0.89594038  0.45986538
Direct configuration=   104
   0.46332907  0.81773254  0.29548710
   0.96454466  0.81961732  0.23523327
   0.46379156  0.55689296  0.27651578
   0.96382509  0.55692051  0.22601058
   0.46436192  0.31793020  0.22565069
   0.96443546  0.31948626  0.27557999
   0.46516970  0.05313518  0.23210951
   0.96629010  0.05810563  0.28389116
   0.21526652  0.93719851  0.26234142
   0.71519038  0.93795714  0.26520202
   0.21433657  0.43749807  0.24943501
   0.71391204  0.43745451  0.25015320
   0.50032334  0.84910219  0.43736793
   0.61642690  0.91690314  0.42940497
   0.36956755  0.89595934  0.45981737
