Al   C    Te   H                        
   1.0000000000000000     
     6.0191999999999997    0.0000000000000000    0.0000000000000000
     0.0000000000000000   10.1400000000000006    0.0000000000000000
     0.0000000000000000    0.0000000000000000   15.0000000000000000
   Al   C    Te   H 
     8     4     1     2
Selective dynamics
Direct
  0.4045331991899277  0.8728764761428908  0.2515794281760889   T   T   T
  0.9065139429662346  0.8723224822405657  0.2418680215314724   T   T   T
  0.4074807551979984  0.6171420655464671  0.2588285721928083   T   T   T
  0.9105659567336658  0.6164590752777422  0.2539706910483253   T   T   T
  0.4103387481371402  0.3703866315827852  0.2482728317876766   T   T   T
  0.9052450565378387  0.3714702293426523  0.2590972063862630   T   T   T
  0.4067137872288006  0.1156564949076076  0.2363652949692800   T   T   T
  0.9035188844520818  0.1156255999090959  0.2497046423972860   T   T   T
  0.1553392871096369  0.9950746301516414  0.2450673192730019   T   T   T
  0.6553810762444832  0.9926062292196270  0.2425566051015636   T   T   T
  0.1590614627138079  0.4921056228311139  0.2690767753553106   T   T   T
  0.6580771368969943  0.4970624306731592  0.2488335493559708   T   T   T
  0.5576448391312008  0.3550721072495880  0.4478341027326652   T   T   T
  0.3923748787284060  0.2486303619512557  0.5040613426646698   T   T   T
  0.3265644566940384  0.4183572763673679  0.3918095628057126   T   T   T

  0.00000000E+00  0.00000000E+00  0.00000000E+00
  0.00000000E+00  0.00000000E+00  0.00000000E+00
  0.00000000E+00  0.00000000E+00  0.00000000E+00
  0.00000000E+00  0.00000000E+00  0.00000000E+00
  0.00000000E+00  0.00000000E+00  0.00000000E+00
  0.00000000E+00  0.00000000E+00  0.00000000E+00
  0.00000000E+00  0.00000000E+00  0.00000000E+00
  0.00000000E+00  0.00000000E+00  0.00000000E+00
  0.00000000E+00  0.00000000E+00  0.00000000E+00
  0.00000000E+00  0.00000000E+00  0.00000000E+00
  0.00000000E+00  0.00000000E+00  0.00000000E+00
  0.00000000E+00  0.00000000E+00  0.00000000E+00
  0.00000000E+00  0.00000000E+00  0.00000000E+00
  0.00000000E+00  0.00000000E+00  0.00000000E+00
  0.00000000E+00  0.00000000E+00  0.00000000E+00
