Al   C    Te   H                        
   1.0000000000000000     
     6.0191999999999997    0.0000000000000000    0.0000000000000000
     0.0000000000000000   10.1400000000000006    0.0000000000000000
     0.0000000000000000    0.0000000000000000   15.0000000000000000
   Al   C    Te   H 
     8     4     1     2
Selective dynamics
Direct
  0.4054730652446010  0.8727494682782863  0.2516802927566383   T   T   T
  0.9073211573447355  0.8722266830978317  0.2419557386025144   T   T   T
  0.4081077820391730  0.6170148666685860  0.2584377521955693   T   T   T
  0.9109966278221406  0.6163459163365553  0.2536214114086878   T   T   T
  0.4107902403083544  0.3702533116085923  0.2481595606035936   T   T   T
  0.9058949355845713  0.3714080014701245  0.2588123934712741   T   T   T
  0.4075356193036827  0.1155546468370151  0.2366495829548426   T   T   T
  0.9044917852927694  0.1154964236053489  0.2499910878559544   T   T   T
  0.1562290441803803  0.9949037199611743  0.2452443159514370   T   T   T
  0.6562548904577017  0.9925526491056093  0.2430071749410437   T   T   T
  0.1595810498117840  0.4921278873874674  0.2688105288853146   T   T   T
  0.6586050304185764  0.4968193984506580  0.2484438362951249   T   T   T
  0.5548947244466202  0.3546476504611069  0.4481702665731127   T   T   T
  0.3869115709739910  0.2493989375228468  0.5040650821481721   T   T   T
  0.3255000783661195  0.4191943316617068  0.3917235859444898   T   T   T

  0.00000000E+00  0.00000000E+00  0.00000000E+00
  0.00000000E+00  0.00000000E+00  0.00000000E+00
  0.00000000E+00  0.00000000E+00  0.00000000E+00
  0.00000000E+00  0.00000000E+00  0.00000000E+00
  0.00000000E+00  0.00000000E+00  0.00000000E+00
  0.00000000E+00  0.00000000E+00  0.00000000E+00
  0.00000000E+00  0.00000000E+00  0.00000000E+00
  0.00000000E+00  0.00000000E+00  0.00000000E+00
  0.00000000E+00  0.00000000E+00  0.00000000E+00
  0.00000000E+00  0.00000000E+00  0.00000000E+00
  0.00000000E+00  0.00000000E+00  0.00000000E+00
  0.00000000E+00  0.00000000E+00  0.00000000E+00
  0.00000000E+00  0.00000000E+00  0.00000000E+00
  0.00000000E+00  0.00000000E+00  0.00000000E+00
  0.00000000E+00  0.00000000E+00  0.00000000E+00
