V2O5                                    
   1.0000000000000000     
    15.0000000000000000    0.0000000000000000    0.0000000000000000
     0.0000000000000000   15.0000000000000000    0.0000000000000000
     0.0000000000000000    0.0000000000000000   15.0000000000000000
   S    H 
     1     2
Selective dynamics
Direct
  0.4927329862850812  0.4927329432552696  0.5000000162802019   T   T   T
  0.5823926324300351  0.4908744092983758  0.4999999918098786   T   T   T
  0.4908743812848862  0.5823926474463572  0.4999999919099196   T   T   T

  0.00000000E+00  0.00000000E+00  0.00000000E+00
  0.00000000E+00  0.00000000E+00  0.00000000E+00
  0.00000000E+00  0.00000000E+00  0.00000000E+00
