Al2C                                    
   1.0000000000000000     
     6.0191999999999997    0.0000000000000000    0.0000000000000000
     0.0000000000000000   10.1400000000000006    0.0000000000000000
     0.0000000000000000    0.0000000000000000   15.0000000000000000
   Al   C    O    H 
     8     4     1     2
Selective dynamics
Direct
  0.4595601742045119  0.8169954941079780  0.2924774962400249   F   F   F
  0.9622850465469739  0.8195220521612896  0.2512770315974180   F   F   F
  0.4614708732203567  0.5605136918588371  0.2664888048792946   F   F   F
  0.9618252109261931  0.5608703204881493  0.2398497426686390   F   F   F
  0.4623239290224603  0.3180926477687578  0.2366573518439878   F   F   F
  0.9621221399281765  0.3188683980379707  0.2632621846120742   F   F   F
  0.4634614197716971  0.0574661161408585  0.2454131544433551   F   F   F
  0.9644481170391046  0.0619514893430235  0.2766709219819958   F   F   F
  0.2131332844484390  0.9396967307253163  0.2664971027386756   F   F   F
  0.7132662547141422  0.9406327783337929  0.2727210443802051   F   F   F
  0.2121594550642314  0.4391981672931493  0.2488323060397164   F   F   F
  0.7117396692519691  0.4393668084755831  0.2502280535986330   F   F   F
  0.5082226694714151  0.8400708794883727  0.4305638418232434   T   T   T
  0.6227889003015932  0.9063675088283460  0.4114878264968880   T   T   T
  0.3819637226490755  0.8922804080728284  0.4507731366558309   T   T   T

  0.00000000E+00  0.00000000E+00  0.00000000E+00
  0.00000000E+00  0.00000000E+00  0.00000000E+00
  0.00000000E+00  0.00000000E+00  0.00000000E+00
  0.00000000E+00  0.00000000E+00  0.00000000E+00
  0.00000000E+00  0.00000000E+00  0.00000000E+00
  0.00000000E+00  0.00000000E+00  0.00000000E+00
  0.00000000E+00  0.00000000E+00  0.00000000E+00
  0.00000000E+00  0.00000000E+00  0.00000000E+00
  0.00000000E+00  0.00000000E+00  0.00000000E+00
  0.00000000E+00  0.00000000E+00  0.00000000E+00
  0.00000000E+00  0.00000000E+00  0.00000000E+00
  0.00000000E+00  0.00000000E+00  0.00000000E+00
  0.00000000E+00  0.00000000E+00  0.00000000E+00
  0.00000000E+00  0.00000000E+00  0.00000000E+00
  0.00000000E+00  0.00000000E+00  0.00000000E+00
