Al2C                                    
   1.0000000000000000     
     6.0191999999999997    0.0000000000000000    0.0000000000000000
     0.0000000000000000   10.1400000000000006    0.0000000000000000
     0.0000000000000000    0.0000000000000000   15.0000000000000000
   Al   C    Te   H 
     8     4     1     2
Selective dynamics
Direct
  0.3417674445630468  0.8631926537581407  0.2455645924189156   T   T   T
  0.8402487512618180  0.8632531795226228  0.2458087659859913   T   T   T
  0.3278860068736691  0.6142660792266526  0.2883026607480517   T   T   T
  0.8545488785503963  0.6142488725771500  0.2882396774218421   T   T   T
  0.3343701042964327  0.3636823979445367  0.2553048714787494   T   T   T
  0.8479233999121334  0.3636873256083035  0.2551501201032238   T   T   T
  0.3403623946599765  0.1073137646741316  0.2380698961551388   T   T   T
  0.8419941680368481  0.1073279108624234  0.2378524793685060   T   T   T
  0.0910844496934828  0.9860391147587677  0.2367056641973235   T   T   T
  0.5911223458978014  0.9870376782384653  0.2410783125259712   T   T   T
  0.0911668679588971  0.4861033204315319  0.2490937688180637   T   T   T
  0.5912296522877156  0.4820730806288296  0.3006477930743756   T   T   T
  0.0917031062870493  0.6434960170117847  0.4501301597970553   T   T   T
  0.5913476811622616  0.4556839276203988  0.3728455817685585   T   T   T
  0.0932156151188224  0.8078881682605328  0.4652056561382167   T   T   T

  0.00000000E+00  0.00000000E+00  0.00000000E+00
  0.00000000E+00  0.00000000E+00  0.00000000E+00
  0.00000000E+00  0.00000000E+00  0.00000000E+00
  0.00000000E+00  0.00000000E+00  0.00000000E+00
  0.00000000E+00  0.00000000E+00  0.00000000E+00
  0.00000000E+00  0.00000000E+00  0.00000000E+00
  0.00000000E+00  0.00000000E+00  0.00000000E+00
  0.00000000E+00  0.00000000E+00  0.00000000E+00
  0.00000000E+00  0.00000000E+00  0.00000000E+00
  0.00000000E+00  0.00000000E+00  0.00000000E+00
  0.00000000E+00  0.00000000E+00  0.00000000E+00
  0.00000000E+00  0.00000000E+00  0.00000000E+00
  0.00000000E+00  0.00000000E+00  0.00000000E+00
  0.00000000E+00  0.00000000E+00  0.00000000E+00
  0.00000000E+00  0.00000000E+00  0.00000000E+00
