   15   15    1    1
  0.6103469E+02  0.6019200E-09  0.1014000E-08  0.1500000E-08  0.3500000E-15
   1.0000000000000000E-004
  CAR 
 Al2C                                    
     48      8     32

  0.3742002E-15  0.3742002E-15  0.1262379E-14  0.6666667E-01
    1      -16.362946   1.000000
    2      -15.295733   1.000000
    3      -14.769817   1.000000
    4      -14.075356   1.000000
    5      -13.006721   1.000000
    6       -9.743437   1.000000
    7       -9.718737   1.000000
    8       -9.434889   1.000000
    9       -8.317312   1.000000
   10       -7.870492   1.000000
   11       -7.050078   1.000000
   12       -6.830761   1.000000
   13       -6.424912   1.000000
   14       -5.564678   1.000000
   15       -5.495672   1.000000
   16       -5.194951   1.000000
   17       -4.750487   1.000000
   18       -4.395492   1.000000
   19       -4.002885   1.000000
   20       -3.710001   1.000000
   21       -3.275505   1.000000
   22       -3.273109   1.000000
   23       -2.760550   1.000000
   24       -2.367091   1.000000
   25       -0.967213   0.000000
   26       -0.530623   0.000000
   27        0.354099   0.000000
   28        0.511226   0.000000
   29        0.833768   0.000000
   30        0.947402   0.000000
   31        1.177372   0.000000
   32        1.754597   0.000000

  0.2000000E+00  0.3742002E-15  0.1262379E-14  0.1333333E+00
    1      -16.269365   1.000000
    2      -15.163778   1.000000
    3      -14.845869   1.000000
    4      -14.215666   1.000000
    5      -13.406331   1.000000
    6       -9.564178   1.000000
    7       -9.416773   1.000000
    8       -8.866675   1.000000
    9       -8.077817   1.000000
   10       -7.859383   1.000000
   11       -7.256416   1.000000
   12       -6.990569   1.000000
   13       -6.702913   1.000000
   14       -5.850479   1.000000
   15       -5.164451   1.000000
   16       -4.984279   1.000000
   17       -4.760589   1.000000
   18       -4.524325   1.000000
   19       -4.245080   1.000000
   20       -4.024209   1.000000
   21       -3.711449   1.000000
   22       -3.432719   1.000000
   23       -2.861846   1.000000
   24       -2.727951   1.000000
   25       -0.696614   0.000000
   26        0.115635   0.000000
   27        0.323518   0.000000
   28        0.717797   0.000000
   29        0.999280   0.000000
   30        1.058091   0.000000
   31        1.176871   0.000000
   32        1.509430   0.000000

  0.4000000E+00  0.3742002E-15  0.1262379E-14  0.1333333E+00
    1      -16.060716   1.000000
    2      -15.108690   1.000000
    3      -14.747088   1.000000
    4      -14.359307   1.000000
    5      -14.127767   1.000000
    6       -9.115509   1.000000
    7       -9.064434   1.000000
    8       -8.335817   1.000000
    9       -7.755451   1.000000
   10       -7.501747   1.000000
   11       -7.231218   1.000000
   12       -6.812426   1.000000
   13       -6.457143   1.000000
   14       -6.362769   1.000000
   15       -5.738187   1.000000
   16       -5.592730   1.000000
   17       -5.428750   1.000000
   18       -4.760699   1.000000
   19       -4.389281   1.000000
   20       -4.266070   1.000000
   21       -3.725884   1.000000
   22       -3.610772   1.000000
   23       -3.167384   1.000000
   24       -2.697296   1.000000
   25       -0.418269   0.000000
   26        0.120887   0.000000
   27        0.456566   0.000000
   28        1.137735   0.000000
   29        1.400124   0.000000
   30        1.520549   0.000000
   31        1.905897   0.000000
   32        2.317080   0.000000

  0.3742002E-15  0.3333333E+00  0.1262379E-14  0.1333333E+00
    1      -16.360351   1.000000
    2      -15.303066   1.000000
    3      -14.768078   1.000000
    4      -14.075567   1.000000
    5      -13.007505   1.000000
    6       -9.685528   1.000000
    7       -9.507855   1.000000
    8       -9.446258   1.000000
    9       -8.690987   1.000000
   10       -8.107056   1.000000
   11       -7.378217   1.000000
   12       -6.355691   1.000000
   13       -5.815043   1.000000
   14       -5.623212   1.000000
   15       -5.340908   1.000000
   16       -5.110944   1.000000
   17       -4.785653   1.000000
   18       -4.451661   1.000000
   19       -4.064312   1.000000
   20       -3.940965   1.000000
   21       -3.405098   1.000000
   22       -3.273310   1.000000
   23       -3.260688   1.000000
   24       -2.359866   1.000000
   25       -0.771645   0.000000
   26       -0.257796   0.000000
   27        0.281946   0.000000
   28        0.543398   0.000000
   29        0.802350   0.000000
   30        1.275611   0.000000
   31        1.318690   0.000000
   32        1.862598   0.000000

  0.2000000E+00  0.3333333E+00  0.1262379E-14  0.1333333E+00
    1      -16.267129   1.000000
    2      -15.169149   1.000000
    3      -14.846121   1.000000
    4      -14.214903   1.000000
    5      -13.407828   1.000000
    6       -9.434452   1.000000
    7       -9.271752   1.000000
    8       -8.899821   1.000000
    9       -8.498677   1.000000
   10       -7.924168   1.000000
   11       -7.464941   1.000000
   12       -6.998650   1.000000
   13       -6.295351   1.000000
   14       -5.633559   1.000000
   15       -5.019354   1.000000
   16       -4.920931   1.000000
   17       -4.806749   1.000000
   18       -4.468305   1.000000
   19       -4.173959   1.000000
   20       -4.042048   1.000000
   21       -3.845385   1.000000
   22       -3.511977   1.000000
   23       -3.113281   1.000000
   24       -2.856113   1.000000
   25       -0.650521   0.000000
   26        0.082821   0.000000
   27        0.351109   0.000000
   28        0.637928   0.000000
   29        0.852596   0.000000
   30        1.208538   0.000000
   31        1.343484   0.000000
   32        1.890650   0.000000

  0.4000000E+00  0.3333333E+00  0.1262379E-14  0.1333333E+00
    1      -16.059606   1.000000
    2      -15.102341   1.000000
    3      -14.758326   1.000000
    4      -14.358972   1.000000
    5      -14.128948   1.000000
    6       -9.126826   1.000000
    7       -8.848359   1.000000
    8       -8.163548   1.000000
    9       -7.941125   1.000000
   10       -7.526092   1.000000
   11       -7.457359   1.000000
   12       -7.185864   1.000000
   13       -6.968927   1.000000
   14       -5.891481   1.000000
   15       -5.708500   1.000000
   16       -5.214587   1.000000
   17       -4.944053   1.000000
   18       -4.562931   1.000000
   19       -4.444398   1.000000
   20       -4.209367   1.000000
   21       -3.841557   1.000000
   22       -3.671184   1.000000
   23       -3.416680   1.000000
   24       -2.904193   1.000000
   25       -0.486040   0.000000
   26        0.211358   0.000000
   27        0.604615   0.000000
   28        0.969351   0.000000
   29        1.144421   0.000000
   30        1.424436   0.000000
   31        1.563210   0.000000
   32        1.784731   0.000000

 -0.4000000E+00  0.3333333E+00  0.1262379E-14  0.1333333E+00
    1      -16.059605   1.000000
    2      -15.102352   1.000000
    3      -14.758299   1.000000
    4      -14.359000   1.000000
    5      -14.128937   1.000000
    6       -9.126815   1.000000
    7       -8.848237   1.000000
    8       -8.163997   1.000000
    9       -7.941606   1.000000
   10       -7.526335   1.000000
   11       -7.455430   1.000000
   12       -7.185153   1.000000
   13       -6.970507   1.000000
   14       -5.891694   1.000000
   15       -5.708311   1.000000
   16       -5.215276   1.000000
   17       -4.944658   1.000000
   18       -4.561792   1.000000
   19       -4.443831   1.000000
   20       -4.208993   1.000000
   21       -3.840918   1.000000
   22       -3.671861   1.000000
   23       -3.417550   1.000000
   24       -2.903944   1.000000
   25       -0.485793   0.000000
   26        0.210858   0.000000
   27        0.604048   0.000000
   28        0.970284   0.000000
   29        1.142139   0.000000
   30        1.428179   0.000000
   31        1.575415   0.000000
   32        2.167606   0.000000

 -0.2000000E+00  0.3333333E+00  0.1262379E-14  0.1333333E+00
    1      -16.267129   1.000000
    2      -15.169158   1.000000
    3      -14.846104   1.000000
    4      -14.214913   1.000000
    5      -13.407827   1.000000
    6       -9.434305   1.000000
    7       -9.271898   1.000000
    8       -8.899770   1.000000
    9       -8.498844   1.000000
   10       -7.924299   1.000000
   11       -7.464880   1.000000
   12       -6.997585   1.000000
   13       -6.296062   1.000000
   14       -5.634639   1.000000
   15       -5.020747   1.000000
   16       -4.919750   1.000000
   17       -4.805921   1.000000
   18       -4.468123   1.000000
   19       -4.173029   1.000000
   20       -4.042856   1.000000
   21       -3.844388   1.000000
   22       -3.513043   1.000000
   23       -3.113090   1.000000
   24       -2.856110   1.000000
   25       -0.650478   0.000000
   26        0.081500   0.000000
   27        0.349755   0.000000
   28        0.639550   0.000000
   29        0.853804   0.000000
   30        1.227966   0.000000
   31        1.373050   0.000000
   32        1.684165   0.000000
