PROCAR lm decomposed
# of k-points:    8         # of bands:   32         # of ions:   15

 k-point     1 :    0.00000000 0.00000000 0.00000000     weight = 0.06666667

band     1 # energy  -16.36294593 # occ.  2.00000000

ion      s     py     pz     px    dxy    dyz    dz2    dxz  x2-y2    tot
    1  0.000  0.000  0.000  0.000  0.000  0.000  0.000  0.000  0.000  0.000
    2  0.000  0.000  0.000  0.000  0.000  0.000  0.000  0.000  0.000  0.000
    3  0.023  0.005  0.000  0.000  0.000  0.000  0.001  0.000  0.000  0.029
    4  0.023  0.005  0.000  0.000  0.000  0.000  0.001  0.000  0.000  0.029
    5  0.024  0.005  0.001  0.000  0.000  0.000  0.001  0.000  0.000  0.031
    6  0.024  0.005  0.001  0.000  0.000  0.000  0.001  0.000  0.000  0.031
    7  0.000  0.000  0.000  0.000  0.000  0.000  0.000  0.000  0.000  0.000
    8  0.000  0.000  0.000  0.000  0.000  0.000  0.000  0.000  0.000  0.000
    9  0.001  0.000  0.000  0.000  0.000  0.000  0.000  0.000  0.000  0.001
   10  0.001  0.000  0.000  0.000  0.000  0.000  0.000  0.000  0.000  0.001
   11  0.062  0.000  0.001  0.000  0.000  0.000  0.000  0.000  0.000  0.063
   12  0.254  0.001  0.004  0.000  0.000  0.000  0.000  0.000  0.000  0.259
   13  0.022  0.000  0.001  0.000  0.000  0.000  0.000  0.000  0.000  0.023
   14  0.072  0.000  0.006  0.000  0.000  0.000  0.000  0.000  0.000  0.079
   15  0.001  0.000  0.000  0.000  0.000  0.000  0.000  0.000  0.000  0.001
tot    0.508  0.021  0.013  0.001  0.000  0.001  0.003  0.001  0.000  0.547

band     2 # energy  -15.29573348 # occ.  2.00000000

ion      s     py     pz     px    dxy    dyz    dz2    dxz  x2-y2    tot
    1  0.037  0.009  0.000  0.000  0.000  0.000  0.002  0.000  0.000  0.047
    2  0.037  0.009  0.000  0.000  0.000  0.000  0.002  0.000  0.000  0.047
    3  0.000  0.000  0.000  0.000  0.000  0.000  0.000  0.000  0.000  0.000
    4  0.000  0.000  0.000  0.000  0.000  0.000  0.000  0.000  0.000  0.000
    5  0.000  0.000  0.000  0.000  0.000  0.000  0.000  0.000  0.000  0.000
    6  0.000  0.000  0.000  0.000  0.000  0.000  0.000  0.000  0.000  0.000
    7  0.039  0.009  0.000  0.000  0.000  0.000  0.002  0.000  0.000  0.050
    8  0.039  0.009  0.000  0.000  0.000  0.000  0.002  0.000  0.000  0.050
    9  0.160  0.000  0.000  0.000  0.000  0.000  0.000  0.000  0.000  0.160
   10  0.164  0.000  0.000  0.000  0.000  0.000  0.000  0.000  0.000  0.164
   11  0.000  0.000  0.000  0.000  0.000  0.000  0.000  0.000  0.000  0.000
   12  0.004  0.000  0.000  0.000  0.000  0.000  0.000  0.000  0.000  0.004
   13  0.002  0.000  0.000  0.000  0.000  0.000  0.000  0.000  0.000  0.002
   14  0.001  0.000  0.000  0.000  0.000  0.000  0.000  0.000  0.000  0.002
   15  0.000  0.000  0.000  0.000  0.000  0.000  0.000  0.000  0.000  0.000
tot    0.483  0.037  0.000  0.000  0.000  0.000  0.008  0.000  0.000  0.529

band     3 # energy  -14.76981697 # occ.  2.00000000

ion      s     py     pz     px    dxy    dyz    dz2    dxz  x2-y2    tot
    1  0.000  0.000  0.000  0.000  0.000  0.000  0.000  0.000  0.000  0.000
    2  0.000  0.000  0.000  0.000  0.000  0.000  0.000  0.000  0.000  0.000
    3  0.003  0.000  0.001  0.004  0.000  0.000  0.000  0.000  0.000  0.008
    4  0.003  0.000  0.001  0.004  0.000  0.000  0.000  0.000  0.000  0.008
    5  0.000  0.000  0.000  0.002  0.001  0.000  0.000  0.000  0.000  0.003
    6  0.000  0.000  0.000  0.002  0.001  0.000  0.000  0.000  0.000  0.003
    7  0.001  0.000  0.000  0.000  0.000  0.000  0.000  0.000  0.000  0.001
    8  0.001  0.000  0.000  0.000  0.000  0.000  0.000  0.000  0.000  0.001
    9  0.001  0.000  0.000  0.000  0.000  0.000  0.000  0.000  0.000  0.001
   10  0.002  0.000  0.000  0.000  0.000  0.000  0.000  0.000  0.000  0.002
   11  0.018  0.000  0.000  0.000  0.000  0.000  0.000  0.000  0.000  0.019
   12  0.044  0.000  0.001  0.000  0.000  0.000  0.000  0.000  0.000  0.046
   13  0.589  0.006  0.001  0.000  0.000  0.000  0.000  0.000  0.001  0.599
   14  0.015  0.000  0.001  0.000  0.000  0.000  0.000  0.000  0.000  0.016
   15  0.041  0.003  0.000  0.000  0.000  0.000  0.000  0.000  0.000  0.043
tot    0.718  0.011  0.006  0.012  0.002  0.000  0.000  0.000  0.001  0.751

band     4 # energy  -14.07535567 # occ.  2.00000000

ion      s     py     pz     px    dxy    dyz    dz2    dxz  x2-y2    tot
    1  0.000  0.000  0.000  0.000  0.000  0.000  0.000  0.000  0.000  0.000
    2  0.000  0.000  0.000  0.000  0.000  0.000  0.000  0.000  0.000  0.000
    3  0.004  0.002  0.002  0.008  0.003  0.000  0.000  0.000  0.000  0.020
    4  0.004  0.002  0.002  0.008  0.003  0.000  0.000  0.000  0.000  0.020
    5  0.011  0.003  0.000  0.013  0.004  0.000  0.001  0.000  0.000  0.032
    6  0.011  0.003  0.000  0.013  0.004  0.000  0.001  0.000  0.000  0.032
    7  0.000  0.000  0.000  0.000  0.000  0.000  0.000  0.000  0.000  0.000
    8  0.000  0.000  0.000  0.000  0.000  0.000  0.000  0.000  0.000  0.000
    9  0.000  0.000  0.000  0.000  0.000  0.000  0.000  0.000  0.000  0.000
   10  0.000  0.000  0.000  0.000  0.000  0.000  0.000  0.000  0.000  0.000
   11  0.284  0.000  0.001  0.000  0.000  0.000  0.000  0.000  0.000  0.285
   12  0.062  0.000  0.006  0.000  0.000  0.000  0.000  0.000  0.000  0.068
   13  0.093  0.002  0.000  0.000  0.000  0.000  0.000  0.000  0.000  0.096
   14  0.031  0.000  0.002  0.000  0.000  0.000  0.000  0.000  0.000  0.033
   15  0.009  0.000  0.000  0.000  0.000  0.000  0.000  0.000  0.000  0.009
tot    0.511  0.013  0.014  0.042  0.013  0.001  0.002  0.001  0.000  0.596

band     5 # energy  -13.00672096 # occ.  2.00000000

ion      s     py     pz     px    dxy    dyz    dz2    dxz  x2-y2    tot
    1  0.000  0.000  0.000  0.022  0.006  0.000  0.000  0.000  0.000  0.028
    2  0.000  0.000  0.000  0.022  0.006  0.000  0.000  0.000  0.000  0.028
    3  0.000  0.000  0.000  0.000  0.000  0.000  0.000  0.000  0.000  0.000
    4  0.000  0.000  0.000  0.000  0.000  0.000  0.000  0.000  0.000  0.000
    5  0.000  0.000  0.000  0.000  0.000  0.000  0.000  0.000  0.000  0.000
    6  0.000  0.000  0.000  0.000  0.000  0.000  0.000  0.000  0.000  0.000
    7  0.000  0.000  0.000  0.024  0.007  0.000  0.000  0.000  0.000  0.031
    8  0.000  0.000  0.000  0.024  0.007  0.000  0.000  0.000  0.000  0.031
    9  0.221  0.000  0.000  0.000  0.000  0.000  0.000  0.000  0.000  0.221
   10  0.217  0.000  0.000  0.000  0.000  0.000  0.000  0.000  0.000  0.217
   11  0.000  0.000  0.000  0.000  0.000  0.000  0.000  0.000  0.000  0.000
   12  0.000  0.000  0.000  0.000  0.000  0.000  0.000  0.000  0.000  0.000
   13  0.000  0.000  0.000  0.000  0.000  0.000  0.000  0.000  0.000  0.000
   14  0.000  0.000  0.000  0.000  0.000  0.000  0.000  0.000  0.000  0.000
   15  0.000  0.000  0.000  0.000  0.000  0.000  0.000  0.000  0.000  0.000
tot    0.438  0.000  0.000  0.091  0.027  0.000  0.000  0.000  0.000  0.556

band     6 # energy   -9.74343747 # occ.  2.00000000

ion      s     py     pz     px    dxy    dyz    dz2    dxz  x2-y2    tot
    1  0.024  0.004  0.000  0.000  0.000  0.000  0.000  0.000  0.001  0.029
    2  0.025  0.004  0.000  0.000  0.000  0.000  0.000  0.000  0.001  0.030
    3  0.041  0.007  0.000  0.000  0.000  0.000  0.000  0.000  0.001  0.050
    4  0.042  0.007  0.000  0.000  0.000  0.000  0.000  0.000  0.001  0.052
    5  0.046  0.008  0.000  0.000  0.000  0.000  0.001  0.000  0.001  0.056
    6  0.044  0.008  0.000  0.000  0.000  0.000  0.000  0.000  0.001  0.055
    7  0.026  0.004  0.000  0.000  0.000  0.000  0.001  0.000  0.001  0.031
    8  0.025  0.004  0.000  0.000  0.000  0.000  0.001  0.000  0.001  0.030
    9  0.000  0.000  0.000  0.030  0.000  0.000  0.000  0.000  0.000  0.030
   10  0.000  0.000  0.000  0.030  0.000  0.000  0.000  0.000  0.000  0.030
   11  0.000  0.000  0.000  0.058  0.000  0.000  0.000  0.000  0.000  0.058
   12  0.000  0.000  0.000  0.059  0.000  0.000  0.000  0.000  0.000  0.059
   13  0.000  0.000  0.000  0.003  0.000  0.000  0.000  0.000  0.000  0.004
   14  0.000  0.000  0.000  0.001  0.000  0.000  0.000  0.000  0.000  0.001
   15  0.000  0.000  0.000  0.000  0.000  0.000  0.000  0.000  0.000  0.000
tot    0.272  0.045  0.001  0.182  0.000  0.001  0.004  0.001  0.009  0.515

band     7 # energy   -9.71873703 # occ.  2.00000000

ion      s     py     pz     px    dxy    dyz    dz2    dxz  x2-y2    tot
    1  0.029  0.001  0.000  0.000  0.000  0.000  0.000  0.000  0.000  0.031
    2  0.028  0.001  0.000  0.000  0.000  0.000  0.000  0.000  0.000  0.030
    3  0.043  0.001  0.000  0.000  0.000  0.000  0.000  0.000  0.000  0.045
    4  0.042  0.001  0.000  0.000  0.000  0.000  0.000  0.000  0.000  0.044
    5  0.038  0.002  0.000  0.000  0.000  0.000  0.000  0.000  0.001  0.041
    6  0.039  0.002  0.000  0.000  0.000  0.000  0.000  0.000  0.000  0.042
    7  0.028  0.002  0.000  0.000  0.000  0.000  0.000  0.000  0.000  0.031
    8  0.029  0.002  0.000  0.000  0.000  0.000  0.000  0.000  0.000  0.032
    9  0.000  0.015  0.000  0.000  0.000  0.000  0.000  0.000  0.000  0.015
   10  0.000  0.015  0.000  0.000  0.000  0.000  0.000  0.000  0.000  0.015
   11  0.000  0.027  0.001  0.000  0.000  0.000  0.000  0.000  0.000  0.028
   12  0.000  0.020  0.000  0.000  0.000  0.000  0.000  0.000  0.000  0.020
   13  0.010  0.003  0.014  0.000  0.000  0.000  0.001  0.000  0.001  0.028
   14  0.000  0.000  0.000  0.000  0.000  0.000  0.000  0.000  0.000  0.001
   15  0.006  0.000  0.000  0.000  0.000  0.000  0.000  0.000  0.000  0.006
tot    0.291  0.093  0.015  0.001  0.000  0.000  0.004  0.000  0.003  0.408

band     8 # energy   -9.43488944 # occ.  2.00000000

ion      s     py     pz     px    dxy    dyz    dz2    dxz  x2-y2    tot
    1  0.039  0.015  0.000  0.000  0.000  0.000  0.001  0.000  0.001  0.056
    2  0.039  0.015  0.000  0.000  0.000  0.000  0.001  0.000  0.001  0.056
    3  0.016  0.007  0.000  0.000  0.000  0.000  0.000  0.000  0.000  0.024
    4  0.016  0.007  0.000  0.000  0.000  0.000  0.000  0.000  0.000  0.024
    5  0.017  0.008  0.000  0.000  0.000  0.000  0.000  0.000  0.000  0.026
    6  0.017  0.008  0.000  0.000  0.000  0.000  0.000  0.000  0.000  0.026
    7  0.042  0.015  0.000  0.000  0.000  0.000  0.001  0.000  0.001  0.059
    8  0.042  0.015  0.000  0.000  0.000  0.000  0.001  0.000  0.001  0.059
    9  0.000  0.000  0.000  0.069  0.000  0.000  0.000  0.000  0.000  0.069
   10  0.000  0.000  0.000  0.070  0.000  0.000  0.000  0.000  0.000  0.070
   11  0.000  0.000  0.000  0.033  0.000  0.000  0.000  0.000  0.000  0.033
   12  0.000  0.000  0.000  0.034  0.000  0.000  0.000  0.000  0.000  0.034
   13  0.000  0.000  0.000  0.001  0.000  0.000  0.000  0.000  0.000  0.001
   14  0.000  0.000  0.000  0.001  0.000  0.000  0.000  0.000  0.000  0.001
   15  0.000  0.000  0.000  0.000  0.000  0.000  0.000  0.000  0.000  0.000
tot    0.230  0.089  0.001  0.206  0.000  0.000  0.004  0.000  0.006  0.537

band     9 # energy   -8.31731182 # occ.  2.00000000

ion      s     py     pz     px    dxy    dyz    dz2    dxz  x2-y2    tot
    1  0.002  0.001  0.000  0.000  0.000  0.000  0.000  0.000  0.000  0.004
    2  0.002  0.001  0.000  0.000  0.000  0.000  0.000  0.000  0.000  0.004
    3  0.005  0.000  0.004  0.008  0.001  0.000  0.000  0.000  0.000  0.018
    4  0.005  0.000  0.004  0.008  0.001  0.000  0.000  0.000  0.000  0.018
    5  0.013  0.000  0.002  0.006  0.001  0.000  0.001  0.000  0.000  0.024
    6  0.013  0.000  0.002  0.006  0.001  0.000  0.001  0.000  0.000  0.024
    7  0.000  0.001  0.000  0.000  0.000  0.000  0.000  0.000  0.000  0.001
    8  0.000  0.001  0.000  0.000  0.000  0.000  0.000  0.000  0.000  0.001
    9  0.001  0.000  0.000  0.000  0.000  0.000  0.000  0.000  0.000  0.001
   10  0.001  0.000  0.000  0.000  0.000  0.000  0.000  0.000  0.000  0.002
   11  0.010  0.000  0.004  0.000  0.000  0.000  0.000  0.000  0.000  0.014
   12  0.008  0.005  0.176  0.000  0.000  0.000  0.000  0.000  0.000  0.189
   13  0.001  0.030  0.004  0.000  0.000  0.000  0.000  0.000  0.001  0.037
   14  0.136  0.000  0.003  0.000  0.000  0.000  0.000  0.000  0.000  0.140
   15  0.016  0.000  0.000  0.000  0.000  0.000  0.000  0.000  0.000  0.017
tot    0.213  0.043  0.198  0.029  0.005  0.001  0.002  0.001  0.001  0.494

band    10 # energy   -7.87049184 # occ.  2.00000000

ion      s     py     pz     px    dxy    dyz    dz2    dxz  x2-y2    tot
    1  0.016  0.001  0.000  0.000  0.000  0.000  0.000  0.000  0.001  0.019
    2  0.016  0.001  0.000  0.000  0.000  0.000  0.000  0.000  0.001  0.019
    3  0.023  0.000  0.001  0.000  0.000  0.000  0.000  0.000  0.001  0.026
    4  0.023  0.000  0.001  0.000  0.000  0.000  0.000  0.000  0.001  0.026
    5  0.001  0.003  0.000  0.003  0.000  0.000  0.000  0.000  0.001  0.009
    6  0.001  0.003  0.000  0.003  0.000  0.000  0.000  0.000  0.001  0.009
    7  0.028  0.001  0.000  0.000  0.000  0.000  0.000  0.000  0.001  0.030
    8  0.028  0.001  0.000  0.000  0.000  0.000  0.000  0.000  0.001  0.030
    9  0.000  0.024  0.000  0.000  0.000  0.000  0.000  0.000  0.000  0.024
   10  0.001  0.027  0.000  0.000  0.000  0.000  0.000  0.000  0.000  0.028
   11  0.013  0.021  0.004  0.000  0.000  0.000  0.000  0.000  0.000  0.038
   12  0.000  0.011  0.012  0.000  0.000  0.000  0.000  0.000  0.000  0.024
   13  0.005  0.109  0.040  0.000  0.000  0.000  0.004  0.000  0.006  0.165
   14  0.017  0.000  0.001  0.000  0.000  0.000  0.000  0.000  0.000  0.018
   15  0.077  0.001  0.000  0.000  0.000  0.000  0.000  0.000  0.000  0.078
tot    0.249  0.203  0.060  0.007  0.001  0.000  0.005  0.001  0.016  0.543

band    11 # energy   -7.05007816 # occ.  2.00000000

ion      s     py     pz     px    dxy    dyz    dz2    dxz  x2-y2    tot
    1  0.028  0.001  0.000  0.000  0.000  0.000  0.000  0.000  0.001  0.031
    2  0.028  0.001  0.000  0.000  0.000  0.000  0.000  0.000  0.001  0.031
    3  0.004  0.005  0.001  0.001  0.000  0.000  0.000  0.001  0.001  0.013
    4  0.004  0.005  0.001  0.001  0.000  0.000  0.000  0.001  0.001  0.013
    5  0.031  0.002  0.000  0.001  0.000  0.000  0.000  0.000  0.001  0.035
    6  0.031  0.002  0.000  0.001  0.000  0.000  0.000  0.000  0.001  0.035
    7  0.009  0.004  0.000  0.000  0.000  0.000  0.000  0.000  0.002  0.015
    8  0.009  0.004  0.000  0.000  0.000  0.000  0.000  0.000  0.002  0.015
    9  0.001  0.029  0.000  0.000  0.000  0.000  0.000  0.000  0.000  0.031
   10  0.002  0.027  0.000  0.000  0.000  0.000  0.000  0.000  0.000  0.029
   11  0.009  0.019  0.000  0.000  0.000  0.000  0.000  0.000  0.000  0.029
   12  0.004  0.041  0.002  0.000  0.000  0.000  0.000  0.000  0.000  0.047
   13  0.016  0.105  0.008  0.000  0.000  0.001  0.002  0.000  0.004  0.135
   14  0.000  0.001  0.000  0.000  0.000  0.000  0.000  0.000  0.000  0.001
   15  0.064  0.001  0.000  0.000  0.000  0.000  0.000  0.000  0.000  0.065
tot    0.240  0.246  0.013  0.003  0.000  0.001  0.003  0.002  0.017  0.525

band    12 # energy   -6.83076120 # occ.  2.00000000

ion      s     py     pz     px    dxy    dyz    dz2    dxz  x2-y2    tot
    1  0.004  0.011  0.001  0.001  0.000  0.000  0.000  0.000  0.000  0.017
    2  0.004  0.011  0.001  0.001  0.000  0.000  0.000  0.000  0.000  0.017
    3  0.010  0.013  0.000  0.005  0.000  0.000  0.000  0.000  0.000  0.028
    4  0.010  0.013  0.000  0.005  0.000  0.000  0.000  0.000  0.000  0.028
    5  0.003  0.014  0.000  0.000  0.000  0.000  0.000  0.000  0.000  0.017
    6  0.003  0.014  0.000  0.000  0.000  0.000  0.000  0.000  0.000  0.017
    7  0.011  0.010  0.000  0.001  0.000  0.000  0.000  0.000  0.000  0.022
    8  0.011  0.010  0.000  0.001  0.000  0.000  0.000  0.000  0.000  0.022
    9  0.010  0.000  0.001  0.000  0.000  0.000  0.000  0.000  0.000  0.011
   10  0.008  0.005  0.001  0.000  0.000  0.000  0.000  0.000  0.000  0.013
   11  0.004  0.006  0.000  0.000  0.000  0.000  0.000  0.000  0.000  0.010
   12  0.011  0.006  0.029  0.000  0.000  0.000  0.000  0.000  0.000  0.045
   13  0.038  0.076  0.028  0.000  0.000  0.000  0.000  0.000  0.001  0.143
   14  0.017  0.000  0.000  0.000  0.000  0.000  0.000  0.000  0.000  0.017
   15  0.025  0.000  0.000  0.000  0.000  0.000  0.000  0.000  0.000  0.025
tot    0.167  0.189  0.062  0.014  0.000  0.000  0.000  0.000  0.002  0.435

band    13 # energy   -6.42491179 # occ.  2.00000000

ion      s     py     pz     px    dxy    dyz    dz2    dxz  x2-y2    tot
    1  0.001  0.002  0.000  0.012  0.000  0.000  0.000  0.000  0.000  0.015
    2  0.001  0.002  0.000  0.012  0.000  0.000  0.000  0.000  0.000  0.015
    3  0.001  0.002  0.001  0.026  0.000  0.000  0.000  0.000  0.000  0.031
    4  0.001  0.002  0.001  0.026  0.000  0.000  0.000  0.000  0.000  0.031
    5  0.001  0.002  0.001  0.030  0.000  0.000  0.000  0.000  0.000  0.034
    6  0.001  0.002  0.001  0.030  0.000  0.000  0.000  0.000  0.000  0.034
    7  0.001  0.002  0.000  0.013  0.000  0.000  0.000  0.000  0.000  0.016
    8  0.001  0.002  0.000  0.013  0.000  0.000  0.000  0.000  0.000  0.016
    9  0.002  0.025  0.000  0.000  0.000  0.000  0.000  0.000  0.000  0.027
   10  0.001  0.025  0.000  0.000  0.000  0.000  0.000  0.000  0.000  0.026
   11  0.001  0.061  0.002  0.000  0.000  0.000  0.000  0.000  0.000  0.063
   12  0.001  0.078  0.011  0.000  0.000  0.000  0.000  0.000  0.000  0.090
   13  0.000  0.001  0.001  0.000  0.000  0.000  0.000  0.000  0.000  0.003
   14  0.001  0.002  0.000  0.000  0.000  0.000  0.000  0.000  0.000  0.002
   15  0.001  0.000  0.000  0.000  0.000  0.000  0.000  0.000  0.000  0.001
tot    0.015  0.207  0.019  0.161  0.002  0.001  0.000  0.000  0.000  0.405

band    14 # energy   -5.56467850 # occ.  2.00000000

ion      s     py     pz     px    dxy    dyz    dz2    dxz  x2-y2    tot
    1  0.000  0.000  0.000  0.035  0.002  0.000  0.000  0.000  0.000  0.037
    2  0.000  0.000  0.000  0.035  0.002  0.000  0.000  0.000  0.000  0.037
    3  0.000  0.000  0.000  0.010  0.001  0.000  0.000  0.000  0.000  0.011
    4  0.000  0.000  0.000  0.010  0.001  0.000  0.000  0.000  0.000  0.012
    5  0.000  0.000  0.001  0.009  0.001  0.000  0.000  0.000  0.000  0.011
    6  0.000  0.000  0.001  0.009  0.001  0.000  0.000  0.000  0.000  0.011
    7  0.000  0.000  0.000  0.036  0.001  0.000  0.000  0.000  0.000  0.037
    8  0.000  0.000  0.000  0.036  0.001  0.000  0.000  0.000  0.000  0.037
    9  0.000  0.101  0.000  0.000  0.000  0.000  0.000  0.000  0.000  0.101
   10  0.000  0.097  0.001  0.000  0.000  0.000  0.000  0.000  0.000  0.098
   11  0.000  0.032  0.003  0.000  0.000  0.000  0.000  0.000  0.000  0.035
   12  0.000  0.040  0.003  0.000  0.000  0.000  0.000  0.000  0.000  0.042
   13  0.001  0.003  0.003  0.000  0.000  0.000  0.000  0.000  0.000  0.007
   14  0.000  0.001  0.000  0.000  0.000  0.000  0.000  0.000  0.000  0.001
   15  0.002  0.000  0.000  0.000  0.000  0.000  0.000  0.000  0.000  0.002
tot    0.003  0.275  0.012  0.180  0.010  0.000  0.000  0.000  0.000  0.480

band    15 # energy   -5.49567242 # occ.  2.00000000

ion      s     py     pz     px    dxy    dyz    dz2    dxz  x2-y2    tot
    1  0.022  0.006  0.001  0.000  0.000  0.000  0.000  0.000  0.001  0.029
    2  0.022  0.006  0.001  0.000  0.000  0.000  0.000  0.000  0.001  0.029
    3  0.041  0.010  0.003  0.000  0.000  0.000  0.001  0.000  0.000  0.056
    4  0.041  0.010  0.003  0.000  0.000  0.000  0.001  0.000  0.000  0.056
    5  0.036  0.002  0.000  0.000  0.000  0.000  0.000  0.000  0.001  0.039
    6  0.036  0.002  0.000  0.000  0.000  0.000  0.000  0.000  0.001  0.039
    7  0.019  0.004  0.000  0.000  0.000  0.000  0.000  0.000  0.000  0.024
    8  0.019  0.004  0.000  0.000  0.000  0.000  0.000  0.000  0.000  0.023
    9  0.000  0.000  0.000  0.000  0.000  0.000  0.000  0.000  0.000  0.000
   10  0.000  0.000  0.000  0.000  0.000  0.000  0.000  0.000  0.000  0.000
   11  0.000  0.000  0.000  0.009  0.000  0.000  0.000  0.000  0.000  0.009
   12  0.000  0.000  0.000  0.000  0.000  0.000  0.000  0.000  0.000  0.000
   13  0.000  0.000  0.000  0.165  0.000  0.000  0.000  0.004  0.000  0.168
   14  0.000  0.000  0.000  0.000  0.000  0.000  0.000  0.000  0.000  0.000
   15  0.000  0.000  0.000  0.000  0.000  0.000  0.000  0.000  0.000  0.000
tot    0.236  0.044  0.008  0.174  0.000  0.001  0.001  0.004  0.004  0.472

band    16 # energy   -5.19495120 # occ.  2.00000000

ion      s     py     pz     px    dxy    dyz    dz2    dxz  x2-y2    tot
    1  0.001  0.003  0.017  0.000  0.000  0.001  0.000  0.000  0.000  0.023
    2  0.001  0.003  0.017  0.000  0.000  0.001  0.000  0.000  0.000  0.023
    3  0.000  0.001  0.005  0.000  0.000  0.000  0.000  0.001  0.000  0.007
    4  0.000  0.001  0.005  0.000  0.000  0.000  0.000  0.001  0.000  0.007
    5  0.000  0.001  0.002  0.001  0.000  0.000  0.000  0.000  0.000  0.005
    6  0.000  0.001  0.002  0.001  0.000  0.000  0.000  0.000  0.000  0.005
    7  0.001  0.001  0.018  0.000  0.000  0.002  0.000  0.000  0.000  0.023
    8  0.001  0.001  0.019  0.000  0.000  0.002  0.000  0.000  0.000  0.023
    9  0.000  0.000  0.061  0.000  0.000  0.000  0.000  0.000  0.000  0.062
   10  0.001  0.001  0.058  0.000  0.000  0.000  0.000  0.000  0.000  0.060
   11  0.001  0.011  0.015  0.000  0.000  0.000  0.000  0.000  0.000  0.027
   12  0.001  0.001  0.006  0.000  0.000  0.000  0.000  0.000  0.000  0.007
   13  0.003  0.002  0.037  0.000  0.000  0.000  0.000  0.000  0.000  0.042
   14  0.006  0.000  0.000  0.000  0.000  0.000  0.000  0.000  0.000  0.006
   15  0.000  0.000  0.000  0.000  0.000  0.000  0.000  0.000  0.000  0.000
tot    0.017  0.027  0.263  0.003  0.000  0.006  0.000  0.002  0.000  0.320

band    17 # energy   -4.75048658 # occ.  2.00000000

ion      s     py     pz     px    dxy    dyz    dz2    dxz  x2-y2    tot
    1  0.001  0.001  0.005  0.000  0.000  0.001  0.000  0.000  0.000  0.009
    2  0.001  0.001  0.005  0.000  0.000  0.001  0.000  0.000  0.000  0.009
    3  0.000  0.001  0.013  0.000  0.000  0.000  0.000  0.002  0.000  0.016
    4  0.000  0.001  0.013  0.000  0.000  0.000  0.000  0.002  0.000  0.016
    5  0.002  0.001  0.002  0.002  0.000  0.001  0.000  0.001  0.001  0.008
    6  0.002  0.001  0.002  0.002  0.000  0.001  0.000  0.001  0.001  0.008
    7  0.001  0.001  0.008  0.000  0.000  0.001  0.000  0.000  0.000  0.011
    8  0.001  0.001  0.008  0.000  0.000  0.001  0.000  0.000  0.000  0.011
    9  0.001  0.001  0.025  0.000  0.000  0.000  0.000  0.000  0.000  0.026
   10  0.001  0.000  0.032  0.000  0.000  0.000  0.000  0.000  0.000  0.033
   11  0.004  0.026  0.038  0.000  0.000  0.000  0.000  0.000  0.000  0.068
   12  0.000  0.000  0.005  0.000  0.000  0.000  0.000  0.000  0.000  0.005
   13  0.011  0.031  0.163  0.000  0.000  0.000  0.000  0.000  0.001  0.206
   14  0.006  0.000  0.000  0.000  0.000  0.000  0.000  0.000  0.000  0.006
   15  0.008  0.000  0.000  0.000  0.000  0.000  0.000  0.000  0.000  0.008
tot    0.040  0.065  0.319  0.004  0.001  0.006  0.000  0.006  0.002  0.442

band    18 # energy   -4.39549226 # occ.  2.00000000

ion      s     py     pz     px    dxy    dyz    dz2    dxz  x2-y2    tot
    1  0.009  0.000  0.000  0.000  0.000  0.000  0.000  0.000  0.000  0.010
    2  0.010  0.000  0.000  0.000  0.000  0.000  0.000  0.000  0.000  0.010
    3  0.002  0.001  0.011  0.001  0.001  0.000  0.001  0.000  0.000  0.018
    4  0.002  0.001  0.011  0.001  0.001  0.000  0.001  0.000  0.000  0.018
    5  0.016  0.027  0.000  0.004  0.001  0.000  0.000  0.000  0.000  0.049
    6  0.016  0.027  0.000  0.004  0.001  0.000  0.000  0.000  0.000  0.049
    7  0.028  0.017  0.000  0.000  0.000  0.000  0.000  0.000  0.001  0.046
    8  0.028  0.017  0.000  0.000  0.000  0.000  0.000  0.000  0.001  0.046
    9  0.000  0.000  0.000  0.002  0.000  0.000  0.000  0.000  0.000  0.002
   10  0.000  0.000  0.000  0.002  0.000  0.000  0.000  0.000  0.000  0.002
   11  0.000  0.000  0.000  0.062  0.000  0.000  0.000  0.000  0.000  0.062
   12  0.000  0.000  0.000  0.008  0.000  0.000  0.000  0.000  0.000  0.008
   13  0.000  0.000  0.000  0.163  0.000  0.000  0.000  0.001  0.000  0.164
   14  0.000  0.000  0.000  0.000  0.000  0.000  0.000  0.000  0.000  0.000
   15  0.000  0.000  0.000  0.000  0.000  0.000  0.000  0.000  0.000  0.000
tot    0.110  0.089  0.024  0.248  0.005  0.001  0.002  0.001  0.003  0.483

band    19 # energy   -4.00288458 # occ.  2.00000000

ion      s     py     pz     px    dxy    dyz    dz2    dxz  x2-y2    tot
    1  0.001  0.006  0.000  0.000  0.000  0.000  0.000  0.000  0.000  0.008
    2  0.001  0.006  0.000  0.000  0.000  0.000  0.000  0.000  0.000  0.008
    3  0.003  0.007  0.003  0.013  0.007  0.001  0.000  0.000  0.000  0.033
    4  0.003  0.007  0.003  0.013  0.007  0.001  0.000  0.000  0.000  0.033
    5  0.009  0.004  0.009  0.015  0.008  0.001  0.000  0.001  0.001  0.046
    6  0.009  0.004  0.009  0.015  0.007  0.001  0.000  0.001  0.001  0.046
    7  0.004  0.009  0.000  0.000  0.000  0.000  0.000  0.000  0.000  0.013
    8  0.004  0.009  0.000  0.000  0.000  0.000  0.000  0.000  0.000  0.013
    9  0.000  0.000  0.000  0.002  0.000  0.000  0.000  0.000  0.000  0.002
   10  0.000  0.000  0.000  0.004  0.000  0.000  0.000  0.000  0.000  0.004
   11  0.000  0.000  0.000  0.097  0.000  0.000  0.000  0.000  0.000  0.097
   12  0.000  0.000  0.000  0.190  0.000  0.000  0.000  0.000  0.000  0.190
   13  0.000  0.000  0.000  0.021  0.000  0.000  0.000  0.000  0.000  0.021
   14  0.000  0.000  0.000  0.004  0.000  0.000  0.000  0.000  0.000  0.004
   15  0.000  0.000  0.000  0.000  0.000  0.000  0.000  0.000  0.000  0.000
tot    0.034  0.050  0.024  0.372  0.028  0.005  0.001  0.001  0.002  0.518

band    20 # energy   -3.71000115 # occ.  2.00000000

ion      s     py     pz     px    dxy    dyz    dz2    dxz  x2-y2    tot
    1  0.002  0.000  0.001  0.000  0.000  0.000  0.000  0.000  0.000  0.004
    2  0.002  0.000  0.001  0.000  0.000  0.000  0.000  0.000  0.000  0.004
    3  0.001  0.006  0.000  0.000  0.001  0.001  0.002  0.000  0.000  0.013
    4  0.002  0.005  0.000  0.000  0.002  0.001  0.002  0.000  0.000  0.013
    5  0.000  0.004  0.018  0.000  0.000  0.001  0.000  0.003  0.001  0.026
    6  0.000  0.004  0.018  0.000  0.000  0.001  0.000  0.003  0.001  0.027
    7  0.000  0.004  0.000  0.000  0.000  0.000  0.000  0.000  0.000  0.006
    8  0.000  0.004  0.000  0.000  0.000  0.000  0.000  0.000  0.000  0.006
    9  0.001  0.008  0.000  0.000  0.000  0.000  0.000  0.000  0.000  0.009
   10  0.002  0.002  0.000  0.000  0.000  0.000  0.000  0.000  0.000  0.003
   11  0.001  0.012  0.139  0.000  0.000  0.000  0.000  0.000  0.000  0.152
   12  0.001  0.008  0.001  0.000  0.000  0.000  0.000  0.000  0.000  0.009
   13  0.002  0.000  0.134  0.000  0.000  0.002  0.000  0.000  0.002  0.140
   14  0.004  0.000  0.000  0.000  0.000  0.000  0.000  0.000  0.000  0.005
   15  0.006  0.000  0.000  0.000  0.000  0.000  0.000  0.000  0.000  0.007
tot    0.025  0.056  0.314  0.000  0.003  0.007  0.005  0.006  0.005  0.423

band    21 # energy   -3.27550522 # occ.  2.00000000

ion      s     py     pz     px    dxy    dyz    dz2    dxz  x2-y2    tot
    1  0.026  0.027  0.000  0.002  0.001  0.000  0.000  0.000  0.001  0.057
    2  0.026  0.027  0.000  0.002  0.001  0.000  0.000  0.000  0.001  0.057
    3  0.013  0.020  0.003  0.004  0.001  0.001  0.000  0.000  0.001  0.043
    4  0.013  0.020  0.003  0.004  0.001  0.001  0.000  0.000  0.001  0.043
    5  0.003  0.011  0.000  0.004  0.001  0.000  0.000  0.000  0.000  0.019
    6  0.003  0.011  0.000  0.004  0.001  0.000  0.000  0.000  0.000  0.019
    7  0.000  0.012  0.000  0.002  0.001  0.000  0.000  0.000  0.000  0.015
    8  0.000  0.012  0.000  0.002  0.001  0.000  0.000  0.000  0.000  0.015
    9  0.000  0.000  0.000  0.037  0.000  0.000  0.000  0.000  0.000  0.037
   10  0.000  0.000  0.000  0.001  0.000  0.000  0.000  0.000  0.000  0.001
   11  0.000  0.000  0.000  0.043  0.000  0.000  0.000  0.000  0.000  0.043
   12  0.000  0.000  0.000  0.009  0.000  0.000  0.000  0.000  0.000  0.009
   13  0.000  0.000  0.000  0.142  0.000  0.000  0.000  0.000  0.000  0.142
   14  0.000  0.000  0.000  0.000  0.000  0.000  0.000  0.000  0.000  0.000
   15  0.000  0.000  0.000  0.000  0.000  0.000  0.000  0.000  0.000  0.000
tot    0.084  0.139  0.007  0.256  0.008  0.002  0.001  0.000  0.003  0.502

band    22 # energy   -3.27310933 # occ.  2.00000000

ion      s     py     pz     px    dxy    dyz    dz2    dxz  x2-y2    tot
    1  0.002  0.002  0.000  0.030  0.015  0.000  0.000  0.000  0.000  0.048
    2  0.002  0.002  0.000  0.030  0.015  0.000  0.000  0.000  0.000  0.048
    3  0.001  0.001  0.000  0.000  0.000  0.000  0.000  0.000  0.000  0.002
    4  0.001  0.001  0.000  0.000  0.000  0.000  0.000  0.000  0.000  0.002
    5  0.000  0.001  0.000  0.000  0.000  0.000  0.000  0.000  0.000  0.001
    6  0.000  0.001  0.000  0.000  0.000  0.000  0.000  0.000  0.000  0.001
    7  0.000  0.001  0.000  0.033  0.016  0.000  0.000  0.000  0.000  0.050
    8  0.000  0.001  0.000  0.033  0.016  0.000  0.000  0.000  0.000  0.050
    9  0.000  0.000  0.000  0.187  0.000  0.000  0.000  0.000  0.000  0.187
   10  0.000  0.000  0.000  0.222  0.000  0.000  0.000  0.000  0.000  0.222
   11  0.000  0.000  0.000  0.003  0.000  0.000  0.000  0.000  0.000  0.003
   12  0.000  0.000  0.000  0.001  0.000  0.000  0.000  0.000  0.000  0.001
   13  0.000  0.000  0.000  0.008  0.000  0.000  0.000  0.000  0.000  0.008
   14  0.000  0.000  0.000  0.000  0.000  0.000  0.000  0.000  0.000  0.000
   15  0.000  0.000  0.000  0.000  0.000  0.000  0.000  0.000  0.000  0.000
tot    0.005  0.008  0.001  0.548  0.063  0.000  0.000  0.000  0.000  0.625

band    23 # energy   -2.76054989 # occ.  2.00000000

ion      s     py     pz     px    dxy    dyz    dz2    dxz  x2-y2    tot
    1  0.000  0.023  0.000  0.000  0.000  0.000  0.000  0.000  0.005  0.028
    2  0.000  0.023  0.000  0.000  0.000  0.000  0.000  0.000  0.005  0.028
    3  0.000  0.017  0.002  0.000  0.000  0.000  0.000  0.001  0.004  0.024
    4  0.000  0.017  0.002  0.000  0.000  0.000  0.000  0.001  0.004  0.024
    5  0.000  0.015  0.008  0.001  0.000  0.000  0.000  0.000  0.004  0.028
    6  0.000  0.015  0.008  0.001  0.000  0.000  0.000  0.000  0.004  0.028
    7  0.001  0.014  0.000  0.000  0.000  0.000  0.000  0.000  0.006  0.021
    8  0.001  0.014  0.000  0.000  0.000  0.000  0.000  0.000  0.006  0.021
    9  0.000  0.050  0.001  0.000  0.000  0.000  0.000  0.000  0.000  0.052
   10  0.000  0.063  0.000  0.000  0.000  0.000  0.000  0.000  0.000  0.064
   11  0.000  0.048  0.005  0.000  0.000  0.000  0.000  0.000  0.000  0.053
   12  0.000  0.048  0.003  0.000  0.000  0.000  0.000  0.000  0.000  0.051
   13  0.000  0.001  0.014  0.000  0.000  0.000  0.000  0.000  0.000  0.015
   14  0.000  0.001  0.000  0.000  0.000  0.000  0.000  0.000  0.000  0.001
   15  0.001  0.000  0.000  0.000  0.000  0.000  0.000  0.000  0.000  0.001
tot    0.004  0.348  0.044  0.003  0.000  0.002  0.001  0.001  0.037  0.440

band    24 # energy   -2.36709099 # occ.  2.00000000

ion      s     py     pz     px    dxy    dyz    dz2    dxz  x2-y2    tot
    1  0.000  0.000  0.000  0.000  0.000  0.000  0.000  0.009  0.000  0.010
    2  0.000  0.000  0.000  0.000  0.000  0.000  0.000  0.009  0.000  0.010
    3  0.000  0.000  0.000  0.000  0.000  0.000  0.000  0.000  0.000  0.000
    4  0.000  0.000  0.000  0.000  0.000  0.000  0.000  0.000  0.000  0.000
    5  0.000  0.000  0.000  0.000  0.000  0.000  0.000  0.000  0.000  0.000
    6  0.000  0.000  0.000  0.000  0.000  0.000  0.000  0.000  0.000  0.000
    7  0.000  0.000  0.000  0.000  0.000  0.000  0.000  0.010  0.000  0.011
    8  0.000  0.000  0.000  0.000  0.000  0.000  0.000  0.010  0.000  0.011
    9  0.001  0.001  0.164  0.000  0.000  0.000  0.000  0.000  0.000  0.166
   10  0.000  0.000  0.159  0.000  0.000  0.000  0.000  0.000  0.000  0.159
   11  0.000  0.000  0.000  0.000  0.000  0.000  0.000  0.000  0.000  0.000
   12  0.000  0.000  0.000  0.000  0.000  0.000  0.000  0.000  0.000  0.000
   13  0.000  0.001  0.000  0.000  0.000  0.000  0.000  0.000  0.000  0.001
   14  0.000  0.000  0.000  0.000  0.000  0.000  0.000  0.000  0.000  0.000
   15  0.000  0.000  0.000  0.000  0.000  0.000  0.000  0.000  0.000  0.000
tot    0.001  0.001  0.324  0.001  0.000  0.000  0.000  0.040  0.000  0.368

band    25 # energy   -0.96721256 # occ.  0.00000000

ion      s     py     pz     px    dxy    dyz    dz2    dxz  x2-y2    tot
    1  0.000  0.000  0.010  0.003  0.002  0.000  0.000  0.000  0.000  0.017
    2  0.000  0.000  0.010  0.003  0.002  0.000  0.000  0.000  0.000  0.017
    3  0.000  0.000  0.005  0.002  0.004  0.000  0.000  0.000  0.000  0.013
    4  0.000  0.000  0.005  0.002  0.004  0.000  0.000  0.000  0.000  0.013
    5  0.000  0.001  0.006  0.008  0.005  0.001  0.000  0.001  0.000  0.022
    6  0.000  0.001  0.006  0.008  0.005  0.001  0.000  0.001  0.000  0.022
    7  0.000  0.000  0.010  0.003  0.004  0.001  0.000  0.000  0.000  0.019
    8  0.000  0.000  0.010  0.003  0.004  0.001  0.000  0.000  0.000  0.019
    9  0.005  0.001  0.003  0.000  0.000  0.000  0.000  0.000  0.000  0.009
   10  0.006  0.000  0.000  0.000  0.000  0.000  0.000  0.000  0.000  0.006
   11  0.005  0.001  0.018  0.000  0.000  0.000  0.000  0.000  0.000  0.024
   12  0.008  0.001  0.003  0.000  0.000  0.000  0.000  0.000  0.000  0.012
   13  0.004  0.001  0.013  0.000  0.000  0.000  0.000  0.000  0.000  0.018
   14  0.000  0.000  0.000  0.000  0.000  0.000  0.000  0.000  0.000  0.000
   15  0.000  0.000  0.000  0.000  0.000  0.000  0.000  0.000  0.000  0.000
tot    0.029  0.007  0.101  0.034  0.032  0.006  0.001  0.001  0.001  0.211

band    26 # energy   -0.53062268 # occ.  0.00000000

ion      s     py     pz     px    dxy    dyz    dz2    dxz  x2-y2    tot
    1  0.001  0.000  0.008  0.006  0.005  0.000  0.000  0.000  0.000  0.019
    2  0.001  0.000  0.008  0.006  0.005  0.000  0.000  0.000  0.000  0.019
    3  0.000  0.000  0.000  0.011  0.003  0.000  0.002  0.000  0.000  0.016
    4  0.000  0.000  0.000  0.011  0.003  0.000  0.002  0.000  0.000  0.016
    5  0.000  0.000  0.003  0.005  0.004  0.003  0.000  0.000  0.000  0.015
    6  0.000  0.000  0.003  0.005  0.004  0.003  0.000  0.000  0.000  0.015
    7  0.000  0.000  0.009  0.004  0.005  0.002  0.000  0.000  0.000  0.020
    8  0.000  0.000  0.009  0.004  0.005  0.002  0.000  0.000  0.000  0.020
    9  0.011  0.000  0.000  0.000  0.000  0.000  0.000  0.000  0.000  0.011
   10  0.005  0.000  0.004  0.000  0.000  0.000  0.000  0.000  0.000  0.009
   11  0.003  0.000  0.013  0.000  0.000  0.000  0.000  0.000  0.000  0.017
   12  0.017  0.000  0.001  0.000  0.000  0.000  0.000  0.000  0.000  0.018
   13  0.000  0.001  0.035  0.000  0.000  0.001  0.003  0.000  0.000  0.039
   14  0.000  0.000  0.000  0.000  0.000  0.000  0.000  0.000  0.000  0.001
   15  0.001  0.000  0.000  0.000  0.000  0.000  0.000  0.000  0.000  0.001
tot    0.041  0.003  0.093  0.051  0.033  0.009  0.006  0.000  0.000  0.237

band    27 # energy    0.35409872 # occ.  0.00000000

ion      s     py     pz     px    dxy    dyz    dz2    dxz  x2-y2    tot
    1  0.001  0.002  0.004  0.000  0.000  0.004  0.000  0.000  0.000  0.011
    2  0.001  0.002  0.004  0.000  0.000  0.004  0.000  0.000  0.000  0.012
    3  0.003  0.004  0.004  0.000  0.000  0.003  0.001  0.002  0.000  0.016
    4  0.003  0.004  0.004  0.000  0.000  0.003  0.001  0.002  0.000  0.016
    5  0.001  0.003  0.006  0.000  0.000  0.001  0.001  0.001  0.000  0.013
    6  0.001  0.003  0.006  0.000  0.000  0.001  0.001  0.001  0.000  0.013
    7  0.000  0.000  0.000  0.000  0.000  0.003  0.000  0.000  0.000  0.003
    8  0.000  0.000  0.000  0.000  0.000  0.003  0.000  0.000  0.000  0.003
    9  0.002  0.001  0.009  0.000  0.000  0.000  0.000  0.000  0.000  0.012
   10  0.002  0.002  0.019  0.000  0.000  0.000  0.000  0.000  0.000  0.023
   11  0.005  0.002  0.017  0.000  0.000  0.000  0.000  0.000  0.000  0.024
   12  0.001  0.000  0.003  0.000  0.000  0.000  0.000  0.000  0.000  0.004
   13  0.000  0.009  0.021  0.000  0.000  0.004  0.003  0.000  0.010  0.046
   14  0.006  0.000  0.000  0.000  0.000  0.000  0.000  0.000  0.000  0.006
   15  0.017  0.000  0.000  0.000  0.000  0.000  0.000  0.000  0.000  0.017
tot    0.043  0.033  0.096  0.000  0.000  0.024  0.006  0.007  0.011  0.221

band    28 # energy    0.51122621 # occ.  0.00000000

ion      s     py     pz     px    dxy    dyz    dz2    dxz  x2-y2    tot
    1  0.000  0.000  0.030  0.000  0.000  0.001  0.000  0.000  0.000  0.032
    2  0.001  0.000  0.030  0.000  0.000  0.001  0.000  0.000  0.000  0.031
    3  0.000  0.000  0.003  0.001  0.001  0.000  0.000  0.000  0.000  0.006
    4  0.000  0.000  0.003  0.001  0.001  0.000  0.000  0.000  0.000  0.006
    5  0.001  0.000  0.021  0.002  0.001  0.001  0.000  0.000  0.000  0.025
    6  0.001  0.000  0.021  0.002  0.001  0.001  0.000  0.000  0.000  0.025
    7  0.001  0.000  0.051  0.000  0.000  0.000  0.000  0.000  0.000  0.052
    8  0.001  0.000  0.051  0.000  0.000  0.000  0.000  0.000  0.000  0.052
    9  0.000  0.000  0.000  0.000  0.000  0.000  0.000  0.000  0.000  0.000
   10  0.000  0.000  0.000  0.000  0.000  0.000  0.000  0.000  0.000  0.000
   11  0.000  0.000  0.000  0.006  0.000  0.000  0.000  0.000  0.000  0.006
   12  0.000  0.000  0.000  0.004  0.000  0.000  0.000  0.000  0.000  0.004
   13  0.000  0.000  0.000  0.010  0.000  0.000  0.000  0.001  0.000  0.011
   14  0.000  0.000  0.000  0.000  0.000  0.000  0.000  0.000  0.000  0.000
   15  0.000  0.000  0.000  0.000  0.000  0.000  0.000  0.000  0.000  0.000
tot    0.004  0.002  0.210  0.026  0.002  0.003  0.001  0.001  0.000  0.249

band    29 # energy    0.83376831 # occ.  0.00000000

ion      s     py     pz     px    dxy    dyz    dz2    dxz  x2-y2    tot
    1  0.003  0.002  0.002  0.001  0.000  0.001  0.000  0.000  0.000  0.010
    2  0.004  0.002  0.002  0.001  0.000  0.001  0.000  0.000  0.000  0.011
    3  0.005  0.000  0.000  0.000  0.000  0.000  0.001  0.000  0.000  0.007
    4  0.006  0.000  0.000  0.000  0.000  0.000  0.001  0.000  0.000  0.008
    5  0.005  0.000  0.000  0.000  0.002  0.001  0.003  0.000  0.000  0.011
    6  0.004  0.000  0.000  0.000  0.002  0.001  0.003  0.000  0.000  0.009
    7  0.006  0.005  0.001  0.001  0.001  0.000  0.000  0.000  0.000  0.015
    8  0.005  0.005  0.001  0.001  0.001  0.000  0.000  0.000  0.000  0.013
    9  0.000  0.000  0.005  0.000  0.000  0.000  0.000  0.000  0.000  0.005
   10  0.005  0.001  0.005  0.000  0.000  0.000  0.000  0.000  0.000  0.010
   11  0.016  0.005  0.005  0.000  0.000  0.000  0.000  0.000  0.000  0.026
   12  0.018  0.000  0.002  0.000  0.000  0.000  0.000  0.000  0.000  0.020
   13  0.037  0.025  0.001  0.000  0.000  0.000  0.002  0.000  0.003  0.068
   14  0.000  0.000  0.002  0.000  0.000  0.000  0.000  0.000  0.000  0.002
   15  0.013  0.002  0.000  0.000  0.000  0.000  0.000  0.000  0.000  0.015
tot    0.128  0.048  0.027  0.003  0.006  0.004  0.010  0.001  0.004  0.230

band    30 # energy    0.94740235 # occ.  0.00000000

ion      s     py     pz     px    dxy    dyz    dz2    dxz  x2-y2    tot
    1  0.052  0.000  0.002  0.000  0.000  0.000  0.002  0.000  0.001  0.056
    2  0.039  0.000  0.004  0.000  0.000  0.000  0.001  0.000  0.000  0.045
    3  0.071  0.000  0.002  0.000  0.000  0.000  0.000  0.000  0.000  0.074
    4  0.051  0.001  0.002  0.000  0.000  0.000  0.000  0.000  0.000  0.055
    5  0.040  0.001  0.001  0.001  0.000  0.000  0.001  0.000  0.000  0.045
    6  0.060  0.001  0.000  0.001  0.000  0.000  0.002  0.000  0.001  0.064
    7  0.042  0.001  0.000  0.000  0.000  0.000  0.001  0.000  0.000  0.045
    8  0.058  0.001  0.001  0.000  0.000  0.000  0.002  0.000  0.000  0.063
    9  0.004  0.000  0.000  0.000  0.000  0.000  0.000  0.000  0.000  0.005
   10  0.005  0.000  0.000  0.000  0.000  0.000  0.000  0.000  0.000  0.005
   11  0.003  0.000  0.002  0.000  0.000  0.000  0.000  0.000  0.000  0.006
   12  0.003  0.000  0.002  0.000  0.000  0.000  0.000  0.000  0.000  0.005
   13  0.000  0.004  0.002  0.026  0.000  0.000  0.001  0.008  0.000  0.042
   14  0.000  0.000  0.000  0.000  0.000  0.000  0.000  0.000  0.000  0.001
   15  0.000  0.000  0.000  0.000  0.000  0.000  0.000  0.000  0.000  0.001
tot    0.428  0.011  0.019  0.029  0.001  0.002  0.010  0.009  0.003  0.511

band    31 # energy    1.17737191 # occ.  0.00000000

ion      s     py     pz     px    dxy    dyz    dz2    dxz  x2-y2    tot
    1  0.006  0.000  0.001  0.000  0.000  0.000  0.001  0.000  0.000  0.010
    2  0.015  0.000  0.006  0.000  0.000  0.000  0.002  0.000  0.001  0.024
    3  0.012  0.002  0.000  0.000  0.000  0.001  0.000  0.000  0.000  0.015
    4  0.028  0.001  0.004  0.001  0.000  0.001  0.001  0.000  0.000  0.036
    5  0.030  0.002  0.010  0.001  0.000  0.000  0.001  0.001  0.001  0.046
    6  0.013  0.003  0.003  0.000  0.000  0.000  0.001  0.001  0.000  0.020
    7  0.021  0.003  0.003  0.000  0.000  0.000  0.004  0.000  0.000  0.032
    8  0.010  0.002  0.001  0.000  0.000  0.000  0.003  0.000  0.000  0.016
    9  0.010  0.002  0.000  0.000  0.000  0.000  0.000  0.000  0.000  0.012
   10  0.015  0.001  0.000  0.000  0.000  0.000  0.000  0.000  0.000  0.017
   11  0.011  0.001  0.004  0.001  0.000  0.000  0.000  0.000  0.000  0.017
   12  0.009  0.000  0.004  0.001  0.000  0.000  0.000  0.000  0.000  0.014
   13  0.002  0.003  0.004  0.005  0.001  0.002  0.001  0.002  0.002  0.022
   14  0.001  0.000  0.000  0.000  0.000  0.000  0.000  0.000  0.000  0.001
   15  0.005  0.000  0.000  0.000  0.000  0.000  0.000  0.000  0.000  0.005
tot    0.189  0.019  0.041  0.010  0.002  0.005  0.015  0.003  0.005  0.288

band    32 # energy    1.75459661 # occ.  0.00000000

ion      s     py     pz     px    dxy    dyz    dz2    dxz  x2-y2    tot
    1  0.000  0.002  0.038  0.000  0.001  0.000  0.000  0.000  0.000  0.041
    2  0.000  0.001  0.005  0.000  0.001  0.000  0.000  0.000  0.000  0.007
    3  0.000  0.000  0.005  0.006  0.000  0.002  0.000  0.000  0.000  0.014
    4  0.000  0.001  0.008  0.000  0.003  0.001  0.000  0.000  0.000  0.013
    5  0.001  0.001  0.008  0.000  0.003  0.000  0.001  0.000  0.000  0.014
    6  0.002  0.001  0.036  0.003  0.000  0.000  0.000  0.000  0.001  0.043
    7  0.001  0.000  0.004  0.000  0.001  0.002  0.000  0.000  0.000  0.007
    8  0.001  0.000  0.004  0.000  0.001  0.001  0.000  0.000  0.000  0.008
    9  0.000  0.006  0.000  0.000  0.000  0.000  0.000  0.000  0.000  0.007
   10  0.000  0.002  0.000  0.000  0.000  0.000  0.000  0.000  0.000  0.002
   11  0.000  0.009  0.001  0.002  0.000  0.000  0.000  0.000  0.000  0.012
   12  0.001  0.003  0.000  0.002  0.000  0.000  0.000  0.000  0.000  0.006
   13  0.006  0.001  0.000  0.000  0.002  0.000  0.004  0.000  0.002  0.015
   14  0.000  0.000  0.000  0.000  0.000  0.000  0.000  0.000  0.000  0.001
   15  0.001  0.000  0.000  0.000  0.000  0.000  0.000  0.000  0.000  0.001
tot    0.014  0.027  0.109  0.015  0.012  0.007  0.005  0.000  0.004  0.192


 k-point     2 :    0.20000000 0.00000000 0.00000000     weight = 0.13333333

band     1 # energy  -16.26936548 # occ.  2.00000000

ion      s     py     pz     px    dxy    dyz    dz2    dxz  x2-y2    tot
    1  0.000  0.000  0.000  0.000  0.000  0.000  0.000  0.000  0.000  0.000
    2  0.000  0.000  0.000  0.000  0.000  0.000  0.000  0.000  0.000  0.000
    3  0.021  0.005  0.000  0.001  0.000  0.000  0.001  0.000  0.000  0.028
    4  0.021  0.005  0.000  0.001  0.000  0.000  0.001  0.000  0.000  0.028
    5  0.022  0.005  0.001  0.001  0.000  0.000  0.001  0.000  0.000  0.030
    6  0.022  0.005  0.001  0.001  0.000  0.000  0.001  0.000  0.000  0.030
    7  0.000  0.000  0.000  0.000  0.000  0.000  0.000  0.000  0.000  0.000
    8  0.000  0.000  0.000  0.000  0.000  0.000  0.000  0.000  0.000  0.000
    9  0.000  0.000  0.000  0.000  0.000  0.000  0.000  0.000  0.000  0.000
   10  0.001  0.000  0.000  0.000  0.000  0.000  0.000  0.000  0.000  0.001
   11  0.052  0.000  0.001  0.001  0.000  0.000  0.000  0.000  0.000  0.053
   12  0.270  0.001  0.005  0.000  0.000  0.000  0.000  0.000  0.000  0.275
   13  0.020  0.000  0.001  0.000  0.000  0.000  0.000  0.000  0.000  0.020
   14  0.078  0.000  0.006  0.000  0.000  0.000  0.000  0.000  0.000  0.085
   15  0.001  0.000  0.000  0.000  0.000  0.000  0.000  0.000  0.000  0.001
tot    0.508  0.020  0.014  0.005  0.001  0.001  0.003  0.001  0.000  0.551

band     2 # energy  -15.16377815 # occ.  2.00000000

ion      s     py     pz     px    dxy    dyz    dz2    dxz  x2-y2    tot
    1  0.035  0.008  0.000  0.001  0.000  0.000  0.002  0.000  0.000  0.046
    2  0.035  0.008  0.000  0.001  0.000  0.000  0.002  0.000  0.000  0.046
    3  0.000  0.000  0.000  0.000  0.000  0.000  0.000  0.000  0.000  0.001
    4  0.000  0.000  0.000  0.000  0.000  0.000  0.000  0.000  0.000  0.001
    5  0.000  0.000  0.000  0.000  0.000  0.000  0.000  0.000  0.000  0.000
    6  0.000  0.000  0.000  0.000  0.000  0.000  0.000  0.000  0.000  0.000
    7  0.037  0.009  0.000  0.001  0.000  0.000  0.002  0.000  0.000  0.049
    8  0.037  0.009  0.000  0.001  0.000  0.000  0.002  0.000  0.000  0.049
    9  0.159  0.000  0.000  0.001  0.000  0.000  0.000  0.000  0.000  0.159
   10  0.161  0.000  0.000  0.001  0.000  0.000  0.000  0.000  0.000  0.162
   11  0.001  0.000  0.000  0.000  0.000  0.000  0.000  0.000  0.000  0.001
   12  0.006  0.000  0.000  0.000  0.000  0.000  0.000  0.000  0.000  0.006
   13  0.009  0.000  0.000  0.000  0.000  0.000  0.000  0.000  0.000  0.009
   14  0.002  0.000  0.000  0.000  0.000  0.000  0.000  0.000  0.000  0.002
   15  0.001  0.000  0.000  0.000  0.000  0.000  0.000  0.000  0.000  0.001
tot    0.482  0.035  0.001  0.006  0.001  0.000  0.007  0.000  0.000  0.532

band     3 # energy  -14.84586855 # occ.  2.00000000

ion      s     py     pz     px    dxy    dyz    dz2    dxz  x2-y2    tot
    1  0.001  0.000  0.000  0.000  0.000  0.000  0.000  0.000  0.000  0.001
    2  0.001  0.000  0.000  0.000  0.000  0.000  0.000  0.000  0.000  0.001
    3  0.007  0.000  0.000  0.005  0.001  0.000  0.000  0.000  0.000  0.013
    4  0.007  0.000  0.000  0.005  0.001  0.000  0.000  0.000  0.000  0.013
    5  0.002  0.001  0.000  0.003  0.001  0.000  0.000  0.000  0.000  0.007
    6  0.002  0.001  0.000  0.003  0.001  0.000  0.000  0.000  0.000  0.007
    7  0.001  0.000  0.000  0.000  0.000  0.000  0.000  0.000  0.000  0.002
    8  0.001  0.000  0.000  0.000  0.000  0.000  0.000  0.000  0.000  0.002
    9  0.003  0.000  0.000  0.000  0.000  0.000  0.000  0.000  0.000  0.003
   10  0.007  0.000  0.000  0.000  0.000  0.000  0.000  0.000  0.000  0.007
   11  0.050  0.000  0.001  0.000  0.000  0.000  0.000  0.000  0.000  0.051
   12  0.048  0.000  0.002  0.001  0.000  0.000  0.000  0.000  0.000  0.051
   13  0.496  0.005  0.002  0.000  0.000  0.000  0.000  0.000  0.001  0.504
   14  0.017  0.000  0.001  0.000  0.000  0.000  0.000  0.000  0.000  0.018
   15  0.033  0.002  0.000  0.000  0.000  0.000  0.000  0.000  0.000  0.035
tot    0.675  0.011  0.006  0.017  0.003  0.001  0.001  0.000  0.001  0.714

band     4 # energy  -14.21566569 # occ.  2.00000000

ion      s     py     pz     px    dxy    dyz    dz2    dxz  x2-y2    tot
    1  0.000  0.000  0.000  0.000  0.000  0.000  0.000  0.000  0.000  0.000
    2  0.000  0.000  0.000  0.000  0.000  0.000  0.000  0.000  0.000  0.000
    3  0.006  0.003  0.002  0.005  0.002  0.000  0.000  0.000  0.000  0.019
    4  0.006  0.003  0.002  0.005  0.002  0.000  0.000  0.000  0.000  0.019
    5  0.016  0.004  0.000  0.009  0.003  0.000  0.001  0.000  0.000  0.033
    6  0.016  0.004  0.000  0.009  0.003  0.000  0.001  0.000  0.000  0.032
    7  0.000  0.000  0.000  0.000  0.000  0.000  0.000  0.000  0.000  0.000
    8  0.000  0.000  0.000  0.000  0.000  0.000  0.000  0.000  0.000  0.000
    9  0.000  0.000  0.000  0.000  0.000  0.000  0.000  0.000  0.000  0.000
   10  0.000  0.000  0.000  0.000  0.000  0.000  0.000  0.000  0.000  0.000
   11  0.252  0.000  0.001  0.000  0.000  0.000  0.000  0.000  0.000  0.254
   12  0.034  0.000  0.003  0.002  0.000  0.000  0.000  0.000  0.000  0.039
   13  0.183  0.004  0.000  0.000  0.000  0.000  0.000  0.000  0.000  0.188
   14  0.017  0.000  0.001  0.000  0.000  0.000  0.000  0.000  0.000  0.018
   15  0.016  0.001  0.000  0.000  0.000  0.000  0.000  0.000  0.000  0.017
tot    0.547  0.019  0.010  0.030  0.009  0.001  0.003  0.001  0.001  0.620

band     5 # energy  -13.40633099 # occ.  2.00000000

ion      s     py     pz     px    dxy    dyz    dz2    dxz  x2-y2    tot
    1  0.011  0.003  0.000  0.016  0.005  0.000  0.000  0.000  0.000  0.035
    2  0.011  0.003  0.000  0.016  0.005  0.000  0.000  0.000  0.000  0.035
    3  0.000  0.000  0.000  0.000  0.000  0.000  0.000  0.000  0.000  0.000
    4  0.000  0.000  0.000  0.000  0.000  0.000  0.000  0.000  0.000  0.000
    5  0.000  0.000  0.000  0.000  0.000  0.000  0.000  0.000  0.000  0.000
    6  0.000  0.000  0.000  0.000  0.000  0.000  0.000  0.000  0.000  0.000
    7  0.011  0.003  0.000  0.018  0.005  0.000  0.000  0.000  0.000  0.038
    8  0.011  0.003  0.000  0.018  0.005  0.000  0.000  0.000  0.000  0.038
    9  0.201  0.000  0.000  0.003  0.000  0.000  0.000  0.000  0.000  0.204
   10  0.195  0.000  0.000  0.003  0.000  0.000  0.000  0.000  0.000  0.199
   11  0.001  0.000  0.000  0.000  0.000  0.000  0.000  0.000  0.000  0.001
   12  0.000  0.000  0.000  0.000  0.000  0.000  0.000  0.000  0.000  0.000
   13  0.000  0.000  0.000  0.000  0.000  0.000  0.000  0.000  0.000  0.000
   14  0.000  0.000  0.000  0.000  0.000  0.000  0.000  0.000  0.000  0.000
   15  0.000  0.000  0.000  0.000  0.000  0.000  0.000  0.000  0.000  0.000
tot    0.442  0.012  0.000  0.074  0.020  0.000  0.002  0.000  0.000  0.549

band     6 # energy   -9.56417783 # occ.  2.00000000

ion      s     py     pz     px    dxy    dyz    dz2    dxz  x2-y2    tot
    1  0.027  0.002  0.000  0.001  0.000  0.000  0.000  0.000  0.000  0.030
    2  0.027  0.002  0.000  0.001  0.000  0.000  0.000  0.000  0.000  0.030
    3  0.043  0.001  0.000  0.001  0.000  0.000  0.000  0.000  0.000  0.045
    4  0.043  0.001  0.000  0.001  0.000  0.000  0.000  0.000  0.000  0.046
    5  0.037  0.002  0.000  0.001  0.000  0.000  0.000  0.000  0.000  0.041
    6  0.037  0.002  0.000  0.001  0.000  0.000  0.000  0.000  0.000  0.041
    7  0.027  0.002  0.000  0.001  0.000  0.000  0.000  0.000  0.000  0.030
    8  0.027  0.002  0.000  0.001  0.000  0.000  0.000  0.000  0.000  0.030
    9  0.000  0.015  0.000  0.000  0.000  0.000  0.000  0.000  0.000  0.015
   10  0.000  0.014  0.000  0.000  0.000  0.000  0.000  0.000  0.000  0.014
   11  0.000  0.028  0.001  0.000  0.000  0.000  0.000  0.000  0.000  0.029
   12  0.000  0.020  0.000  0.000  0.000  0.000  0.000  0.000  0.000  0.021
   13  0.009  0.003  0.014  0.000  0.000  0.000  0.001  0.000  0.001  0.029
   14  0.001  0.000  0.000  0.000  0.000  0.000  0.000  0.000  0.000  0.001
   15  0.006  0.000  0.000  0.000  0.000  0.000  0.000  0.000  0.000  0.007
tot    0.284  0.095  0.016  0.007  0.000  0.000  0.004  0.000  0.003  0.409

band     7 # energy   -9.41677339 # occ.  2.00000000

ion      s     py     pz     px    dxy    dyz    dz2    dxz  x2-y2    tot
    1  0.004  0.000  0.000  0.000  0.000  0.000  0.000  0.000  0.000  0.005
    2  0.004  0.000  0.000  0.000  0.000  0.000  0.000  0.000  0.000  0.005
    3  0.047  0.009  0.001  0.000  0.000  0.000  0.000  0.000  0.001  0.059
    4  0.046  0.009  0.001  0.000  0.000  0.000  0.000  0.000  0.001  0.059
    5  0.051  0.010  0.001  0.000  0.000  0.000  0.001  0.000  0.001  0.066
    6  0.051  0.010  0.001  0.000  0.000  0.000  0.001  0.000  0.001  0.066
    7  0.004  0.000  0.000  0.000  0.000  0.000  0.000  0.000  0.000  0.005
    8  0.004  0.000  0.000  0.000  0.000  0.000  0.000  0.000  0.000  0.005
    9  0.001  0.000  0.000  0.004  0.000  0.000  0.000  0.000  0.000  0.005
   10  0.003  0.000  0.000  0.004  0.000  0.000  0.000  0.000  0.000  0.007
   11  0.004  0.000  0.000  0.075  0.000  0.000  0.000  0.000  0.000  0.080
   12  0.002  0.001  0.037  0.061  0.000  0.000  0.000  0.000  0.000  0.102
   13  0.000  0.002  0.001  0.003  0.000  0.000  0.000  0.000  0.000  0.006
   14  0.042  0.000  0.001  0.001  0.000  0.000  0.000  0.000  0.000  0.045
   15  0.001  0.000  0.000  0.000  0.000  0.000  0.000  0.000  0.000  0.001
tot    0.266  0.042  0.045  0.151  0.002  0.002  0.003  0.001  0.006  0.517

band     8 # energy   -8.86667490 # occ.  2.00000000

ion      s     py     pz     px    dxy    dyz    dz2    dxz  x2-y2    tot
    1  0.048  0.015  0.000  0.005  0.002  0.000  0.001  0.000  0.002  0.073
    2  0.048  0.015  0.000  0.005  0.002  0.000  0.001  0.000  0.002  0.073
    3  0.001  0.002  0.000  0.000  0.000  0.000  0.000  0.000  0.000  0.003
    4  0.001  0.002  0.000  0.000  0.000  0.000  0.000  0.000  0.000  0.003
    5  0.001  0.002  0.000  0.000  0.000  0.000  0.000  0.000  0.000  0.004
    6  0.001  0.002  0.000  0.000  0.000  0.000  0.000  0.000  0.000  0.004
    7  0.051  0.015  0.000  0.006  0.002  0.000  0.001  0.000  0.002  0.077
    8  0.051  0.015  0.000  0.006  0.002  0.000  0.001  0.000  0.002  0.077
    9  0.018  0.000  0.000  0.094  0.000  0.000  0.000  0.000  0.000  0.113
   10  0.016  0.000  0.000  0.096  0.000  0.000  0.000  0.000  0.000  0.112
   11  0.000  0.000  0.000  0.005  0.000  0.000  0.000  0.000  0.000  0.005
   12  0.000  0.000  0.005  0.004  0.000  0.000  0.000  0.000  0.000  0.009
   13  0.000  0.000  0.000  0.000  0.000  0.000  0.000  0.000  0.000  0.001
   14  0.005  0.000  0.000  0.000  0.000  0.000  0.000  0.000  0.000  0.005
   15  0.000  0.000  0.000  0.000  0.000  0.000  0.000  0.000  0.000  0.000
tot    0.242  0.067  0.006  0.221  0.008  0.000  0.004  0.000  0.007  0.556

band     9 # energy   -8.07781675 # occ.  2.00000000

ion      s     py     pz     px    dxy    dyz    dz2    dxz  x2-y2    tot
    1  0.001  0.001  0.000  0.000  0.000  0.000  0.000  0.000  0.000  0.003
    2  0.001  0.001  0.000  0.000  0.000  0.000  0.000  0.000  0.000  0.003
    3  0.012  0.002  0.002  0.009  0.002  0.000  0.000  0.001  0.001  0.028
    4  0.012  0.002  0.002  0.009  0.002  0.000  0.000  0.001  0.001  0.028
    5  0.016  0.002  0.001  0.010  0.003  0.000  0.000  0.000  0.000  0.033
    6  0.016  0.002  0.001  0.010  0.003  0.000  0.000  0.000  0.000  0.033
    7  0.000  0.001  0.000  0.000  0.000  0.000  0.000  0.000  0.000  0.002
    8  0.000  0.001  0.000  0.000  0.000  0.000  0.000  0.000  0.000  0.002
    9  0.000  0.000  0.000  0.001  0.000  0.000  0.000  0.000  0.000  0.001
   10  0.002  0.000  0.000  0.001  0.000  0.000  0.000  0.000  0.000  0.002
   11  0.022  0.000  0.001  0.010  0.000  0.000  0.000  0.000  0.000  0.033
   12  0.010  0.004  0.147  0.036  0.000  0.000  0.000  0.000  0.000  0.198
   13  0.001  0.011  0.000  0.003  0.000  0.000  0.000  0.000  0.000  0.016
   14  0.109  0.000  0.002  0.001  0.000  0.000  0.000  0.000  0.000  0.112
   15  0.005  0.000  0.000  0.000  0.000  0.000  0.000  0.000  0.000  0.005
tot    0.209  0.028  0.157  0.088  0.009  0.001  0.002  0.002  0.002  0.498

band    10 # energy   -7.85938295 # occ.  2.00000000

ion      s     py     pz     px    dxy    dyz    dz2    dxz  x2-y2    tot
    1  0.014  0.000  0.000  0.001  0.000  0.000  0.000  0.000  0.001  0.017
    2  0.014  0.000  0.000  0.001  0.000  0.000  0.000  0.000  0.001  0.017
    3  0.016  0.000  0.002  0.003  0.000  0.000  0.000  0.000  0.001  0.022
    4  0.016  0.000  0.002  0.003  0.000  0.000  0.000  0.000  0.001  0.022
    5  0.004  0.002  0.000  0.004  0.000  0.000  0.000  0.000  0.001  0.011
    6  0.004  0.002  0.000  0.004  0.000  0.000  0.000  0.000  0.001  0.011
    7  0.022  0.001  0.000  0.001  0.000  0.000  0.000  0.000  0.001  0.024
    8  0.022  0.001  0.000  0.001  0.000  0.000  0.000  0.000  0.001  0.024
    9  0.000  0.014  0.000  0.000  0.000  0.000  0.000  0.000  0.000  0.015
   10  0.000  0.027  0.000  0.000  0.000  0.000  0.000  0.000  0.000  0.027
   11  0.010  0.023  0.006  0.001  0.000  0.000  0.000  0.000  0.000  0.040
   12  0.001  0.001  0.004  0.000  0.000  0.000  0.000  0.000  0.000  0.006
   13  0.007  0.141  0.047  0.000  0.000  0.000  0.005  0.000  0.007  0.207
   14  0.006  0.000  0.000  0.000  0.000  0.000  0.000  0.000  0.000  0.006
   15  0.096  0.001  0.000  0.000  0.000  0.000  0.000  0.000  0.000  0.097
tot    0.230  0.214  0.062  0.018  0.001  0.000  0.006  0.001  0.014  0.547

band    11 # energy   -7.25641555 # occ.  2.00000000

ion      s     py     pz     px    dxy    dyz    dz2    dxz  x2-y2    tot
    1  0.016  0.001  0.000  0.008  0.000  0.000  0.000  0.000  0.000  0.026
    2  0.016  0.001  0.000  0.008  0.000  0.000  0.000  0.000  0.000  0.026
    3  0.020  0.002  0.001  0.015  0.000  0.000  0.000  0.000  0.000  0.038
    4  0.020  0.002  0.001  0.015  0.000  0.000  0.000  0.000  0.000  0.038
    5  0.023  0.001  0.000  0.011  0.000  0.000  0.000  0.000  0.000  0.035
    6  0.022  0.001  0.000  0.011  0.000  0.000  0.000  0.000  0.000  0.035
    7  0.014  0.002  0.000  0.008  0.000  0.000  0.000  0.000  0.000  0.025
    8  0.015  0.002  0.000  0.008  0.000  0.000  0.000  0.000  0.000  0.025
    9  0.000  0.041  0.000  0.000  0.000  0.000  0.000  0.000  0.000  0.041
   10  0.000  0.005  0.000  0.000  0.000  0.000  0.000  0.000  0.000  0.005
   11  0.000  0.014  0.000  0.000  0.000  0.000  0.000  0.000  0.000  0.014
   12  0.001  0.074  0.000  0.000  0.000  0.000  0.000  0.000  0.000  0.075
   13  0.004  0.008  0.004  0.009  0.000  0.000  0.000  0.001  0.000  0.026
   14  0.002  0.001  0.000  0.000  0.000  0.000  0.000  0.000  0.000  0.003
   15  0.003  0.000  0.000  0.000  0.000  0.000  0.000  0.000  0.000  0.003
tot    0.154  0.156  0.007  0.094  0.001  0.000  0.001  0.001  0.002  0.414

band    12 # energy   -6.99056872 # occ.  2.00000000

ion      s     py     pz     px    dxy    dyz    dz2    dxz  x2-y2    tot
    1  0.022  0.000  0.000  0.002  0.000  0.000  0.000  0.000  0.002  0.026
    2  0.022  0.000  0.000  0.002  0.000  0.000  0.000  0.000  0.002  0.026
    3  0.010  0.001  0.001  0.001  0.000  0.000  0.000  0.001  0.001  0.015
    4  0.010  0.001  0.001  0.001  0.000  0.000  0.000  0.001  0.001  0.016
    5  0.022  0.000  0.000  0.001  0.000  0.000  0.000  0.000  0.001  0.024
    6  0.022  0.000  0.000  0.001  0.000  0.000  0.000  0.000  0.001  0.024
    7  0.016  0.001  0.000  0.002  0.000  0.000  0.000  0.000  0.002  0.021
    8  0.016  0.001  0.000  0.002  0.000  0.000  0.000  0.000  0.002  0.021
    9  0.000  0.018  0.000  0.000  0.000  0.000  0.000  0.000  0.000  0.018
   10  0.000  0.050  0.000  0.000  0.000  0.000  0.000  0.000  0.000  0.050
   11  0.004  0.038  0.000  0.001  0.000  0.000  0.000  0.000  0.000  0.043
   12  0.001  0.021  0.004  0.000  0.000  0.000  0.000  0.000  0.000  0.026
   13  0.030  0.133  0.000  0.000  0.000  0.000  0.001  0.000  0.005  0.169
   14  0.001  0.000  0.000  0.000  0.000  0.000  0.000  0.000  0.000  0.002
   15  0.070  0.001  0.000  0.000  0.000  0.000  0.000  0.000  0.000  0.071
tot    0.245  0.266  0.007  0.011  0.001  0.001  0.003  0.002  0.017  0.552

band    13 # energy   -6.70291297 # occ.  2.00000000

ion      s     py     pz     px    dxy    dyz    dz2    dxz  x2-y2    tot
    1  0.012  0.012  0.001  0.000  0.000  0.000  0.000  0.000  0.000  0.026
    2  0.012  0.012  0.001  0.000  0.000  0.000  0.000  0.000  0.000  0.026
    3  0.010  0.017  0.001  0.000  0.000  0.000  0.000  0.000  0.000  0.029
    4  0.010  0.017  0.001  0.000  0.000  0.000  0.000  0.000  0.000  0.029
    5  0.011  0.018  0.000  0.001  0.000  0.000  0.000  0.000  0.000  0.030
    6  0.011  0.018  0.000  0.001  0.000  0.000  0.000  0.000  0.000  0.030
    7  0.009  0.014  0.000  0.000  0.000  0.000  0.000  0.000  0.000  0.025
    8  0.009  0.014  0.000  0.000  0.000  0.000  0.000  0.000  0.000  0.025
    9  0.014  0.000  0.001  0.000  0.000  0.000  0.000  0.000  0.000  0.015
   10  0.011  0.001  0.001  0.000  0.000  0.000  0.000  0.000  0.000  0.013
   11  0.009  0.002  0.000  0.000  0.000  0.000  0.000  0.000  0.000  0.011
   12  0.014  0.000  0.025  0.001  0.000  0.000  0.000  0.000  0.000  0.040
   13  0.016  0.019  0.028  0.006  0.000  0.000  0.000  0.000  0.000  0.070
   14  0.011  0.000  0.000  0.000  0.000  0.000  0.000  0.000  0.000  0.011
   15  0.003  0.000  0.000  0.000  0.000  0.000  0.000  0.000  0.000  0.003
tot    0.162  0.146  0.061  0.011  0.002  0.001  0.000  0.000  0.001  0.384

band    14 # energy   -5.85047909 # occ.  2.00000000

ion      s     py     pz     px    dxy    dyz    dz2    dxz  x2-y2    tot
    1  0.010  0.000  0.000  0.023  0.001  0.000  0.000  0.000  0.000  0.034
    2  0.010  0.000  0.000  0.023  0.001  0.000  0.000  0.000  0.000  0.034
    3  0.003  0.000  0.001  0.013  0.001  0.000  0.000  0.000  0.000  0.018
    4  0.003  0.000  0.001  0.013  0.001  0.000  0.000  0.000  0.000  0.018
    5  0.002  0.001  0.001  0.010  0.001  0.000  0.000  0.000  0.000  0.016
    6  0.002  0.001  0.001  0.010  0.001  0.000  0.000  0.000  0.000  0.016
    7  0.011  0.000  0.000  0.024  0.001  0.000  0.000  0.000  0.000  0.036
    8  0.011  0.000  0.000  0.024  0.001  0.000  0.000  0.000  0.000  0.036
    9  0.000  0.080  0.000  0.000  0.000  0.000  0.000  0.000  0.000  0.080
   10  0.000  0.072  0.000  0.000  0.000  0.000  0.000  0.000  0.000  0.072
   11  0.000  0.043  0.003  0.001  0.000  0.000  0.000  0.000  0.000  0.047
   12  0.000  0.049  0.002  0.000  0.000  0.000  0.000  0.000  0.000  0.051
   13  0.002  0.008  0.005  0.007  0.000  0.000  0.000  0.000  0.000  0.022
   14  0.000  0.001  0.000  0.000  0.000  0.000  0.000  0.000  0.000  0.001
   15  0.004  0.000  0.000  0.000  0.000  0.000  0.000  0.000  0.000  0.004
tot    0.058  0.256  0.014  0.146  0.008  0.000  0.000  0.000  0.003  0.486

band    15 # energy   -5.16445083 # occ.  2.00000000

ion      s     py     pz     px    dxy    dyz    dz2    dxz  x2-y2    tot
    1  0.002  0.003  0.007  0.000  0.000  0.000  0.000  0.000  0.000  0.013
    2  0.002  0.004  0.007  0.000  0.000  0.000  0.000  0.000  0.000  0.013
    3  0.000  0.004  0.012  0.001  0.001  0.000  0.000  0.001  0.000  0.020
    4  0.000  0.004  0.012  0.001  0.001  0.000  0.000  0.001  0.000  0.020
    5  0.001  0.004  0.005  0.006  0.001  0.000  0.000  0.000  0.000  0.018
    6  0.001  0.005  0.005  0.006  0.001  0.000  0.000  0.000  0.000  0.018
    7  0.002  0.002  0.007  0.000  0.000  0.001  0.000  0.000  0.000  0.011
    8  0.002  0.002  0.007  0.000  0.000  0.001  0.000  0.000  0.000  0.011
    9  0.000  0.000  0.026  0.000  0.000  0.000  0.000  0.000  0.000  0.027
   10  0.002  0.000  0.018  0.001  0.000  0.000  0.000  0.000  0.000  0.022
   11  0.004  0.026  0.028  0.027  0.000  0.000  0.000  0.000  0.000  0.085
   12  0.000  0.003  0.001  0.007  0.000  0.000  0.000  0.000  0.000  0.011
   13  0.010  0.012  0.077  0.022  0.000  0.000  0.000  0.000  0.000  0.122
   14  0.002  0.000  0.000  0.000  0.000  0.000  0.000  0.000  0.000  0.003
   15  0.004  0.000  0.000  0.000  0.000  0.000  0.000  0.000  0.000  0.004
tot    0.032  0.070  0.211  0.072  0.003  0.003  0.001  0.004  0.001  0.397

band    16 # energy   -4.98427874 # occ.  2.00000000

ion      s     py     pz     px    dxy    dyz    dz2    dxz  x2-y2    tot
    1  0.004  0.007  0.006  0.000  0.000  0.001  0.000  0.000  0.000  0.019
    2  0.004  0.007  0.006  0.000  0.000  0.001  0.000  0.000  0.000  0.019
    3  0.011  0.012  0.004  0.002  0.000  0.000  0.001  0.000  0.000  0.030
    4  0.011  0.012  0.004  0.002  0.000  0.000  0.001  0.000  0.000  0.030
    5  0.000  0.003  0.001  0.007  0.000  0.000  0.000  0.000  0.000  0.012
    6  0.000  0.003  0.001  0.007  0.000  0.000  0.000  0.000  0.000  0.012
    7  0.000  0.001  0.007  0.001  0.000  0.001  0.000  0.000  0.000  0.011
    8  0.000  0.001  0.007  0.001  0.000  0.001  0.000  0.000  0.000  0.011
    9  0.001  0.002  0.020  0.002  0.000  0.000  0.000  0.000  0.000  0.024
   10  0.000  0.002  0.026  0.001  0.000  0.000  0.000  0.000  0.000  0.030
   11  0.000  0.009  0.003  0.010  0.000  0.000  0.000  0.000  0.000  0.022
   12  0.000  0.013  0.005  0.003  0.000  0.000  0.000  0.000  0.000  0.022
   13  0.000  0.001  0.003  0.182  0.000  0.000  0.000  0.002  0.000  0.187
   14  0.002  0.000  0.000  0.000  0.000  0.000  0.000  0.000  0.000  0.002
   15  0.000  0.000  0.000  0.001  0.000  0.000  0.000  0.000  0.000  0.001
tot    0.035  0.073  0.093  0.220  0.001  0.003  0.002  0.003  0.001  0.431

band    17 # energy   -4.76058859 # occ.  2.00000000

ion      s     py     pz     px    dxy    dyz    dz2    dxz  x2-y2    tot
    1  0.002  0.002  0.009  0.000  0.000  0.001  0.000  0.000  0.000  0.016
    2  0.002  0.002  0.009  0.000  0.000  0.001  0.000  0.000  0.000  0.015
    3  0.006  0.005  0.003  0.004  0.001  0.000  0.000  0.000  0.000  0.021
    4  0.006  0.004  0.003  0.004  0.001  0.000  0.000  0.000  0.000  0.020
    5  0.002  0.001  0.005  0.004  0.002  0.001  0.000  0.000  0.000  0.015
    6  0.002  0.001  0.005  0.004  0.002  0.001  0.000  0.000  0.000  0.015
    7  0.001  0.000  0.011  0.001  0.000  0.001  0.000  0.000  0.000  0.014
    8  0.001  0.000  0.011  0.001  0.000  0.001  0.000  0.000  0.000  0.014
    9  0.001  0.004  0.038  0.000  0.000  0.000  0.000  0.000  0.000  0.044
   10  0.000  0.001  0.043  0.000  0.000  0.000  0.000  0.000  0.000  0.044
   11  0.004  0.000  0.027  0.025  0.000  0.000  0.000  0.000  0.000  0.056
   12  0.003  0.003  0.000  0.043  0.000  0.000  0.000  0.000  0.000  0.049
   13  0.006  0.016  0.022  0.043  0.000  0.001  0.000  0.001  0.001  0.088
   14  0.000  0.000  0.000  0.001  0.000  0.000  0.000  0.000  0.000  0.001
   15  0.008  0.000  0.000  0.000  0.000  0.000  0.000  0.000  0.000  0.008
tot    0.043  0.041  0.185  0.131  0.006  0.008  0.001  0.002  0.002  0.420

band    18 # energy   -4.52432459 # occ.  2.00000000

ion      s     py     pz     px    dxy    dyz    dz2    dxz  x2-y2    tot
    1  0.001  0.002  0.000  0.002  0.000  0.000  0.000  0.000  0.000  0.006
    2  0.001  0.002  0.000  0.002  0.000  0.000  0.000  0.000  0.000  0.006
    3  0.003  0.002  0.005  0.009  0.003  0.001  0.000  0.001  0.000  0.024
    4  0.003  0.002  0.005  0.009  0.003  0.001  0.000  0.001  0.000  0.024
    5  0.015  0.005  0.004  0.010  0.005  0.000  0.000  0.000  0.002  0.042
    6  0.015  0.005  0.004  0.010  0.005  0.000  0.000  0.000  0.002  0.042
    7  0.007  0.010  0.001  0.000  0.000  0.000  0.000  0.000  0.000  0.019
    8  0.007  0.010  0.001  0.000  0.000  0.000  0.000  0.000  0.000  0.019
    9  0.000  0.002  0.002  0.000  0.000  0.000  0.000  0.000  0.000  0.004
   10  0.003  0.002  0.004  0.005  0.000  0.000  0.000  0.000  0.000  0.014
   11  0.000  0.003  0.000  0.059  0.000  0.000  0.000  0.000  0.000  0.062
   12  0.009  0.005  0.017  0.087  0.000  0.000  0.000  0.000  0.000  0.118
   13  0.000  0.003  0.094  0.017  0.000  0.000  0.001  0.000  0.000  0.115
   14  0.005  0.000  0.000  0.002  0.000  0.000  0.000  0.000  0.000  0.007
   15  0.000  0.000  0.000  0.000  0.000  0.000  0.000  0.000  0.000  0.000
tot    0.069  0.053  0.138  0.213  0.018  0.003  0.001  0.003  0.006  0.502

band    19 # energy   -4.24508047 # occ.  2.00000000

ion      s     py     pz     px    dxy    dyz    dz2    dxz  x2-y2    tot
    1  0.001  0.001  0.000  0.008  0.000  0.000  0.000  0.000  0.000  0.011
    2  0.001  0.001  0.000  0.008  0.000  0.000  0.000  0.000  0.000  0.011
    3  0.002  0.001  0.005  0.006  0.001  0.000  0.000  0.001  0.000  0.017
    4  0.002  0.001  0.005  0.006  0.001  0.000  0.000  0.001  0.000  0.017
    5  0.022  0.028  0.000  0.007  0.002  0.000  0.000  0.000  0.001  0.060
    6  0.022  0.028  0.000  0.007  0.002  0.000  0.000  0.000  0.001  0.060
    7  0.020  0.024  0.001  0.003  0.001  0.000  0.000  0.000  0.001  0.051
    8  0.020  0.024  0.001  0.003  0.001  0.000  0.000  0.000  0.001  0.051
    9  0.002  0.013  0.002  0.010  0.000  0.000  0.000  0.000  0.000  0.027
   10  0.000  0.016  0.000  0.000  0.000  0.000  0.000  0.000  0.000  0.017
   11  0.001  0.023  0.003  0.046  0.000  0.000  0.000  0.000  0.000  0.073
   12  0.000  0.008  0.000  0.007  0.000  0.000  0.000  0.000  0.000  0.016
   13  0.001  0.003  0.032  0.002  0.000  0.000  0.000  0.000  0.000  0.038
   14  0.002  0.000  0.000  0.000  0.000  0.000  0.000  0.000  0.000  0.002
   15  0.000  0.000  0.000  0.000  0.000  0.000  0.000  0.000  0.000  0.000
tot    0.098  0.171  0.051  0.113  0.007  0.001  0.000  0.001  0.007  0.451

band    20 # energy   -4.02420854 # occ.  2.00000000

ion      s     py     pz     px    dxy    dyz    dz2    dxz  x2-y2    tot
    1  0.005  0.005  0.000  0.027  0.013  0.000  0.000  0.000  0.001  0.051
    2  0.005  0.005  0.000  0.027  0.013  0.000  0.000  0.000  0.001  0.051
    3  0.000  0.000  0.000  0.000  0.000  0.000  0.000  0.000  0.000  0.001
    4  0.000  0.000  0.000  0.000  0.000  0.000  0.000  0.000  0.000  0.001
    5  0.000  0.000  0.000  0.000  0.000  0.000  0.000  0.000  0.000  0.001
    6  0.000  0.000  0.000  0.000  0.000  0.000  0.000  0.000  0.000  0.001
    7  0.006  0.004  0.000  0.030  0.014  0.000  0.000  0.000  0.001  0.055
    8  0.006  0.004  0.000  0.030  0.014  0.000  0.000  0.000  0.001  0.055
    9  0.009  0.000  0.000  0.179  0.000  0.000  0.000  0.000  0.000  0.188
   10  0.010  0.000  0.001  0.185  0.000  0.000  0.000  0.000  0.000  0.195
   11  0.000  0.000  0.002  0.003  0.000  0.000  0.000  0.000  0.000  0.005
   12  0.000  0.000  0.000  0.002  0.000  0.000  0.000  0.000  0.000  0.003
   13  0.000  0.000  0.000  0.000  0.000  0.000  0.000  0.000  0.000  0.001
   14  0.000  0.000  0.000  0.000  0.000  0.000  0.000  0.000  0.000  0.000
   15  0.000  0.000  0.000  0.000  0.000  0.000  0.000  0.000  0.000  0.000
tot    0.043  0.020  0.005  0.484  0.054  0.000  0.000  0.000  0.004  0.610

band    21 # energy   -3.71144926 # occ.  2.00000000

ion      s     py     pz     px    dxy    dyz    dz2    dxz  x2-y2    tot
    1  0.011  0.011  0.000  0.001  0.001  0.000  0.000  0.000  0.001  0.025
    2  0.012  0.011  0.000  0.001  0.001  0.000  0.000  0.000  0.001  0.025
    3  0.008  0.007  0.003  0.007  0.003  0.001  0.001  0.000  0.001  0.030
    4  0.008  0.007  0.003  0.007  0.003  0.001  0.001  0.000  0.001  0.030
    5  0.001  0.004  0.007  0.003  0.001  0.000  0.000  0.001  0.000  0.018
    6  0.001  0.004  0.006  0.003  0.001  0.000  0.000  0.001  0.000  0.018
    7  0.001  0.002  0.000  0.003  0.000  0.000  0.000  0.000  0.000  0.007
    8  0.001  0.002  0.000  0.003  0.000  0.000  0.000  0.000  0.000  0.007
    9  0.000  0.012  0.000  0.005  0.000  0.000  0.000  0.000  0.000  0.018
   10  0.001  0.003  0.000  0.000  0.000  0.000  0.000  0.000  0.000  0.005
   11  0.001  0.006  0.065  0.026  0.000  0.000  0.000  0.000  0.000  0.098
   12  0.000  0.001  0.000  0.025  0.000  0.000  0.000  0.000  0.000  0.026
   13  0.000  0.000  0.021  0.133  0.000  0.001  0.000  0.000  0.001  0.156
   14  0.000  0.000  0.000  0.000  0.000  0.000  0.000  0.000  0.000  0.001
   15  0.003  0.000  0.000  0.000  0.000  0.000  0.000  0.000  0.000  0.003
tot    0.050  0.069  0.106  0.221  0.009  0.004  0.003  0.003  0.004  0.468

band    22 # energy   -3.43271892 # occ.  2.00000000

ion      s     py     pz     px    dxy    dyz    dz2    dxz  x2-y2    tot
    1  0.018  0.015  0.001  0.001  0.000  0.000  0.000  0.000  0.001  0.036
    2  0.018  0.015  0.001  0.001  0.000  0.000  0.000  0.000  0.001  0.036
    3  0.009  0.013  0.005  0.000  0.001  0.001  0.001  0.000  0.001  0.031
    4  0.009  0.013  0.005  0.000  0.001  0.001  0.001  0.000  0.001  0.031
    5  0.000  0.004  0.006  0.001  0.000  0.000  0.000  0.002  0.001  0.015
    6  0.000  0.004  0.006  0.001  0.000  0.000  0.000  0.002  0.001  0.015
    7  0.000  0.005  0.000  0.002  0.000  0.000  0.000  0.000  0.001  0.009
    8  0.000  0.005  0.000  0.002  0.000  0.000  0.000  0.000  0.001  0.009
    9  0.001  0.001  0.000  0.001  0.000  0.000  0.000  0.000  0.000  0.003
   10  0.000  0.017  0.000  0.004  0.000  0.000  0.000  0.000  0.000  0.022
   11  0.002  0.006  0.065  0.000  0.000  0.000  0.000  0.000  0.000  0.073
   12  0.000  0.013  0.002  0.005  0.000  0.000  0.000  0.000  0.000  0.020
   13  0.001  0.001  0.084  0.060  0.000  0.001  0.000  0.000  0.001  0.147
   14  0.005  0.000  0.000  0.000  0.000  0.000  0.000  0.000  0.000  0.005
   15  0.002  0.000  0.000  0.000  0.000  0.000  0.000  0.000  0.000  0.002
tot    0.068  0.113  0.177  0.078  0.002  0.003  0.003  0.004  0.007  0.455

band    23 # energy   -2.86184593 # occ.  2.00000000

ion      s     py     pz     px    dxy    dyz    dz2    dxz  x2-y2    tot
    1  0.000  0.000  0.008  0.000  0.000  0.001  0.000  0.007  0.000  0.016
    2  0.000  0.000  0.008  0.000  0.000  0.001  0.000  0.007  0.000  0.016
    3  0.000  0.000  0.000  0.000  0.000  0.000  0.000  0.000  0.000  0.000
    4  0.000  0.000  0.000  0.000  0.000  0.000  0.000  0.000  0.000  0.000
    5  0.000  0.000  0.000  0.000  0.000  0.000  0.000  0.000  0.000  0.001
    6  0.000  0.000  0.000  0.000  0.000  0.000  0.000  0.000  0.000  0.001
    7  0.000  0.000  0.010  0.000  0.000  0.001  0.000  0.008  0.000  0.018
    8  0.000  0.000  0.010  0.000  0.000  0.001  0.000  0.008  0.000  0.018
    9  0.000  0.000  0.139  0.001  0.000  0.000  0.000  0.000  0.000  0.140
   10  0.000  0.001  0.129  0.000  0.000  0.000  0.000  0.000  0.000  0.129
   11  0.000  0.000  0.001  0.000  0.000  0.000  0.000  0.000  0.000  0.001
   12  0.000  0.000  0.000  0.000  0.000  0.000  0.000  0.000  0.000  0.000
   13  0.000  0.001  0.000  0.001  0.000  0.000  0.000  0.000  0.000  0.002
   14  0.000  0.000  0.000  0.000  0.000  0.000  0.000  0.000  0.000  0.000
   15  0.000  0.000  0.000  0.000  0.000  0.000  0.000  0.000  0.000  0.000
tot    0.001  0.004  0.304  0.003  0.000  0.003  0.000  0.028  0.000  0.344

band    24 # energy   -2.72795136 # occ.  2.00000000

ion      s     py     pz     px    dxy    dyz    dz2    dxz  x2-y2    tot
    1  0.001  0.022  0.000  0.001  0.000  0.000  0.000  0.000  0.005  0.030
    2  0.001  0.022  0.000  0.001  0.000  0.000  0.000  0.000  0.005  0.030
    3  0.001  0.016  0.002  0.001  0.000  0.001  0.000  0.000  0.003  0.024
    4  0.001  0.016  0.002  0.001  0.000  0.001  0.000  0.000  0.003  0.024
    5  0.001  0.013  0.008  0.002  0.000  0.000  0.000  0.000  0.003  0.028
    6  0.001  0.013  0.008  0.002  0.000  0.000  0.000  0.000  0.003  0.028
    7  0.000  0.013  0.000  0.001  0.000  0.000  0.000  0.000  0.006  0.021
    8  0.001  0.013  0.000  0.001  0.000  0.000  0.000  0.000  0.006  0.021
    9  0.000  0.056  0.000  0.000  0.000  0.000  0.000  0.000  0.000  0.056
   10  0.000  0.052  0.002  0.000  0.000  0.000  0.000  0.000  0.000  0.054
   11  0.000  0.046  0.009  0.000  0.000  0.000  0.000  0.000  0.000  0.055
   12  0.000  0.042  0.004  0.000  0.000  0.000  0.000  0.000  0.000  0.046
   13  0.000  0.001  0.024  0.001  0.000  0.000  0.000  0.000  0.000  0.026
   14  0.000  0.001  0.000  0.000  0.000  0.000  0.000  0.000  0.000  0.001
   15  0.001  0.000  0.000  0.000  0.000  0.000  0.000  0.000  0.000  0.001
tot    0.008  0.325  0.058  0.013  0.002  0.002  0.001  0.001  0.034  0.444

band    25 # energy   -0.69661368 # occ.  0.00000000

ion      s     py     pz     px    dxy    dyz    dz2    dxz  x2-y2    tot
    1  0.000  0.000  0.016  0.000  0.000  0.000  0.000  0.000  0.000  0.018
    2  0.001  0.000  0.017  0.000  0.000  0.000  0.000  0.000  0.000  0.018
    3  0.001  0.001  0.003  0.000  0.001  0.000  0.001  0.000  0.000  0.007
    4  0.001  0.001  0.004  0.000  0.001  0.000  0.001  0.000  0.000  0.008
    5  0.000  0.002  0.012  0.002  0.001  0.003  0.000  0.001  0.000  0.020
    6  0.000  0.002  0.012  0.002  0.001  0.003  0.000  0.001  0.000  0.020
    7  0.001  0.001  0.018  0.000  0.000  0.003  0.000  0.000  0.000  0.023
    8  0.001  0.001  0.018  0.000  0.000  0.003  0.000  0.000  0.000  0.023
    9  0.000  0.000  0.002  0.000  0.000  0.000  0.000  0.000  0.000  0.002
   10  0.000  0.000  0.002  0.000  0.000  0.000  0.000  0.000  0.000  0.003
   11  0.001  0.000  0.029  0.000  0.000  0.000  0.000  0.000  0.000  0.031
   12  0.000  0.001  0.002  0.000  0.000  0.000  0.000  0.000  0.000  0.004
   13  0.004  0.001  0.035  0.001  0.000  0.000  0.000  0.000  0.000  0.041
   14  0.001  0.000  0.000  0.000  0.000  0.000  0.000  0.000  0.000  0.001
   15  0.000  0.000  0.000  0.000  0.000  0.000  0.000  0.000  0.000  0.000
tot    0.011  0.011  0.169  0.007  0.004  0.012  0.003  0.002  0.002  0.220

band    26 # energy    0.11563491 # occ.  0.00000000

ion      s     py     pz     px    dxy    dyz    dz2    dxz  x2-y2    tot
    1  0.001  0.003  0.001  0.007  0.006  0.000  0.000  0.000  0.000  0.020
    2  0.001  0.003  0.001  0.007  0.006  0.000  0.000  0.000  0.000  0.020
    3  0.002  0.003  0.001  0.012  0.006  0.000  0.001  0.000  0.000  0.026
    4  0.002  0.003  0.001  0.012  0.006  0.000  0.001  0.000  0.000  0.027
    5  0.002  0.002  0.002  0.011  0.007  0.001  0.000  0.000  0.001  0.026
    6  0.002  0.002  0.002  0.010  0.007  0.001  0.000  0.000  0.001  0.025
    7  0.003  0.003  0.001  0.007  0.007  0.001  0.000  0.000  0.000  0.022
    8  0.003  0.003  0.001  0.007  0.007  0.001  0.000  0.000  0.000  0.022
    9  0.013  0.000  0.001  0.003  0.000  0.000  0.000  0.000  0.000  0.016
   10  0.006  0.000  0.002  0.002  0.000  0.000  0.000  0.000  0.000  0.010
   11  0.005  0.000  0.001  0.002  0.000  0.000  0.000  0.000  0.000  0.007
   12  0.023  0.000  0.001  0.004  0.000  0.000  0.000  0.000  0.000  0.028
   13  0.001  0.000  0.003  0.000  0.000  0.000  0.002  0.000  0.000  0.007
   14  0.000  0.000  0.001  0.000  0.000  0.000  0.000  0.000  0.000  0.001
   15  0.000  0.000  0.000  0.000  0.000  0.000  0.000  0.000  0.000  0.000
tot    0.065  0.023  0.018  0.085  0.055  0.004  0.004  0.001  0.004  0.258

band    27 # energy    0.32351816 # occ.  0.00000000

ion      s     py     pz     px    dxy    dyz    dz2    dxz  x2-y2    tot
    1  0.000  0.001  0.006  0.000  0.000  0.003  0.000  0.000  0.000  0.010
    2  0.000  0.001  0.006  0.000  0.000  0.003  0.000  0.000  0.000  0.010
    3  0.004  0.001  0.007  0.001  0.001  0.001  0.001  0.001  0.000  0.017
    4  0.004  0.000  0.007  0.001  0.001  0.001  0.001  0.001  0.000  0.017
    5  0.001  0.001  0.023  0.001  0.000  0.000  0.001  0.001  0.000  0.029
    6  0.001  0.001  0.023  0.001  0.000  0.000  0.001  0.001  0.000  0.029
    7  0.000  0.000  0.005  0.000  0.000  0.001  0.000  0.000  0.000  0.008
    8  0.000  0.000  0.005  0.000  0.000  0.001  0.000  0.000  0.000  0.008
    9  0.000  0.001  0.000  0.000  0.000  0.000  0.000  0.000  0.000  0.002
   10  0.000  0.001  0.025  0.000  0.000  0.000  0.000  0.000  0.000  0.027
   11  0.001  0.001  0.005  0.003  0.000  0.000  0.000  0.000  0.000  0.010
   12  0.001  0.000  0.004  0.004  0.000  0.000  0.000  0.000  0.000  0.009
   13  0.000  0.003  0.015  0.015  0.000  0.002  0.002  0.002  0.004  0.043
   14  0.011  0.000  0.000  0.000  0.000  0.000  0.000  0.000  0.000  0.011
   15  0.009  0.000  0.000  0.000  0.000  0.000  0.000  0.000  0.000  0.009
tot    0.033  0.012  0.133  0.028  0.002  0.012  0.006  0.007  0.005  0.239

band    28 # energy    0.71779700 # occ.  0.00000000

ion      s     py     pz     px    dxy    dyz    dz2    dxz  x2-y2    tot
    1  0.002  0.001  0.001  0.000  0.000  0.002  0.000  0.001  0.000  0.009
    2  0.002  0.001  0.001  0.000  0.000  0.002  0.000  0.001  0.000  0.008
    3  0.001  0.006  0.001  0.002  0.000  0.001  0.000  0.001  0.001  0.013
    4  0.001  0.006  0.001  0.001  0.000  0.001  0.000  0.001  0.001  0.012
    5  0.001  0.004  0.030  0.001  0.000  0.002  0.000  0.000  0.001  0.039
    6  0.001  0.004  0.030  0.001  0.000  0.002  0.000  0.000  0.001  0.039
    7  0.002  0.001  0.019  0.000  0.000  0.002  0.000  0.000  0.000  0.025
    8  0.002  0.001  0.019  0.000  0.000  0.002  0.000  0.000  0.000  0.025
    9  0.003  0.000  0.025  0.000  0.000  0.000  0.000  0.000  0.000  0.028
   10  0.005  0.000  0.000  0.000  0.000  0.000  0.000  0.000  0.000  0.006
   11  0.001  0.001  0.012  0.001  0.000  0.000  0.000  0.000  0.000  0.015
   12  0.000  0.000  0.000  0.001  0.000  0.000  0.000  0.000  0.000  0.001
   13  0.000  0.007  0.007  0.000  0.000  0.001  0.001  0.000  0.004  0.021
   14  0.000  0.000  0.000  0.000  0.000  0.000  0.000  0.000  0.000  0.000
   15  0.006  0.000  0.000  0.000  0.000  0.000  0.000  0.000  0.000  0.006
tot    0.028  0.033  0.146  0.009  0.002  0.015  0.002  0.004  0.007  0.247

band    29 # energy    0.99927985 # occ.  0.00000000

ion      s     py     pz     px    dxy    dyz    dz2    dxz  x2-y2    tot
    1  0.001  0.000  0.005  0.000  0.000  0.001  0.002  0.000  0.000  0.009
    2  0.001  0.000  0.006  0.000  0.000  0.001  0.002  0.000  0.000  0.009
    3  0.002  0.000  0.000  0.000  0.000  0.000  0.000  0.000  0.000  0.004
    4  0.001  0.000  0.001  0.000  0.000  0.000  0.000  0.000  0.000  0.004
    5  0.002  0.001  0.002  0.000  0.001  0.000  0.000  0.000  0.000  0.007
    6  0.003  0.001  0.002  0.000  0.001  0.000  0.000  0.000  0.000  0.007
    7  0.001  0.000  0.003  0.000  0.001  0.000  0.002  0.000  0.000  0.007
    8  0.001  0.000  0.003  0.000  0.001  0.000  0.002  0.000  0.000  0.007
    9  0.007  0.001  0.005  0.001  0.000  0.000  0.000  0.000  0.000  0.014
   10  0.002  0.000  0.005  0.001  0.000  0.000  0.000  0.000  0.000  0.008
   11  0.000  0.004  0.017  0.000  0.000  0.000  0.000  0.000  0.000  0.022
   12  0.000  0.001  0.007  0.000  0.000  0.000  0.000  0.000  0.000  0.008
   13  0.017  0.056  0.005  0.004  0.000  0.000  0.007  0.000  0.007  0.095
   14  0.001  0.000  0.000  0.000  0.000  0.000  0.000  0.000  0.000  0.002
   15  0.015  0.002  0.000  0.000  0.000  0.000  0.000  0.000  0.000  0.017
tot    0.054  0.068  0.060  0.008  0.004  0.003  0.015  0.001  0.008  0.220

band    30 # energy    1.05809085 # occ.  0.00000000

ion      s     py     pz     px    dxy    dyz    dz2    dxz  x2-y2    tot
    1  0.008  0.002  0.006  0.001  0.000  0.000  0.001  0.000  0.001  0.020
    2  0.010  0.002  0.006  0.001  0.000  0.000  0.002  0.000  0.001  0.022
    3  0.017  0.002  0.004  0.000  0.000  0.000  0.001  0.000  0.000  0.025
    4  0.021  0.002  0.004  0.001  0.000  0.000  0.001  0.000  0.000  0.029
    5  0.018  0.002  0.002  0.000  0.001  0.000  0.004  0.001  0.001  0.029
    6  0.015  0.002  0.002  0.000  0.001  0.000  0.004  0.001  0.000  0.025
    7  0.015  0.010  0.003  0.001  0.000  0.000  0.002  0.000  0.000  0.032
    8  0.012  0.010  0.003  0.001  0.000  0.000  0.002  0.000  0.000  0.028
    9  0.008  0.002  0.003  0.001  0.000  0.000  0.000  0.000  0.000  0.014
   10  0.020  0.001  0.003  0.001  0.000  0.000  0.000  0.000  0.000  0.026
   11  0.032  0.001  0.002  0.002  0.000  0.000  0.000  0.000  0.000  0.037
   12  0.026  0.000  0.001  0.001  0.000  0.000  0.000  0.000  0.000  0.028
   13  0.009  0.001  0.002  0.018  0.000  0.002  0.000  0.004  0.002  0.038
   14  0.000  0.000  0.001  0.000  0.000  0.000  0.000  0.000  0.000  0.001
   15  0.009  0.000  0.000  0.000  0.000  0.000  0.000  0.000  0.000  0.009
tot    0.220  0.037  0.041  0.029  0.003  0.003  0.015  0.007  0.007  0.363

band    31 # energy    1.17687103 # occ.  0.00000000

ion      s     py     pz     px    dxy    dyz    dz2    dxz  x2-y2    tot
    1  0.029  0.001  0.006  0.003  0.000  0.001  0.001  0.000  0.000  0.042
    2  0.026  0.001  0.005  0.003  0.000  0.001  0.000  0.000  0.000  0.037
    3  0.046  0.001  0.008  0.001  0.000  0.000  0.000  0.000  0.000  0.057
    4  0.043  0.001  0.011  0.001  0.000  0.000  0.000  0.000  0.000  0.056
    5  0.032  0.000  0.001  0.004  0.000  0.001  0.001  0.000  0.000  0.039
    6  0.033  0.000  0.002  0.003  0.000  0.001  0.001  0.000  0.000  0.041
    7  0.026  0.001  0.005  0.001  0.001  0.000  0.000  0.000  0.000  0.035
    8  0.028  0.001  0.004  0.001  0.001  0.000  0.001  0.000  0.000  0.036
    9  0.000  0.007  0.000  0.000  0.000  0.000  0.000  0.000  0.000  0.007
   10  0.002  0.005  0.001  0.000  0.000  0.000  0.000  0.000  0.000  0.008
   11  0.001  0.001  0.000  0.001  0.000  0.000  0.000  0.000  0.000  0.003
   12  0.001  0.002  0.000  0.000  0.000  0.000  0.000  0.000  0.000  0.004
   13  0.009  0.000  0.006  0.016  0.000  0.000  0.001  0.011  0.002  0.046
   14  0.000  0.000  0.000  0.000  0.000  0.000  0.000  0.000  0.000  0.000
   15  0.000  0.000  0.000  0.000  0.000  0.000  0.000  0.000  0.000  0.001
tot    0.276  0.021  0.051  0.034  0.004  0.005  0.005  0.012  0.003  0.411

band    32 # energy    1.50943029 # occ.  0.00000000

ion      s     py     pz     px    dxy    dyz    dz2    dxz  x2-y2    tot
    1  0.008  0.002  0.032  0.001  0.000  0.000  0.001  0.000  0.000  0.044
    2  0.010  0.002  0.037  0.001  0.000  0.000  0.001  0.000  0.000  0.051
    3  0.011  0.002  0.011  0.002  0.000  0.001  0.002  0.000  0.000  0.030
    4  0.013  0.002  0.008  0.001  0.000  0.001  0.001  0.001  0.000  0.027
    5  0.023  0.001  0.004  0.000  0.000  0.000  0.001  0.000  0.000  0.031
    6  0.021  0.000  0.004  0.000  0.000  0.000  0.001  0.000  0.000  0.028
    7  0.021  0.001  0.002  0.001  0.000  0.001  0.000  0.002  0.000  0.028
    8  0.018  0.001  0.001  0.001  0.000  0.001  0.001  0.002  0.000  0.024
    9  0.002  0.000  0.009  0.000  0.000  0.000  0.000  0.000  0.000  0.011
   10  0.000  0.003  0.006  0.000  0.000  0.000  0.000  0.000  0.000  0.009
   11  0.001  0.002  0.000  0.000  0.000  0.000  0.000  0.000  0.000  0.003
   12  0.001  0.001  0.001  0.000  0.000  0.000  0.000  0.000  0.000  0.002
   13  0.002  0.001  0.002  0.004  0.003  0.001  0.001  0.001  0.001  0.015
   14  0.000  0.000  0.000  0.000  0.000  0.000  0.000  0.000  0.000  0.001
   15  0.001  0.000  0.000  0.000  0.000  0.000  0.000  0.000  0.000  0.001
tot    0.131  0.017  0.117  0.012  0.004  0.006  0.009  0.006  0.003  0.304


 k-point     3 :    0.40000000 0.00000000 0.00000000     weight = 0.13333333

band     1 # energy  -16.06071626 # occ.  2.00000000

ion      s     py     pz     px    dxy    dyz    dz2    dxz  x2-y2    tot
    1  0.000  0.000  0.000  0.000  0.000  0.000  0.000  0.000  0.000  0.000
    2  0.000  0.000  0.000  0.000  0.000  0.000  0.000  0.000  0.000  0.000
    3  0.015  0.004  0.000  0.003  0.001  0.000  0.001  0.000  0.000  0.023
    4  0.015  0.004  0.000  0.003  0.001  0.000  0.001  0.000  0.000  0.023
    5  0.016  0.003  0.001  0.003  0.001  0.000  0.000  0.000  0.000  0.026
    6  0.016  0.003  0.001  0.003  0.001  0.000  0.000  0.000  0.000  0.026
    7  0.000  0.000  0.000  0.000  0.000  0.000  0.000  0.000  0.000  0.000
    8  0.000  0.000  0.000  0.000  0.000  0.000  0.000  0.000  0.000  0.000
    9  0.000  0.000  0.000  0.000  0.000  0.000  0.000  0.000  0.000  0.000
   10  0.000  0.000  0.000  0.000  0.000  0.000  0.000  0.000  0.000  0.000
   11  0.015  0.000  0.000  0.002  0.000  0.000  0.000  0.000  0.000  0.017
   12  0.327  0.001  0.007  0.000  0.000  0.000  0.000  0.000  0.000  0.334
   13  0.006  0.000  0.000  0.000  0.000  0.000  0.000  0.000  0.000  0.007
   14  0.098  0.000  0.008  0.000  0.000  0.000  0.000  0.000  0.000  0.106
   15  0.000  0.000  0.000  0.000  0.000  0.000  0.000  0.000  0.000  0.000
tot    0.509  0.016  0.016  0.014  0.003  0.001  0.002  0.001  0.000  0.562

band     2 # energy  -15.10868986 # occ.  2.00000000

ion      s     py     pz     px    dxy    dyz    dz2    dxz  x2-y2    tot
    1  0.002  0.000  0.000  0.000  0.000  0.000  0.000  0.000  0.000  0.002
    2  0.002  0.000  0.000  0.000  0.000  0.000  0.000  0.000  0.000  0.002
    3  0.019  0.002  0.000  0.005  0.001  0.000  0.000  0.000  0.000  0.027
    4  0.019  0.002  0.000  0.005  0.001  0.000  0.000  0.000  0.000  0.027
    5  0.012  0.003  0.000  0.004  0.001  0.000  0.000  0.000  0.000  0.020
    6  0.012  0.003  0.000  0.004  0.001  0.000  0.000  0.000  0.000  0.020
    7  0.001  0.000  0.000  0.000  0.000  0.000  0.000  0.000  0.000  0.001
    8  0.001  0.000  0.000  0.000  0.000  0.000  0.000  0.000  0.000  0.001
    9  0.008  0.000  0.000  0.000  0.000  0.000  0.000  0.000  0.000  0.008
   10  0.002  0.000  0.000  0.000  0.000  0.000  0.000  0.000  0.000  0.002
   11  0.143  0.000  0.001  0.000  0.000  0.000  0.000  0.000  0.000  0.145
   12  0.021  0.000  0.001  0.002  0.000  0.000  0.000  0.000  0.000  0.024
   13  0.319  0.002  0.002  0.000  0.000  0.000  0.000  0.000  0.001  0.325
   14  0.007  0.000  0.001  0.000  0.000  0.000  0.000  0.000  0.000  0.008
   15  0.020  0.001  0.000  0.000  0.000  0.000  0.000  0.000  0.000  0.021
tot    0.587  0.013  0.005  0.020  0.004  0.001  0.001  0.000  0.001  0.632

band     3 # energy  -14.74708823 # occ.  2.00000000

ion      s     py     pz     px    dxy    dyz    dz2    dxz  x2-y2    tot
    1  0.030  0.008  0.000  0.004  0.001  0.000  0.001  0.000  0.000  0.044
    2  0.030  0.008  0.000  0.004  0.001  0.000  0.001  0.000  0.000  0.044
    3  0.000  0.000  0.000  0.000  0.000  0.000  0.000  0.000  0.000  0.001
    4  0.000  0.000  0.000  0.000  0.000  0.000  0.000  0.000  0.000  0.001
    5  0.000  0.000  0.000  0.000  0.000  0.000  0.000  0.000  0.000  0.001
    6  0.000  0.000  0.000  0.000  0.000  0.000  0.000  0.000  0.000  0.001
    7  0.033  0.008  0.000  0.004  0.001  0.000  0.002  0.000  0.000  0.047
    8  0.033  0.008  0.000  0.004  0.001  0.000  0.002  0.000  0.000  0.048
    9  0.154  0.000  0.000  0.003  0.000  0.000  0.000  0.000  0.000  0.156
   10  0.176  0.000  0.000  0.002  0.000  0.000  0.000  0.000  0.000  0.178
   11  0.004  0.000  0.000  0.000  0.000  0.000  0.000  0.000  0.000  0.004
   12  0.000  0.000  0.000  0.000  0.000  0.000  0.000  0.000  0.000  0.000
   13  0.013  0.000  0.000  0.000  0.000  0.000  0.000  0.000  0.000  0.013
   14  0.000  0.000  0.000  0.000  0.000  0.000  0.000  0.000  0.000  0.000
   15  0.001  0.000  0.000  0.000  0.000  0.000  0.000  0.000  0.000  0.001
tot    0.474  0.032  0.000  0.021  0.004  0.000  0.006  0.000  0.000  0.538

band     4 # energy  -14.35930692 # occ.  2.00000000

ion      s     py     pz     px    dxy    dyz    dz2    dxz  x2-y2    tot
    1  0.000  0.000  0.000  0.000  0.000  0.000  0.000  0.000  0.000  0.000
    2  0.000  0.000  0.000  0.000  0.000  0.000  0.000  0.000  0.000  0.000
    3  0.005  0.004  0.002  0.001  0.001  0.000  0.001  0.001  0.000  0.014
    4  0.005  0.004  0.002  0.001  0.001  0.000  0.001  0.000  0.000  0.014
    5  0.017  0.004  0.000  0.005  0.001  0.000  0.001  0.000  0.000  0.027
    6  0.017  0.004  0.000  0.005  0.001  0.000  0.001  0.000  0.000  0.027
    7  0.000  0.000  0.000  0.000  0.000  0.000  0.000  0.000  0.000  0.000
    8  0.000  0.000  0.000  0.000  0.000  0.000  0.000  0.000  0.000  0.000
    9  0.000  0.000  0.000  0.000  0.000  0.000  0.000  0.000  0.000  0.000
   10  0.001  0.000  0.000  0.000  0.000  0.000  0.000  0.000  0.000  0.001
   11  0.179  0.000  0.000  0.000  0.000  0.000  0.000  0.000  0.000  0.180
   12  0.003  0.000  0.000  0.002  0.000  0.000  0.000  0.000  0.000  0.005
   13  0.371  0.007  0.000  0.000  0.000  0.000  0.000  0.000  0.001  0.379
   14  0.001  0.000  0.000  0.000  0.000  0.000  0.000  0.000  0.000  0.001
   15  0.031  0.002  0.000  0.000  0.000  0.000  0.000  0.000  0.000  0.032
tot    0.629  0.024  0.005  0.014  0.004  0.000  0.003  0.001  0.001  0.681

band     5 # energy  -14.12776700 # occ.  2.00000000

ion      s     py     pz     px    dxy    dyz    dz2    dxz  x2-y2    tot
    1  0.023  0.006  0.000  0.009  0.002  0.000  0.001  0.000  0.000  0.042
    2  0.023  0.006  0.000  0.009  0.002  0.000  0.001  0.000  0.000  0.042
    3  0.000  0.000  0.000  0.000  0.000  0.000  0.000  0.000  0.000  0.000
    4  0.000  0.000  0.000  0.000  0.000  0.000  0.000  0.000  0.000  0.000
    5  0.000  0.000  0.000  0.000  0.000  0.000  0.000  0.000  0.000  0.000
    6  0.000  0.000  0.000  0.000  0.000  0.000  0.000  0.000  0.000  0.000
    7  0.025  0.006  0.000  0.010  0.003  0.000  0.001  0.000  0.000  0.045
    8  0.025  0.006  0.000  0.010  0.003  0.000  0.001  0.000  0.000  0.045
    9  0.185  0.000  0.000  0.004  0.000  0.000  0.000  0.000  0.000  0.189
   10  0.169  0.000  0.000  0.004  0.000  0.000  0.000  0.000  0.000  0.173
   11  0.003  0.000  0.000  0.000  0.000  0.000  0.000  0.000  0.000  0.003
   12  0.000  0.000  0.000  0.000  0.000  0.000  0.000  0.000  0.000  0.001
   13  0.000  0.000  0.000  0.000  0.000  0.000  0.000  0.000  0.000  0.000
   14  0.000  0.000  0.000  0.000  0.000  0.000  0.000  0.000  0.000  0.000
   15  0.000  0.000  0.000  0.000  0.000  0.000  0.000  0.000  0.000  0.000
tot    0.454  0.025  0.000  0.046  0.010  0.000  0.004  0.000  0.000  0.540

band     6 # energy   -9.11550894 # occ.  2.00000000

ion      s     py     pz     px    dxy    dyz    dz2    dxz  x2-y2    tot
    1  0.024  0.002  0.000  0.002  0.000  0.000  0.000  0.000  0.000  0.028
    2  0.024  0.002  0.000  0.002  0.000  0.000  0.000  0.000  0.000  0.028
    3  0.045  0.001  0.000  0.004  0.000  0.000  0.000  0.000  0.000  0.051
    4  0.045  0.001  0.000  0.004  0.000  0.000  0.000  0.000  0.000  0.051
    5  0.030  0.002  0.000  0.004  0.000  0.000  0.000  0.000  0.000  0.037
    6  0.030  0.002  0.000  0.004  0.000  0.000  0.000  0.000  0.000  0.037
    7  0.022  0.002  0.000  0.002  0.000  0.000  0.000  0.000  0.000  0.027
    8  0.022  0.002  0.000  0.002  0.000  0.000  0.000  0.000  0.000  0.027
    9  0.000  0.017  0.000  0.000  0.000  0.000  0.000  0.000  0.000  0.017
   10  0.000  0.012  0.000  0.000  0.000  0.000  0.000  0.000  0.000  0.012
   11  0.000  0.035  0.001  0.001  0.000  0.000  0.000  0.000  0.000  0.038
   12  0.000  0.019  0.001  0.000  0.000  0.000  0.000  0.000  0.000  0.021
   13  0.006  0.005  0.019  0.001  0.000  0.000  0.001  0.000  0.001  0.034
   14  0.004  0.000  0.000  0.000  0.000  0.000  0.000  0.000  0.000  0.004
   15  0.008  0.000  0.000  0.000  0.000  0.000  0.000  0.000  0.000  0.009
tot    0.261  0.102  0.022  0.027  0.000  0.000  0.004  0.000  0.002  0.419

band     7 # energy   -9.06443353 # occ.  2.00000000

ion      s     py     pz     px    dxy    dyz    dz2    dxz  x2-y2    tot
    1  0.001  0.001  0.000  0.000  0.000  0.000  0.000  0.000  0.000  0.002
    2  0.001  0.001  0.000  0.000  0.000  0.000  0.000  0.000  0.000  0.002
    3  0.030  0.004  0.003  0.000  0.000  0.001  0.000  0.000  0.000  0.039
    4  0.030  0.004  0.003  0.000  0.000  0.001  0.000  0.000  0.000  0.039
    5  0.039  0.006  0.002  0.000  0.000  0.000  0.001  0.000  0.001  0.049
    6  0.039  0.006  0.002  0.000  0.000  0.000  0.001  0.000  0.001  0.049
    7  0.001  0.001  0.000  0.000  0.000  0.000  0.000  0.000  0.000  0.002
    8  0.001  0.001  0.000  0.000  0.000  0.000  0.000  0.000  0.000  0.002
    9  0.000  0.000  0.000  0.000  0.000  0.000  0.000  0.000  0.000  0.000
   10  0.002  0.000  0.000  0.000  0.000  0.000  0.000  0.000  0.000  0.002
   11  0.001  0.001  0.001  0.057  0.000  0.000  0.000  0.000  0.000  0.060
   12  0.002  0.004  0.127  0.010  0.000  0.000  0.000  0.000  0.000  0.142
   13  0.000  0.002  0.002  0.000  0.000  0.000  0.000  0.000  0.000  0.005
   14  0.130  0.000  0.004  0.000  0.000  0.000  0.000  0.000  0.000  0.135
   15  0.002  0.000  0.000  0.000  0.000  0.000  0.000  0.000  0.000  0.002
tot    0.280  0.030  0.143  0.068  0.001  0.002  0.004  0.001  0.003  0.531

band     8 # energy   -8.33581738 # occ.  2.00000000

ion      s     py     pz     px    dxy    dyz    dz2    dxz  x2-y2    tot
    1  0.019  0.001  0.000  0.004  0.000  0.000  0.000  0.000  0.000  0.025
    2  0.019  0.001  0.000  0.004  0.000  0.000  0.000  0.000  0.000  0.025
    3  0.031  0.001  0.000  0.007  0.000  0.000  0.000  0.000  0.000  0.040
    4  0.031  0.001  0.000  0.007  0.000  0.000  0.000  0.000  0.000  0.040
    5  0.030  0.001  0.000  0.009  0.000  0.000  0.000  0.000  0.000  0.042
    6  0.030  0.001  0.000  0.009  0.000  0.000  0.000  0.000  0.000  0.041
    7  0.020  0.002  0.000  0.004  0.000  0.000  0.000  0.000  0.000  0.027
    8  0.020  0.002  0.000  0.004  0.000  0.000  0.000  0.000  0.000  0.027
    9  0.000  0.005  0.000  0.000  0.000  0.000  0.000  0.000  0.000  0.005
   10  0.000  0.028  0.000  0.000  0.000  0.000  0.000  0.000  0.000  0.028
   11  0.002  0.023  0.002  0.000  0.000  0.000  0.000  0.000  0.000  0.027
   12  0.000  0.031  0.005  0.001  0.000  0.000  0.000  0.000  0.000  0.037
   13  0.000  0.013  0.017  0.006  0.000  0.000  0.001  0.000  0.001  0.039
   14  0.001  0.001  0.000  0.000  0.000  0.000  0.000  0.000  0.000  0.002
   15  0.012  0.000  0.000  0.000  0.000  0.000  0.000  0.000  0.000  0.013
tot    0.219  0.112  0.025  0.056  0.000  0.000  0.003  0.001  0.002  0.418

band     9 # energy   -7.75545052 # occ.  2.00000000

ion      s     py     pz     px    dxy    dyz    dz2    dxz  x2-y2    tot
    1  0.006  0.000  0.000  0.004  0.000  0.000  0.000  0.000  0.000  0.011
    2  0.006  0.000  0.000  0.003  0.000  0.000  0.000  0.000  0.000  0.011
    3  0.008  0.002  0.004  0.002  0.001  0.000  0.000  0.001  0.000  0.018
    4  0.008  0.002  0.004  0.002  0.001  0.000  0.000  0.001  0.000  0.018
    5  0.009  0.001  0.001  0.002  0.002  0.000  0.000  0.000  0.001  0.015
    6  0.009  0.001  0.001  0.002  0.002  0.000  0.000  0.000  0.001  0.015
    7  0.018  0.001  0.000  0.002  0.000  0.000  0.000  0.000  0.000  0.020
    8  0.018  0.001  0.000  0.002  0.000  0.000  0.000  0.000  0.000  0.021
    9  0.001  0.026  0.000  0.001  0.000  0.000  0.000  0.000  0.000  0.028
   10  0.000  0.000  0.000  0.001  0.000  0.000  0.000  0.000  0.000  0.001
   11  0.030  0.000  0.005  0.000  0.000  0.000  0.000  0.000  0.000  0.036
   12  0.000  0.008  0.008  0.030  0.000  0.000  0.000  0.000  0.000  0.047
   13  0.012  0.145  0.022  0.000  0.000  0.000  0.003  0.000  0.007  0.189
   14  0.009  0.000  0.000  0.001  0.000  0.000  0.000  0.000  0.000  0.010
   15  0.088  0.001  0.000  0.000  0.000  0.000  0.000  0.000  0.000  0.089
tot    0.224  0.187  0.046  0.051  0.005  0.001  0.003  0.001  0.009  0.529

band    10 # energy   -7.50174735 # occ.  2.00000000

ion      s     py     pz     px    dxy    dyz    dz2    dxz  x2-y2    tot
    1  0.039  0.006  0.000  0.010  0.005  0.000  0.000  0.000  0.002  0.061
    2  0.039  0.006  0.000  0.010  0.005  0.000  0.000  0.000  0.002  0.062
    3  0.003  0.000  0.000  0.001  0.000  0.000  0.000  0.000  0.000  0.005
    4  0.003  0.000  0.000  0.001  0.000  0.000  0.000  0.000  0.000  0.005
    5  0.004  0.000  0.000  0.001  0.000  0.000  0.000  0.000  0.000  0.005
    6  0.004  0.000  0.000  0.001  0.000  0.000  0.000  0.000  0.000  0.005
    7  0.032  0.006  0.000  0.014  0.005  0.000  0.000  0.000  0.002  0.060
    8  0.032  0.006  0.000  0.014  0.005  0.000  0.000  0.000  0.002  0.060
    9  0.034  0.002  0.000  0.086  0.000  0.000  0.000  0.000  0.000  0.123
   10  0.026  0.000  0.000  0.093  0.000  0.000  0.000  0.000  0.000  0.119
   11  0.003  0.000  0.000  0.001  0.000  0.000  0.000  0.000  0.000  0.004
   12  0.002  0.000  0.008  0.006  0.000  0.000  0.000  0.000  0.000  0.016
   13  0.004  0.019  0.000  0.002  0.000  0.000  0.000  0.000  0.001  0.026
   14  0.004  0.000  0.000  0.000  0.000  0.000  0.000  0.000  0.000  0.004
   15  0.009  0.000  0.000  0.000  0.000  0.000  0.000  0.000  0.000  0.009
tot    0.236  0.046  0.009  0.239  0.022  0.000  0.002  0.000  0.010  0.564

band    11 # energy   -7.23121827 # occ.  2.00000000

ion      s     py     pz     px    dxy    dyz    dz2    dxz  x2-y2    tot
    1  0.008  0.003  0.000  0.003  0.001  0.000  0.000  0.000  0.000  0.015
    2  0.008  0.003  0.000  0.003  0.001  0.000  0.000  0.000  0.000  0.015
    3  0.012  0.004  0.000  0.010  0.003  0.000  0.000  0.000  0.001  0.031
    4  0.012  0.004  0.000  0.010  0.003  0.000  0.000  0.000  0.001  0.031
    5  0.021  0.004  0.001  0.008  0.003  0.000  0.000  0.000  0.001  0.038
    6  0.021  0.004  0.001  0.008  0.003  0.000  0.000  0.000  0.001  0.038
    7  0.006  0.003  0.000  0.002  0.001  0.000  0.000  0.000  0.000  0.013
    8  0.006  0.003  0.000  0.002  0.001  0.000  0.000  0.000  0.000  0.013
    9  0.001  0.005  0.000  0.020  0.000  0.000  0.000  0.000  0.000  0.026
   10  0.007  0.003  0.000  0.015  0.000  0.000  0.000  0.000  0.000  0.025
   11  0.024  0.002  0.000  0.024  0.000  0.000  0.000  0.000  0.000  0.049
   12  0.008  0.000  0.029  0.097  0.000  0.000  0.000  0.000  0.000  0.134
   13  0.011  0.044  0.001  0.005  0.000  0.000  0.001  0.000  0.001  0.064
   14  0.014  0.000  0.000  0.002  0.000  0.000  0.000  0.000  0.000  0.016
   15  0.024  0.000  0.000  0.000  0.000  0.000  0.000  0.000  0.000  0.024
tot    0.182  0.082  0.034  0.209  0.016  0.001  0.002  0.001  0.007  0.534

band    12 # energy   -6.81242563 # occ.  2.00000000

ion      s     py     pz     px    dxy    dyz    dz2    dxz  x2-y2    tot
    1  0.018  0.001  0.000  0.005  0.000  0.000  0.000  0.000  0.002  0.028
    2  0.018  0.001  0.000  0.005  0.000  0.000  0.000  0.000  0.002  0.027
    3  0.019  0.000  0.001  0.003  0.000  0.000  0.000  0.000  0.001  0.025
    4  0.019  0.000  0.001  0.003  0.000  0.000  0.000  0.000  0.001  0.025
    5  0.012  0.001  0.000  0.003  0.000  0.000  0.000  0.000  0.002  0.019
    6  0.012  0.001  0.000  0.003  0.000  0.000  0.000  0.000  0.002  0.019
    7  0.028  0.000  0.000  0.005  0.000  0.000  0.000  0.000  0.002  0.035
    8  0.028  0.000  0.000  0.005  0.000  0.000  0.000  0.000  0.002  0.035
    9  0.000  0.027  0.000  0.000  0.000  0.000  0.000  0.000  0.000  0.028
   10  0.000  0.066  0.000  0.000  0.000  0.000  0.000  0.000  0.000  0.066
   11  0.000  0.024  0.000  0.001  0.000  0.000  0.000  0.000  0.000  0.026
   12  0.000  0.054  0.001  0.001  0.000  0.000  0.000  0.000  0.000  0.057
   13  0.019  0.066  0.002  0.006  0.000  0.000  0.000  0.000  0.002  0.095
   14  0.000  0.001  0.000  0.000  0.000  0.000  0.000  0.000  0.000  0.001
   15  0.031  0.000  0.000  0.000  0.000  0.000  0.000  0.000  0.000  0.031
tot    0.206  0.243  0.007  0.041  0.002  0.000  0.002  0.001  0.014  0.516

band    13 # energy   -6.45714257 # occ.  2.00000000

ion      s     py     pz     px    dxy    dyz    dz2    dxz  x2-y2    tot
    1  0.022  0.005  0.001  0.001  0.002  0.000  0.000  0.000  0.000  0.030
    2  0.022  0.005  0.001  0.001  0.002  0.000  0.000  0.000  0.000  0.031
    3  0.007  0.011  0.000  0.004  0.001  0.000  0.000  0.000  0.001  0.026
    4  0.007  0.011  0.000  0.004  0.001  0.000  0.000  0.000  0.001  0.025
    5  0.016  0.011  0.000  0.000  0.001  0.000  0.000  0.000  0.000  0.029
    6  0.017  0.011  0.000  0.000  0.001  0.000  0.000  0.000  0.000  0.030
    7  0.013  0.007  0.000  0.003  0.002  0.000  0.000  0.000  0.001  0.026
    8  0.012  0.007  0.000  0.003  0.002  0.000  0.000  0.000  0.001  0.026
    9  0.019  0.001  0.001  0.010  0.000  0.000  0.000  0.000  0.000  0.030
   10  0.015  0.009  0.000  0.007  0.000  0.000  0.000  0.000  0.000  0.031
   11  0.008  0.000  0.000  0.009  0.000  0.000  0.000  0.000  0.000  0.017
   12  0.022  0.015  0.023  0.002  0.000  0.000  0.000  0.000  0.000  0.061
   13  0.009  0.010  0.031  0.010  0.000  0.000  0.000  0.000  0.000  0.061
   14  0.012  0.000  0.000  0.000  0.000  0.000  0.000  0.000  0.000  0.012
   15  0.001  0.000  0.000  0.000  0.000  0.000  0.000  0.000  0.000  0.001
tot    0.201  0.103  0.058  0.055  0.012  0.000  0.001  0.001  0.005  0.436

band    14 # energy   -6.36276949 # occ.  2.00000000

ion      s     py     pz     px    dxy    dyz    dz2    dxz  x2-y2    tot
    1  0.021  0.000  0.000  0.011  0.001  0.000  0.000  0.000  0.001  0.035
    2  0.021  0.001  0.000  0.011  0.001  0.000  0.000  0.000  0.001  0.034
    3  0.011  0.001  0.001  0.008  0.001  0.000  0.000  0.000  0.001  0.023
    4  0.012  0.001  0.001  0.008  0.001  0.000  0.000  0.000  0.001  0.024
    5  0.012  0.001  0.000  0.007  0.001  0.000  0.000  0.000  0.001  0.022
    6  0.012  0.001  0.000  0.007  0.001  0.000  0.000  0.000  0.001  0.022
    7  0.019  0.001  0.000  0.013  0.001  0.000  0.000  0.000  0.001  0.035
    8  0.020  0.001  0.000  0.013  0.001  0.000  0.000  0.000  0.001  0.035
    9  0.001  0.075  0.000  0.000  0.000  0.000  0.000  0.000  0.000  0.077
   10  0.002  0.039  0.000  0.001  0.000  0.000  0.000  0.000  0.000  0.042
   11  0.002  0.056  0.001  0.000  0.000  0.000  0.000  0.000  0.000  0.059
   12  0.002  0.028  0.005  0.002  0.000  0.000  0.000  0.000  0.000  0.036
   13  0.004  0.019  0.001  0.014  0.000  0.000  0.000  0.000  0.001  0.040
   14  0.000  0.001  0.000  0.000  0.000  0.000  0.000  0.000  0.000  0.001
   15  0.010  0.000  0.000  0.000  0.000  0.000  0.000  0.000  0.000  0.010
tot    0.148  0.224  0.011  0.095  0.005  0.001  0.001  0.001  0.010  0.495

band    15 # energy   -5.73818683 # occ.  2.00000000

ion      s     py     pz     px    dxy    dyz    dz2    dxz  x2-y2    tot
    1  0.006  0.001  0.000  0.003  0.002  0.000  0.000  0.000  0.000  0.012
    2  0.006  0.001  0.000  0.003  0.002  0.000  0.000  0.000  0.000  0.012
    3  0.005  0.009  0.001  0.011  0.004  0.000  0.000  0.000  0.001  0.032
    4  0.005  0.009  0.001  0.011  0.004  0.000  0.000  0.000  0.001  0.032
    5  0.008  0.007  0.004  0.013  0.005  0.001  0.000  0.000  0.001  0.039
    6  0.008  0.007  0.004  0.013  0.005  0.001  0.000  0.000  0.001  0.039
    7  0.007  0.001  0.000  0.003  0.002  0.000  0.000  0.000  0.000  0.013
    8  0.007  0.001  0.000  0.003  0.002  0.000  0.000  0.000  0.000  0.013
    9  0.008  0.000  0.000  0.029  0.000  0.000  0.000  0.000  0.000  0.037
   10  0.007  0.000  0.000  0.015  0.000  0.000  0.000  0.000  0.000  0.022
   11  0.004  0.000  0.008  0.106  0.000  0.000  0.000  0.000  0.000  0.118
   12  0.021  0.002  0.021  0.074  0.000  0.000  0.000  0.000  0.000  0.118
   13  0.004  0.009  0.000  0.012  0.000  0.000  0.000  0.000  0.001  0.027
   14  0.007  0.000  0.000  0.001  0.000  0.000  0.000  0.000  0.000  0.009
   15  0.008  0.000  0.000  0.000  0.000  0.000  0.000  0.000  0.000  0.008
tot    0.110  0.048  0.040  0.297  0.025  0.003  0.001  0.001  0.007  0.531

band    16 # energy   -5.59272969 # occ.  2.00000000

ion      s     py     pz     px    dxy    dyz    dz2    dxz  x2-y2    tot
    1  0.008  0.013  0.001  0.014  0.004  0.000  0.000  0.000  0.001  0.041
    2  0.007  0.013  0.001  0.014  0.004  0.000  0.000  0.000  0.001  0.041
    3  0.001  0.011  0.001  0.001  0.000  0.000  0.000  0.000  0.000  0.014
    4  0.001  0.011  0.001  0.001  0.000  0.000  0.000  0.000  0.000  0.015
    5  0.005  0.007  0.001  0.004  0.000  0.000  0.000  0.000  0.000  0.017
    6  0.005  0.007  0.001  0.004  0.000  0.000  0.000  0.000  0.000  0.017
    7  0.008  0.015  0.000  0.013  0.004  0.000  0.000  0.000  0.001  0.042
    8  0.008  0.016  0.000  0.013  0.004  0.000  0.000  0.000  0.001  0.042
    9  0.005  0.001  0.001  0.051  0.000  0.000  0.000  0.000  0.000  0.056
   10  0.015  0.000  0.000  0.115  0.000  0.000  0.000  0.000  0.000  0.130
   11  0.002  0.009  0.000  0.000  0.000  0.000  0.000  0.000  0.000  0.011
   12  0.002  0.001  0.001  0.020  0.000  0.000  0.000  0.000  0.000  0.023
   13  0.002  0.001  0.043  0.007  0.000  0.000  0.000  0.000  0.000  0.054
   14  0.000  0.000  0.000  0.000  0.000  0.000  0.000  0.000  0.000  0.001
   15  0.000  0.000  0.000  0.000  0.000  0.000  0.000  0.000  0.000  0.001
tot    0.069  0.105  0.049  0.257  0.018  0.001  0.001  0.001  0.005  0.506

band    17 # energy   -5.42874953 # occ.  2.00000000

ion      s     py     pz     px    dxy    dyz    dz2    dxz  x2-y2    tot
    1  0.003  0.017  0.001  0.007  0.001  0.000  0.000  0.000  0.000  0.030
    2  0.003  0.017  0.001  0.007  0.001  0.000  0.000  0.000  0.000  0.030
    3  0.002  0.018  0.002  0.001  0.000  0.000  0.000  0.000  0.000  0.025
    4  0.002  0.018  0.002  0.001  0.000  0.000  0.000  0.000  0.000  0.025
    5  0.003  0.019  0.000  0.007  0.000  0.000  0.000  0.000  0.000  0.030
    6  0.003  0.019  0.000  0.008  0.000  0.000  0.000  0.000  0.000  0.030
    7  0.002  0.019  0.000  0.006  0.001  0.000  0.000  0.000  0.000  0.029
    8  0.002  0.019  0.000  0.006  0.001  0.000  0.000  0.000  0.000  0.029
    9  0.005  0.000  0.000  0.065  0.000  0.000  0.000  0.000  0.000  0.070
   10  0.000  0.001  0.002  0.012  0.000  0.000  0.000  0.000  0.000  0.014
   11  0.002  0.004  0.001  0.050  0.000  0.000  0.000  0.000  0.000  0.057
   12  0.001  0.002  0.001  0.000  0.000  0.000  0.000  0.000  0.000  0.004
   13  0.002  0.002  0.013  0.040  0.000  0.000  0.000  0.001  0.000  0.057
   14  0.000  0.000  0.000  0.000  0.000  0.000  0.000  0.000  0.000  0.001
   15  0.000  0.000  0.000  0.000  0.000  0.000  0.000  0.000  0.000  0.000
tot    0.030  0.156  0.025  0.210  0.007  0.001  0.001  0.001  0.002  0.433

band    18 # energy   -4.76069865 # occ.  2.00000000

ion      s     py     pz     px    dxy    dyz    dz2    dxz  x2-y2    tot
    1  0.001  0.007  0.005  0.000  0.000  0.000  0.000  0.000  0.000  0.015
    2  0.001  0.007  0.005  0.000  0.000  0.000  0.000  0.000  0.000  0.014
    3  0.004  0.002  0.012  0.001  0.001  0.000  0.000  0.002  0.000  0.022
    4  0.004  0.002  0.012  0.001  0.001  0.000  0.000  0.002  0.000  0.022
    5  0.001  0.002  0.005  0.005  0.001  0.000  0.000  0.001  0.001  0.015
    6  0.001  0.002  0.005  0.005  0.001  0.000  0.000  0.001  0.001  0.015
    7  0.001  0.004  0.005  0.001  0.000  0.000  0.000  0.000  0.000  0.012
    8  0.001  0.004  0.005  0.001  0.000  0.000  0.000  0.000  0.000  0.012
    9  0.001  0.000  0.024  0.000  0.000  0.000  0.000  0.000  0.000  0.025
   10  0.000  0.000  0.015  0.005  0.000  0.000  0.000  0.000  0.000  0.020
   11  0.001  0.017  0.049  0.012  0.000  0.000  0.000  0.000  0.000  0.079
   12  0.001  0.000  0.006  0.006  0.000  0.000  0.000  0.000  0.000  0.013
   13  0.008  0.012  0.099  0.005  0.000  0.000  0.000  0.000  0.000  0.124
   14  0.004  0.000  0.000  0.000  0.000  0.000  0.000  0.000  0.000  0.004
   15  0.004  0.000  0.000  0.000  0.000  0.000  0.000  0.000  0.000  0.004
tot    0.034  0.057  0.247  0.043  0.004  0.002  0.000  0.006  0.003  0.397

band    19 # energy   -4.38928057 # occ.  2.00000000

ion      s     py     pz     px    dxy    dyz    dz2    dxz  x2-y2    tot
    1  0.001  0.003  0.013  0.001  0.000  0.002  0.000  0.001  0.000  0.020
    2  0.001  0.003  0.013  0.001  0.000  0.002  0.000  0.001  0.000  0.020
    3  0.001  0.001  0.005  0.001  0.000  0.000  0.000  0.001  0.000  0.008
    4  0.001  0.001  0.004  0.001  0.000  0.000  0.000  0.001  0.000  0.007
    5  0.001  0.002  0.001  0.001  0.000  0.000  0.000  0.000  0.000  0.006
    6  0.001  0.002  0.001  0.002  0.000  0.000  0.000  0.000  0.000  0.006
    7  0.001  0.003  0.016  0.000  0.000  0.002  0.000  0.001  0.000  0.023
    8  0.001  0.003  0.016  0.000  0.000  0.002  0.000  0.001  0.000  0.023
    9  0.000  0.000  0.051  0.001  0.000  0.000  0.000  0.000  0.000  0.053
   10  0.000  0.001  0.082  0.001  0.000  0.000  0.000  0.000  0.000  0.084
   11  0.000  0.009  0.015  0.001  0.000  0.000  0.000  0.000  0.000  0.025
   12  0.000  0.002  0.001  0.001  0.000  0.000  0.000  0.000  0.000  0.004
   13  0.003  0.011  0.043  0.018  0.000  0.000  0.000  0.000  0.000  0.075
   14  0.000  0.000  0.000  0.000  0.000  0.000  0.000  0.000  0.000  0.000
   15  0.003  0.000  0.000  0.000  0.000  0.000  0.000  0.000  0.000  0.004
tot    0.014  0.040  0.261  0.029  0.001  0.008  0.000  0.006  0.001  0.359

band    20 # energy   -4.26606999 # occ.  2.00000000

ion      s     py     pz     px    dxy    dyz    dz2    dxz  x2-y2    tot
    1  0.002  0.004  0.002  0.001  0.000  0.000  0.000  0.000  0.000  0.009
    2  0.002  0.004  0.002  0.001  0.000  0.000  0.000  0.000  0.000  0.009
    3  0.000  0.000  0.007  0.003  0.000  0.000  0.001  0.000  0.000  0.013
    4  0.001  0.000  0.008  0.003  0.000  0.000  0.001  0.000  0.000  0.013
    5  0.002  0.004  0.000  0.004  0.001  0.000  0.000  0.000  0.001  0.012
    6  0.002  0.004  0.000  0.003  0.001  0.000  0.000  0.000  0.001  0.012
    7  0.003  0.006  0.003  0.000  0.000  0.000  0.000  0.000  0.000  0.013
    8  0.003  0.006  0.003  0.000  0.000  0.000  0.000  0.000  0.000  0.013
    9  0.000  0.001  0.013  0.003  0.000  0.000  0.000  0.000  0.000  0.017
   10  0.002  0.000  0.008  0.000  0.000  0.000  0.000  0.000  0.000  0.011
   11  0.000  0.000  0.000  0.003  0.000  0.000  0.000  0.000  0.000  0.004
   12  0.001  0.019  0.020  0.000  0.000  0.000  0.000  0.000  0.000  0.040
   13  0.000  0.001  0.007  0.322  0.000  0.000  0.000  0.001  0.000  0.331
   14  0.007  0.000  0.000  0.000  0.000  0.000  0.000  0.000  0.000  0.008
   15  0.000  0.000  0.000  0.001  0.000  0.000  0.000  0.000  0.000  0.001
tot    0.025  0.049  0.073  0.344  0.003  0.002  0.003  0.002  0.003  0.503

band    21 # energy   -3.72588423 # occ.  2.00000000

ion      s     py     pz     px    dxy    dyz    dz2    dxz  x2-y2    tot
    1  0.000  0.000  0.013  0.001  0.000  0.002  0.000  0.003  0.000  0.019
    2  0.000  0.000  0.013  0.001  0.000  0.002  0.000  0.003  0.000  0.019
    3  0.000  0.000  0.001  0.001  0.000  0.000  0.000  0.000  0.000  0.002
    4  0.000  0.000  0.001  0.001  0.000  0.000  0.000  0.000  0.000  0.002
    5  0.000  0.001  0.001  0.000  0.000  0.000  0.000  0.000  0.000  0.003
    6  0.000  0.001  0.001  0.000  0.000  0.000  0.000  0.000  0.000  0.003
    7  0.000  0.001  0.018  0.000  0.000  0.001  0.000  0.004  0.000  0.024
    8  0.000  0.001  0.018  0.000  0.000  0.001  0.000  0.004  0.000  0.024
    9  0.000  0.001  0.103  0.000  0.000  0.000  0.000  0.000  0.000  0.105
   10  0.000  0.000  0.091  0.001  0.000  0.000  0.000  0.000  0.000  0.092
   11  0.000  0.007  0.004  0.000  0.000  0.000  0.000  0.000  0.000  0.012
   12  0.000  0.000  0.000  0.000  0.000  0.000  0.000  0.000  0.000  0.001
   13  0.000  0.003  0.025  0.005  0.000  0.000  0.000  0.000  0.000  0.034
   14  0.000  0.000  0.000  0.000  0.000  0.000  0.000  0.000  0.000  0.000
   15  0.000  0.000  0.000  0.000  0.000  0.000  0.000  0.000  0.000  0.000
tot    0.001  0.017  0.289  0.011  0.001  0.006  0.001  0.014  0.001  0.341

band    22 # energy   -3.61077160 # occ.  2.00000000

ion      s     py     pz     px    dxy    dyz    dz2    dxz  x2-y2    tot
    1  0.001  0.000  0.003  0.004  0.000  0.000  0.000  0.001  0.001  0.010
    2  0.001  0.000  0.003  0.004  0.000  0.000  0.000  0.001  0.001  0.010
    3  0.002  0.002  0.001  0.007  0.002  0.001  0.001  0.000  0.001  0.018
    4  0.002  0.002  0.001  0.008  0.002  0.001  0.001  0.000  0.001  0.018
    5  0.002  0.013  0.010  0.001  0.000  0.001  0.000  0.002  0.001  0.030
    6  0.002  0.013  0.010  0.001  0.000  0.001  0.000  0.002  0.001  0.030
    7  0.002  0.010  0.001  0.002  0.000  0.000  0.000  0.000  0.001  0.018
    8  0.002  0.010  0.001  0.002  0.000  0.000  0.000  0.000  0.001  0.018
    9  0.001  0.030  0.013  0.000  0.000  0.000  0.000  0.000  0.000  0.044
   10  0.000  0.004  0.006  0.001  0.000  0.000  0.000  0.000  0.000  0.011
   11  0.000  0.034  0.097  0.000  0.000  0.000  0.000  0.000  0.000  0.132
   12  0.000  0.001  0.000  0.007  0.000  0.000  0.000  0.000  0.000  0.009
   13  0.001  0.000  0.067  0.005  0.000  0.002  0.000  0.000  0.002  0.076
   14  0.000  0.000  0.000  0.000  0.000  0.000  0.000  0.000  0.000  0.000
   15  0.005  0.000  0.000  0.000  0.000  0.000  0.000  0.000  0.000  0.005
tot    0.022  0.121  0.213  0.042  0.006  0.005  0.003  0.006  0.009  0.427

band    23 # energy   -3.16738355 # occ.  2.00000000

ion      s     py     pz     px    dxy    dyz    dz2    dxz  x2-y2    tot
    1  0.008  0.017  0.000  0.007  0.001  0.000  0.000  0.000  0.003  0.037
    2  0.008  0.017  0.000  0.007  0.001  0.000  0.000  0.000  0.003  0.037
    3  0.009  0.013  0.005  0.003  0.001  0.000  0.000  0.000  0.002  0.034
    4  0.009  0.013  0.005  0.003  0.001  0.000  0.000  0.000  0.002  0.034
    5  0.008  0.009  0.002  0.003  0.000  0.000  0.000  0.001  0.002  0.024
    6  0.008  0.009  0.002  0.003  0.000  0.000  0.000  0.001  0.002  0.025
    7  0.002  0.008  0.000  0.009  0.001  0.000  0.000  0.000  0.003  0.023
    8  0.002  0.008  0.000  0.009  0.001  0.000  0.000  0.000  0.003  0.023
    9  0.000  0.002  0.000  0.000  0.000  0.000  0.000  0.000  0.000  0.003
   10  0.000  0.088  0.001  0.000  0.000  0.000  0.000  0.000  0.000  0.089
   11  0.000  0.000  0.015  0.000  0.000  0.000  0.000  0.000  0.000  0.016
   12  0.000  0.066  0.000  0.001  0.000  0.000  0.000  0.000  0.000  0.067
   13  0.001  0.000  0.024  0.015  0.000  0.000  0.000  0.000  0.000  0.040
   14  0.002  0.001  0.000  0.000  0.000  0.000  0.000  0.000  0.000  0.004
   15  0.000  0.000  0.000  0.000  0.000  0.000  0.000  0.000  0.000  0.000
tot    0.058  0.253  0.055  0.059  0.005  0.001  0.001  0.002  0.021  0.456

band    24 # energy   -2.69729619 # occ.  2.00000000

ion      s     py     pz     px    dxy    dyz    dz2    dxz  x2-y2    tot
    1  0.006  0.022  0.000  0.004  0.001  0.000  0.000  0.000  0.004  0.036
    2  0.006  0.021  0.000  0.004  0.001  0.000  0.000  0.000  0.004  0.036
    3  0.004  0.014  0.001  0.003  0.000  0.001  0.000  0.000  0.003  0.026
    4  0.004  0.014  0.001  0.003  0.000  0.001  0.000  0.000  0.003  0.026
    5  0.003  0.008  0.007  0.007  0.001  0.000  0.000  0.000  0.003  0.028
    6  0.003  0.008  0.007  0.007  0.001  0.000  0.000  0.000  0.003  0.028
    7  0.001  0.008  0.000  0.006  0.000  0.000  0.000  0.000  0.004  0.019
    8  0.001  0.008  0.000  0.006  0.000  0.000  0.000  0.000  0.004  0.019
    9  0.001  0.074  0.001  0.000  0.000  0.000  0.000  0.000  0.000  0.076
   10  0.000  0.017  0.000  0.000  0.000  0.000  0.000  0.000  0.000  0.017
   11  0.000  0.050  0.022  0.000  0.000  0.000  0.000  0.000  0.000  0.072
   12  0.000  0.015  0.001  0.000  0.000  0.000  0.000  0.000  0.000  0.017
   13  0.001  0.001  0.056  0.001  0.000  0.000  0.000  0.000  0.000  0.059
   14  0.000  0.000  0.000  0.000  0.000  0.000  0.000  0.000  0.000  0.000
   15  0.000  0.000  0.000  0.000  0.000  0.000  0.000  0.000  0.000  0.000
tot    0.029  0.259  0.096  0.041  0.004  0.003  0.002  0.001  0.027  0.460

band    25 # energy   -0.41826868 # occ.  0.00000000

ion      s     py     pz     px    dxy    dyz    dz2    dxz  x2-y2    tot
    1  0.000  0.000  0.011  0.000  0.000  0.000  0.000  0.001  0.000  0.012
    2  0.000  0.000  0.011  0.000  0.000  0.000  0.000  0.001  0.000  0.012
    3  0.001  0.001  0.001  0.000  0.000  0.000  0.000  0.000  0.000  0.005
    4  0.001  0.001  0.001  0.000  0.000  0.000  0.000  0.000  0.000  0.005
    5  0.000  0.002  0.035  0.001  0.000  0.002  0.000  0.001  0.001  0.041
    6  0.000  0.002  0.035  0.001  0.000  0.002  0.000  0.001  0.001  0.041
    7  0.001  0.001  0.015  0.000  0.000  0.003  0.000  0.000  0.000  0.021
    8  0.001  0.001  0.015  0.000  0.000  0.003  0.000  0.000  0.000  0.021
    9  0.000  0.000  0.001  0.000  0.000  0.000  0.000  0.000  0.000  0.001
   10  0.000  0.001  0.007  0.000  0.000  0.000  0.000  0.000  0.000  0.008
   11  0.000  0.000  0.012  0.000  0.000  0.000  0.000  0.000  0.000  0.012
   12  0.000  0.001  0.007  0.000  0.000  0.000  0.000  0.000  0.000  0.008
   13  0.001  0.000  0.012  0.001  0.000  0.000  0.000  0.000  0.000  0.015
   14  0.009  0.000  0.000  0.000  0.000  0.000  0.000  0.000  0.000  0.010
   15  0.000  0.000  0.000  0.000  0.000  0.000  0.000  0.000  0.000  0.000
tot    0.016  0.010  0.162  0.005  0.001  0.010  0.002  0.003  0.002  0.210

band    26 # energy    0.12088681 # occ.  0.00000000

ion      s     py     pz     px    dxy    dyz    dz2    dxz  x2-y2    tot
    1  0.000  0.000  0.009  0.000  0.000  0.001  0.000  0.001  0.000  0.011
    2  0.000  0.000  0.009  0.000  0.000  0.001  0.000  0.001  0.000  0.011
    3  0.004  0.000  0.008  0.000  0.000  0.000  0.002  0.000  0.000  0.014
    4  0.004  0.000  0.008  0.000  0.000  0.000  0.002  0.000  0.000  0.014
    5  0.000  0.000  0.028  0.000  0.000  0.002  0.000  0.000  0.000  0.033
    6  0.000  0.000  0.028  0.000  0.000  0.002  0.000  0.000  0.000  0.033
    7  0.001  0.001  0.012  0.000  0.000  0.002  0.000  0.000  0.000  0.016
    8  0.001  0.001  0.012  0.000  0.000  0.002  0.000  0.000  0.000  0.016
    9  0.000  0.001  0.004  0.000  0.000  0.000  0.000  0.000  0.000  0.005
   10  0.000  0.000  0.010  0.000  0.000  0.000  0.000  0.000  0.000  0.011
   11  0.000  0.000  0.012  0.000  0.000  0.000  0.000  0.000  0.000  0.013
   12  0.000  0.000  0.004  0.001  0.000  0.000  0.000  0.000  0.000  0.005
   13  0.001  0.000  0.022  0.009  0.000  0.000  0.001  0.002  0.001  0.036
   14  0.011  0.000  0.000  0.000  0.000  0.000  0.000  0.000  0.000  0.011
   15  0.002  0.000  0.000  0.000  0.000  0.000  0.000  0.000  0.000  0.002
tot    0.024  0.005  0.167  0.012  0.000  0.010  0.005  0.004  0.002  0.230

band    27 # energy    0.45656569 # occ.  0.00000000

ion      s     py     pz     px    dxy    dyz    dz2    dxz  x2-y2    tot
    1  0.000  0.000  0.016  0.000  0.000  0.003  0.000  0.000  0.000  0.020
    2  0.000  0.000  0.016  0.000  0.000  0.003  0.000  0.000  0.000  0.020
    3  0.005  0.002  0.019  0.000  0.000  0.001  0.001  0.001  0.000  0.029
    4  0.005  0.002  0.019  0.000  0.000  0.001  0.001  0.001  0.000  0.029
    5  0.002  0.000  0.006  0.000  0.000  0.002  0.000  0.000  0.000  0.011
    6  0.002  0.000  0.006  0.000  0.000  0.002  0.000  0.000  0.000  0.011
    7  0.000  0.000  0.010  0.000  0.000  0.001  0.000  0.001  0.000  0.013
    8  0.000  0.000  0.010  0.000  0.000  0.001  0.000  0.001  0.000  0.013
    9  0.000  0.000  0.004  0.000  0.000  0.000  0.000  0.000  0.000  0.005
   10  0.001  0.000  0.008  0.000  0.000  0.000  0.000  0.000  0.000  0.009
   11  0.000  0.001  0.014  0.000  0.000  0.000  0.000  0.000  0.000  0.015
   12  0.000  0.001  0.000  0.000  0.000  0.000  0.000  0.000  0.000  0.002
   13  0.001  0.001  0.001  0.039  0.000  0.000  0.000  0.008  0.000  0.049
   14  0.005  0.000  0.000  0.000  0.000  0.000  0.000  0.000  0.000  0.005
   15  0.000  0.000  0.000  0.000  0.000  0.000  0.000  0.000  0.000  0.000
tot    0.022  0.009  0.130  0.040  0.001  0.013  0.002  0.012  0.001  0.231

band    28 # energy    1.13773494 # occ.  0.00000000

ion      s     py     pz     px    dxy    dyz    dz2    dxz  x2-y2    tot
    1  0.003  0.001  0.001  0.000  0.000  0.001  0.001  0.000  0.000  0.008
    2  0.004  0.001  0.002  0.000  0.000  0.001  0.001  0.000  0.000  0.009
    3  0.005  0.003  0.001  0.001  0.000  0.001  0.000  0.000  0.000  0.012
    4  0.004  0.003  0.001  0.000  0.000  0.001  0.001  0.000  0.000  0.011
    5  0.004  0.002  0.002  0.000  0.000  0.000  0.001  0.000  0.000  0.009
    6  0.004  0.002  0.002  0.000  0.000  0.000  0.001  0.000  0.000  0.009
    7  0.001  0.000  0.002  0.001  0.000  0.000  0.001  0.000  0.000  0.007
    8  0.001  0.000  0.002  0.001  0.000  0.000  0.001  0.000  0.000  0.006
    9  0.007  0.001  0.003  0.001  0.000  0.000  0.000  0.000  0.000  0.012
   10  0.003  0.000  0.000  0.002  0.000  0.000  0.000  0.000  0.000  0.005
   11  0.000  0.000  0.001  0.000  0.000  0.000  0.000  0.000  0.000  0.001
   12  0.001  0.000  0.002  0.001  0.000  0.000  0.000  0.000  0.000  0.003
   13  0.011  0.086  0.021  0.001  0.000  0.002  0.013  0.000  0.022  0.157
   14  0.001  0.000  0.000  0.000  0.000  0.000  0.000  0.000  0.000  0.001
   15  0.045  0.003  0.000  0.000  0.000  0.000  0.000  0.000  0.000  0.048
tot    0.093  0.104  0.038  0.008  0.001  0.007  0.021  0.000  0.024  0.297

band    29 # energy    1.40012425 # occ.  0.00000000

ion      s     py     pz     px    dxy    dyz    dz2    dxz  x2-y2    tot
    1  0.005  0.003  0.005  0.001  0.000  0.001  0.001  0.000  0.001  0.018
    2  0.006  0.005  0.003  0.001  0.000  0.002  0.001  0.000  0.001  0.018
    3  0.006  0.003  0.000  0.003  0.001  0.000  0.001  0.000  0.001  0.015
    4  0.012  0.005  0.003  0.004  0.001  0.000  0.000  0.000  0.001  0.027
    5  0.011  0.002  0.001  0.003  0.000  0.001  0.002  0.001  0.001  0.022
    6  0.007  0.003  0.000  0.003  0.001  0.002  0.002  0.000  0.001  0.020
    7  0.015  0.010  0.003  0.001  0.000  0.000  0.002  0.000  0.000  0.032
    8  0.013  0.009  0.002  0.000  0.000  0.001  0.001  0.000  0.000  0.027
    9  0.005  0.000  0.008  0.006  0.000  0.000  0.000  0.000  0.000  0.020
   10  0.011  0.001  0.006  0.000  0.000  0.000  0.000  0.000  0.000  0.018
   11  0.003  0.001  0.003  0.004  0.000  0.000  0.000  0.000  0.000  0.011
   12  0.031  0.001  0.001  0.004  0.000  0.000  0.000  0.000  0.000  0.037
   13  0.018  0.011  0.003  0.008  0.001  0.000  0.000  0.001  0.001  0.045
   14  0.000  0.000  0.001  0.000  0.000  0.000  0.000  0.000  0.000  0.002
   15  0.007  0.001  0.000  0.000  0.000  0.000  0.000  0.000  0.000  0.008
tot    0.149  0.056  0.042  0.038  0.004  0.008  0.010  0.002  0.008  0.318

band    30 # energy    1.52054884 # occ.  0.00000000

ion      s     py     pz     px    dxy    dyz    dz2    dxz  x2-y2    tot
    1  0.004  0.004  0.010  0.002  0.000  0.003  0.000  0.000  0.000  0.024
    2  0.001  0.001  0.010  0.000  0.000  0.001  0.001  0.000  0.001  0.015
    3  0.009  0.004  0.011  0.001  0.000  0.001  0.000  0.001  0.000  0.027
    4  0.012  0.000  0.009  0.001  0.000  0.001  0.001  0.001  0.000  0.025
    5  0.001  0.002  0.003  0.003  0.001  0.001  0.001  0.000  0.001  0.013
    6  0.006  0.001  0.005  0.004  0.001  0.000  0.000  0.001  0.000  0.018
    7  0.004  0.003  0.000  0.000  0.001  0.001  0.001  0.000  0.000  0.011
    8  0.002  0.001  0.003  0.000  0.000  0.000  0.001  0.000  0.000  0.010
    9  0.000  0.004  0.024  0.003  0.000  0.000  0.000  0.000  0.000  0.031
   10  0.005  0.000  0.002  0.000  0.000  0.000  0.000  0.000  0.000  0.007
   11  0.002  0.002  0.022  0.004  0.000  0.000  0.000  0.000  0.000  0.030
   12  0.010  0.000  0.001  0.000  0.000  0.000  0.000  0.000  0.000  0.012
   13  0.008  0.001  0.006  0.005  0.002  0.002  0.001  0.007  0.001  0.033
   14  0.000  0.000  0.000  0.000  0.000  0.000  0.000  0.000  0.000  0.001
   15  0.001  0.000  0.000  0.000  0.000  0.000  0.000  0.000  0.000  0.002
tot    0.066  0.025  0.107  0.023  0.006  0.012  0.006  0.011  0.003  0.259

band    31 # energy    1.90589741 # occ.  0.00000000

ion      s     py     pz     px    dxy    dyz    dz2    dxz  x2-y2    tot
    1  0.000  0.001  0.009  0.000  0.004  0.000  0.000  0.000  0.000  0.015
    2  0.001  0.000  0.006  0.000  0.004  0.000  0.001  0.000  0.000  0.013
    3  0.023  0.002  0.002  0.015  0.003  0.001  0.002  0.000  0.001  0.048
    4  0.025  0.001  0.001  0.018  0.003  0.001  0.001  0.000  0.000  0.050
    5  0.017  0.001  0.001  0.001  0.001  0.001  0.002  0.000  0.001  0.024
    6  0.015  0.002  0.001  0.002  0.001  0.001  0.001  0.000  0.001  0.024
    7  0.010  0.007  0.001  0.001  0.000  0.000  0.000  0.001  0.000  0.020
    8  0.008  0.006  0.002  0.001  0.000  0.000  0.001  0.001  0.000  0.019
    9  0.000  0.011  0.007  0.000  0.000  0.000  0.000  0.000  0.000  0.018
   10  0.002  0.007  0.015  0.003  0.000  0.000  0.000  0.000  0.000  0.027
   11  0.005  0.001  0.002  0.002  0.000  0.000  0.000  0.000  0.000  0.010
   12  0.002  0.000  0.000  0.001  0.000  0.000  0.000  0.000  0.000  0.003
   13  0.001  0.007  0.001  0.003  0.002  0.001  0.001  0.004  0.007  0.026
   14  0.000  0.000  0.000  0.000  0.000  0.000  0.000  0.000  0.000  0.001
   15  0.002  0.000  0.000  0.000  0.000  0.000  0.000  0.000  0.000  0.002
tot    0.109  0.046  0.048  0.049  0.019  0.006  0.009  0.007  0.010  0.302

band    32 # energy    2.31707961 # occ.  0.00000000

ion      s     py     pz     px    dxy    dyz    dz2    dxz  x2-y2    tot
    1  0.005  0.000  0.005  0.001  0.001  0.000  0.001  0.000  0.001  0.014
    2  0.011  0.001  0.000  0.001  0.001  0.000  0.003  0.000  0.001  0.018
    3  0.005  0.006  0.001  0.006  0.001  0.000  0.001  0.001  0.000  0.021
    4  0.007  0.008  0.002  0.001  0.001  0.000  0.000  0.001  0.001  0.022
    5  0.015  0.004  0.007  0.002  0.001  0.001  0.000  0.000  0.000  0.029
    6  0.016  0.002  0.004  0.001  0.001  0.001  0.001  0.000  0.000  0.025
    7  0.001  0.002  0.006  0.005  0.003  0.000  0.002  0.000  0.001  0.020
    8  0.001  0.004  0.002  0.004  0.003  0.000  0.001  0.000  0.001  0.015
    9  0.012  0.002  0.002  0.001  0.000  0.000  0.000  0.000  0.000  0.017
   10  0.007  0.001  0.004  0.002  0.000  0.000  0.000  0.000  0.000  0.014
   11  0.010  0.005  0.002  0.001  0.000  0.000  0.000  0.000  0.000  0.018
   12  0.000  0.002  0.003  0.006  0.000  0.000  0.000  0.000  0.000  0.011
   13  0.003  0.004  0.000  0.004  0.001  0.001  0.004  0.001  0.000  0.017
   14  0.001  0.000  0.000  0.000  0.000  0.000  0.000  0.000  0.000  0.002
   15  0.002  0.000  0.000  0.000  0.000  0.000  0.000  0.000  0.000  0.002
tot    0.096  0.040  0.039  0.035  0.012  0.004  0.012  0.003  0.006  0.248


 k-point     4 :    0.00000000 0.33333333 0.00000000     weight = 0.13333333

band     1 # energy  -16.36035126 # occ.  2.00000000

ion      s     py     pz     px    dxy    dyz    dz2    dxz  x2-y2    tot
    1  0.000  0.000  0.000  0.000  0.000  0.000  0.000  0.000  0.000  0.000
    2  0.000  0.000  0.000  0.000  0.000  0.000  0.000  0.000  0.000  0.000
    3  0.023  0.005  0.000  0.000  0.000  0.000  0.001  0.000  0.000  0.029
    4  0.023  0.005  0.000  0.000  0.000  0.000  0.001  0.000  0.000  0.029
    5  0.024  0.005  0.001  0.000  0.000  0.000  0.001  0.000  0.000  0.031
    6  0.024  0.005  0.001  0.000  0.000  0.000  0.001  0.000  0.000  0.031
    7  0.000  0.000  0.000  0.000  0.000  0.000  0.000  0.000  0.000  0.000
    8  0.000  0.000  0.000  0.000  0.000  0.000  0.000  0.000  0.000  0.000
    9  0.000  0.000  0.000  0.000  0.000  0.000  0.000  0.000  0.000  0.000
   10  0.000  0.000  0.000  0.000  0.000  0.000  0.000  0.000  0.000  0.000
   11  0.062  0.000  0.001  0.000  0.000  0.000  0.000  0.000  0.000  0.063
   12  0.255  0.001  0.004  0.000  0.000  0.000  0.000  0.000  0.000  0.260
   13  0.022  0.000  0.001  0.000  0.000  0.000  0.000  0.000  0.000  0.023
   14  0.073  0.000  0.006  0.000  0.000  0.000  0.000  0.000  0.000  0.079
   15  0.001  0.000  0.000  0.000  0.000  0.000  0.000  0.000  0.000  0.001
tot    0.508  0.021  0.013  0.001  0.000  0.001  0.003  0.001  0.000  0.548

band     2 # energy  -15.30306639 # occ.  2.00000000

ion      s     py     pz     px    dxy    dyz    dz2    dxz  x2-y2    tot
    1  0.037  0.009  0.000  0.000  0.000  0.000  0.002  0.000  0.000  0.047
    2  0.037  0.009  0.000  0.000  0.000  0.000  0.002  0.000  0.000  0.047
    3  0.000  0.000  0.000  0.000  0.000  0.000  0.000  0.000  0.000  0.000
    4  0.000  0.000  0.000  0.000  0.000  0.000  0.000  0.000  0.000  0.000
    5  0.000  0.000  0.000  0.000  0.000  0.000  0.000  0.000  0.000  0.000
    6  0.000  0.000  0.000  0.000  0.000  0.000  0.000  0.000  0.000  0.000
    7  0.039  0.009  0.000  0.000  0.000  0.000  0.002  0.000  0.000  0.050
    8  0.039  0.009  0.000  0.000  0.000  0.000  0.002  0.000  0.000  0.050
    9  0.160  0.000  0.000  0.000  0.000  0.000  0.000  0.000  0.000  0.160
   10  0.163  0.000  0.000  0.000  0.000  0.000  0.000  0.000  0.000  0.163
   11  0.000  0.000  0.000  0.000  0.000  0.000  0.000  0.000  0.000  0.000
   12  0.001  0.000  0.000  0.000  0.000  0.000  0.000  0.000  0.000  0.001
   13  0.005  0.000  0.000  0.000  0.000  0.000  0.000  0.000  0.000  0.006
   14  0.000  0.000  0.000  0.000  0.000  0.000  0.000  0.000  0.000  0.000
   15  0.000  0.000  0.000  0.000  0.000  0.000  0.000  0.000  0.000  0.000
tot    0.484  0.036  0.000  0.000  0.000  0.000  0.008  0.000  0.000  0.528

band     3 # energy  -14.76807850 # occ.  2.00000000

ion      s     py     pz     px    dxy    dyz    dz2    dxz  x2-y2    tot
    1  0.000  0.000  0.000  0.000  0.000  0.000  0.000  0.000  0.000  0.000
    2  0.000  0.000  0.000  0.000  0.000  0.000  0.000  0.000  0.000  0.000
    3  0.003  0.000  0.001  0.004  0.000  0.000  0.000  0.000  0.000  0.008
    4  0.003  0.000  0.001  0.004  0.000  0.000  0.000  0.000  0.000  0.008
    5  0.000  0.000  0.000  0.002  0.001  0.000  0.000  0.000  0.000  0.003
    6  0.000  0.000  0.000  0.002  0.001  0.000  0.000  0.000  0.000  0.003
    7  0.001  0.000  0.000  0.000  0.000  0.000  0.000  0.000  0.000  0.001
    8  0.001  0.000  0.000  0.000  0.000  0.000  0.000  0.000  0.000  0.001
    9  0.002  0.000  0.000  0.000  0.000  0.000  0.000  0.000  0.000  0.002
   10  0.003  0.000  0.000  0.000  0.000  0.000  0.000  0.000  0.000  0.003
   11  0.019  0.000  0.000  0.000  0.000  0.000  0.000  0.000  0.000  0.019
   12  0.046  0.000  0.001  0.000  0.000  0.000  0.000  0.000  0.000  0.048
   13  0.585  0.006  0.001  0.000  0.000  0.000  0.000  0.000  0.001  0.594
   14  0.015  0.000  0.001  0.000  0.000  0.000  0.000  0.000  0.000  0.017
   15  0.041  0.002  0.000  0.000  0.000  0.000  0.000  0.000  0.000  0.043
tot    0.717  0.011  0.006  0.012  0.002  0.000  0.000  0.001  0.001  0.750

band     4 # energy  -14.07556728 # occ.  2.00000000

ion      s     py     pz     px    dxy    dyz    dz2    dxz  x2-y2    tot
    1  0.000  0.000  0.000  0.000  0.000  0.000  0.000  0.000  0.000  0.000
    2  0.000  0.000  0.000  0.000  0.000  0.000  0.000  0.000  0.000  0.000
    3  0.004  0.002  0.002  0.008  0.003  0.000  0.000  0.000  0.000  0.020
    4  0.004  0.002  0.002  0.008  0.003  0.000  0.000  0.000  0.000  0.020
    5  0.011  0.003  0.000  0.013  0.004  0.000  0.001  0.000  0.000  0.032
    6  0.011  0.003  0.000  0.013  0.004  0.000  0.001  0.000  0.000  0.032
    7  0.000  0.000  0.000  0.000  0.000  0.000  0.000  0.000  0.000  0.000
    8  0.000  0.000  0.000  0.000  0.000  0.000  0.000  0.000  0.000  0.000
    9  0.000  0.000  0.000  0.000  0.000  0.000  0.000  0.000  0.000  0.000
   10  0.000  0.000  0.000  0.000  0.000  0.000  0.000  0.000  0.000  0.000
   11  0.283  0.000  0.001  0.000  0.000  0.000  0.000  0.000  0.000  0.284
   12  0.062  0.000  0.006  0.000  0.000  0.000  0.000  0.000  0.000  0.068
   13  0.095  0.003  0.000  0.000  0.000  0.000  0.000  0.000  0.000  0.098
   14  0.031  0.000  0.002  0.000  0.000  0.000  0.000  0.000  0.000  0.033
   15  0.009  0.001  0.000  0.000  0.000  0.000  0.000  0.000  0.000  0.009
tot    0.512  0.013  0.014  0.042  0.013  0.001  0.002  0.001  0.000  0.597

band     5 # energy  -13.00750529 # occ.  2.00000000

ion      s     py     pz     px    dxy    dyz    dz2    dxz  x2-y2    tot
    1  0.000  0.000  0.000  0.022  0.006  0.000  0.000  0.000  0.000  0.028
    2  0.000  0.000  0.000  0.022  0.006  0.000  0.000  0.000  0.000  0.028
    3  0.000  0.000  0.000  0.000  0.000  0.000  0.000  0.000  0.000  0.000
    4  0.000  0.000  0.000  0.000  0.000  0.000  0.000  0.000  0.000  0.000
    5  0.000  0.000  0.000  0.000  0.000  0.000  0.000  0.000  0.000  0.000
    6  0.000  0.000  0.000  0.000  0.000  0.000  0.000  0.000  0.000  0.000
    7  0.000  0.000  0.000  0.024  0.007  0.000  0.000  0.000  0.000  0.031
    8  0.000  0.000  0.000  0.024  0.007  0.000  0.000  0.000  0.000  0.031
    9  0.221  0.000  0.000  0.000  0.000  0.000  0.000  0.000  0.000  0.221
   10  0.217  0.000  0.000  0.000  0.000  0.000  0.000  0.000  0.000  0.217
   11  0.000  0.000  0.000  0.000  0.000  0.000  0.000  0.000  0.000  0.000
   12  0.000  0.000  0.000  0.000  0.000  0.000  0.000  0.000  0.000  0.000
   13  0.000  0.000  0.000  0.000  0.000  0.000  0.000  0.000  0.000  0.000
   14  0.000  0.000  0.000  0.000  0.000  0.000  0.000  0.000  0.000  0.000
   15  0.000  0.000  0.000  0.000  0.000  0.000  0.000  0.000  0.000  0.000
tot    0.438  0.000  0.000  0.091  0.027  0.000  0.000  0.000  0.000  0.556

band     6 # energy   -9.68552777 # occ.  2.00000000

ion      s     py     pz     px    dxy    dyz    dz2    dxz  x2-y2    tot
    1  0.015  0.003  0.000  0.000  0.000  0.000  0.000  0.000  0.001  0.019
    2  0.015  0.003  0.000  0.000  0.000  0.000  0.000  0.000  0.001  0.019
    3  0.047  0.010  0.000  0.000  0.000  0.000  0.000  0.000  0.002  0.059
    4  0.047  0.010  0.000  0.000  0.000  0.000  0.000  0.000  0.002  0.059
    5  0.051  0.011  0.001  0.000  0.000  0.000  0.001  0.000  0.001  0.065
    6  0.051  0.011  0.001  0.000  0.000  0.000  0.001  0.000  0.001  0.065
    7  0.016  0.003  0.000  0.000  0.000  0.000  0.000  0.000  0.001  0.020
    8  0.016  0.003  0.000  0.000  0.000  0.000  0.000  0.000  0.001  0.020
    9  0.000  0.000  0.000  0.019  0.000  0.000  0.000  0.000  0.000  0.019
   10  0.000  0.000  0.000  0.019  0.000  0.000  0.000  0.000  0.000  0.019
   11  0.000  0.000  0.000  0.070  0.000  0.000  0.000  0.000  0.000  0.070
   12  0.000  0.000  0.000  0.072  0.000  0.000  0.000  0.000  0.000  0.072
   13  0.000  0.000  0.000  0.003  0.000  0.000  0.000  0.000  0.000  0.004
   14  0.000  0.000  0.000  0.001  0.000  0.000  0.000  0.000  0.000  0.001
   15  0.000  0.000  0.000  0.000  0.000  0.000  0.000  0.000  0.000  0.000
tot    0.258  0.053  0.001  0.186  0.000  0.001  0.003  0.001  0.008  0.511

band     7 # energy   -9.50785468 # occ.  2.00000000

ion      s     py     pz     px    dxy    dyz    dz2    dxz  x2-y2    tot
    1  0.049  0.015  0.000  0.000  0.000  0.000  0.001  0.000  0.001  0.067
    2  0.049  0.015  0.000  0.000  0.000  0.000  0.001  0.000  0.001  0.067
    3  0.011  0.004  0.000  0.000  0.000  0.000  0.000  0.000  0.000  0.016
    4  0.011  0.004  0.000  0.000  0.000  0.000  0.000  0.000  0.000  0.016
    5  0.012  0.004  0.000  0.000  0.000  0.000  0.000  0.000  0.000  0.017
    6  0.012  0.004  0.000  0.000  0.000  0.000  0.000  0.000  0.000  0.017
    7  0.052  0.015  0.000  0.000  0.000  0.000  0.001  0.000  0.001  0.070
    8  0.052  0.015  0.000  0.000  0.000  0.000  0.001  0.000  0.001  0.070
    9  0.000  0.000  0.000  0.079  0.000  0.000  0.000  0.000  0.000  0.079
   10  0.000  0.000  0.000  0.080  0.000  0.000  0.000  0.000  0.000  0.080
   11  0.000  0.000  0.000  0.020  0.000  0.000  0.000  0.000  0.000  0.020
   12  0.000  0.000  0.000  0.021  0.000  0.000  0.000  0.000  0.000  0.021
   13  0.000  0.000  0.000  0.001  0.000  0.000  0.000  0.000  0.000  0.001
   14  0.000  0.000  0.000  0.000  0.000  0.000  0.000  0.000  0.000  0.000
   15  0.000  0.000  0.000  0.000  0.000  0.000  0.000  0.000  0.000  0.000
tot    0.250  0.078  0.001  0.200  0.000  0.000  0.005  0.000  0.007  0.540

band     8 # energy   -9.44625813 # occ.  2.00000000

ion      s     py     pz     px    dxy    dyz    dz2    dxz  x2-y2    tot
    1  0.022  0.003  0.000  0.000  0.000  0.000  0.000  0.000  0.000  0.025
    2  0.022  0.003  0.000  0.000  0.000  0.000  0.000  0.000  0.000  0.025
    3  0.045  0.001  0.000  0.000  0.000  0.000  0.000  0.000  0.001  0.047
    4  0.044  0.001  0.000  0.000  0.000  0.000  0.000  0.000  0.001  0.047
    5  0.041  0.002  0.000  0.000  0.000  0.000  0.000  0.000  0.001  0.044
    6  0.041  0.002  0.000  0.000  0.000  0.000  0.000  0.000  0.001  0.045
    7  0.023  0.003  0.000  0.000  0.000  0.000  0.000  0.000  0.000  0.027
    8  0.023  0.003  0.000  0.000  0.000  0.000  0.000  0.000  0.000  0.027
    9  0.002  0.013  0.000  0.000  0.000  0.000  0.000  0.000  0.000  0.015
   10  0.002  0.013  0.000  0.000  0.000  0.000  0.000  0.000  0.000  0.014
   11  0.002  0.031  0.001  0.000  0.000  0.000  0.000  0.000  0.000  0.034
   12  0.000  0.023  0.002  0.000  0.000  0.000  0.000  0.000  0.000  0.025
   13  0.008  0.005  0.016  0.000  0.000  0.000  0.001  0.000  0.001  0.032
   14  0.002  0.000  0.000  0.000  0.000  0.000  0.000  0.000  0.000  0.002
   15  0.008  0.000  0.000  0.000  0.000  0.000  0.000  0.000  0.000  0.008
tot    0.283  0.104  0.020  0.001  0.000  0.000  0.004  0.000  0.005  0.417

band     9 # energy   -8.69098701 # occ.  2.00000000

ion      s     py     pz     px    dxy    dyz    dz2    dxz  x2-y2    tot
    1  0.028  0.003  0.000  0.000  0.000  0.000  0.000  0.000  0.001  0.032
    2  0.028  0.003  0.000  0.000  0.000  0.000  0.000  0.000  0.001  0.032
    3  0.023  0.003  0.001  0.002  0.000  0.000  0.000  0.000  0.001  0.030
    4  0.023  0.003  0.001  0.002  0.000  0.000  0.000  0.000  0.001  0.030
    5  0.020  0.002  0.001  0.002  0.001  0.000  0.000  0.000  0.001  0.027
    6  0.020  0.002  0.001  0.002  0.001  0.000  0.000  0.000  0.001  0.027
    7  0.027  0.003  0.000  0.000  0.000  0.000  0.000  0.000  0.001  0.031
    8  0.027  0.003  0.000  0.000  0.000  0.000  0.000  0.000  0.001  0.031
    9  0.002  0.019  0.000  0.000  0.000  0.000  0.000  0.000  0.000  0.022
   10  0.002  0.022  0.000  0.000  0.000  0.000  0.000  0.000  0.000  0.024
   11  0.013  0.015  0.002  0.000  0.000  0.000  0.000  0.000  0.000  0.030
   12  0.000  0.011  0.040  0.000  0.000  0.000  0.000  0.000  0.000  0.051
   13  0.003  0.013  0.012  0.000  0.000  0.000  0.001  0.000  0.001  0.029
   14  0.036  0.000  0.001  0.000  0.000  0.000  0.000  0.000  0.000  0.037
   15  0.010  0.000  0.000  0.000  0.000  0.000  0.000  0.000  0.000  0.010
tot    0.261  0.104  0.058  0.009  0.002  0.000  0.003  0.001  0.006  0.443

band    10 # energy   -8.10705552 # occ.  2.00000000

ion      s     py     pz     px    dxy    dyz    dz2    dxz  x2-y2    tot
    1  0.009  0.000  0.000  0.000  0.000  0.000  0.000  0.000  0.001  0.010
    2  0.009  0.000  0.000  0.000  0.000  0.000  0.000  0.000  0.001  0.010
    3  0.005  0.002  0.003  0.007  0.001  0.001  0.000  0.000  0.000  0.019
    4  0.005  0.002  0.003  0.007  0.001  0.001  0.000  0.000  0.000  0.019
    5  0.001  0.005  0.001  0.004  0.001  0.000  0.000  0.000  0.000  0.014
    6  0.001  0.005  0.001  0.004  0.001  0.000  0.000  0.000  0.000  0.014
    7  0.013  0.000  0.000  0.000  0.000  0.000  0.000  0.000  0.000  0.014
    8  0.013  0.000  0.000  0.000  0.000  0.000  0.000  0.000  0.000  0.014
    9  0.000  0.013  0.000  0.000  0.000  0.000  0.000  0.000  0.000  0.013
   10  0.000  0.010  0.000  0.000  0.000  0.000  0.000  0.000  0.000  0.010
   11  0.002  0.003  0.003  0.000  0.000  0.000  0.000  0.000  0.000  0.007
   12  0.014  0.012  0.144  0.000  0.000  0.000  0.000  0.000  0.000  0.170
   13  0.000  0.034  0.013  0.000  0.000  0.000  0.001  0.000  0.002  0.050
   14  0.107  0.000  0.002  0.000  0.000  0.000  0.000  0.000  0.000  0.109
   15  0.023  0.000  0.000  0.000  0.000  0.000  0.000  0.000  0.000  0.024
tot    0.203  0.087  0.172  0.023  0.004  0.001  0.003  0.000  0.004  0.497

band    11 # energy   -7.37821730 # occ.  2.00000000

ion      s     py     pz     px    dxy    dyz    dz2    dxz  x2-y2    tot
    1  0.004  0.001  0.000  0.000  0.000  0.000  0.000  0.000  0.000  0.006
    2  0.004  0.001  0.000  0.000  0.000  0.000  0.000  0.000  0.000  0.006
    3  0.000  0.001  0.002  0.000  0.000  0.000  0.000  0.001  0.000  0.005
    4  0.000  0.001  0.002  0.000  0.000  0.000  0.000  0.001  0.000  0.005
    5  0.009  0.001  0.000  0.003  0.000  0.000  0.000  0.000  0.000  0.013
    6  0.009  0.001  0.000  0.003  0.000  0.000  0.000  0.000  0.000  0.013
    7  0.000  0.002  0.000  0.000  0.000  0.000  0.000  0.000  0.000  0.003
    8  0.000  0.002  0.000  0.000  0.000  0.000  0.000  0.000  0.000  0.003
    9  0.002  0.003  0.000  0.000  0.000  0.000  0.000  0.000  0.000  0.005
   10  0.001  0.001  0.000  0.000  0.000  0.000  0.000  0.000  0.000  0.003
   11  0.011  0.000  0.002  0.000  0.000  0.000  0.000  0.000  0.000  0.014
   12  0.001  0.003  0.036  0.000  0.000  0.000  0.000  0.000  0.000  0.040
   13  0.040  0.239  0.015  0.000  0.000  0.000  0.004  0.000  0.010  0.309
   14  0.027  0.000  0.001  0.000  0.000  0.000  0.000  0.000  0.000  0.028
   15  0.137  0.001  0.000  0.000  0.000  0.000  0.000  0.000  0.000  0.138
tot    0.246  0.259  0.059  0.007  0.001  0.000  0.005  0.003  0.010  0.590

band    12 # energy   -6.35569082 # occ.  2.00000000

ion      s     py     pz     px    dxy    dyz    dz2    dxz  x2-y2    tot
    1  0.001  0.000  0.000  0.006  0.000  0.000  0.000  0.000  0.000  0.007
    2  0.001  0.000  0.000  0.006  0.000  0.000  0.000  0.000  0.000  0.007
    3  0.000  0.000  0.001  0.035  0.001  0.000  0.000  0.000  0.000  0.037
    4  0.000  0.000  0.001  0.035  0.001  0.000  0.000  0.000  0.000  0.037
    5  0.001  0.000  0.001  0.032  0.001  0.000  0.000  0.000  0.000  0.035
    6  0.001  0.000  0.001  0.032  0.001  0.000  0.000  0.000  0.000  0.035
    7  0.001  0.000  0.000  0.006  0.000  0.000  0.000  0.000  0.000  0.007
    8  0.001  0.000  0.000  0.006  0.000  0.000  0.000  0.000  0.000  0.007
    9  0.000  0.011  0.000  0.000  0.000  0.000  0.000  0.000  0.000  0.012
   10  0.001  0.016  0.000  0.000  0.000  0.000  0.000  0.000  0.000  0.017
   11  0.001  0.072  0.003  0.000  0.000  0.000  0.000  0.000  0.000  0.076
   12  0.000  0.104  0.003  0.000  0.000  0.000  0.000  0.000  0.000  0.108
   13  0.007  0.017  0.021  0.000  0.000  0.000  0.000  0.000  0.001  0.047
   14  0.000  0.002  0.000  0.000  0.000  0.000  0.000  0.000  0.000  0.002
   15  0.006  0.000  0.000  0.000  0.000  0.000  0.000  0.000  0.000  0.006
tot    0.019  0.224  0.031  0.158  0.004  0.000  0.000  0.000  0.001  0.438

band    13 # energy   -5.81504333 # occ.  2.00000000

ion      s     py     pz     px    dxy    dyz    dz2    dxz  x2-y2    tot
    1  0.004  0.002  0.001  0.028  0.001  0.000  0.000  0.000  0.001  0.036
    2  0.004  0.002  0.001  0.028  0.001  0.000  0.000  0.000  0.001  0.036
    3  0.003  0.003  0.002  0.003  0.001  0.000  0.000  0.000  0.000  0.011
    4  0.003  0.003  0.002  0.003  0.001  0.000  0.000  0.000  0.000  0.011
    5  0.004  0.003  0.000  0.004  0.000  0.000  0.000  0.000  0.000  0.012
    6  0.005  0.003  0.000  0.004  0.000  0.000  0.000  0.000  0.000  0.012
    7  0.003  0.003  0.000  0.030  0.001  0.000  0.000  0.000  0.001  0.036
    8  0.003  0.003  0.000  0.030  0.001  0.000  0.000  0.000  0.001  0.036
    9  0.002  0.042  0.001  0.000  0.000  0.000  0.000  0.000  0.000  0.045
   10  0.001  0.122  0.001  0.000  0.000  0.000  0.000  0.000  0.000  0.124
   11  0.006  0.003  0.001  0.000  0.000  0.000  0.000  0.000  0.000  0.010
   12  0.001  0.031  0.000  0.000  0.000  0.000  0.000  0.000  0.000  0.032
   13  0.006  0.007  0.037  0.000  0.000  0.000  0.000  0.000  0.000  0.051
   14  0.000  0.001  0.000  0.000  0.000  0.000  0.000  0.000  0.000  0.001
   15  0.001  0.000  0.000  0.000  0.000  0.000  0.000  0.000  0.000  0.001
tot    0.045  0.225  0.046  0.130  0.005  0.000  0.000  0.001  0.003  0.456

band    14 # energy   -5.62321236 # occ.  2.00000000

ion      s     py     pz     px    dxy    dyz    dz2    dxz  x2-y2    tot
    1  0.008  0.004  0.003  0.013  0.000  0.000  0.000  0.000  0.001  0.029
    2  0.008  0.004  0.003  0.013  0.000  0.000  0.000  0.000  0.001  0.030
    3  0.006  0.007  0.004  0.003  0.000  0.000  0.000  0.000  0.001  0.021
    4  0.006  0.007  0.004  0.003  0.000  0.000  0.000  0.000  0.001  0.020
    5  0.008  0.006  0.000  0.004  0.000  0.000  0.000  0.000  0.001  0.020
    6  0.009  0.006  0.000  0.004  0.000  0.000  0.000  0.000  0.001  0.020
    7  0.006  0.006  0.001  0.013  0.001  0.000  0.000  0.000  0.001  0.027
    8  0.006  0.006  0.001  0.013  0.001  0.000  0.000  0.000  0.001  0.027
    9  0.003  0.093  0.003  0.000  0.000  0.000  0.000  0.000  0.000  0.099
   10  0.003  0.009  0.004  0.000  0.000  0.000  0.000  0.000  0.000  0.016
   11  0.005  0.040  0.003  0.000  0.000  0.000  0.000  0.000  0.000  0.047
   12  0.004  0.008  0.004  0.000  0.000  0.000  0.000  0.000  0.000  0.017
   13  0.010  0.018  0.048  0.000  0.000  0.000  0.000  0.000  0.000  0.077
   14  0.000  0.000  0.000  0.000  0.000  0.000  0.000  0.000  0.000  0.000
   15  0.006  0.000  0.000  0.000  0.000  0.000  0.000  0.000  0.000  0.006
tot    0.087  0.212  0.079  0.067  0.003  0.001  0.000  0.001  0.008  0.458

band    15 # energy   -5.34090847 # occ.  2.00000000

ion      s     py     pz     px    dxy    dyz    dz2    dxz  x2-y2    tot
    1  0.012  0.009  0.001  0.000  0.000  0.000  0.000  0.000  0.000  0.023
    2  0.012  0.010  0.001  0.000  0.000  0.000  0.000  0.000  0.000  0.023
    3  0.038  0.011  0.005  0.000  0.000  0.000  0.001  0.000  0.000  0.056
    4  0.039  0.012  0.005  0.000  0.000  0.000  0.001  0.000  0.000  0.057
    5  0.028  0.001  0.000  0.000  0.000  0.000  0.000  0.000  0.000  0.030
    6  0.028  0.001  0.000  0.000  0.000  0.000  0.000  0.000  0.000  0.030
    7  0.007  0.005  0.000  0.000  0.000  0.000  0.000  0.000  0.000  0.012
    8  0.007  0.005  0.000  0.000  0.000  0.000  0.000  0.000  0.000  0.012
    9  0.000  0.000  0.000  0.003  0.000  0.000  0.000  0.000  0.000  0.003
   10  0.000  0.000  0.000  0.003  0.000  0.000  0.000  0.000  0.000  0.003
   11  0.000  0.000  0.000  0.015  0.000  0.000  0.000  0.000  0.000  0.015
   12  0.000  0.000  0.000  0.000  0.000  0.000  0.000  0.000  0.000  0.000
   13  0.000  0.000  0.000  0.218  0.000  0.000  0.000  0.004  0.000  0.222
   14  0.000  0.000  0.000  0.000  0.000  0.000  0.000  0.000  0.000  0.000
   15  0.000  0.000  0.000  0.001  0.000  0.000  0.000  0.000  0.000  0.001
tot    0.171  0.053  0.012  0.240  0.001  0.001  0.002  0.004  0.002  0.486

band    16 # energy   -5.11094436 # occ.  2.00000000

ion      s     py     pz     px    dxy    dyz    dz2    dxz  x2-y2    tot
    1  0.003  0.004  0.018  0.000  0.000  0.002  0.000  0.000  0.000  0.027
    2  0.003  0.004  0.018  0.000  0.000  0.002  0.000  0.000  0.000  0.027
    3  0.002  0.002  0.001  0.000  0.000  0.000  0.000  0.000  0.000  0.005
    4  0.002  0.002  0.001  0.000  0.000  0.000  0.000  0.000  0.000  0.006
    5  0.000  0.003  0.000  0.000  0.000  0.000  0.000  0.000  0.000  0.004
    6  0.000  0.003  0.000  0.000  0.000  0.000  0.000  0.000  0.000  0.005
    7  0.002  0.003  0.022  0.000  0.000  0.002  0.000  0.000  0.000  0.029
    8  0.002  0.003  0.022  0.000  0.000  0.002  0.000  0.000  0.000  0.029
    9  0.002  0.002  0.072  0.000  0.000  0.000  0.000  0.000  0.000  0.075
   10  0.002  0.001  0.072  0.000  0.000  0.000  0.000  0.000  0.000  0.075
   11  0.000  0.005  0.002  0.000  0.000  0.000  0.000  0.000  0.000  0.007
   12  0.001  0.004  0.003  0.000  0.000  0.000  0.000  0.000  0.000  0.008
   13  0.001  0.003  0.008  0.000  0.000  0.000  0.000  0.000  0.000  0.011
   14  0.001  0.000  0.000  0.000  0.000  0.000  0.000  0.000  0.000  0.001
   15  0.001  0.000  0.000  0.000  0.000  0.000  0.000  0.000  0.000  0.001
tot    0.021  0.039  0.239  0.001  0.000  0.009  0.000  0.000  0.002  0.311

band    17 # energy   -4.78565329 # occ.  2.00000000

ion      s     py     pz     px    dxy    dyz    dz2    dxz  x2-y2    tot
    1  0.003  0.007  0.002  0.000  0.000  0.001  0.000  0.000  0.000  0.012
    2  0.003  0.007  0.002  0.000  0.000  0.001  0.000  0.000  0.000  0.012
    3  0.000  0.007  0.011  0.000  0.000  0.000  0.000  0.002  0.001  0.022
    4  0.000  0.007  0.011  0.000  0.000  0.000  0.000  0.002  0.001  0.022
    5  0.003  0.002  0.005  0.002  0.000  0.000  0.000  0.001  0.002  0.015
    6  0.003  0.002  0.005  0.002  0.000  0.000  0.000  0.001  0.002  0.015
    7  0.005  0.003  0.004  0.000  0.000  0.000  0.000  0.000  0.000  0.013
    8  0.006  0.003  0.004  0.000  0.000  0.000  0.000  0.000  0.000  0.013
    9  0.003  0.002  0.009  0.000  0.000  0.000  0.000  0.000  0.000  0.014
   10  0.004  0.003  0.011  0.000  0.000  0.000  0.000  0.000  0.000  0.018
   11  0.003  0.036  0.051  0.000  0.000  0.000  0.000  0.000  0.000  0.089
   12  0.001  0.014  0.007  0.000  0.000  0.000  0.000  0.000  0.000  0.022
   13  0.010  0.024  0.115  0.000  0.000  0.001  0.000  0.000  0.001  0.150
   14  0.009  0.000  0.000  0.000  0.000  0.000  0.000  0.000  0.000  0.009
   15  0.009  0.000  0.000  0.000  0.000  0.000  0.000  0.000  0.000  0.009
tot    0.062  0.117  0.236  0.004  0.000  0.003  0.001  0.006  0.006  0.435

band    18 # energy   -4.45166058 # occ.  2.00000000

ion      s     py     pz     px    dxy    dyz    dz2    dxz  x2-y2    tot
    1  0.018  0.000  0.000  0.000  0.000  0.000  0.000  0.000  0.000  0.019
    2  0.018  0.000  0.000  0.000  0.000  0.000  0.000  0.000  0.000  0.019
    3  0.000  0.007  0.004  0.000  0.000  0.000  0.000  0.000  0.000  0.013
    4  0.000  0.007  0.004  0.000  0.000  0.000  0.000  0.000  0.000  0.013
    5  0.030  0.033  0.001  0.001  0.000  0.000  0.000  0.000  0.001  0.067
    6  0.030  0.033  0.001  0.001  0.000  0.000  0.000  0.000  0.001  0.066
    7  0.046  0.025  0.000  0.000  0.000  0.000  0.000  0.000  0.001  0.072
    8  0.046  0.025  0.000  0.000  0.000  0.000  0.000  0.000  0.001  0.072
    9  0.000  0.000  0.000  0.003  0.000  0.000  0.000  0.000  0.000  0.003
   10  0.000  0.000  0.000  0.002  0.000  0.000  0.000  0.000  0.000  0.002
   11  0.000  0.000  0.000  0.021  0.000  0.000  0.000  0.000  0.000  0.021
   12  0.000  0.000  0.000  0.015  0.000  0.000  0.000  0.000  0.000  0.015
   13  0.000  0.000  0.000  0.065  0.000  0.000  0.000  0.000  0.000  0.066
   14  0.000  0.000  0.000  0.000  0.000  0.000  0.000  0.000  0.000  0.000
   15  0.000  0.000  0.000  0.000  0.000  0.000  0.000  0.000  0.000  0.000
tot    0.188  0.130  0.010  0.110  0.002  0.000  0.001  0.001  0.005  0.447

band    19 # energy   -4.06431165 # occ.  2.00000000

ion      s     py     pz     px    dxy    dyz    dz2    dxz  x2-y2    tot
    1  0.005  0.007  0.000  0.000  0.000  0.000  0.000  0.000  0.000  0.012
    2  0.005  0.007  0.000  0.000  0.000  0.000  0.000  0.000  0.000  0.012
    3  0.008  0.005  0.008  0.011  0.007  0.001  0.000  0.000  0.000  0.041
    4  0.008  0.005  0.008  0.012  0.007  0.001  0.000  0.000  0.000  0.041
    5  0.004  0.004  0.007  0.017  0.008  0.001  0.000  0.000  0.000  0.043
    6  0.004  0.004  0.007  0.017  0.008  0.001  0.000  0.000  0.000  0.043
    7  0.002  0.005  0.000  0.000  0.000  0.000  0.000  0.000  0.000  0.007
    8  0.002  0.005  0.000  0.000  0.000  0.000  0.000  0.000  0.000  0.007
    9  0.000  0.000  0.000  0.002  0.000  0.000  0.000  0.000  0.000  0.002
   10  0.000  0.000  0.000  0.003  0.000  0.000  0.000  0.000  0.000  0.003
   11  0.000  0.000  0.000  0.133  0.000  0.000  0.000  0.000  0.000  0.133
   12  0.000  0.000  0.000  0.163  0.000  0.000  0.000  0.000  0.000  0.163
   13  0.000  0.000  0.000  0.003  0.000  0.000  0.000  0.000  0.000  0.004
   14  0.000  0.000  0.000  0.004  0.000  0.000  0.000  0.000  0.000  0.004
   15  0.000  0.000  0.000  0.000  0.000  0.000  0.000  0.000  0.000  0.000
tot    0.038  0.042  0.031  0.365  0.029  0.005  0.001  0.001  0.002  0.514

band    20 # energy   -3.94096535 # occ.  2.00000000

ion      s     py     pz     px    dxy    dyz    dz2    dxz  x2-y2    tot
    1  0.006  0.006  0.000  0.000  0.000  0.000  0.000  0.000  0.002  0.014
    2  0.006  0.005  0.000  0.000  0.000  0.000  0.000  0.000  0.002  0.014
    3  0.002  0.012  0.000  0.000  0.001  0.000  0.001  0.001  0.002  0.020
    4  0.002  0.012  0.000  0.000  0.001  0.000  0.001  0.001  0.002  0.019
    5  0.001  0.011  0.011  0.000  0.000  0.001  0.000  0.002  0.003  0.029
    6  0.001  0.011  0.011  0.000  0.000  0.001  0.000  0.002  0.003  0.029
    7  0.003  0.012  0.000  0.000  0.000  0.000  0.000  0.000  0.002  0.018
    8  0.003  0.012  0.000  0.000  0.000  0.000  0.000  0.000  0.002  0.018
    9  0.003  0.024  0.002  0.000  0.000  0.000  0.000  0.000  0.000  0.029
   10  0.004  0.018  0.003  0.000  0.000  0.000  0.000  0.000  0.000  0.025
   11  0.000  0.036  0.086  0.000  0.000  0.000  0.000  0.000  0.000  0.122
   12  0.001  0.024  0.007  0.000  0.000  0.000  0.000  0.000  0.000  0.032
   13  0.001  0.000  0.035  0.000  0.000  0.001  0.000  0.000  0.001  0.039
   14  0.005  0.000  0.000  0.000  0.000  0.000  0.000  0.000  0.000  0.006
   15  0.004  0.000  0.000  0.000  0.000  0.000  0.000  0.000  0.000  0.004
tot    0.045  0.184  0.157  0.001  0.001  0.005  0.003  0.004  0.017  0.418

band    21 # energy   -3.40509814 # occ.  2.00000000

ion      s     py     pz     px    dxy    dyz    dz2    dxz  x2-y2    tot
    1  0.029  0.021  0.000  0.000  0.000  0.000  0.000  0.000  0.001  0.051
    2  0.029  0.022  0.000  0.000  0.000  0.000  0.000  0.000  0.001  0.052
    3  0.017  0.012  0.004  0.006  0.001  0.001  0.001  0.000  0.001  0.043
    4  0.017  0.013  0.004  0.006  0.001  0.001  0.001  0.000  0.001  0.044
    5  0.005  0.003  0.001  0.005  0.002  0.000  0.000  0.000  0.000  0.016
    6  0.005  0.003  0.001  0.005  0.002  0.000  0.000  0.000  0.000  0.015
    7  0.002  0.005  0.000  0.000  0.000  0.000  0.000  0.000  0.000  0.007
    8  0.002  0.004  0.000  0.000  0.000  0.000  0.000  0.000  0.000  0.007
    9  0.000  0.000  0.000  0.003  0.000  0.000  0.000  0.000  0.000  0.003
   10  0.000  0.000  0.000  0.006  0.000  0.000  0.000  0.000  0.000  0.006
   11  0.000  0.000  0.000  0.043  0.000  0.000  0.000  0.000  0.000  0.043
   12  0.000  0.000  0.000  0.029  0.000  0.000  0.000  0.000  0.000  0.029
   13  0.000  0.000  0.000  0.214  0.000  0.000  0.000  0.000  0.000  0.214
   14  0.000  0.000  0.000  0.000  0.000  0.000  0.000  0.000  0.000  0.000
   15  0.000  0.000  0.000  0.001  0.000  0.000  0.000  0.000  0.000  0.001
tot    0.107  0.082  0.010  0.317  0.007  0.003  0.002  0.000  0.003  0.530

band    22 # energy   -3.27330968 # occ.  2.00000000

ion      s     py     pz     px    dxy    dyz    dz2    dxz  x2-y2    tot
    1  0.000  0.000  0.000  0.031  0.016  0.000  0.000  0.000  0.000  0.048
    2  0.000  0.000  0.000  0.031  0.016  0.000  0.000  0.000  0.000  0.048
    3  0.000  0.000  0.000  0.000  0.000  0.000  0.000  0.000  0.000  0.000
    4  0.000  0.000  0.000  0.000  0.000  0.000  0.000  0.000  0.000  0.000
    5  0.000  0.000  0.000  0.000  0.000  0.000  0.000  0.000  0.000  0.000
    6  0.000  0.000  0.000  0.000  0.000  0.000  0.000  0.000  0.000  0.000
    7  0.000  0.000  0.000  0.035  0.017  0.000  0.000  0.000  0.000  0.052
    8  0.000  0.000  0.000  0.034  0.017  0.000  0.000  0.000  0.000  0.052
    9  0.000  0.000  0.000  0.217  0.000  0.000  0.000  0.000  0.000  0.217
   10  0.000  0.000  0.000  0.214  0.000  0.000  0.000  0.000  0.000  0.214
   11  0.000  0.000  0.000  0.000  0.000  0.000  0.000  0.000  0.000  0.000
   12  0.000  0.000  0.000  0.000  0.000  0.000  0.000  0.000  0.000  0.000
   13  0.000  0.000  0.000  0.000  0.000  0.000  0.000  0.000  0.000  0.001
   14  0.000  0.000  0.000  0.000  0.000  0.000  0.000  0.000  0.000  0.000
   15  0.000  0.000  0.000  0.000  0.000  0.000  0.000  0.000  0.000  0.000
tot    0.000  0.001  0.001  0.564  0.066  0.000  0.000  0.000  0.000  0.632

band    23 # energy   -3.26068769 # occ.  2.00000000

ion      s     py     pz     px    dxy    dyz    dz2    dxz  x2-y2    tot
    1  0.001  0.014  0.001  0.000  0.000  0.000  0.000  0.000  0.003  0.019
    2  0.001  0.013  0.001  0.000  0.000  0.000  0.000  0.000  0.003  0.018
    3  0.007  0.005  0.003  0.000  0.001  0.001  0.001  0.000  0.001  0.020
    4  0.007  0.005  0.003  0.000  0.001  0.001  0.001  0.000  0.001  0.019
    5  0.004  0.007  0.013  0.000  0.000  0.000  0.000  0.001  0.001  0.026
    6  0.004  0.008  0.013  0.000  0.000  0.000  0.000  0.001  0.001  0.026
    7  0.003  0.005  0.000  0.000  0.000  0.000  0.000  0.000  0.003  0.011
    8  0.002  0.005  0.000  0.000  0.000  0.000  0.000  0.000  0.003  0.011
    9  0.001  0.022  0.001  0.001  0.000  0.000  0.000  0.000  0.000  0.024
   10  0.001  0.035  0.002  0.001  0.000  0.000  0.000  0.000  0.000  0.039
   11  0.004  0.011  0.056  0.000  0.000  0.000  0.000  0.000  0.000  0.071
   12  0.005  0.010  0.001  0.000  0.000  0.000  0.000  0.000  0.000  0.016
   13  0.002  0.002  0.136  0.000  0.000  0.000  0.000  0.000  0.000  0.140
   14  0.001  0.000  0.000  0.000  0.000  0.000  0.000  0.000  0.000  0.001
   15  0.001  0.000  0.000  0.000  0.000  0.000  0.000  0.000  0.000  0.001
tot    0.042  0.141  0.230  0.003  0.003  0.004  0.003  0.003  0.015  0.443

band    24 # energy   -2.35986587 # occ.  2.00000000

ion      s     py     pz     px    dxy    dyz    dz2    dxz  x2-y2    tot
    1  0.000  0.000  0.000  0.000  0.000  0.000  0.000  0.009  0.000  0.010
    2  0.000  0.000  0.000  0.000  0.000  0.000  0.000  0.009  0.000  0.010
    3  0.000  0.000  0.000  0.000  0.000  0.000  0.000  0.000  0.000  0.000
    4  0.000  0.000  0.000  0.000  0.000  0.000  0.000  0.000  0.000  0.000
    5  0.000  0.000  0.000  0.000  0.000  0.000  0.000  0.000  0.000  0.000
    6  0.000  0.000  0.000  0.000  0.000  0.000  0.000  0.000  0.000  0.000
    7  0.000  0.000  0.000  0.000  0.000  0.000  0.000  0.010  0.000  0.011
    8  0.000  0.000  0.000  0.000  0.000  0.000  0.000  0.010  0.000  0.011
    9  0.000  0.001  0.166  0.000  0.000  0.000  0.000  0.000  0.000  0.167
   10  0.000  0.000  0.159  0.000  0.000  0.000  0.000  0.000  0.000  0.159
   11  0.000  0.000  0.000  0.000  0.000  0.000  0.000  0.000  0.000  0.000
   12  0.000  0.000  0.000  0.000  0.000  0.000  0.000  0.000  0.000  0.000
   13  0.000  0.001  0.001  0.000  0.000  0.000  0.000  0.000  0.000  0.002
   14  0.000  0.000  0.000  0.000  0.000  0.000  0.000  0.000  0.000  0.000
   15  0.000  0.000  0.000  0.000  0.000  0.000  0.000  0.000  0.000  0.000
tot    0.001  0.002  0.326  0.000  0.000  0.000  0.000  0.040  0.000  0.369

band    25 # energy   -0.77164479 # occ.  0.00000000

ion      s     py     pz     px    dxy    dyz    dz2    dxz  x2-y2    tot
    1  0.000  0.002  0.015  0.000  0.000  0.000  0.000  0.000  0.000  0.018
    2  0.000  0.002  0.015  0.000  0.000  0.000  0.000  0.000  0.000  0.018
    3  0.000  0.000  0.002  0.001  0.001  0.001  0.000  0.000  0.000  0.006
    4  0.000  0.000  0.002  0.001  0.001  0.001  0.000  0.000  0.000  0.006
    5  0.000  0.000  0.010  0.002  0.001  0.003  0.000  0.001  0.000  0.019
    6  0.000  0.000  0.010  0.002  0.001  0.003  0.000  0.001  0.000  0.019
    7  0.000  0.000  0.017  0.000  0.001  0.003  0.000  0.000  0.000  0.022
    8  0.000  0.000  0.017  0.000  0.001  0.003  0.000  0.000  0.000  0.022
    9  0.002  0.000  0.003  0.000  0.000  0.000  0.000  0.000  0.000  0.006
   10  0.000  0.003  0.001  0.000  0.000  0.000  0.000  0.000  0.000  0.004
   11  0.002  0.003  0.037  0.000  0.000  0.000  0.000  0.000  0.000  0.042
   12  0.002  0.000  0.004  0.000  0.000  0.000  0.000  0.000  0.000  0.006
   13  0.002  0.000  0.012  0.000  0.000  0.001  0.000  0.000  0.001  0.017
   14  0.001  0.000  0.000  0.000  0.000  0.000  0.000  0.000  0.000  0.002
   15  0.002  0.000  0.000  0.000  0.000  0.000  0.000  0.000  0.000  0.002
tot    0.015  0.012  0.146  0.007  0.006  0.016  0.001  0.003  0.002  0.207

band    26 # energy   -0.25779630 # occ.  0.00000000

ion      s     py     pz     px    dxy    dyz    dz2    dxz  x2-y2    tot
    1  0.000  0.000  0.003  0.006  0.005  0.001  0.000  0.000  0.000  0.015
    2  0.000  0.000  0.003  0.006  0.005  0.001  0.000  0.000  0.000  0.015
    3  0.000  0.000  0.004  0.007  0.005  0.000  0.000  0.001  0.000  0.018
    4  0.000  0.000  0.004  0.007  0.005  0.000  0.000  0.001  0.000  0.018
    5  0.000  0.000  0.002  0.011  0.009  0.000  0.000  0.000  0.000  0.023
    6  0.000  0.000  0.002  0.011  0.009  0.000  0.000  0.000  0.000  0.023
    7  0.000  0.000  0.003  0.005  0.008  0.001  0.000  0.000  0.000  0.017
    8  0.000  0.000  0.003  0.005  0.008  0.001  0.000  0.000  0.000  0.017
    9  0.008  0.013  0.001  0.000  0.000  0.000  0.000  0.000  0.000  0.021
   10  0.008  0.004  0.003  0.000  0.000  0.000  0.000  0.000  0.000  0.016
   11  0.009  0.002  0.004  0.000  0.000  0.000  0.000  0.000  0.000  0.015
   12  0.016  0.005  0.002  0.000  0.000  0.000  0.000  0.000  0.000  0.024
   13  0.001  0.000  0.006  0.000  0.000  0.001  0.002  0.000  0.001  0.011
   14  0.001  0.000  0.000  0.000  0.000  0.000  0.000  0.000  0.000  0.002
   15  0.002  0.000  0.000  0.000  0.000  0.000  0.000  0.000  0.000  0.002
tot    0.047  0.027  0.040  0.058  0.053  0.005  0.003  0.002  0.001  0.237

band    27 # energy    0.28194590 # occ.  0.00000000

ion      s     py     pz     px    dxy    dyz    dz2    dxz  x2-y2    tot
    1  0.000  0.001  0.005  0.001  0.003  0.004  0.000  0.000  0.000  0.014
    2  0.000  0.001  0.005  0.001  0.003  0.004  0.000  0.000  0.000  0.014
    3  0.001  0.003  0.007  0.005  0.002  0.001  0.002  0.001  0.000  0.023
    4  0.001  0.003  0.007  0.005  0.002  0.001  0.002  0.001  0.000  0.023
    5  0.000  0.000  0.006  0.001  0.000  0.001  0.001  0.000  0.000  0.009
    6  0.000  0.000  0.005  0.001  0.000  0.001  0.001  0.000  0.000  0.009
    7  0.000  0.000  0.000  0.001  0.000  0.002  0.000  0.000  0.000  0.004
    8  0.000  0.000  0.000  0.001  0.000  0.002  0.000  0.000  0.000  0.004
    9  0.003  0.003  0.009  0.000  0.000  0.000  0.000  0.000  0.000  0.015
   10  0.001  0.001  0.015  0.000  0.000  0.000  0.000  0.000  0.000  0.017
   11  0.005  0.004  0.011  0.000  0.000  0.000  0.000  0.000  0.000  0.019
   12  0.008  0.005  0.001  0.000  0.000  0.000  0.000  0.000  0.000  0.014
   13  0.001  0.002  0.047  0.000  0.000  0.002  0.006  0.000  0.006  0.063
   14  0.001  0.000  0.000  0.000  0.000  0.000  0.000  0.000  0.000  0.002
   15  0.012  0.000  0.000  0.000  0.000  0.000  0.000  0.000  0.000  0.012
tot    0.033  0.023  0.119  0.017  0.011  0.018  0.011  0.003  0.007  0.242

band    28 # energy    0.54339781 # occ.  0.00000000

ion      s     py     pz     px    dxy    dyz    dz2    dxz  x2-y2    tot
    1  0.000  0.001  0.030  0.000  0.000  0.001  0.000  0.000  0.000  0.033
    2  0.001  0.001  0.031  0.000  0.000  0.001  0.000  0.000  0.000  0.033
    3  0.000  0.000  0.001  0.001  0.001  0.000  0.000  0.000  0.000  0.003
    4  0.000  0.000  0.001  0.001  0.000  0.001  0.000  0.000  0.000  0.004
    5  0.000  0.000  0.021  0.001  0.000  0.001  0.000  0.000  0.000  0.024
    6  0.000  0.001  0.021  0.001  0.000  0.001  0.000  0.000  0.000  0.024
    7  0.000  0.000  0.053  0.000  0.000  0.000  0.000  0.000  0.000  0.054
    8  0.000  0.000  0.054  0.000  0.000  0.000  0.000  0.000  0.000  0.054
    9  0.000  0.000  0.000  0.000  0.000  0.000  0.000  0.000  0.000  0.000
   10  0.000  0.000  0.000  0.000  0.000  0.000  0.000  0.000  0.000  0.000
   11  0.000  0.000  0.000  0.003  0.000  0.000  0.000  0.000  0.000  0.003
   12  0.000  0.000  0.000  0.003  0.000  0.000  0.000  0.000  0.000  0.003
   13  0.000  0.000  0.000  0.005  0.001  0.000  0.000  0.001  0.000  0.006
   14  0.000  0.000  0.000  0.000  0.000  0.000  0.000  0.000  0.000  0.000
   15  0.000  0.000  0.000  0.000  0.000  0.000  0.000  0.000  0.000  0.000
tot    0.001  0.003  0.212  0.017  0.002  0.004  0.000  0.001  0.000  0.241

band    29 # energy    0.80235031 # occ.  0.00000000

ion      s     py     pz     px    dxy    dyz    dz2    dxz  x2-y2    tot
    1  0.000  0.000  0.002  0.003  0.003  0.000  0.001  0.000  0.000  0.010
    2  0.001  0.000  0.002  0.003  0.003  0.000  0.001  0.000  0.000  0.011
    3  0.000  0.002  0.001  0.000  0.002  0.000  0.000  0.000  0.000  0.006
    4  0.000  0.002  0.001  0.000  0.003  0.000  0.000  0.000  0.000  0.007
    5  0.003  0.000  0.002  0.002  0.003  0.000  0.002  0.001  0.000  0.014
    6  0.002  0.000  0.002  0.001  0.003  0.000  0.002  0.001  0.000  0.012
    7  0.002  0.002  0.002  0.003  0.004  0.000  0.001  0.000  0.000  0.014
    8  0.001  0.002  0.002  0.003  0.004  0.000  0.001  0.000  0.000  0.013
    9  0.009  0.008  0.001  0.000  0.000  0.000  0.000  0.000  0.000  0.017
   10  0.008  0.000  0.002  0.000  0.000  0.000  0.000  0.000  0.000  0.010
   11  0.005  0.015  0.001  0.000  0.000  0.000  0.000  0.000  0.000  0.021
   12  0.013  0.012  0.002  0.000  0.000  0.000  0.000  0.000  0.000  0.027
   13  0.022  0.035  0.002  0.000  0.000  0.001  0.006  0.000  0.005  0.070
   14  0.000  0.000  0.001  0.000  0.000  0.000  0.000  0.000  0.000  0.001
   15  0.018  0.002  0.000  0.000  0.000  0.000  0.000  0.000  0.000  0.019
tot    0.084  0.082  0.022  0.017  0.024  0.003  0.013  0.002  0.006  0.252

band    30 # energy    1.27561089 # occ.  0.00000000

ion      s     py     pz     px    dxy    dyz    dz2    dxz  x2-y2    tot
    1  0.002  0.000  0.002  0.001  0.002  0.000  0.002  0.000  0.000  0.011
    2  0.001  0.000  0.000  0.001  0.002  0.000  0.002  0.000  0.000  0.007
    3  0.003  0.001  0.001  0.002  0.002  0.000  0.000  0.000  0.000  0.009
    4  0.003  0.001  0.000  0.001  0.002  0.000  0.000  0.000  0.000  0.008
    5  0.003  0.005  0.000  0.002  0.001  0.000  0.001  0.001  0.000  0.012
    6  0.002  0.005  0.001  0.000  0.001  0.000  0.001  0.001  0.000  0.012
    7  0.001  0.003  0.000  0.001  0.001  0.000  0.003  0.000  0.000  0.010
    8  0.002  0.003  0.000  0.001  0.001  0.000  0.003  0.000  0.000  0.010
    9  0.004  0.009  0.002  0.000  0.000  0.000  0.000  0.000  0.000  0.014
   10  0.017  0.002  0.001  0.000  0.000  0.000  0.000  0.000  0.000  0.019
   11  0.003  0.009  0.000  0.000  0.000  0.000  0.000  0.000  0.000  0.012
   12  0.010  0.002  0.002  0.000  0.000  0.000  0.000  0.000  0.000  0.014
   13  0.005  0.007  0.001  0.001  0.000  0.000  0.000  0.000  0.001  0.016
   14  0.000  0.000  0.001  0.000  0.000  0.000  0.000  0.000  0.000  0.001
   15  0.001  0.000  0.000  0.000  0.000  0.000  0.000  0.000  0.000  0.001
tot    0.056  0.047  0.012  0.010  0.012  0.002  0.014  0.002  0.002  0.157

band    31 # energy    1.31868961 # occ.  0.00000000

ion      s     py     pz     px    dxy    dyz    dz2    dxz  x2-y2    tot
    1  0.000  0.002  0.026  0.000  0.000  0.000  0.000  0.000  0.000  0.029
    2  0.000  0.001  0.027  0.000  0.000  0.000  0.000  0.000  0.000  0.029
    3  0.007  0.000  0.021  0.004  0.001  0.000  0.000  0.000  0.000  0.034
    4  0.005  0.000  0.020  0.003  0.001  0.000  0.000  0.000  0.000  0.032
    5  0.001  0.002  0.032  0.006  0.001  0.000  0.000  0.000  0.000  0.042
    6  0.003  0.002  0.033  0.006  0.002  0.000  0.000  0.000  0.000  0.047
    7  0.000  0.000  0.001  0.000  0.000  0.002  0.000  0.000  0.000  0.005
    8  0.002  0.001  0.002  0.000  0.000  0.002  0.000  0.000  0.000  0.008
    9  0.000  0.000  0.000  0.001  0.000  0.000  0.000  0.000  0.000  0.001
   10  0.001  0.000  0.000  0.000  0.000  0.000  0.000  0.000  0.000  0.001
   11  0.000  0.000  0.000  0.011  0.000  0.000  0.000  0.000  0.000  0.012
   12  0.000  0.000  0.000  0.010  0.000  0.000  0.000  0.000  0.000  0.010
   13  0.000  0.000  0.000  0.043  0.001  0.000  0.000  0.011  0.000  0.055
   14  0.000  0.000  0.000  0.000  0.000  0.000  0.000  0.000  0.000  0.000
   15  0.000  0.000  0.000  0.000  0.000  0.000  0.000  0.000  0.000  0.000
tot    0.022  0.010  0.162  0.084  0.007  0.006  0.001  0.012  0.001  0.305

band    32 # energy    1.86259790 # occ.  0.00000000

ion      s     py     pz     px    dxy    dyz    dz2    dxz  x2-y2    tot
    1  0.001  0.000  0.001  0.000  0.000  0.000  0.000  0.000  0.000  0.003
    2  0.005  0.002  0.001  0.000  0.000  0.000  0.001  0.000  0.000  0.011
    3  0.000  0.001  0.001  0.002  0.001  0.000  0.000  0.000  0.000  0.006
    4  0.009  0.002  0.002  0.003  0.000  0.000  0.000  0.000  0.001  0.017
    5  0.008  0.001  0.004  0.000  0.001  0.000  0.001  0.000  0.000  0.016
    6  0.000  0.000  0.003  0.000  0.001  0.000  0.000  0.000  0.000  0.005
    7  0.009  0.002  0.003  0.000  0.001  0.000  0.001  0.000  0.000  0.016
    8  0.000  0.001  0.001  0.000  0.001  0.000  0.000  0.000  0.000  0.004
    9  0.005  0.000  0.004  0.000  0.000  0.000  0.000  0.000  0.000  0.009
   10  0.004  0.008  0.004  0.000  0.000  0.000  0.000  0.000  0.000  0.016
   11  0.005  0.000  0.004  0.000  0.000  0.000  0.000  0.000  0.000  0.009
   12  0.002  0.007  0.001  0.000  0.000  0.000  0.000  0.000  0.000  0.010
   13  0.006  0.023  0.003  0.000  0.000  0.001  0.006  0.000  0.003  0.043
   14  0.001  0.000  0.000  0.000  0.000  0.000  0.000  0.000  0.000  0.001
   15  0.008  0.001  0.000  0.000  0.000  0.000  0.000  0.000  0.000  0.008
tot    0.062  0.049  0.031  0.008  0.006  0.002  0.010  0.001  0.006  0.176


 k-point     5 :    0.20000000 0.33333333 0.00000000     weight = 0.13333333

band     1 # energy  -16.26712896 # occ.  2.00000000

ion      s     py     pz     px    dxy    dyz    dz2    dxz  x2-y2    tot
    1  0.000  0.000  0.000  0.000  0.000  0.000  0.000  0.000  0.000  0.000
    2  0.000  0.000  0.000  0.000  0.000  0.000  0.000  0.000  0.000  0.000
    3  0.021  0.005  0.000  0.001  0.000  0.000  0.001  0.000  0.000  0.028
    4  0.021  0.005  0.000  0.001  0.000  0.000  0.001  0.000  0.000  0.028
    5  0.022  0.005  0.001  0.001  0.000  0.000  0.001  0.000  0.000  0.030
    6  0.022  0.005  0.001  0.001  0.000  0.000  0.001  0.000  0.000  0.030
    7  0.000  0.000  0.000  0.000  0.000  0.000  0.000  0.000  0.000  0.000
    8  0.000  0.000  0.000  0.000  0.000  0.000  0.000  0.000  0.000  0.000
    9  0.000  0.000  0.000  0.000  0.000  0.000  0.000  0.000  0.000  0.000
   10  0.000  0.000  0.000  0.000  0.000  0.000  0.000  0.000  0.000  0.000
   11  0.052  0.000  0.001  0.001  0.000  0.000  0.000  0.000  0.000  0.053
   12  0.271  0.001  0.005  0.000  0.000  0.000  0.000  0.000  0.000  0.276
   13  0.020  0.000  0.001  0.000  0.000  0.000  0.000  0.000  0.000  0.020
   14  0.078  0.000  0.006  0.000  0.000  0.000  0.000  0.000  0.000  0.085
   15  0.001  0.000  0.000  0.000  0.000  0.000  0.000  0.000  0.000  0.001
tot    0.508  0.020  0.014  0.005  0.001  0.001  0.003  0.001  0.000  0.552

band     2 # energy  -15.16914894 # occ.  2.00000000

ion      s     py     pz     px    dxy    dyz    dz2    dxz  x2-y2    tot
    1  0.035  0.008  0.000  0.001  0.000  0.000  0.002  0.000  0.000  0.046
    2  0.035  0.008  0.000  0.001  0.000  0.000  0.002  0.000  0.000  0.046
    3  0.000  0.000  0.000  0.000  0.000  0.000  0.000  0.000  0.000  0.001
    4  0.000  0.000  0.000  0.000  0.000  0.000  0.000  0.000  0.000  0.001
    5  0.000  0.000  0.000  0.000  0.000  0.000  0.000  0.000  0.000  0.000
    6  0.000  0.000  0.000  0.000  0.000  0.000  0.000  0.000  0.000  0.000
    7  0.037  0.009  0.000  0.001  0.000  0.000  0.002  0.000  0.000  0.049
    8  0.037  0.009  0.000  0.001  0.000  0.000  0.002  0.000  0.000  0.049
    9  0.159  0.000  0.000  0.001  0.000  0.000  0.000  0.000  0.000  0.159
   10  0.162  0.000  0.000  0.001  0.000  0.000  0.000  0.000  0.000  0.163
   11  0.000  0.000  0.000  0.000  0.000  0.000  0.000  0.000  0.000  0.000
   12  0.002  0.000  0.000  0.000  0.000  0.000  0.000  0.000  0.000  0.002
   13  0.012  0.000  0.000  0.000  0.000  0.000  0.000  0.000  0.000  0.013
   14  0.001  0.000  0.000  0.000  0.000  0.000  0.000  0.000  0.000  0.001
   15  0.001  0.000  0.000  0.000  0.000  0.000  0.000  0.000  0.000  0.001
tot    0.483  0.034  0.000  0.006  0.001  0.000  0.007  0.000  0.000  0.532

band     3 # energy  -14.84612078 # occ.  2.00000000

ion      s     py     pz     px    dxy    dyz    dz2    dxz  x2-y2    tot
    1  0.000  0.000  0.000  0.000  0.000  0.000  0.000  0.000  0.000  0.001
    2  0.000  0.000  0.000  0.000  0.000  0.000  0.000  0.000  0.000  0.001
    3  0.007  0.000  0.000  0.005  0.001  0.000  0.000  0.000  0.000  0.013
    4  0.007  0.000  0.000  0.005  0.001  0.000  0.000  0.000  0.000  0.013
    5  0.002  0.001  0.000  0.003  0.001  0.000  0.000  0.000  0.000  0.007
    6  0.002  0.000  0.000  0.003  0.001  0.000  0.000  0.000  0.000  0.007
    7  0.001  0.000  0.000  0.000  0.000  0.000  0.000  0.000  0.000  0.001
    8  0.001  0.000  0.000  0.000  0.000  0.000  0.000  0.000  0.000  0.002
    9  0.003  0.000  0.000  0.000  0.000  0.000  0.000  0.000  0.000  0.004
   10  0.006  0.000  0.000  0.000  0.000  0.000  0.000  0.000  0.000  0.006
   11  0.051  0.000  0.001  0.000  0.000  0.000  0.000  0.000  0.000  0.052
   12  0.051  0.000  0.002  0.001  0.000  0.000  0.000  0.000  0.000  0.054
   13  0.490  0.005  0.002  0.000  0.000  0.000  0.000  0.000  0.001  0.498
   14  0.018  0.000  0.001  0.000  0.000  0.000  0.000  0.000  0.000  0.019
   15  0.033  0.002  0.000  0.000  0.000  0.000  0.000  0.000  0.000  0.035
tot    0.673  0.010  0.006  0.017  0.003  0.001  0.001  0.000  0.001  0.712

band     4 # energy  -14.21490290 # occ.  2.00000000

ion      s     py     pz     px    dxy    dyz    dz2    dxz  x2-y2    tot
    1  0.000  0.000  0.000  0.000  0.000  0.000  0.000  0.000  0.000  0.000
    2  0.000  0.000  0.000  0.000  0.000  0.000  0.000  0.000  0.000  0.000
    3  0.006  0.003  0.002  0.005  0.002  0.000  0.000  0.000  0.000  0.019
    4  0.006  0.003  0.002  0.005  0.002  0.000  0.000  0.000  0.000  0.019
    5  0.016  0.004  0.000  0.009  0.003  0.000  0.001  0.000  0.000  0.032
    6  0.016  0.004  0.000  0.009  0.003  0.000  0.001  0.000  0.000  0.032
    7  0.000  0.000  0.000  0.000  0.000  0.000  0.000  0.000  0.000  0.000
    8  0.000  0.000  0.000  0.000  0.000  0.000  0.000  0.000  0.000  0.000
    9  0.000  0.000  0.000  0.000  0.000  0.000  0.000  0.000  0.000  0.000
   10  0.001  0.000  0.000  0.000  0.000  0.000  0.000  0.000  0.000  0.001
   11  0.251  0.000  0.001  0.000  0.000  0.000  0.000  0.000  0.000  0.252
   12  0.034  0.000  0.003  0.002  0.000  0.000  0.000  0.000  0.000  0.039
   13  0.186  0.004  0.000  0.000  0.000  0.000  0.000  0.000  0.000  0.191
   14  0.017  0.000  0.001  0.000  0.000  0.000  0.000  0.000  0.000  0.018
   15  0.016  0.001  0.000  0.000  0.000  0.000  0.000  0.000  0.000  0.017
tot    0.548  0.019  0.010  0.030  0.009  0.001  0.003  0.001  0.001  0.622

band     5 # energy  -13.40782763 # occ.  2.00000000

ion      s     py     pz     px    dxy    dyz    dz2    dxz  x2-y2    tot
    1  0.011  0.003  0.000  0.016  0.005  0.000  0.000  0.000  0.000  0.035
    2  0.011  0.003  0.000  0.016  0.005  0.000  0.000  0.000  0.000  0.035
    3  0.000  0.000  0.000  0.000  0.000  0.000  0.000  0.000  0.000  0.000
    4  0.000  0.000  0.000  0.000  0.000  0.000  0.000  0.000  0.000  0.000
    5  0.000  0.000  0.000  0.000  0.000  0.000  0.000  0.000  0.000  0.000
    6  0.000  0.000  0.000  0.000  0.000  0.000  0.000  0.000  0.000  0.000
    7  0.012  0.003  0.000  0.018  0.005  0.000  0.000  0.000  0.000  0.038
    8  0.011  0.003  0.000  0.018  0.005  0.000  0.000  0.000  0.000  0.038
    9  0.200  0.000  0.000  0.003  0.000  0.000  0.000  0.000  0.000  0.204
   10  0.196  0.000  0.000  0.003  0.000  0.000  0.000  0.000  0.000  0.199
   11  0.000  0.000  0.000  0.000  0.000  0.000  0.000  0.000  0.000  0.000
   12  0.000  0.000  0.000  0.000  0.000  0.000  0.000  0.000  0.000  0.000
   13  0.000  0.000  0.000  0.000  0.000  0.000  0.000  0.000  0.000  0.001
   14  0.000  0.000  0.000  0.000  0.000  0.000  0.000  0.000  0.000  0.000
   15  0.000  0.000  0.000  0.000  0.000  0.000  0.000  0.000  0.000  0.000
tot    0.442  0.012  0.000  0.074  0.019  0.000  0.002  0.000  0.000  0.549

band     6 # energy   -9.43445183 # occ.  2.00000000

ion      s     py     pz     px    dxy    dyz    dz2    dxz  x2-y2    tot
    1  0.002  0.000  0.000  0.000  0.000  0.000  0.000  0.000  0.000  0.003
    2  0.011  0.001  0.000  0.000  0.000  0.000  0.000  0.000  0.000  0.013
    3  0.019  0.009  0.001  0.000  0.000  0.000  0.000  0.000  0.002  0.032
    4  0.070  0.006  0.001  0.000  0.000  0.000  0.001  0.000  0.001  0.080
    5  0.074  0.007  0.001  0.001  0.000  0.000  0.001  0.000  0.001  0.085
    6  0.024  0.011  0.001  0.000  0.000  0.000  0.001  0.000  0.002  0.039
    7  0.012  0.001  0.000  0.000  0.000  0.000  0.000  0.000  0.000  0.013
    8  0.002  0.001  0.000  0.000  0.000  0.000  0.000  0.000  0.000  0.003
    9  0.001  0.002  0.000  0.001  0.000  0.000  0.000  0.000  0.000  0.004
   10  0.000  0.004  0.000  0.001  0.000  0.000  0.000  0.000  0.000  0.005
   11  0.001  0.003  0.001  0.065  0.000  0.000  0.000  0.000  0.000  0.070
   12  0.002  0.004  0.038  0.052  0.000  0.000  0.000  0.000  0.000  0.095
   13  0.001  0.002  0.002  0.002  0.000  0.000  0.000  0.000  0.000  0.008
   14  0.043  0.000  0.001  0.001  0.000  0.000  0.000  0.000  0.000  0.046
   15  0.002  0.000  0.000  0.000  0.000  0.000  0.000  0.000  0.000  0.002
tot    0.265  0.051  0.047  0.124  0.001  0.001  0.003  0.001  0.005  0.498

band     7 # energy   -9.27175237 # occ.  2.00000000

ion      s     py     pz     px    dxy    dyz    dz2    dxz  x2-y2    tot
    1  0.020  0.003  0.000  0.001  0.000  0.000  0.000  0.000  0.000  0.024
    2  0.012  0.002  0.000  0.000  0.000  0.000  0.000  0.000  0.000  0.014
    3  0.083  0.001  0.000  0.002  0.000  0.000  0.001  0.000  0.000  0.087
    4  0.014  0.004  0.000  0.001  0.000  0.000  0.000  0.000  0.001  0.021
    5  0.011  0.006  0.000  0.000  0.000  0.000  0.000  0.000  0.002  0.019
    6  0.074  0.001  0.000  0.002  0.000  0.000  0.001  0.000  0.000  0.079
    7  0.012  0.003  0.000  0.000  0.000  0.000  0.000  0.000  0.000  0.015
    8  0.020  0.003  0.000  0.001  0.000  0.000  0.000  0.000  0.000  0.024
    9  0.001  0.010  0.000  0.000  0.000  0.000  0.000  0.000  0.000  0.011
   10  0.003  0.008  0.000  0.000  0.000  0.000  0.000  0.000  0.000  0.011
   11  0.004  0.031  0.001  0.012  0.000  0.000  0.000  0.000  0.000  0.048
   12  0.000  0.022  0.003  0.011  0.000  0.000  0.000  0.000  0.000  0.036
   13  0.007  0.006  0.017  0.001  0.000  0.000  0.001  0.000  0.001  0.033
   14  0.003  0.000  0.000  0.000  0.000  0.000  0.000  0.000  0.000  0.004
   15  0.009  0.000  0.000  0.000  0.000  0.000  0.000  0.000  0.000  0.009
tot    0.271  0.101  0.022  0.031  0.001  0.000  0.004  0.000  0.005  0.436

band     8 # energy   -8.89982123 # occ.  2.00000000

ion      s     py     pz     px    dxy    dyz    dz2    dxz  x2-y2    tot
    1  0.056  0.013  0.000  0.006  0.002  0.000  0.001  0.000  0.002  0.080
    2  0.047  0.014  0.000  0.005  0.002  0.000  0.001  0.000  0.002  0.071
    3  0.002  0.001  0.000  0.000  0.000  0.000  0.000  0.000  0.000  0.003
    4  0.000  0.001  0.000  0.000  0.000  0.000  0.000  0.000  0.000  0.001
    5  0.000  0.001  0.000  0.000  0.000  0.000  0.000  0.000  0.000  0.001
    6  0.002  0.001  0.000  0.000  0.000  0.000  0.000  0.000  0.000  0.003
    7  0.050  0.014  0.000  0.006  0.002  0.000  0.001  0.000  0.002  0.076
    8  0.059  0.013  0.000  0.006  0.002  0.000  0.001  0.000  0.002  0.084
    9  0.020  0.000  0.000  0.096  0.000  0.000  0.000  0.000  0.000  0.115
   10  0.018  0.000  0.000  0.097  0.000  0.000  0.000  0.000  0.000  0.115
   11  0.000  0.000  0.000  0.001  0.000  0.000  0.000  0.000  0.000  0.001
   12  0.000  0.000  0.001  0.001  0.000  0.000  0.000  0.000  0.000  0.002
   13  0.000  0.000  0.000  0.000  0.000  0.000  0.000  0.000  0.000  0.001
   14  0.001  0.000  0.000  0.000  0.000  0.000  0.000  0.000  0.000  0.001
   15  0.000  0.000  0.000  0.000  0.000  0.000  0.000  0.000  0.000  0.000
tot    0.256  0.059  0.002  0.218  0.009  0.000  0.004  0.000  0.008  0.556

band     9 # energy   -8.49867721 # occ.  2.00000000

ion      s     py     pz     px    dxy    dyz    dz2    dxz  x2-y2    tot
    1  0.025  0.003  0.000  0.000  0.000  0.000  0.000  0.000  0.001  0.030
    2  0.033  0.003  0.000  0.001  0.000  0.000  0.000  0.000  0.001  0.038
    3  0.010  0.004  0.000  0.001  0.000  0.000  0.000  0.000  0.001  0.016
    4  0.038  0.004  0.000  0.003  0.001  0.000  0.000  0.000  0.000  0.046
    5  0.027  0.005  0.000  0.005  0.001  0.000  0.000  0.000  0.000  0.039
    6  0.011  0.003  0.001  0.001  0.001  0.000  0.000  0.000  0.001  0.019
    7  0.035  0.003  0.000  0.001  0.000  0.000  0.000  0.000  0.001  0.040
    8  0.026  0.004  0.000  0.001  0.000  0.000  0.000  0.000  0.001  0.031
    9  0.001  0.024  0.000  0.000  0.000  0.000  0.000  0.000  0.000  0.026
   10  0.003  0.024  0.000  0.000  0.000  0.000  0.000  0.000  0.000  0.027
   11  0.018  0.015  0.001  0.006  0.000  0.000  0.000  0.000  0.000  0.040
   12  0.000  0.009  0.016  0.012  0.000  0.000  0.000  0.000  0.000  0.037
   13  0.002  0.012  0.014  0.001  0.000  0.000  0.001  0.000  0.001  0.031
   14  0.015  0.000  0.000  0.000  0.000  0.000  0.000  0.000  0.000  0.015
   15  0.010  0.000  0.000  0.000  0.000  0.000  0.000  0.000  0.000  0.010
tot    0.254  0.112  0.033  0.033  0.003  0.000  0.003  0.001  0.007  0.447

band    10 # energy   -7.92416845 # occ.  2.00000000

ion      s     py     pz     px    dxy    dyz    dz2    dxz  x2-y2    tot
    1  0.007  0.000  0.000  0.000  0.000  0.000  0.000  0.000  0.000  0.008
    2  0.006  0.000  0.000  0.000  0.000  0.000  0.000  0.000  0.000  0.007
    3  0.010  0.003  0.003  0.010  0.001  0.000  0.000  0.000  0.000  0.028
    4  0.003  0.002  0.001  0.008  0.001  0.000  0.000  0.000  0.001  0.018
    5  0.005  0.004  0.001  0.006  0.001  0.000  0.000  0.000  0.001  0.019
    6  0.007  0.005  0.001  0.008  0.002  0.000  0.000  0.000  0.000  0.023
    7  0.008  0.000  0.000  0.000  0.000  0.000  0.000  0.000  0.000  0.009
    8  0.009  0.000  0.000  0.000  0.000  0.000  0.000  0.000  0.000  0.010
    9  0.000  0.009  0.000  0.000  0.000  0.000  0.000  0.000  0.000  0.009
   10  0.000  0.008  0.000  0.000  0.000  0.000  0.000  0.000  0.000  0.008
   11  0.006  0.002  0.002  0.006  0.000  0.000  0.000  0.000  0.000  0.016
   12  0.017  0.009  0.136  0.024  0.000  0.000  0.000  0.000  0.000  0.186
   13  0.001  0.028  0.010  0.003  0.000  0.000  0.001  0.000  0.001  0.044
   14  0.096  0.000  0.002  0.000  0.000  0.000  0.000  0.000  0.000  0.099
   15  0.019  0.000  0.000  0.000  0.000  0.000  0.000  0.000  0.000  0.019
tot    0.195  0.072  0.156  0.066  0.007  0.001  0.003  0.001  0.005  0.504

band    11 # energy   -7.46494069 # occ.  2.00000000

ion      s     py     pz     px    dxy    dyz    dz2    dxz  x2-y2    tot
    1  0.004  0.001  0.000  0.000  0.000  0.000  0.000  0.000  0.000  0.005
    2  0.007  0.002  0.000  0.000  0.000  0.000  0.000  0.000  0.000  0.009
    3  0.003  0.001  0.002  0.003  0.000  0.000  0.000  0.001  0.000  0.010
    4  0.003  0.002  0.003  0.002  0.000  0.000  0.000  0.001  0.000  0.011
    5  0.013  0.001  0.000  0.004  0.001  0.000  0.000  0.000  0.000  0.020
    6  0.012  0.001  0.001  0.006  0.000  0.000  0.000  0.000  0.000  0.019
    7  0.002  0.003  0.000  0.001  0.000  0.000  0.000  0.000  0.000  0.006
    8  0.001  0.002  0.000  0.000  0.000  0.000  0.000  0.000  0.000  0.003
    9  0.001  0.006  0.000  0.000  0.000  0.000  0.000  0.000  0.000  0.008
   10  0.002  0.001  0.000  0.000  0.000  0.000  0.000  0.000  0.000  0.003
   11  0.009  0.000  0.004  0.001  0.000  0.000  0.000  0.000  0.000  0.014
   12  0.001  0.015  0.024  0.002  0.000  0.000  0.000  0.000  0.000  0.042
   13  0.031  0.206  0.019  0.003  0.000  0.000  0.004  0.000  0.008  0.271
   14  0.015  0.001  0.000  0.000  0.000  0.000  0.000  0.000  0.000  0.016
   15  0.119  0.001  0.000  0.000  0.000  0.000  0.000  0.000  0.000  0.120
tot    0.222  0.242  0.053  0.023  0.001  0.001  0.005  0.002  0.009  0.557

band    12 # energy   -6.99865036 # occ.  2.00000000

ion      s     py     pz     px    dxy    dyz    dz2    dxz  x2-y2    tot
    1  0.008  0.003  0.000  0.006  0.000  0.000  0.000  0.000  0.000  0.018
    2  0.008  0.002  0.000  0.006  0.000  0.000  0.000  0.000  0.000  0.017
    3  0.019  0.002  0.001  0.016  0.000  0.000  0.000  0.000  0.000  0.040
    4  0.017  0.001  0.002  0.017  0.000  0.000  0.000  0.000  0.000  0.038
    5  0.021  0.001  0.000  0.014  0.000  0.000  0.000  0.000  0.000  0.036
    6  0.016  0.002  0.000  0.014  0.000  0.000  0.000  0.000  0.000  0.032
    7  0.005  0.003  0.000  0.006  0.000  0.000  0.000  0.000  0.000  0.015
    8  0.010  0.003  0.000  0.006  0.000  0.000  0.000  0.000  0.000  0.019
    9  0.001  0.012  0.000  0.002  0.000  0.000  0.000  0.000  0.000  0.015
   10  0.000  0.018  0.000  0.002  0.000  0.000  0.000  0.000  0.000  0.019
   11  0.001  0.043  0.000  0.001  0.000  0.000  0.000  0.000  0.000  0.045
   12  0.000  0.052  0.001  0.001  0.000  0.000  0.000  0.000  0.000  0.054
   13  0.013  0.044  0.004  0.010  0.000  0.000  0.000  0.000  0.002  0.074
   14  0.002  0.001  0.000  0.000  0.000  0.000  0.000  0.000  0.000  0.003
   15  0.020  0.000  0.000  0.000  0.000  0.000  0.000  0.000  0.000  0.020
tot    0.141  0.189  0.009  0.100  0.001  0.000  0.000  0.001  0.002  0.445

band    13 # energy   -6.29535142 # occ.  2.00000000

ion      s     py     pz     px    dxy    dyz    dz2    dxz  x2-y2    tot
    1  0.016  0.001  0.000  0.022  0.001  0.000  0.000  0.000  0.000  0.040
    2  0.016  0.002  0.000  0.022  0.001  0.000  0.000  0.000  0.000  0.042
    3  0.005  0.003  0.001  0.007  0.001  0.000  0.000  0.000  0.000  0.016
    4  0.002  0.005  0.000  0.007  0.001  0.000  0.000  0.000  0.000  0.015
    5  0.002  0.005  0.001  0.006  0.000  0.000  0.000  0.000  0.000  0.013
    6  0.007  0.005  0.000  0.006  0.000  0.000  0.000  0.000  0.000  0.019
    7  0.021  0.002  0.000  0.022  0.001  0.000  0.000  0.000  0.000  0.046
    8  0.014  0.003  0.000  0.024  0.000  0.000  0.000  0.000  0.000  0.041
    9  0.001  0.054  0.000  0.001  0.000  0.000  0.000  0.000  0.000  0.056
   10  0.000  0.078  0.000  0.001  0.000  0.000  0.000  0.000  0.000  0.079
   11  0.002  0.016  0.001  0.003  0.000  0.000  0.000  0.000  0.000  0.021
   12  0.000  0.030  0.001  0.002  0.000  0.000  0.000  0.000  0.000  0.033
   13  0.002  0.005  0.010  0.005  0.000  0.000  0.000  0.000  0.000  0.022
   14  0.001  0.001  0.000  0.000  0.000  0.000  0.000  0.000  0.000  0.001
   15  0.002  0.000  0.000  0.000  0.000  0.000  0.000  0.000  0.000  0.002
tot    0.092  0.209  0.014  0.126  0.005  0.000  0.001  0.000  0.002  0.448

band    14 # energy   -5.63355930 # occ.  2.00000000

ion      s     py     pz     px    dxy    dyz    dz2    dxz  x2-y2    tot
    1  0.015  0.006  0.003  0.002  0.000  0.000  0.000  0.000  0.001  0.028
    2  0.009  0.003  0.003  0.001  0.000  0.000  0.000  0.000  0.002  0.017
    3  0.008  0.010  0.006  0.000  0.000  0.000  0.000  0.001  0.001  0.026
    4  0.012  0.006  0.004  0.001  0.001  0.000  0.000  0.001  0.001  0.025
    5  0.014  0.007  0.000  0.002  0.001  0.000  0.000  0.000  0.001  0.025
    6  0.015  0.007  0.000  0.000  0.000  0.000  0.000  0.000  0.001  0.025
    7  0.005  0.008  0.001  0.001  0.000  0.000  0.000  0.000  0.002  0.018
    8  0.010  0.006  0.001  0.001  0.000  0.000  0.000  0.000  0.002  0.020
    9  0.004  0.038  0.003  0.000  0.000  0.000  0.000  0.000  0.000  0.045
   10  0.004  0.011  0.003  0.000  0.000  0.000  0.000  0.000  0.000  0.018
   11  0.012  0.024  0.006  0.001  0.000  0.000  0.000  0.000  0.000  0.043
   12  0.007  0.008  0.003  0.002  0.000  0.000  0.000  0.000  0.000  0.020
   13  0.018  0.029  0.092  0.013  0.000  0.000  0.000  0.000  0.000  0.154
   14  0.000  0.000  0.000  0.000  0.000  0.000  0.000  0.000  0.000  0.000
   15  0.008  0.000  0.000  0.000  0.000  0.000  0.000  0.000  0.000  0.008
tot    0.142  0.164  0.125  0.025  0.002  0.001  0.001  0.002  0.011  0.472

band    15 # energy   -5.01935422 # occ.  2.00000000

ion      s     py     pz     px    dxy    dyz    dz2    dxz  x2-y2    tot
    1  0.005  0.007  0.007  0.000  0.000  0.001  0.000  0.000  0.000  0.020
    2  0.003  0.004  0.006  0.001  0.000  0.001  0.000  0.000  0.000  0.015
    3  0.001  0.010  0.007  0.001  0.000  0.000  0.000  0.001  0.001  0.021
    4  0.004  0.004  0.012  0.002  0.001  0.000  0.000  0.000  0.000  0.024
    5  0.000  0.004  0.004  0.004  0.001  0.000  0.000  0.000  0.002  0.015
    6  0.002  0.007  0.001  0.006  0.001  0.001  0.000  0.000  0.000  0.019
    7  0.004  0.004  0.007  0.001  0.000  0.001  0.000  0.000  0.000  0.019
    8  0.003  0.002  0.007  0.000  0.000  0.001  0.000  0.000  0.000  0.014
    9  0.003  0.000  0.026  0.000  0.000  0.000  0.000  0.000  0.000  0.029
   10  0.004  0.008  0.023  0.001  0.000  0.000  0.000  0.000  0.000  0.036
   11  0.001  0.024  0.016  0.026  0.000  0.000  0.000  0.000  0.000  0.066
   12  0.000  0.015  0.000  0.006  0.000  0.000  0.000  0.000  0.000  0.022
   13  0.004  0.005  0.032  0.059  0.000  0.000  0.000  0.001  0.000  0.101
   14  0.000  0.000  0.000  0.000  0.000  0.000  0.000  0.000  0.000  0.001
   15  0.002  0.000  0.000  0.000  0.000  0.000  0.000  0.000  0.000  0.002
tot    0.037  0.094  0.148  0.109  0.003  0.004  0.001  0.003  0.004  0.404

band    16 # energy   -4.92093110 # occ.  2.00000000

ion      s     py     pz     px    dxy    dyz    dz2    dxz  x2-y2    tot
    1  0.000  0.001  0.012  0.001  0.000  0.002  0.000  0.000  0.000  0.016
    2  0.001  0.001  0.013  0.001  0.000  0.001  0.000  0.000  0.000  0.017
    3  0.003  0.003  0.006  0.001  0.000  0.000  0.000  0.000  0.000  0.014
    4  0.002  0.003  0.003  0.002  0.001  0.000  0.000  0.000  0.000  0.011
    5  0.001  0.001  0.001  0.007  0.001  0.000  0.000  0.000  0.000  0.012
    6  0.002  0.001  0.002  0.005  0.001  0.000  0.000  0.000  0.000  0.011
    7  0.000  0.000  0.015  0.000  0.000  0.001  0.000  0.000  0.000  0.017
    8  0.000  0.000  0.016  0.001  0.000  0.001  0.000  0.000  0.000  0.019
    9  0.000  0.002  0.050  0.000  0.000  0.000  0.000  0.000  0.000  0.052
   10  0.000  0.003  0.055  0.000  0.000  0.000  0.000  0.000  0.000  0.058
   11  0.002  0.006  0.006  0.026  0.000  0.000  0.000  0.000  0.000  0.039
   12  0.001  0.010  0.003  0.006  0.000  0.000  0.000  0.000  0.000  0.019
   13  0.003  0.009  0.009  0.071  0.000  0.000  0.000  0.001  0.000  0.094
   14  0.000  0.000  0.000  0.000  0.000  0.000  0.000  0.000  0.000  0.001
   15  0.004  0.000  0.000  0.000  0.000  0.000  0.000  0.000  0.000  0.004
tot    0.018  0.039  0.191  0.122  0.003  0.007  0.001  0.002  0.001  0.385

band    17 # energy   -4.80674875 # occ.  2.00000000

ion      s     py     pz     px    dxy    dyz    dz2    dxz  x2-y2    tot
    1  0.001  0.002  0.001  0.002  0.000  0.000  0.000  0.000  0.000  0.007
    2  0.008  0.014  0.001  0.001  0.000  0.000  0.000  0.000  0.001  0.025
    3  0.012  0.005  0.001  0.008  0.001  0.000  0.001  0.000  0.000  0.029
    4  0.009  0.021  0.003  0.003  0.000  0.000  0.001  0.001  0.002  0.039
    5  0.005  0.002  0.007  0.005  0.001  0.001  0.000  0.000  0.000  0.020
    6  0.001  0.002  0.007  0.005  0.001  0.001  0.000  0.000  0.001  0.018
    7  0.003  0.000  0.002  0.002  0.000  0.000  0.000  0.000  0.000  0.007
    8  0.004  0.004  0.002  0.003  0.000  0.000  0.000  0.000  0.000  0.013
    9  0.003  0.012  0.004  0.002  0.000  0.000  0.000  0.000  0.000  0.021
   10  0.002  0.001  0.004  0.001  0.000  0.000  0.000  0.000  0.000  0.008
   11  0.002  0.017  0.034  0.005  0.000  0.000  0.000  0.000  0.000  0.059
   12  0.001  0.016  0.004  0.028  0.000  0.000  0.000  0.000  0.000  0.049
   13  0.003  0.007  0.010  0.137  0.000  0.001  0.000  0.002  0.001  0.161
   14  0.003  0.000  0.000  0.000  0.000  0.000  0.000  0.000  0.000  0.004
   15  0.006  0.000  0.000  0.000  0.000  0.000  0.000  0.000  0.000  0.007
tot    0.063  0.103  0.081  0.202  0.004  0.003  0.002  0.003  0.005  0.467

band    18 # energy   -4.46830505 # occ.  2.00000000

ion      s     py     pz     px    dxy    dyz    dz2    dxz  x2-y2    tot
    1  0.004  0.003  0.000  0.000  0.000  0.000  0.000  0.000  0.000  0.009
    2  0.002  0.001  0.001  0.002  0.001  0.000  0.000  0.000  0.000  0.008
    3  0.001  0.007  0.004  0.012  0.004  0.001  0.000  0.001  0.001  0.032
    4  0.004  0.001  0.006  0.006  0.004  0.001  0.000  0.001  0.001  0.025
    5  0.008  0.001  0.003  0.012  0.005  0.001  0.000  0.000  0.002  0.030
    6  0.002  0.005  0.005  0.015  0.006  0.001  0.000  0.001  0.002  0.036
    7  0.002  0.002  0.002  0.002  0.001  0.000  0.000  0.000  0.000  0.009
    8  0.004  0.005  0.001  0.000  0.000  0.000  0.000  0.000  0.000  0.012
    9  0.002  0.005  0.004  0.001  0.000  0.000  0.000  0.000  0.000  0.011
   10  0.004  0.002  0.006  0.005  0.000  0.000  0.000  0.000  0.000  0.016
   11  0.000  0.010  0.000  0.084  0.000  0.000  0.000  0.000  0.000  0.095
   12  0.007  0.013  0.011  0.101  0.000  0.000  0.000  0.000  0.000  0.133
   13  0.000  0.004  0.094  0.002  0.000  0.000  0.000  0.000  0.000  0.100
   14  0.005  0.000  0.000  0.002  0.000  0.000  0.000  0.000  0.000  0.007
   15  0.000  0.000  0.000  0.000  0.000  0.000  0.000  0.000  0.000  0.000
tot    0.047  0.059  0.137  0.245  0.021  0.004  0.001  0.003  0.006  0.523

band    19 # energy   -4.17395875 # occ.  2.00000000

ion      s     py     pz     px    dxy    dyz    dz2    dxz  x2-y2    tot
    1  0.000  0.003  0.000  0.012  0.001  0.000  0.000  0.000  0.000  0.016
    2  0.002  0.001  0.000  0.006  0.000  0.000  0.000  0.000  0.001  0.009
    3  0.003  0.000  0.003  0.002  0.000  0.000  0.000  0.000  0.001  0.009
    4  0.001  0.002  0.002  0.010  0.002  0.000  0.000  0.000  0.000  0.018
    5  0.023  0.036  0.001  0.006  0.001  0.000  0.000  0.000  0.002  0.069
    6  0.034  0.025  0.001  0.001  0.000  0.000  0.000  0.000  0.001  0.063
    7  0.028  0.032  0.000  0.002  0.000  0.000  0.000  0.000  0.002  0.065
    8  0.016  0.028  0.000  0.006  0.001  0.000  0.000  0.000  0.002  0.054
    9  0.002  0.012  0.000  0.011  0.000  0.000  0.000  0.000  0.000  0.025
   10  0.001  0.027  0.001  0.003  0.000  0.000  0.000  0.000  0.000  0.032
   11  0.000  0.018  0.004  0.015  0.000  0.000  0.000  0.000  0.000  0.038
   12  0.001  0.018  0.001  0.006  0.000  0.000  0.000  0.000  0.000  0.026
   13  0.000  0.001  0.003  0.009  0.000  0.000  0.000  0.000  0.000  0.013
   14  0.001  0.000  0.000  0.000  0.000  0.000  0.000  0.000  0.000  0.001
   15  0.000  0.000  0.000  0.000  0.000  0.000  0.000  0.000  0.000  0.000
tot    0.113  0.204  0.017  0.092  0.006  0.001  0.001  0.001  0.008  0.441

band    20 # energy   -4.04204809 # occ.  2.00000000

ion      s     py     pz     px    dxy    dyz    dz2    dxz  x2-y2    tot
    1  0.008  0.006  0.000  0.017  0.010  0.000  0.000  0.000  0.001  0.042
    2  0.005  0.004  0.000  0.026  0.011  0.000  0.000  0.000  0.001  0.048
    3  0.001  0.002  0.001  0.001  0.001  0.000  0.000  0.000  0.000  0.007
    4  0.001  0.001  0.001  0.001  0.001  0.000  0.000  0.000  0.000  0.004
    5  0.002  0.001  0.001  0.001  0.001  0.000  0.000  0.000  0.000  0.006
    6  0.001  0.002  0.001  0.001  0.001  0.000  0.000  0.000  0.000  0.007
    7  0.003  0.005  0.000  0.030  0.013  0.000  0.000  0.000  0.001  0.052
    8  0.010  0.001  0.000  0.022  0.011  0.000  0.000  0.000  0.002  0.046
    9  0.010  0.008  0.000  0.147  0.000  0.000  0.000  0.000  0.000  0.165
   10  0.011  0.001  0.001  0.151  0.000  0.000  0.000  0.000  0.000  0.164
   11  0.001  0.002  0.014  0.009  0.000  0.000  0.000  0.000  0.000  0.026
   12  0.002  0.002  0.003  0.005  0.000  0.000  0.000  0.000  0.000  0.011
   13  0.000  0.000  0.001  0.000  0.000  0.000  0.000  0.000  0.000  0.002
   14  0.002  0.000  0.000  0.000  0.000  0.000  0.000  0.000  0.000  0.002
   15  0.001  0.000  0.000  0.000  0.000  0.000  0.000  0.000  0.000  0.001
tot    0.056  0.035  0.023  0.413  0.047  0.001  0.000  0.001  0.006  0.582

band    21 # energy   -3.84538507 # occ.  2.00000000

ion      s     py     pz     px    dxy    dyz    dz2    dxz  x2-y2    tot
    1  0.005  0.015  0.000  0.010  0.003  0.000  0.000  0.000  0.002  0.035
    2  0.003  0.002  0.000  0.004  0.001  0.000  0.000  0.000  0.002  0.013
    3  0.003  0.014  0.001  0.004  0.002  0.000  0.001  0.001  0.002  0.027
    4  0.005  0.001  0.001  0.003  0.002  0.000  0.001  0.000  0.001  0.013
    5  0.005  0.006  0.006  0.001  0.001  0.000  0.000  0.002  0.002  0.023
    6  0.001  0.012  0.006  0.004  0.001  0.000  0.000  0.001  0.002  0.027
    7  0.000  0.011  0.000  0.002  0.001  0.000  0.000  0.000  0.002  0.016
    8  0.004  0.016  0.000  0.010  0.002  0.000  0.000  0.000  0.001  0.033
    9  0.000  0.030  0.001  0.032  0.000  0.000  0.000  0.000  0.000  0.064
   10  0.000  0.003  0.002  0.029  0.000  0.000  0.000  0.000  0.000  0.034
   11  0.001  0.027  0.057  0.017  0.000  0.000  0.000  0.000  0.000  0.102
   12  0.002  0.017  0.005  0.014  0.000  0.000  0.000  0.000  0.000  0.038
   13  0.000  0.000  0.011  0.019  0.000  0.001  0.000  0.000  0.001  0.033
   14  0.003  0.000  0.000  0.000  0.000  0.000  0.000  0.000  0.000  0.003
   15  0.002  0.000  0.000  0.000  0.000  0.000  0.000  0.000  0.000  0.003
tot    0.035  0.154  0.089  0.150  0.013  0.003  0.002  0.003  0.013  0.462

band    22 # energy   -3.51197678 # occ.  2.00000000

ion      s     py     pz     px    dxy    dyz    dz2    dxz  x2-y2    tot
    1  0.019  0.016  0.000  0.001  0.001  0.000  0.000  0.000  0.002  0.039
    2  0.027  0.030  0.001  0.003  0.001  0.000  0.000  0.000  0.002  0.064
    3  0.019  0.012  0.008  0.002  0.001  0.001  0.001  0.000  0.000  0.043
    4  0.009  0.024  0.005  0.003  0.000  0.000  0.000  0.000  0.002  0.044
    5  0.000  0.010  0.000  0.002  0.001  0.000  0.000  0.000  0.000  0.013
    6  0.001  0.003  0.000  0.001  0.000  0.000  0.000  0.000  0.001  0.005
    7  0.003  0.005  0.000  0.006  0.000  0.000  0.000  0.000  0.001  0.015
    8  0.001  0.004  0.000  0.004  0.000  0.000  0.000  0.000  0.001  0.010
    9  0.001  0.000  0.000  0.002  0.000  0.000  0.000  0.000  0.000  0.003
   10  0.001  0.044  0.000  0.004  0.000  0.000  0.000  0.000  0.000  0.049
   11  0.000  0.013  0.003  0.008  0.000  0.000  0.000  0.000  0.000  0.024
   12  0.001  0.008  0.002  0.002  0.000  0.000  0.000  0.000  0.000  0.013
   13  0.000  0.000  0.006  0.149  0.000  0.000  0.000  0.000  0.000  0.155
   14  0.002  0.000  0.000  0.000  0.000  0.000  0.000  0.000  0.000  0.002
   15  0.000  0.000  0.000  0.000  0.000  0.000  0.000  0.000  0.000  0.001
tot    0.084  0.168  0.025  0.187  0.003  0.001  0.001  0.001  0.010  0.481

band    23 # energy   -3.11328070 # occ.  2.00000000

ion      s     py     pz     px    dxy    dyz    dz2    dxz  x2-y2    tot
    1  0.009  0.016  0.001  0.001  0.000  0.000  0.000  0.000  0.002  0.030
    2  0.004  0.015  0.001  0.000  0.000  0.000  0.000  0.000  0.002  0.023
    3  0.004  0.007  0.003  0.000  0.001  0.001  0.001  0.000  0.002  0.018
    4  0.010  0.006  0.003  0.002  0.001  0.002  0.001  0.000  0.000  0.025
    5  0.003  0.004  0.013  0.002  0.000  0.000  0.000  0.001  0.001  0.024
    6  0.002  0.007  0.010  0.001  0.000  0.000  0.000  0.002  0.000  0.024
    7  0.002  0.004  0.001  0.001  0.000  0.000  0.000  0.000  0.002  0.010
    8  0.002  0.003  0.000  0.001  0.000  0.000  0.000  0.000  0.002  0.009
    9  0.001  0.027  0.002  0.001  0.000  0.000  0.000  0.000  0.000  0.030
   10  0.000  0.015  0.008  0.001  0.000  0.000  0.000  0.000  0.000  0.025
   11  0.002  0.007  0.062  0.003  0.000  0.000  0.000  0.000  0.000  0.074
   12  0.002  0.006  0.002  0.008  0.000  0.000  0.000  0.000  0.000  0.017
   13  0.002  0.002  0.125  0.003  0.000  0.000  0.000  0.000  0.000  0.132
   14  0.001  0.000  0.000  0.000  0.000  0.000  0.000  0.000  0.000  0.002
   15  0.001  0.000  0.000  0.000  0.000  0.000  0.000  0.000  0.000  0.001
tot    0.044  0.119  0.230  0.024  0.003  0.004  0.003  0.004  0.011  0.442

band    24 # energy   -2.85611303 # occ.  2.00000000

ion      s     py     pz     px    dxy    dyz    dz2    dxz  x2-y2    tot
    1  0.000  0.001  0.008  0.000  0.000  0.001  0.000  0.006  0.000  0.017
    2  0.000  0.000  0.008  0.000  0.000  0.001  0.000  0.006  0.000  0.015
    3  0.000  0.000  0.000  0.000  0.000  0.000  0.000  0.000  0.000  0.001
    4  0.000  0.000  0.000  0.000  0.000  0.000  0.000  0.000  0.000  0.000
    5  0.000  0.000  0.000  0.000  0.000  0.000  0.000  0.000  0.000  0.001
    6  0.000  0.000  0.001  0.000  0.000  0.000  0.000  0.000  0.000  0.001
    7  0.000  0.000  0.009  0.000  0.000  0.001  0.000  0.007  0.000  0.018
    8  0.000  0.000  0.010  0.000  0.000  0.001  0.000  0.007  0.000  0.018
    9  0.000  0.002  0.137  0.001  0.000  0.000  0.000  0.000  0.000  0.140
   10  0.000  0.000  0.123  0.001  0.000  0.000  0.000  0.000  0.000  0.124
   11  0.000  0.000  0.003  0.000  0.000  0.000  0.000  0.000  0.000  0.003
   12  0.000  0.000  0.000  0.000  0.000  0.000  0.000  0.000  0.000  0.000
   13  0.000  0.001  0.008  0.001  0.000  0.000  0.000  0.000  0.000  0.011
   14  0.000  0.000  0.000  0.000  0.000  0.000  0.000  0.000  0.000  0.000
   15  0.000  0.000  0.000  0.000  0.000  0.000  0.000  0.000  0.000  0.000
tot    0.002  0.006  0.308  0.004  0.000  0.003  0.000  0.027  0.000  0.350

band    25 # energy   -0.65052138 # occ.  0.00000000

ion      s     py     pz     px    dxy    dyz    dz2    dxz  x2-y2    tot
    1  0.001  0.002  0.015  0.000  0.000  0.000  0.000  0.000  0.000  0.018
    2  0.001  0.001  0.015  0.000  0.000  0.000  0.000  0.000  0.000  0.018
    3  0.000  0.000  0.000  0.001  0.000  0.001  0.000  0.001  0.000  0.004
    4  0.001  0.000  0.003  0.001  0.001  0.001  0.001  0.000  0.000  0.006
    5  0.000  0.000  0.016  0.002  0.000  0.003  0.000  0.001  0.000  0.023
    6  0.001  0.001  0.013  0.000  0.001  0.003  0.000  0.001  0.000  0.020
    7  0.001  0.000  0.018  0.000  0.000  0.003  0.000  0.000  0.000  0.023
    8  0.001  0.000  0.018  0.000  0.000  0.003  0.000  0.000  0.000  0.022
    9  0.001  0.000  0.002  0.000  0.000  0.000  0.000  0.000  0.000  0.004
   10  0.000  0.001  0.003  0.000  0.000  0.000  0.000  0.000  0.000  0.004
   11  0.001  0.002  0.034  0.001  0.000  0.000  0.000  0.000  0.000  0.038
   12  0.000  0.000  0.004  0.001  0.000  0.000  0.000  0.000  0.000  0.005
   13  0.002  0.000  0.010  0.002  0.000  0.001  0.000  0.000  0.001  0.016
   14  0.003  0.000  0.000  0.000  0.000  0.000  0.000  0.000  0.000  0.004
   15  0.002  0.000  0.000  0.000  0.000  0.000  0.000  0.000  0.000  0.002
tot    0.014  0.008  0.152  0.008  0.002  0.015  0.001  0.003  0.002  0.206

band    26 # energy    0.08282107 # occ.  0.00000000

ion      s     py     pz     px    dxy    dyz    dz2    dxz  x2-y2    tot
    1  0.008  0.000  0.005  0.005  0.003  0.001  0.000  0.000  0.000  0.022
    2  0.008  0.001  0.002  0.004  0.004  0.001  0.000  0.000  0.000  0.019
    3  0.014  0.000  0.008  0.006  0.005  0.000  0.000  0.000  0.000  0.035
    4  0.008  0.000  0.003  0.006  0.004  0.001  0.000  0.001  0.000  0.022
    5  0.005  0.001  0.002  0.008  0.007  0.000  0.000  0.000  0.001  0.024
    6  0.009  0.000  0.003  0.014  0.006  0.000  0.000  0.000  0.001  0.033
    7  0.011  0.001  0.000  0.004  0.006  0.000  0.000  0.000  0.000  0.023
    8  0.012  0.001  0.002  0.005  0.006  0.001  0.000  0.000  0.000  0.026
    9  0.006  0.005  0.002  0.000  0.000  0.000  0.000  0.000  0.000  0.013
   10  0.006  0.001  0.004  0.000  0.000  0.000  0.000  0.000  0.000  0.011
   11  0.009  0.000  0.004  0.001  0.000  0.000  0.000  0.000  0.000  0.013
   12  0.012  0.001  0.002  0.001  0.000  0.000  0.000  0.000  0.000  0.016
   13  0.002  0.000  0.002  0.012  0.000  0.001  0.001  0.001  0.001  0.019
   14  0.001  0.000  0.000  0.000  0.000  0.000  0.000  0.000  0.000  0.001
   15  0.001  0.000  0.000  0.000  0.000  0.000  0.000  0.000  0.000  0.001
tot    0.110  0.010  0.039  0.066  0.041  0.005  0.002  0.003  0.004  0.280

band    27 # energy    0.35110887 # occ.  0.00000000

ion      s     py     pz     px    dxy    dyz    dz2    dxz  x2-y2    tot
    1  0.003  0.000  0.005  0.003  0.002  0.003  0.000  0.000  0.000  0.016
    2  0.000  0.000  0.005  0.003  0.002  0.002  0.000  0.000  0.000  0.013
    3  0.002  0.002  0.009  0.007  0.001  0.000  0.003  0.001  0.000  0.026
    4  0.007  0.001  0.004  0.002  0.002  0.001  0.001  0.001  0.000  0.019
    5  0.005  0.000  0.005  0.000  0.000  0.000  0.000  0.001  0.000  0.012
    6  0.005  0.001  0.027  0.000  0.001  0.001  0.001  0.000  0.000  0.036
    7  0.001  0.000  0.007  0.002  0.001  0.000  0.000  0.000  0.000  0.012
    8  0.003  0.000  0.004  0.001  0.001  0.002  0.000  0.000  0.000  0.012
    9  0.004  0.000  0.004  0.000  0.000  0.000  0.000  0.000  0.000  0.009
   10  0.002  0.000  0.017  0.000  0.000  0.000  0.000  0.000  0.000  0.019
   11  0.001  0.001  0.004  0.001  0.000  0.000  0.000  0.000  0.000  0.007
   12  0.004  0.004  0.002  0.002  0.000  0.000  0.000  0.000  0.000  0.012
   13  0.001  0.001  0.032  0.004  0.000  0.001  0.004  0.000  0.004  0.048
   14  0.003  0.000  0.000  0.000  0.000  0.000  0.000  0.000  0.000  0.004
   15  0.007  0.000  0.000  0.000  0.000  0.000  0.000  0.000  0.000  0.007
tot    0.049  0.013  0.125  0.026  0.011  0.012  0.008  0.004  0.005  0.252

band    28 # energy    0.63792845 # occ.  0.00000000

ion      s     py     pz     px    dxy    dyz    dz2    dxz  x2-y2    tot
    1  0.001  0.000  0.003  0.001  0.001  0.000  0.000  0.001  0.000  0.007
    2  0.000  0.001  0.001  0.001  0.001  0.001  0.000  0.000  0.000  0.006
    3  0.003  0.002  0.000  0.000  0.002  0.001  0.000  0.000  0.000  0.009
    4  0.002  0.001  0.006  0.006  0.000  0.001  0.001  0.001  0.000  0.019
    5  0.002  0.001  0.045  0.002  0.000  0.002  0.000  0.000  0.001  0.053
    6  0.002  0.001  0.025  0.002  0.000  0.001  0.001  0.000  0.000  0.033
    7  0.002  0.000  0.014  0.000  0.000  0.002  0.000  0.000  0.000  0.019
    8  0.002  0.000  0.021  0.000  0.000  0.000  0.000  0.000  0.000  0.023
    9  0.000  0.001  0.013  0.000  0.000  0.000  0.000  0.000  0.000  0.015
   10  0.001  0.000  0.005  0.000  0.000  0.000  0.000  0.000  0.000  0.006
   11  0.003  0.003  0.008  0.003  0.000  0.000  0.000  0.000  0.000  0.016
   12  0.003  0.000  0.000  0.003  0.000  0.000  0.000  0.000  0.000  0.006
   13  0.001  0.003  0.010  0.003  0.001  0.001  0.003  0.001  0.002  0.024
   14  0.002  0.000  0.000  0.000  0.000  0.000  0.000  0.000  0.000  0.003
   15  0.004  0.000  0.000  0.000  0.000  0.000  0.000  0.000  0.000  0.005
tot    0.029  0.016  0.152  0.020  0.006  0.010  0.005  0.004  0.004  0.245

band    29 # energy    0.85259613 # occ.  0.00000000

ion      s     py     pz     px    dxy    dyz    dz2    dxz  x2-y2    tot
    1  0.003  0.001  0.002  0.002  0.003  0.000  0.001  0.000  0.001  0.014
    2  0.003  0.001  0.003  0.003  0.003  0.001  0.000  0.000  0.000  0.014
    3  0.017  0.001  0.001  0.003  0.003  0.000  0.000  0.000  0.000  0.025
    4  0.011  0.004  0.005  0.003  0.003  0.000  0.001  0.000  0.000  0.027
    5  0.017  0.002  0.006  0.008  0.003  0.000  0.001  0.000  0.000  0.038
    6  0.005  0.000  0.001  0.004  0.005  0.000  0.000  0.001  0.000  0.016
    7  0.006  0.003  0.005  0.003  0.005  0.000  0.001  0.000  0.000  0.023
    8  0.002  0.000  0.004  0.003  0.005  0.000  0.000  0.000  0.000  0.016
    9  0.010  0.011  0.004  0.000  0.000  0.000  0.000  0.000  0.000  0.024
   10  0.004  0.005  0.001  0.000  0.000  0.000  0.000  0.000  0.000  0.010
   11  0.000  0.006  0.000  0.001  0.000  0.000  0.000  0.000  0.000  0.008
   12  0.012  0.011  0.001  0.000  0.000  0.000  0.000  0.000  0.000  0.024
   13  0.006  0.016  0.005  0.010  0.000  0.001  0.005  0.003  0.003  0.050
   14  0.001  0.000  0.001  0.000  0.000  0.000  0.000  0.000  0.000  0.001
   15  0.010  0.001  0.000  0.000  0.000  0.000  0.000  0.000  0.000  0.011
tot    0.107  0.063  0.037  0.042  0.031  0.003  0.009  0.005  0.005  0.301

band    30 # energy    1.20853777 # occ.  0.00000000

ion      s     py     pz     px    dxy    dyz    dz2    dxz  x2-y2    tot
    1  0.001  0.001  0.007  0.001  0.001  0.000  0.001  0.000  0.000  0.013
    2  0.006  0.001  0.006  0.000  0.001  0.000  0.002  0.000  0.000  0.017
    3  0.003  0.002  0.008  0.003  0.001  0.000  0.000  0.000  0.000  0.018
    4  0.006  0.000  0.004  0.002  0.001  0.000  0.001  0.000  0.001  0.016
    5  0.001  0.001  0.002  0.003  0.003  0.001  0.000  0.000  0.000  0.011
    6  0.007  0.002  0.003  0.000  0.004  0.000  0.001  0.000  0.000  0.017
    7  0.002  0.000  0.000  0.001  0.002  0.000  0.001  0.000  0.000  0.007
    8  0.006  0.002  0.002  0.000  0.002  0.000  0.002  0.000  0.000  0.015
    9  0.005  0.004  0.000  0.001  0.000  0.000  0.000  0.000  0.000  0.011
   10  0.008  0.007  0.004  0.001  0.000  0.000  0.000  0.000  0.000  0.020
   11  0.010  0.006  0.003  0.000  0.000  0.000  0.000  0.000  0.000  0.020
   12  0.002  0.003  0.001  0.000  0.000  0.000  0.000  0.000  0.000  0.006
   13  0.014  0.047  0.001  0.010  0.000  0.001  0.001  0.002  0.008  0.084
   14  0.002  0.000  0.000  0.000  0.000  0.000  0.000  0.000  0.000  0.002
   15  0.015  0.002  0.000  0.000  0.000  0.000  0.000  0.000  0.000  0.016
tot    0.086  0.079  0.042  0.023  0.015  0.003  0.010  0.003  0.010  0.271

band    31 # energy    1.34348388 # occ.  0.00000000

ion      s     py     pz     px    dxy    dyz    dz2    dxz  x2-y2    tot
    1  0.002  0.000  0.020  0.001  0.001  0.001  0.000  0.000  0.000  0.027
    2  0.004  0.000  0.029  0.002  0.001  0.000  0.000  0.000  0.000  0.038
    3  0.002  0.001  0.007  0.002  0.001  0.000  0.000  0.000  0.000  0.014
    4  0.001  0.003  0.007  0.003  0.001  0.001  0.001  0.000  0.000  0.016
    5  0.010  0.000  0.000  0.000  0.001  0.000  0.001  0.000  0.000  0.013
    6  0.001  0.001  0.004  0.001  0.000  0.001  0.001  0.000  0.000  0.009
    7  0.009  0.001  0.010  0.000  0.000  0.000  0.001  0.001  0.000  0.023
    8  0.001  0.002  0.004  0.000  0.000  0.000  0.000  0.001  0.000  0.009
    9  0.001  0.002  0.020  0.000  0.000  0.000  0.000  0.000  0.000  0.023
   10  0.004  0.002  0.006  0.000  0.000  0.000  0.000  0.000  0.000  0.012
   11  0.004  0.000  0.001  0.001  0.000  0.000  0.000  0.000  0.000  0.006
   12  0.003  0.004  0.001  0.001  0.000  0.000  0.000  0.000  0.000  0.009
   13  0.015  0.005  0.005  0.004  0.001  0.000  0.001  0.002  0.002  0.036
   14  0.001  0.000  0.001  0.000  0.000  0.000  0.000  0.000  0.000  0.002
   15  0.004  0.000  0.000  0.000  0.000  0.000  0.000  0.000  0.000  0.004
tot    0.062  0.023  0.114  0.015  0.007  0.004  0.005  0.006  0.003  0.240

band    32 # energy    1.89064967 # occ.  0.00000000

ion      s     py     pz     px    dxy    dyz    dz2    dxz  x2-y2    tot
    1  0.004  0.001  0.006  0.001  0.000  0.001  0.001  0.000  0.000  0.013
    2  0.003  0.000  0.017  0.001  0.000  0.000  0.001  0.000  0.000  0.022
    3  0.009  0.005  0.005  0.001  0.000  0.000  0.000  0.000  0.000  0.021
    4  0.005  0.000  0.006  0.001  0.000  0.000  0.001  0.000  0.000  0.013
    5  0.005  0.000  0.001  0.001  0.001  0.000  0.001  0.000  0.000  0.010
    6  0.016  0.002  0.000  0.000  0.001  0.000  0.002  0.000  0.000  0.023
    7  0.004  0.001  0.001  0.000  0.001  0.000  0.000  0.000  0.000  0.008
    8  0.010  0.007  0.004  0.000  0.001  0.000  0.002  0.000  0.000  0.025
    9  0.001  0.000  0.001  0.000  0.000  0.000  0.000  0.000  0.000  0.003
   10  0.004  0.005  0.004  0.002  0.000  0.000  0.000  0.000  0.000  0.015
   11  0.004  0.004  0.001  0.001  0.000  0.000  0.000  0.000  0.000  0.010
   12  0.001  0.001  0.001  0.000  0.000  0.000  0.000  0.000  0.000  0.003
   13  0.001  0.009  0.001  0.007  0.000  0.000  0.001  0.003  0.000  0.022
   14  0.000  0.000  0.000  0.000  0.000  0.000  0.000  0.000  0.000  0.001
   15  0.002  0.000  0.000  0.000  0.000  0.000  0.000  0.000  0.000  0.002
tot    0.069  0.036  0.049  0.016  0.005  0.002  0.009  0.005  0.002  0.193


 k-point     6 :    0.40000000 0.33333333 0.00000000     weight = 0.13333333

band     1 # energy  -16.05960550 # occ.  2.00000000

ion      s     py     pz     px    dxy    dyz    dz2    dxz  x2-y2    tot
    1  0.000  0.000  0.000  0.000  0.000  0.000  0.000  0.000  0.000  0.000
    2  0.000  0.000  0.000  0.000  0.000  0.000  0.000  0.000  0.000  0.000
    3  0.015  0.004  0.000  0.003  0.001  0.000  0.001  0.000  0.000  0.023
    4  0.015  0.004  0.000  0.003  0.001  0.000  0.001  0.000  0.000  0.023
    5  0.016  0.003  0.001  0.003  0.001  0.000  0.000  0.000  0.000  0.026
    6  0.016  0.003  0.001  0.003  0.001  0.000  0.000  0.000  0.000  0.026
    7  0.000  0.000  0.000  0.000  0.000  0.000  0.000  0.000  0.000  0.000
    8  0.000  0.000  0.000  0.000  0.000  0.000  0.000  0.000  0.000  0.000
    9  0.000  0.000  0.000  0.000  0.000  0.000  0.000  0.000  0.000  0.000
   10  0.000  0.000  0.000  0.000  0.000  0.000  0.000  0.000  0.000  0.000
   11  0.014  0.000  0.000  0.002  0.000  0.000  0.000  0.000  0.000  0.017
   12  0.327  0.001  0.007  0.000  0.000  0.000  0.000  0.000  0.000  0.335
   13  0.006  0.000  0.000  0.000  0.000  0.000  0.000  0.000  0.000  0.007
   14  0.098  0.000  0.008  0.000  0.000  0.000  0.000  0.000  0.000  0.106
   15  0.000  0.000  0.000  0.000  0.000  0.000  0.000  0.000  0.000  0.000
tot    0.509  0.016  0.017  0.014  0.003  0.001  0.002  0.001  0.000  0.562

band     2 # energy  -15.10234143 # occ.  2.00000000

ion      s     py     pz     px    dxy    dyz    dz2    dxz  x2-y2    tot
    1  0.001  0.000  0.000  0.000  0.000  0.000  0.000  0.000  0.000  0.001
    2  0.001  0.000  0.000  0.000  0.000  0.000  0.000  0.000  0.000  0.001
    3  0.019  0.002  0.000  0.005  0.001  0.000  0.000  0.000  0.000  0.027
    4  0.020  0.002  0.000  0.005  0.001  0.000  0.000  0.000  0.000  0.027
    5  0.012  0.003  0.000  0.004  0.001  0.000  0.000  0.000  0.000  0.020
    6  0.011  0.003  0.000  0.004  0.001  0.000  0.000  0.000  0.000  0.020
    7  0.001  0.000  0.000  0.000  0.000  0.000  0.000  0.000  0.000  0.001
    8  0.000  0.000  0.000  0.000  0.000  0.000  0.000  0.000  0.000  0.001
    9  0.004  0.000  0.000  0.000  0.000  0.000  0.000  0.000  0.000  0.004
   10  0.001  0.000  0.000  0.000  0.000  0.000  0.000  0.000  0.000  0.001
   11  0.145  0.000  0.001  0.000  0.000  0.000  0.000  0.000  0.000  0.147
   12  0.020  0.000  0.001  0.003  0.000  0.000  0.000  0.000  0.000  0.023
   13  0.329  0.002  0.002  0.000  0.000  0.000  0.000  0.000  0.001  0.334
   14  0.007  0.000  0.001  0.000  0.000  0.000  0.000  0.000  0.000  0.008
   15  0.020  0.001  0.000  0.000  0.000  0.000  0.000  0.000  0.000  0.022
tot    0.591  0.014  0.005  0.020  0.004  0.001  0.001  0.000  0.001  0.636

band     3 # energy  -14.75832626 # occ.  2.00000000

ion      s     py     pz     px    dxy    dyz    dz2    dxz  x2-y2    tot
    1  0.030  0.008  0.000  0.004  0.001  0.000  0.001  0.000  0.000  0.044
    2  0.030  0.008  0.000  0.004  0.001  0.000  0.001  0.000  0.000  0.045
    3  0.000  0.000  0.000  0.000  0.000  0.000  0.000  0.000  0.000  0.001
    4  0.000  0.000  0.000  0.000  0.000  0.000  0.000  0.000  0.000  0.001
    5  0.001  0.000  0.000  0.000  0.000  0.000  0.000  0.000  0.000  0.001
    6  0.001  0.000  0.000  0.000  0.000  0.000  0.000  0.000  0.000  0.001
    7  0.033  0.008  0.000  0.004  0.001  0.000  0.002  0.000  0.000  0.048
    8  0.034  0.008  0.000  0.004  0.001  0.000  0.002  0.000  0.000  0.048
    9  0.158  0.000  0.000  0.002  0.000  0.000  0.000  0.000  0.000  0.161
   10  0.172  0.000  0.000  0.002  0.000  0.000  0.000  0.000  0.000  0.174
   11  0.006  0.000  0.000  0.000  0.000  0.000  0.000  0.000  0.000  0.006
   12  0.000  0.000  0.000  0.000  0.000  0.000  0.000  0.000  0.000  0.000
   13  0.003  0.000  0.000  0.000  0.000  0.000  0.000  0.000  0.000  0.004
   14  0.000  0.000  0.000  0.000  0.000  0.000  0.000  0.000  0.000  0.000
   15  0.000  0.000  0.000  0.000  0.000  0.000  0.000  0.000  0.000  0.000
tot    0.470  0.032  0.000  0.021  0.004  0.000  0.006  0.000  0.000  0.534

band     4 # energy  -14.35897167 # occ.  2.00000000

ion      s     py     pz     px    dxy    dyz    dz2    dxz  x2-y2    tot
    1  0.001  0.000  0.000  0.000  0.000  0.000  0.000  0.000  0.000  0.001
    2  0.001  0.000  0.000  0.000  0.000  0.000  0.000  0.000  0.000  0.001
    3  0.005  0.004  0.002  0.001  0.001  0.000  0.001  0.000  0.000  0.014
    4  0.005  0.004  0.002  0.001  0.001  0.000  0.001  0.000  0.000  0.014
    5  0.016  0.003  0.000  0.005  0.001  0.000  0.001  0.000  0.000  0.026
    6  0.016  0.004  0.000  0.005  0.001  0.000  0.001  0.000  0.000  0.026
    7  0.001  0.000  0.000  0.000  0.000  0.000  0.000  0.000  0.000  0.001
    8  0.000  0.000  0.000  0.000  0.000  0.000  0.000  0.000  0.000  0.001
    9  0.000  0.000  0.000  0.000  0.000  0.000  0.000  0.000  0.000  0.000
   10  0.008  0.000  0.000  0.000  0.000  0.000  0.000  0.000  0.000  0.008
   11  0.176  0.000  0.000  0.000  0.000  0.000  0.000  0.000  0.000  0.177
   12  0.003  0.000  0.000  0.002  0.000  0.000  0.000  0.000  0.000  0.005
   13  0.363  0.007  0.000  0.000  0.000  0.000  0.000  0.000  0.001  0.371
   14  0.001  0.000  0.000  0.000  0.000  0.000  0.000  0.000  0.000  0.002
   15  0.030  0.002  0.000  0.000  0.000  0.000  0.000  0.000  0.000  0.032
tot    0.625  0.024  0.005  0.015  0.004  0.000  0.003  0.001  0.001  0.678

band     5 # energy  -14.12894834 # occ.  2.00000000

ion      s     py     pz     px    dxy    dyz    dz2    dxz  x2-y2    tot
    1  0.023  0.006  0.000  0.009  0.002  0.000  0.001  0.000  0.000  0.041
    2  0.023  0.006  0.000  0.009  0.002  0.000  0.001  0.000  0.000  0.041
    3  0.000  0.000  0.000  0.000  0.000  0.000  0.000  0.000  0.000  0.000
    4  0.000  0.000  0.000  0.000  0.000  0.000  0.000  0.000  0.000  0.000
    5  0.000  0.000  0.000  0.000  0.000  0.000  0.000  0.000  0.000  0.000
    6  0.000  0.000  0.000  0.000  0.000  0.000  0.000  0.000  0.000  0.000
    7  0.025  0.006  0.000  0.010  0.003  0.000  0.001  0.000  0.000  0.044
    8  0.025  0.006  0.000  0.010  0.003  0.000  0.001  0.000  0.000  0.044
    9  0.184  0.000  0.000  0.004  0.000  0.000  0.000  0.000  0.000  0.188
   10  0.166  0.000  0.000  0.004  0.000  0.000  0.000  0.000  0.000  0.171
   11  0.003  0.000  0.000  0.000  0.000  0.000  0.000  0.000  0.000  0.003
   12  0.000  0.000  0.000  0.000  0.000  0.000  0.000  0.000  0.000  0.000
   13  0.008  0.000  0.000  0.000  0.000  0.000  0.000  0.000  0.000  0.009
   14  0.000  0.000  0.000  0.000  0.000  0.000  0.000  0.000  0.000  0.000
   15  0.001  0.000  0.000  0.000  0.000  0.000  0.000  0.000  0.000  0.001
tot    0.458  0.025  0.000  0.045  0.010  0.000  0.004  0.000  0.000  0.543

band     6 # energy   -9.12682597 # occ.  2.00000000

ion      s     py     pz     px    dxy    dyz    dz2    dxz  x2-y2    tot
    1  0.005  0.000  0.000  0.000  0.000  0.000  0.000  0.000  0.000  0.006
    2  0.008  0.001  0.000  0.001  0.000  0.000  0.000  0.000  0.000  0.010
    3  0.020  0.003  0.003  0.001  0.000  0.001  0.000  0.000  0.001  0.028
    4  0.045  0.002  0.003  0.000  0.000  0.001  0.000  0.000  0.000  0.052
    5  0.047  0.003  0.002  0.000  0.000  0.000  0.001  0.000  0.000  0.055
    6  0.024  0.006  0.001  0.000  0.000  0.000  0.001  0.000  0.001  0.033
    7  0.007  0.001  0.000  0.001  0.000  0.000  0.000  0.000  0.000  0.009
    8  0.005  0.000  0.000  0.000  0.000  0.000  0.000  0.000  0.000  0.006
    9  0.000  0.001  0.000  0.000  0.000  0.000  0.000  0.000  0.000  0.001
   10  0.000  0.006  0.000  0.000  0.000  0.000  0.000  0.000  0.000  0.006
   11  0.000  0.001  0.000  0.049  0.000  0.000  0.000  0.000  0.000  0.051
   12  0.002  0.007  0.113  0.008  0.000  0.000  0.000  0.000  0.000  0.129
   13  0.000  0.001  0.001  0.000  0.000  0.000  0.000  0.000  0.000  0.003
   14  0.120  0.000  0.004  0.000  0.000  0.000  0.000  0.000  0.000  0.124
   15  0.001  0.000  0.000  0.000  0.000  0.000  0.000  0.000  0.000  0.001
tot    0.284  0.033  0.126  0.061  0.001  0.002  0.004  0.001  0.002  0.514

band     7 # energy   -8.84835910 # occ.  2.00000000

ion      s     py     pz     px    dxy    dyz    dz2    dxz  x2-y2    tot
    1  0.013  0.003  0.000  0.001  0.000  0.000  0.000  0.000  0.000  0.018
    2  0.011  0.002  0.000  0.001  0.000  0.000  0.000  0.000  0.000  0.015
    3  0.070  0.000  0.000  0.004  0.000  0.000  0.000  0.000  0.000  0.076
    4  0.027  0.002  0.000  0.005  0.000  0.000  0.000  0.000  0.001  0.036
    5  0.019  0.003  0.000  0.004  0.000  0.000  0.000  0.000  0.001  0.028
    6  0.052  0.001  0.001  0.006  0.000  0.000  0.001  0.000  0.000  0.061
    7  0.011  0.002  0.000  0.001  0.000  0.000  0.000  0.000  0.000  0.015
    8  0.012  0.003  0.000  0.001  0.000  0.000  0.000  0.000  0.000  0.017
    9  0.003  0.010  0.000  0.000  0.000  0.000  0.000  0.000  0.000  0.013
   10  0.002  0.004  0.000  0.000  0.000  0.000  0.000  0.000  0.000  0.006
   11  0.003  0.046  0.003  0.005  0.000  0.000  0.000  0.000  0.000  0.057
   12  0.000  0.018  0.008  0.002  0.000  0.000  0.000  0.000  0.000  0.028
   13  0.005  0.013  0.029  0.001  0.000  0.000  0.002  0.000  0.001  0.052
   14  0.009  0.000  0.000  0.000  0.000  0.000  0.000  0.000  0.000  0.009
   15  0.016  0.000  0.000  0.000  0.000  0.000  0.000  0.000  0.000  0.017
tot    0.254  0.110  0.041  0.031  0.001  0.000  0.004  0.000  0.004  0.447

band     8 # energy   -8.16354771 # occ.  2.00000000

ion      s     py     pz     px    dxy    dyz    dz2    dxz  x2-y2    tot
    1  0.034  0.001  0.000  0.003  0.001  0.000  0.000  0.000  0.000  0.039
    2  0.001  0.001  0.000  0.002  0.000  0.000  0.000  0.000  0.001  0.005
    3  0.023  0.003  0.001  0.006  0.000  0.000  0.000  0.000  0.000  0.033
    4  0.039  0.001  0.000  0.003  0.000  0.000  0.000  0.000  0.000  0.043
    5  0.006  0.003  0.001  0.011  0.001  0.000  0.000  0.000  0.000  0.022
    6  0.032  0.004  0.000  0.007  0.001  0.000  0.000  0.000  0.001  0.045
    7  0.015  0.001  0.000  0.000  0.000  0.000  0.000  0.000  0.001  0.018
    8  0.029  0.003  0.000  0.005  0.000  0.000  0.000  0.000  0.000  0.037
    9  0.003  0.005  0.000  0.002  0.000  0.000  0.000  0.000  0.000  0.011
   10  0.004  0.026  0.000  0.002  0.000  0.000  0.000  0.000  0.000  0.032
   11  0.011  0.020  0.003  0.003  0.000  0.000  0.000  0.000  0.000  0.037
   12  0.001  0.025  0.006  0.006  0.000  0.000  0.000  0.000  0.000  0.038
   13  0.000  0.030  0.025  0.004  0.000  0.000  0.002  0.000  0.002  0.064
   14  0.004  0.001  0.000  0.000  0.000  0.000  0.000  0.000  0.000  0.005
   15  0.025  0.000  0.000  0.000  0.000  0.000  0.000  0.000  0.000  0.025
tot    0.227  0.123  0.037  0.055  0.004  0.001  0.003  0.001  0.005  0.454

band     9 # energy   -7.94112496 # occ.  2.00000000

ion      s     py     pz     px    dxy    dyz    dz2    dxz  x2-y2    tot
    1  0.005  0.000  0.000  0.006  0.000  0.000  0.000  0.000  0.001  0.012
    2  0.047  0.003  0.000  0.005  0.001  0.000  0.000  0.000  0.000  0.057
    3  0.010  0.000  0.001  0.002  0.000  0.000  0.000  0.000  0.001  0.015
    4  0.024  0.006  0.001  0.007  0.001  0.000  0.000  0.000  0.000  0.039
    5  0.052  0.004  0.000  0.002  0.001  0.000  0.000  0.000  0.000  0.059
    6  0.003  0.002  0.000  0.003  0.000  0.000  0.000  0.000  0.001  0.009
    7  0.037  0.004  0.000  0.007  0.000  0.000  0.000  0.000  0.000  0.049
    8  0.027  0.000  0.000  0.001  0.000  0.000  0.000  0.000  0.001  0.030
    9  0.001  0.049  0.000  0.002  0.000  0.000  0.000  0.000  0.000  0.053
   10  0.006  0.004  0.000  0.001  0.000  0.000  0.000  0.000  0.000  0.011
   11  0.012  0.003  0.001  0.002  0.000  0.000  0.000  0.000  0.000  0.018
   12  0.000  0.036  0.001  0.006  0.000  0.000  0.000  0.000  0.000  0.043
   13  0.003  0.013  0.002  0.005  0.000  0.000  0.000  0.000  0.001  0.024
   14  0.000  0.001  0.000  0.000  0.000  0.000  0.000  0.000  0.000  0.001
   15  0.007  0.000  0.000  0.000  0.000  0.000  0.000  0.000  0.000  0.007
tot    0.234  0.127  0.006  0.050  0.004  0.001  0.001  0.001  0.005  0.427

band    10 # energy   -7.52609196 # occ.  2.00000000

ion      s     py     pz     px    dxy    dyz    dz2    dxz  x2-y2    tot
    1  0.019  0.004  0.000  0.006  0.003  0.000  0.000  0.000  0.001  0.032
    2  0.017  0.002  0.000  0.004  0.002  0.000  0.000  0.000  0.001  0.026
    3  0.001  0.004  0.003  0.003  0.001  0.000  0.000  0.000  0.000  0.012
    4  0.003  0.002  0.002  0.004  0.001  0.000  0.000  0.001  0.000  0.012
    5  0.015  0.000  0.001  0.001  0.001  0.000  0.000  0.000  0.000  0.020
    6  0.013  0.001  0.001  0.002  0.001  0.000  0.000  0.000  0.000  0.018
    7  0.012  0.003  0.000  0.004  0.003  0.000  0.000  0.000  0.001  0.024
    8  0.026  0.001  0.000  0.006  0.002  0.000  0.000  0.000  0.001  0.036
    9  0.022  0.003  0.000  0.032  0.000  0.000  0.000  0.000  0.000  0.057
   10  0.007  0.005  0.000  0.039  0.000  0.000  0.000  0.000  0.000  0.051
   11  0.017  0.005  0.002  0.001  0.000  0.000  0.000  0.000  0.000  0.026
   12  0.002  0.000  0.018  0.030  0.000  0.000  0.000  0.000  0.000  0.050
   13  0.015  0.091  0.003  0.002  0.000  0.000  0.001  0.000  0.004  0.115
   14  0.011  0.000  0.000  0.001  0.000  0.000  0.000  0.000  0.000  0.012
   15  0.048  0.000  0.000  0.000  0.000  0.000  0.000  0.000  0.000  0.049
tot    0.227  0.121  0.031  0.135  0.013  0.001  0.002  0.001  0.009  0.540

band    11 # energy   -7.45735911 # occ.  2.00000000

ion      s     py     pz     px    dxy    dyz    dz2    dxz  x2-y2    tot
    1  0.040  0.003  0.000  0.004  0.002  0.000  0.000  0.000  0.002  0.051
    2  0.034  0.004  0.000  0.010  0.003  0.000  0.000  0.000  0.000  0.052
    3  0.003  0.007  0.000  0.002  0.001  0.000  0.000  0.000  0.000  0.013
    4  0.000  0.000  0.002  0.001  0.000  0.000  0.000  0.000  0.000  0.004
    5  0.002  0.004  0.000  0.000  0.001  0.000  0.000  0.000  0.000  0.007
    6  0.008  0.002  0.001  0.001  0.000  0.000  0.000  0.000  0.000  0.011
    7  0.036  0.003  0.000  0.013  0.002  0.000  0.000  0.000  0.001  0.056
    8  0.008  0.008  0.000  0.012  0.003  0.000  0.000  0.000  0.001  0.033
    9  0.009  0.005  0.000  0.046  0.000  0.000  0.000  0.000  0.000  0.060
   10  0.018  0.033  0.000  0.042  0.000  0.000  0.000  0.000  0.000  0.093
   11  0.005  0.004  0.001  0.001  0.000  0.000  0.000  0.000  0.000  0.010
   12  0.004  0.002  0.014  0.009  0.000  0.000  0.000  0.000  0.000  0.029
   13  0.009  0.045  0.000  0.003  0.000  0.000  0.000  0.000  0.002  0.059
   14  0.008  0.000  0.000  0.000  0.000  0.000  0.000  0.000  0.000  0.009
   15  0.023  0.000  0.000  0.000  0.000  0.000  0.000  0.000  0.000  0.023
tot    0.207  0.121  0.019  0.144  0.011  0.001  0.002  0.001  0.007  0.513

band    12 # energy   -7.18586363 # occ.  2.00000000

ion      s     py     pz     px    dxy    dyz    dz2    dxz  x2-y2    tot
    1  0.005  0.007  0.000  0.008  0.001  0.000  0.000  0.000  0.000  0.022
    2  0.001  0.004  0.000  0.004  0.001  0.000  0.000  0.000  0.001  0.010
    3  0.021  0.001  0.001  0.011  0.002  0.000  0.000  0.000  0.001  0.037
    4  0.003  0.003  0.001  0.008  0.002  0.000  0.000  0.000  0.001  0.019
    5  0.013  0.001  0.001  0.003  0.002  0.000  0.000  0.000  0.001  0.021
    6  0.017  0.005  0.001  0.008  0.003  0.000  0.000  0.000  0.000  0.034
    7  0.005  0.006  0.000  0.001  0.001  0.000  0.000  0.000  0.000  0.013
    8  0.021  0.003  0.000  0.003  0.001  0.000  0.000  0.000  0.000  0.027
    9  0.003  0.001  0.000  0.021  0.000  0.000  0.000  0.000  0.000  0.025
   10  0.003  0.011  0.000  0.022  0.000  0.000  0.000  0.000  0.000  0.036
   11  0.012  0.004  0.000  0.014  0.000  0.000  0.000  0.000  0.000  0.029
   12  0.012  0.016  0.030  0.061  0.000  0.000  0.000  0.000  0.000  0.119
   13  0.014  0.060  0.001  0.006  0.000  0.000  0.001  0.000  0.002  0.085
   14  0.017  0.000  0.000  0.001  0.000  0.000  0.000  0.000  0.000  0.019
   15  0.032  0.000  0.000  0.000  0.000  0.000  0.000  0.000  0.000  0.033
tot    0.180  0.121  0.035  0.170  0.012  0.001  0.002  0.001  0.007  0.529

band    13 # energy   -6.96892691 # occ.  2.00000000

ion      s     py     pz     px    dxy    dyz    dz2    dxz  x2-y2    tot
    1  0.015  0.003  0.000  0.007  0.000  0.000  0.000  0.000  0.000  0.026
    2  0.018  0.004  0.000  0.008  0.000  0.000  0.000  0.000  0.000  0.031
    3  0.007  0.006  0.001  0.006  0.000  0.000  0.000  0.000  0.000  0.021
    4  0.012  0.009  0.001  0.006  0.000  0.000  0.000  0.000  0.000  0.029
    5  0.004  0.008  0.001  0.009  0.000  0.000  0.000  0.000  0.000  0.024
    6  0.008  0.009  0.000  0.007  0.000  0.000  0.000  0.000  0.001  0.025
    7  0.018  0.004  0.000  0.009  0.000  0.000  0.000  0.000  0.000  0.032
    8  0.013  0.005  0.000  0.009  0.000  0.000  0.000  0.000  0.001  0.028
    9  0.000  0.032  0.000  0.009  0.000  0.000  0.000  0.000  0.000  0.041
   10  0.001  0.028  0.000  0.008  0.000  0.000  0.000  0.000  0.000  0.037
   11  0.001  0.018  0.000  0.016  0.000  0.000  0.000  0.000  0.000  0.035
   12  0.001  0.016  0.004  0.033  0.000  0.000  0.000  0.000  0.000  0.054
   13  0.011  0.050  0.005  0.003  0.000  0.000  0.001  0.000  0.002  0.072
   14  0.002  0.000  0.000  0.001  0.000  0.000  0.000  0.000  0.000  0.002
   15  0.027  0.000  0.000  0.000  0.000  0.000  0.000  0.000  0.000  0.028
tot    0.137  0.192  0.013  0.131  0.002  0.001  0.002  0.001  0.005  0.483

band    14 # energy   -5.89148073 # occ.  2.00000000

ion      s     py     pz     px    dxy    dyz    dz2    dxz  x2-y2    tot
    1  0.008  0.000  0.000  0.002  0.001  0.000  0.000  0.000  0.000  0.013
    2  0.006  0.001  0.000  0.002  0.001  0.000  0.000  0.000  0.000  0.010
    3  0.011  0.001  0.003  0.007  0.003  0.000  0.000  0.000  0.002  0.028
    4  0.014  0.002  0.001  0.011  0.004  0.000  0.000  0.000  0.001  0.033
    5  0.018  0.001  0.002  0.012  0.005  0.000  0.000  0.000  0.001  0.040
    6  0.014  0.000  0.003  0.009  0.005  0.000  0.000  0.000  0.002  0.033
    7  0.004  0.000  0.000  0.004  0.001  0.000  0.000  0.000  0.001  0.010
    8  0.005  0.000  0.000  0.003  0.001  0.000  0.000  0.000  0.001  0.011
    9  0.005  0.007  0.000  0.012  0.000  0.000  0.000  0.000  0.000  0.025
   10  0.005  0.006  0.000  0.013  0.000  0.000  0.000  0.000  0.000  0.025
   11  0.012  0.004  0.006  0.089  0.000  0.000  0.000  0.000  0.000  0.110
   12  0.030  0.005  0.029  0.042  0.000  0.000  0.000  0.000  0.000  0.106
   13  0.012  0.023  0.015  0.023  0.000  0.000  0.000  0.001  0.001  0.075
   14  0.010  0.000  0.000  0.001  0.000  0.000  0.000  0.000  0.000  0.010
   15  0.009  0.000  0.000  0.000  0.000  0.000  0.000  0.000  0.000  0.009
tot    0.163  0.050  0.060  0.231  0.021  0.002  0.001  0.001  0.009  0.539

band    15 # energy   -5.70850042 # occ.  2.00000000

ion      s     py     pz     px    dxy    dyz    dz2    dxz  x2-y2    tot
    1  0.020  0.004  0.000  0.017  0.008  0.000  0.000  0.000  0.002  0.051
    2  0.020  0.003  0.000  0.016  0.008  0.000  0.000  0.000  0.002  0.049
    3  0.001  0.002  0.000  0.004  0.001  0.000  0.000  0.000  0.000  0.009
    4  0.001  0.002  0.001  0.002  0.001  0.000  0.000  0.000  0.001  0.007
    5  0.001  0.002  0.001  0.002  0.001  0.000  0.000  0.000  0.000  0.008
    6  0.003  0.003  0.001  0.003  0.001  0.000  0.000  0.000  0.000  0.011
    7  0.021  0.004  0.000  0.017  0.008  0.000  0.000  0.000  0.002  0.052
    8  0.022  0.004  0.000  0.019  0.008  0.000  0.000  0.000  0.002  0.054
    9  0.025  0.000  0.000  0.112  0.000  0.000  0.000  0.000  0.000  0.138
   10  0.026  0.000  0.000  0.109  0.000  0.000  0.000  0.000  0.000  0.136
   11  0.001  0.003  0.002  0.025  0.000  0.000  0.000  0.000  0.000  0.032
   12  0.004  0.004  0.004  0.014  0.000  0.000  0.000  0.000  0.000  0.026
   13  0.001  0.002  0.000  0.001  0.000  0.000  0.000  0.000  0.000  0.005
   14  0.002  0.000  0.000  0.000  0.000  0.000  0.000  0.000  0.000  0.002
   15  0.002  0.000  0.000  0.000  0.000  0.000  0.000  0.000  0.000  0.002
tot    0.149  0.035  0.009  0.342  0.036  0.001  0.001  0.000  0.009  0.581

band    16 # energy   -5.21458673 # occ.  2.00000000

ion      s     py     pz     px    dxy    dyz    dz2    dxz  x2-y2    tot
    1  0.002  0.005  0.002  0.002  0.000  0.000  0.000  0.000  0.001  0.013
    2  0.003  0.006  0.003  0.006  0.001  0.000  0.000  0.000  0.001  0.019
    3  0.001  0.013  0.006  0.006  0.001  0.000  0.000  0.001  0.000  0.029
    4  0.000  0.012  0.004  0.003  0.000  0.000  0.000  0.001  0.001  0.022
    5  0.003  0.009  0.001  0.006  0.001  0.000  0.000  0.000  0.001  0.021
    6  0.007  0.010  0.000  0.010  0.001  0.000  0.000  0.000  0.001  0.030
    7  0.003  0.008  0.000  0.005  0.001  0.000  0.000  0.000  0.001  0.018
    8  0.002  0.007  0.000  0.001  0.000  0.000  0.000  0.000  0.001  0.012
    9  0.000  0.033  0.003  0.008  0.000  0.000  0.000  0.000  0.000  0.045
   10  0.000  0.003  0.001  0.014  0.000  0.000  0.000  0.000  0.000  0.018
   11  0.002  0.026  0.002  0.025  0.000  0.000  0.000  0.000  0.000  0.055
   12  0.001  0.002  0.003  0.033  0.000  0.000  0.000  0.000  0.000  0.038
   13  0.007  0.012  0.145  0.001  0.000  0.000  0.001  0.000  0.000  0.166
   14  0.002  0.000  0.000  0.001  0.000  0.000  0.000  0.000  0.000  0.002
   15  0.001  0.000  0.000  0.000  0.000  0.000  0.000  0.000  0.000  0.002
tot    0.034  0.146  0.171  0.121  0.005  0.001  0.002  0.003  0.007  0.491

band    17 # energy   -4.94405290 # occ.  2.00000000

ion      s     py     pz     px    dxy    dyz    dz2    dxz  x2-y2    tot
    1  0.003  0.007  0.001  0.006  0.000  0.000  0.000  0.000  0.001  0.018
    2  0.003  0.006  0.001  0.002  0.000  0.000  0.000  0.000  0.001  0.013
    3  0.002  0.013  0.005  0.001  0.000  0.000  0.001  0.001  0.000  0.024
    4  0.003  0.008  0.011  0.001  0.000  0.000  0.001  0.000  0.000  0.024
    5  0.004  0.010  0.001  0.006  0.000  0.000  0.000  0.000  0.001  0.022
    6  0.002  0.012  0.000  0.008  0.000  0.000  0.000  0.000  0.000  0.023
    7  0.001  0.008  0.000  0.001  0.000  0.000  0.000  0.000  0.001  0.012
    8  0.002  0.009  0.000  0.005  0.001  0.000  0.000  0.000  0.001  0.017
    9  0.000  0.002  0.000  0.010  0.000  0.000  0.000  0.000  0.000  0.012
   10  0.001  0.032  0.001  0.001  0.000  0.000  0.000  0.000  0.000  0.035
   11  0.000  0.009  0.007  0.023  0.000  0.000  0.000  0.000  0.000  0.039
   12  0.003  0.021  0.001  0.001  0.000  0.000  0.000  0.000  0.000  0.026
   13  0.002  0.005  0.033  0.155  0.000  0.000  0.000  0.001  0.000  0.197
   14  0.001  0.000  0.000  0.000  0.000  0.000  0.000  0.000  0.000  0.002
   15  0.001  0.000  0.000  0.000  0.000  0.000  0.000  0.000  0.000  0.002
tot    0.028  0.141  0.063  0.220  0.002  0.000  0.002  0.003  0.005  0.465

band    18 # energy   -4.56293076 # occ.  2.00000000

ion      s     py     pz     px    dxy    dyz    dz2    dxz  x2-y2    tot
    1  0.002  0.009  0.006  0.001  0.000  0.001  0.000  0.000  0.000  0.019
    2  0.003  0.012  0.008  0.003  0.000  0.000  0.000  0.000  0.000  0.028
    3  0.005  0.002  0.005  0.003  0.001  0.000  0.000  0.001  0.001  0.016
    4  0.004  0.009  0.007  0.002  0.001  0.000  0.000  0.001  0.001  0.024
    5  0.001  0.006  0.003  0.005  0.001  0.000  0.000  0.000  0.001  0.018
    6  0.003  0.003  0.002  0.001  0.000  0.000  0.000  0.001  0.002  0.011
    7  0.002  0.009  0.007  0.003  0.000  0.001  0.000  0.001  0.000  0.023
    8  0.003  0.007  0.007  0.001  0.000  0.001  0.000  0.000  0.000  0.019
    9  0.002  0.011  0.028  0.002  0.000  0.000  0.000  0.000  0.000  0.043
   10  0.000  0.000  0.031  0.008  0.000  0.000  0.000  0.000  0.000  0.040
   11  0.001  0.023  0.032  0.006  0.000  0.000  0.000  0.000  0.000  0.062
   12  0.001  0.005  0.006  0.001  0.000  0.000  0.000  0.000  0.000  0.013
   13  0.002  0.004  0.021  0.036  0.000  0.001  0.000  0.000  0.000  0.064
   14  0.003  0.000  0.000  0.000  0.000  0.000  0.000  0.000  0.000  0.003
   15  0.003  0.000  0.000  0.000  0.000  0.000  0.000  0.000  0.000  0.003
tot    0.035  0.102  0.162  0.070  0.004  0.004  0.001  0.004  0.006  0.387

band    19 # energy   -4.44439789 # occ.  2.00000000

ion      s     py     pz     px    dxy    dyz    dz2    dxz  x2-y2    tot
    1  0.001  0.002  0.012  0.000  0.000  0.001  0.000  0.001  0.000  0.018
    2  0.001  0.005  0.009  0.000  0.000  0.002  0.000  0.001  0.000  0.018
    3  0.002  0.001  0.004  0.001  0.000  0.000  0.000  0.000  0.001  0.009
    4  0.002  0.005  0.002  0.004  0.001  0.000  0.000  0.001  0.000  0.015
    5  0.000  0.003  0.004  0.003  0.001  0.000  0.000  0.001  0.000  0.012
    6  0.002  0.000  0.006  0.000  0.000  0.000  0.000  0.001  0.001  0.009
    7  0.001  0.002  0.016  0.002  0.000  0.001  0.000  0.001  0.000  0.022
    8  0.001  0.001  0.015  0.001  0.000  0.001  0.000  0.001  0.000  0.020
    9  0.001  0.005  0.053  0.000  0.000  0.000  0.000  0.000  0.000  0.059
   10  0.000  0.001  0.059  0.002  0.000  0.000  0.000  0.000  0.000  0.062
   11  0.000  0.011  0.039  0.006  0.000  0.000  0.000  0.000  0.000  0.056
   12  0.000  0.001  0.002  0.003  0.000  0.000  0.000  0.000  0.000  0.005
   13  0.003  0.010  0.025  0.005  0.000  0.001  0.000  0.000  0.001  0.044
   14  0.001  0.000  0.000  0.000  0.000  0.000  0.000  0.000  0.000  0.001
   15  0.006  0.000  0.000  0.000  0.000  0.000  0.000  0.000  0.000  0.006
tot    0.020  0.047  0.245  0.027  0.003  0.006  0.000  0.006  0.003  0.357

band    20 # energy   -4.20936738 # occ.  2.00000000

ion      s     py     pz     px    dxy    dyz    dz2    dxz  x2-y2    tot
    1  0.005  0.016  0.000  0.003  0.000  0.000  0.000  0.000  0.000  0.024
    2  0.006  0.008  0.002  0.001  0.000  0.000  0.000  0.000  0.000  0.017
    3  0.001  0.008  0.007  0.004  0.000  0.000  0.001  0.000  0.001  0.023
    4  0.001  0.002  0.002  0.006  0.001  0.000  0.001  0.000  0.001  0.015
    5  0.003  0.009  0.000  0.004  0.001  0.000  0.000  0.001  0.002  0.020
    6  0.005  0.012  0.003  0.004  0.001  0.000  0.000  0.000  0.002  0.027
    7  0.007  0.015  0.001  0.000  0.000  0.000  0.000  0.000  0.000  0.023
    8  0.005  0.020  0.002  0.001  0.000  0.000  0.000  0.000  0.000  0.028
    9  0.000  0.004  0.008  0.010  0.000  0.000  0.000  0.000  0.000  0.023
   10  0.005  0.001  0.002  0.001  0.000  0.000  0.000  0.000  0.000  0.009
   11  0.001  0.004  0.004  0.000  0.000  0.000  0.000  0.000  0.000  0.009
   12  0.000  0.067  0.011  0.000  0.000  0.000  0.000  0.000  0.000  0.079
   13  0.000  0.000  0.000  0.149  0.000  0.000  0.000  0.000  0.000  0.150
   14  0.003  0.001  0.000  0.000  0.000  0.000  0.000  0.000  0.000  0.004
   15  0.000  0.000  0.000  0.000  0.000  0.000  0.000  0.000  0.000  0.001
tot    0.042  0.167  0.042  0.184  0.004  0.001  0.002  0.002  0.007  0.451

band    21 # energy   -3.84155700 # occ.  2.00000000

ion      s     py     pz     px    dxy    dyz    dz2    dxz  x2-y2    tot
    1  0.002  0.003  0.005  0.004  0.000  0.001  0.000  0.001  0.001  0.018
    2  0.001  0.001  0.007  0.004  0.000  0.000  0.000  0.001  0.001  0.015
    3  0.001  0.005  0.000  0.004  0.001  0.000  0.001  0.000  0.001  0.014
    4  0.002  0.001  0.001  0.004  0.001  0.000  0.000  0.000  0.001  0.010
    5  0.005  0.012  0.005  0.001  0.000  0.000  0.000  0.001  0.002  0.025
    6  0.001  0.011  0.005  0.002  0.001  0.000  0.000  0.001  0.001  0.022
    7  0.001  0.012  0.009  0.000  0.000  0.000  0.000  0.001  0.002  0.027
    8  0.002  0.011  0.007  0.003  0.001  0.001  0.000  0.002  0.001  0.026
    9  0.002  0.028  0.020  0.000  0.000  0.000  0.000  0.000  0.000  0.051
   10  0.000  0.001  0.058  0.004  0.000  0.000  0.000  0.000  0.000  0.063
   11  0.001  0.039  0.042  0.001  0.000  0.000  0.000  0.000  0.000  0.082
   12  0.000  0.001  0.000  0.003  0.000  0.000  0.000  0.000  0.000  0.005
   13  0.000  0.001  0.022  0.006  0.000  0.001  0.000  0.000  0.001  0.030
   14  0.000  0.000  0.000  0.000  0.000  0.000  0.000  0.000  0.000  0.000
   15  0.002  0.000  0.000  0.000  0.000  0.000  0.000  0.000  0.000  0.003
tot    0.022  0.125  0.182  0.036  0.004  0.004  0.002  0.008  0.009  0.391

band    22 # energy   -3.67118355 # occ.  2.00000000

ion      s     py     pz     px    dxy    dyz    dz2    dxz  x2-y2    tot
    1  0.002  0.004  0.010  0.001  0.000  0.001  0.000  0.002  0.001  0.021
    2  0.001  0.003  0.008  0.002  0.000  0.001  0.000  0.002  0.000  0.019
    3  0.000  0.003  0.000  0.003  0.001  0.000  0.000  0.000  0.001  0.009
    4  0.002  0.002  0.001  0.002  0.001  0.000  0.000  0.000  0.000  0.008
    5  0.004  0.006  0.003  0.002  0.000  0.000  0.000  0.000  0.001  0.016
    6  0.000  0.005  0.001  0.003  0.001  0.000  0.000  0.000  0.001  0.011
    7  0.001  0.009  0.011  0.001  0.000  0.001  0.000  0.003  0.001  0.027
    8  0.003  0.006  0.012  0.001  0.000  0.001  0.000  0.002  0.000  0.026
    9  0.001  0.016  0.090  0.000  0.000  0.000  0.000  0.000  0.000  0.108
   10  0.000  0.001  0.051  0.002  0.000  0.000  0.000  0.000  0.000  0.054
   11  0.000  0.033  0.019  0.000  0.000  0.000  0.000  0.000  0.000  0.052
   12  0.000  0.000  0.001  0.000  0.000  0.000  0.000  0.000  0.000  0.001
   13  0.000  0.001  0.011  0.002  0.000  0.000  0.000  0.000  0.000  0.015
   14  0.000  0.000  0.000  0.000  0.000  0.000  0.000  0.000  0.000  0.000
   15  0.001  0.000  0.000  0.000  0.000  0.000  0.000  0.000  0.000  0.001
tot    0.015  0.089  0.218  0.020  0.003  0.006  0.001  0.010  0.006  0.368

band    23 # energy   -3.41668006 # occ.  2.00000000

ion      s     py     pz     px    dxy    dyz    dz2    dxz  x2-y2    tot
    1  0.002  0.015  0.000  0.006  0.001  0.000  0.000  0.000  0.003  0.028
    2  0.007  0.022  0.000  0.006  0.001  0.000  0.000  0.000  0.004  0.041
    3  0.011  0.012  0.004  0.003  0.001  0.000  0.000  0.000  0.001  0.033
    4  0.006  0.020  0.004  0.001  0.000  0.000  0.000  0.000  0.002  0.034
    5  0.004  0.012  0.001  0.001  0.000  0.000  0.000  0.000  0.001  0.019
    6  0.008  0.013  0.001  0.001  0.000  0.000  0.000  0.000  0.001  0.025
    7  0.002  0.008  0.000  0.009  0.001  0.000  0.000  0.000  0.003  0.023
    8  0.000  0.010  0.000  0.007  0.001  0.000  0.000  0.000  0.004  0.022
    9  0.000  0.000  0.000  0.001  0.000  0.000  0.000  0.000  0.000  0.002
   10  0.001  0.103  0.000  0.000  0.000  0.000  0.000  0.000  0.000  0.104
   11  0.000  0.002  0.001  0.003  0.000  0.000  0.000  0.000  0.000  0.005
   12  0.004  0.037  0.007  0.000  0.000  0.000  0.000  0.000  0.000  0.048
   13  0.000  0.000  0.001  0.072  0.000  0.000  0.000  0.000  0.000  0.073
   14  0.003  0.001  0.000  0.000  0.000  0.000  0.000  0.000  0.000  0.004
   15  0.000  0.000  0.000  0.000  0.000  0.000  0.000  0.000  0.000  0.000
tot    0.049  0.255  0.021  0.110  0.006  0.001  0.001  0.001  0.019  0.461

band    24 # energy   -2.90419264 # occ.  2.00000000

ion      s     py     pz     px    dxy    dyz    dz2    dxz  x2-y2    tot
    1  0.009  0.020  0.001  0.002  0.001  0.000  0.000  0.000  0.002  0.035
    2  0.006  0.017  0.001  0.002  0.001  0.000  0.000  0.000  0.002  0.029
    3  0.004  0.011  0.002  0.000  0.000  0.002  0.001  0.000  0.001  0.021
    4  0.007  0.009  0.002  0.002  0.000  0.002  0.001  0.000  0.001  0.024
    5  0.003  0.005  0.009  0.004  0.000  0.000  0.000  0.001  0.001  0.024
    6  0.001  0.005  0.008  0.003  0.000  0.000  0.000  0.002  0.001  0.021
    7  0.000  0.002  0.000  0.005  0.000  0.000  0.000  0.000  0.002  0.010
    8  0.001  0.002  0.000  0.005  0.000  0.000  0.000  0.000  0.002  0.011
    9  0.002  0.052  0.003  0.000  0.000  0.000  0.000  0.000  0.000  0.057
   10  0.000  0.001  0.000  0.001  0.000  0.000  0.000  0.000  0.000  0.002
   11  0.002  0.012  0.060  0.000  0.000  0.000  0.000  0.000  0.000  0.074
   12  0.000  0.001  0.000  0.007  0.000  0.000  0.000  0.000  0.000  0.008
   13  0.002  0.003  0.136  0.001  0.000  0.000  0.000  0.000  0.000  0.143
   14  0.000  0.000  0.000  0.000  0.000  0.000  0.000  0.000  0.000  0.000
   15  0.000  0.000  0.000  0.000  0.000  0.000  0.000  0.000  0.000  0.001
tot    0.037  0.138  0.225  0.033  0.003  0.004  0.003  0.004  0.012  0.459

band    25 # energy   -0.48603965 # occ.  0.00000000

ion      s     py     pz     px    dxy    dyz    dz2    dxz  x2-y2    tot
    1  0.000  0.001  0.009  0.000  0.000  0.000  0.000  0.000  0.000  0.011
    2  0.000  0.001  0.011  0.000  0.000  0.000  0.000  0.001  0.000  0.012
    3  0.002  0.000  0.001  0.000  0.000  0.001  0.000  0.000  0.000  0.006
    4  0.003  0.000  0.004  0.000  0.000  0.000  0.001  0.000  0.000  0.009
    5  0.000  0.001  0.038  0.001  0.000  0.001  0.000  0.001  0.000  0.042
    6  0.000  0.001  0.034  0.000  0.000  0.001  0.000  0.001  0.000  0.038
    7  0.001  0.000  0.014  0.000  0.000  0.003  0.000  0.000  0.000  0.018
    8  0.001  0.000  0.014  0.000  0.000  0.003  0.000  0.000  0.000  0.018
    9  0.000  0.000  0.001  0.000  0.000  0.000  0.000  0.000  0.000  0.001
   10  0.000  0.000  0.005  0.000  0.000  0.000  0.000  0.000  0.000  0.006
   11  0.000  0.000  0.009  0.000  0.000  0.000  0.000  0.000  0.000  0.010
   12  0.000  0.000  0.008  0.000  0.000  0.000  0.000  0.000  0.000  0.008
   13  0.000  0.000  0.002  0.009  0.000  0.000  0.000  0.001  0.000  0.013
   14  0.014  0.000  0.000  0.000  0.000  0.000  0.000  0.000  0.000  0.014
   15  0.001  0.000  0.000  0.000  0.000  0.000  0.000  0.000  0.000  0.001
tot    0.023  0.006  0.150  0.012  0.000  0.008  0.002  0.004  0.001  0.207

band    26 # energy    0.21135816 # occ.  0.00000000

ion      s     py     pz     px    dxy    dyz    dz2    dxz  x2-y2    tot
    1  0.000  0.000  0.014  0.000  0.000  0.001  0.000  0.001  0.000  0.017
    2  0.001  0.000  0.005  0.001  0.000  0.000  0.000  0.001  0.000  0.007
    3  0.005  0.001  0.007  0.000  0.000  0.000  0.001  0.001  0.000  0.015
    4  0.002  0.000  0.002  0.000  0.000  0.000  0.000  0.000  0.000  0.006
    5  0.000  0.000  0.013  0.000  0.000  0.004  0.000  0.000  0.000  0.018
    6  0.001  0.001  0.034  0.000  0.000  0.004  0.000  0.000  0.000  0.040
    7  0.002  0.001  0.019  0.000  0.000  0.002  0.000  0.000  0.000  0.023
    8  0.001  0.000  0.016  0.000  0.000  0.004  0.000  0.000  0.000  0.021
    9  0.000  0.001  0.010  0.000  0.000  0.000  0.000  0.000  0.000  0.011
   10  0.000  0.000  0.003  0.000  0.000  0.000  0.000  0.000  0.000  0.003
   11  0.001  0.002  0.029  0.000  0.000  0.000  0.000  0.000  0.000  0.033
   12  0.000  0.001  0.001  0.000  0.000  0.000  0.000  0.000  0.000  0.002
   13  0.001  0.000  0.013  0.005  0.000  0.001  0.001  0.001  0.000  0.022
   14  0.004  0.000  0.000  0.000  0.000  0.000  0.000  0.000  0.000  0.004
   15  0.001  0.000  0.000  0.000  0.000  0.000  0.000  0.000  0.000  0.001
tot    0.018  0.007  0.167  0.007  0.001  0.016  0.003  0.004  0.001  0.223

band    27 # energy    0.60461456 # occ.  0.00000000

ion      s     py     pz     px    dxy    dyz    dz2    dxz  x2-y2    tot
    1  0.001  0.000  0.006  0.001  0.000  0.003  0.000  0.000  0.000  0.011
    2  0.001  0.001  0.019  0.000  0.000  0.003  0.000  0.000  0.000  0.024
    3  0.004  0.002  0.021  0.000  0.001  0.001  0.001  0.001  0.000  0.029
    4  0.000  0.003  0.012  0.000  0.000  0.002  0.000  0.002  0.000  0.020
    5  0.001  0.002  0.022  0.001  0.000  0.001  0.000  0.000  0.001  0.028
    6  0.003  0.000  0.002  0.002  0.000  0.000  0.000  0.000  0.001  0.010
    7  0.002  0.001  0.001  0.001  0.000  0.003  0.000  0.001  0.000  0.009
    8  0.005  0.002  0.009  0.001  0.000  0.000  0.000  0.000  0.000  0.016
    9  0.000  0.000  0.004  0.001  0.000  0.000  0.000  0.000  0.000  0.005
   10  0.000  0.003  0.025  0.000  0.000  0.000  0.000  0.000  0.000  0.028
   11  0.002  0.001  0.007  0.001  0.000  0.000  0.000  0.000  0.000  0.011
   12  0.000  0.001  0.002  0.000  0.000  0.000  0.000  0.000  0.000  0.004
   13  0.000  0.000  0.004  0.032  0.001  0.001  0.000  0.005  0.001  0.045
   14  0.002  0.000  0.000  0.000  0.000  0.000  0.000  0.000  0.000  0.002
   15  0.002  0.000  0.000  0.000  0.000  0.000  0.000  0.000  0.000  0.002
tot    0.022  0.015  0.135  0.039  0.002  0.015  0.002  0.010  0.003  0.244

band    28 # energy    0.96935072 # occ.  0.00000000

ion      s     py     pz     px    dxy    dyz    dz2    dxz  x2-y2    tot
    1  0.003  0.002  0.011  0.002  0.001  0.001  0.000  0.000  0.000  0.022
    2  0.000  0.001  0.010  0.001  0.001  0.003  0.000  0.000  0.000  0.016
    3  0.024  0.002  0.004  0.004  0.000  0.001  0.000  0.000  0.000  0.035
    4  0.025  0.003  0.014  0.002  0.000  0.001  0.001  0.000  0.000  0.047
    5  0.012  0.001  0.002  0.003  0.000  0.000  0.001  0.000  0.000  0.020
    6  0.010  0.001  0.001  0.004  0.000  0.001  0.002  0.000  0.000  0.018
    7  0.001  0.001  0.001  0.002  0.001  0.000  0.000  0.000  0.001  0.008
    8  0.003  0.002  0.001  0.003  0.001  0.001  0.000  0.000  0.000  0.011
    9  0.011  0.001  0.009  0.000  0.000  0.000  0.000  0.000  0.000  0.021
   10  0.001  0.001  0.002  0.000  0.000  0.000  0.000  0.000  0.000  0.004
   11  0.004  0.002  0.002  0.000  0.000  0.000  0.000  0.000  0.000  0.007
   12  0.001  0.000  0.000  0.001  0.000  0.000  0.000  0.000  0.000  0.002
   13  0.000  0.021  0.028  0.008  0.000  0.002  0.005  0.005  0.013  0.083
   14  0.001  0.000  0.000  0.000  0.000  0.000  0.000  0.000  0.000  0.001
   15  0.020  0.000  0.000  0.000  0.000  0.000  0.000  0.000  0.000  0.020
tot    0.117  0.036  0.085  0.031  0.006  0.010  0.010  0.006  0.016  0.317

band    29 # energy    1.14442072 # occ.  0.00000000

ion      s     py     pz     px    dxy    dyz    dz2    dxz  x2-y2    tot
    1  0.009  0.000  0.001  0.007  0.002  0.000  0.001  0.000  0.001  0.022
    2  0.006  0.001  0.001  0.008  0.002  0.000  0.000  0.000  0.000  0.019
    3  0.009  0.002  0.000  0.011  0.003  0.000  0.000  0.000  0.001  0.027
    4  0.008  0.000  0.002  0.014  0.003  0.000  0.001  0.000  0.001  0.029
    5  0.021  0.000  0.000  0.001  0.000  0.002  0.001  0.000  0.001  0.026
    6  0.010  0.001  0.002  0.000  0.001  0.001  0.001  0.000  0.000  0.017
    7  0.018  0.004  0.007  0.000  0.000  0.000  0.002  0.000  0.000  0.032
    8  0.017  0.001  0.003  0.001  0.000  0.000  0.000  0.000  0.000  0.024
    9  0.001  0.001  0.000  0.000  0.000  0.000  0.000  0.000  0.000  0.002
   10  0.006  0.001  0.004  0.001  0.000  0.000  0.000  0.000  0.000  0.012
   11  0.001  0.001  0.001  0.000  0.000  0.000  0.000  0.000  0.000  0.004
   12  0.013  0.003  0.001  0.002  0.000  0.000  0.000  0.000  0.000  0.019
   13  0.009  0.029  0.007  0.002  0.000  0.002  0.009  0.003  0.005  0.065
   14  0.001  0.000  0.001  0.000  0.000  0.000  0.000  0.000  0.000  0.002
   15  0.019  0.001  0.000  0.000  0.000  0.000  0.000  0.000  0.000  0.020
tot    0.147  0.045  0.031  0.048  0.012  0.007  0.015  0.004  0.009  0.319

band    30 # energy    1.42443595 # occ.  0.00000000

ion      s     py     pz     px    dxy    dyz    dz2    dxz  x2-y2    tot
    1  0.014  0.000  0.003  0.001  0.001  0.000  0.001  0.000  0.001  0.020
    2  0.021  0.003  0.001  0.000  0.001  0.000  0.002  0.000  0.000  0.030
    3  0.020  0.001  0.002  0.001  0.001  0.001  0.002  0.000  0.000  0.029
    4  0.021  0.000  0.003  0.000  0.000  0.000  0.002  0.000  0.001  0.029
    5  0.013  0.000  0.002  0.017  0.005  0.001  0.000  0.000  0.001  0.038
    6  0.011  0.002  0.000  0.014  0.005  0.001  0.000  0.000  0.001  0.035
    7  0.007  0.001  0.001  0.011  0.005  0.000  0.000  0.000  0.001  0.026
    8  0.011  0.000  0.001  0.010  0.005  0.000  0.000  0.000  0.001  0.029
    9  0.002  0.002  0.002  0.001  0.000  0.000  0.000  0.000  0.000  0.007
   10  0.010  0.001  0.004  0.001  0.000  0.000  0.000  0.000  0.000  0.016
   11  0.003  0.001  0.004  0.001  0.000  0.000  0.000  0.000  0.000  0.009
   12  0.015  0.000  0.000  0.001  0.000  0.000  0.000  0.000  0.000  0.017
   13  0.002  0.006  0.001  0.002  0.002  0.001  0.001  0.001  0.001  0.019
   14  0.002  0.000  0.001  0.000  0.000  0.000  0.000  0.000  0.000  0.002
   15  0.005  0.000  0.000  0.000  0.000  0.000  0.000  0.000  0.000  0.006
tot    0.157  0.019  0.025  0.061  0.025  0.004  0.009  0.002  0.008  0.311

band    31 # energy    1.56321013 # occ.  0.00000000

ion      s     py     pz     px    dxy    dyz    dz2    dxz  x2-y2    tot
    1  0.003  0.001  0.020  0.004  0.001  0.002  0.001  0.000  0.000  0.032
    2  0.001  0.000  0.008  0.002  0.001  0.001  0.001  0.000  0.001  0.014
    3  0.001  0.002  0.003  0.004  0.000  0.001  0.001  0.000  0.000  0.012
    4  0.001  0.000  0.008  0.003  0.001  0.000  0.001  0.000  0.000  0.014
    5  0.001  0.000  0.006  0.001  0.000  0.000  0.001  0.000  0.001  0.010
    6  0.015  0.001  0.004  0.002  0.000  0.000  0.001  0.000  0.000  0.022
    7  0.004  0.001  0.001  0.000  0.001  0.000  0.000  0.000  0.000  0.008
    8  0.006  0.001  0.001  0.000  0.000  0.000  0.002  0.001  0.000  0.012
    9  0.005  0.000  0.025  0.001  0.000  0.000  0.000  0.000  0.000  0.031
   10  0.002  0.001  0.002  0.001  0.000  0.000  0.000  0.000  0.000  0.005
   11  0.001  0.001  0.006  0.000  0.000  0.000  0.000  0.000  0.000  0.008
   12  0.004  0.000  0.000  0.000  0.000  0.000  0.000  0.000  0.000  0.005
   13  0.022  0.056  0.004  0.001  0.000  0.001  0.000  0.000  0.005  0.090
   14  0.000  0.000  0.000  0.000  0.000  0.000  0.000  0.000  0.000  0.001
   15  0.008  0.003  0.000  0.000  0.000  0.000  0.000  0.000  0.000  0.010
tot    0.073  0.067  0.088  0.018  0.004  0.006  0.008  0.003  0.008  0.274

band    32 # energy    1.78473117 # occ.  0.00000000

ion      s     py     pz     px    dxy    dyz    dz2    dxz  x2-y2    tot
    1  0.002  0.001  0.000  0.004  0.000  0.000  0.000  0.000  0.001  0.010
    2  0.013  0.001  0.000  0.007  0.001  0.001  0.002  0.000  0.002  0.028
    3  0.008  0.001  0.001  0.008  0.001  0.000  0.001  0.000  0.002  0.022
    4  0.019  0.004  0.001  0.010  0.001  0.000  0.000  0.000  0.001  0.036
    5  0.016  0.004  0.003  0.003  0.000  0.001  0.002  0.000  0.001  0.030
    6  0.022  0.002  0.001  0.003  0.002  0.000  0.002  0.000  0.001  0.033
    7  0.023  0.005  0.002  0.003  0.002  0.000  0.003  0.000  0.001  0.040
    8  0.008  0.006  0.004  0.002  0.000  0.001  0.002  0.000  0.001  0.023
    9  0.011  0.003  0.001  0.002  0.000  0.000  0.000  0.000  0.000  0.017
   10  0.008  0.004  0.007  0.001  0.000  0.000  0.000  0.000  0.000  0.020
   11  0.015  0.002  0.002  0.001  0.000  0.000  0.000  0.000  0.000  0.020
   12  0.004  0.015  0.001  0.001  0.000  0.000  0.000  0.000  0.000  0.020
   13  0.013  0.009  0.005  0.002  0.000  0.002  0.003  0.002  0.003  0.038
   14  0.000  0.000  0.000  0.000  0.000  0.000  0.000  0.000  0.000  0.001
   15  0.012  0.000  0.000  0.000  0.000  0.000  0.000  0.000  0.000  0.012
tot    0.175  0.057  0.029  0.046  0.008  0.005  0.017  0.003  0.012  0.350


 k-point     7 :   -0.40000000 0.33333333 0.00000000     weight = 0.13333333

band     1 # energy  -16.05960534 # occ.  2.00000000

ion      s     py     pz     px    dxy    dyz    dz2    dxz  x2-y2    tot
    1  0.000  0.000  0.000  0.000  0.000  0.000  0.000  0.000  0.000  0.000
    2  0.000  0.000  0.000  0.000  0.000  0.000  0.000  0.000  0.000  0.000
    3  0.015  0.004  0.000  0.003  0.001  0.000  0.001  0.000  0.000  0.023
    4  0.015  0.004  0.000  0.003  0.001  0.000  0.001  0.000  0.000  0.023
    5  0.016  0.003  0.001  0.003  0.001  0.000  0.000  0.000  0.000  0.026
    6  0.016  0.003  0.001  0.003  0.001  0.000  0.000  0.000  0.000  0.026
    7  0.000  0.000  0.000  0.000  0.000  0.000  0.000  0.000  0.000  0.000
    8  0.000  0.000  0.000  0.000  0.000  0.000  0.000  0.000  0.000  0.000
    9  0.000  0.000  0.000  0.000  0.000  0.000  0.000  0.000  0.000  0.000
   10  0.000  0.000  0.000  0.000  0.000  0.000  0.000  0.000  0.000  0.000
   11  0.014  0.000  0.000  0.002  0.000  0.000  0.000  0.000  0.000  0.017
   12  0.327  0.001  0.007  0.000  0.000  0.000  0.000  0.000  0.000  0.335
   13  0.006  0.000  0.000  0.000  0.000  0.000  0.000  0.000  0.000  0.007
   14  0.098  0.000  0.008  0.000  0.000  0.000  0.000  0.000  0.000  0.106
   15  0.000  0.000  0.000  0.000  0.000  0.000  0.000  0.000  0.000  0.000
tot    0.509  0.016  0.017  0.014  0.003  0.001  0.002  0.001  0.000  0.562

band     2 # energy  -15.10235210 # occ.  2.00000000

ion      s     py     pz     px    dxy    dyz    dz2    dxz  x2-y2    tot
    1  0.001  0.000  0.000  0.000  0.000  0.000  0.000  0.000  0.000  0.001
    2  0.001  0.000  0.000  0.000  0.000  0.000  0.000  0.000  0.000  0.001
    3  0.020  0.002  0.000  0.005  0.001  0.000  0.000  0.000  0.000  0.027
    4  0.019  0.002  0.000  0.005  0.001  0.000  0.000  0.000  0.000  0.027
    5  0.011  0.003  0.000  0.004  0.001  0.000  0.000  0.000  0.000  0.020
    6  0.012  0.003  0.000  0.004  0.001  0.000  0.000  0.000  0.000  0.020
    7  0.000  0.000  0.000  0.000  0.000  0.000  0.000  0.000  0.000  0.001
    8  0.001  0.000  0.000  0.000  0.000  0.000  0.000  0.000  0.000  0.001
    9  0.004  0.000  0.000  0.000  0.000  0.000  0.000  0.000  0.000  0.004
   10  0.001  0.000  0.000  0.000  0.000  0.000  0.000  0.000  0.000  0.001
   11  0.145  0.000  0.001  0.000  0.000  0.000  0.000  0.000  0.000  0.147
   12  0.020  0.000  0.001  0.003  0.000  0.000  0.000  0.000  0.000  0.023
   13  0.329  0.002  0.002  0.000  0.000  0.000  0.000  0.000  0.001  0.334
   14  0.007  0.000  0.001  0.000  0.000  0.000  0.000  0.000  0.000  0.008
   15  0.020  0.001  0.000  0.000  0.000  0.000  0.000  0.000  0.000  0.022
tot    0.591  0.014  0.005  0.020  0.004  0.001  0.001  0.000  0.001  0.636

band     3 # energy  -14.75829901 # occ.  2.00000000

ion      s     py     pz     px    dxy    dyz    dz2    dxz  x2-y2    tot
    1  0.030  0.008  0.000  0.004  0.001  0.000  0.001  0.000  0.000  0.044
    2  0.030  0.008  0.000  0.004  0.001  0.000  0.001  0.000  0.000  0.045
    3  0.000  0.000  0.000  0.000  0.000  0.000  0.000  0.000  0.000  0.001
    4  0.000  0.000  0.000  0.000  0.000  0.000  0.000  0.000  0.000  0.001
    5  0.001  0.000  0.000  0.000  0.000  0.000  0.000  0.000  0.000  0.001
    6  0.001  0.000  0.000  0.000  0.000  0.000  0.000  0.000  0.000  0.001
    7  0.034  0.008  0.000  0.004  0.001  0.000  0.002  0.000  0.000  0.048
    8  0.033  0.008  0.000  0.004  0.001  0.000  0.002  0.000  0.000  0.048
    9  0.158  0.000  0.000  0.002  0.000  0.000  0.000  0.000  0.000  0.161
   10  0.172  0.000  0.000  0.002  0.000  0.000  0.000  0.000  0.000  0.174
   11  0.006  0.000  0.000  0.000  0.000  0.000  0.000  0.000  0.000  0.006
   12  0.000  0.000  0.000  0.000  0.000  0.000  0.000  0.000  0.000  0.000
   13  0.003  0.000  0.000  0.000  0.000  0.000  0.000  0.000  0.000  0.004
   14  0.000  0.000  0.000  0.000  0.000  0.000  0.000  0.000  0.000  0.000
   15  0.000  0.000  0.000  0.000  0.000  0.000  0.000  0.000  0.000  0.000
tot    0.470  0.032  0.000  0.021  0.004  0.000  0.006  0.000  0.000  0.534

band     4 # energy  -14.35899968 # occ.  2.00000000

ion      s     py     pz     px    dxy    dyz    dz2    dxz  x2-y2    tot
    1  0.001  0.000  0.000  0.000  0.000  0.000  0.000  0.000  0.000  0.001
    2  0.001  0.000  0.000  0.000  0.000  0.000  0.000  0.000  0.000  0.001
    3  0.005  0.004  0.002  0.001  0.001  0.000  0.001  0.000  0.000  0.014
    4  0.005  0.004  0.002  0.001  0.001  0.000  0.001  0.000  0.000  0.014
    5  0.016  0.004  0.000  0.005  0.001  0.000  0.001  0.000  0.000  0.026
    6  0.016  0.003  0.000  0.005  0.001  0.000  0.001  0.000  0.000  0.026
    7  0.000  0.000  0.000  0.000  0.000  0.000  0.000  0.000  0.000  0.001
    8  0.001  0.000  0.000  0.000  0.000  0.000  0.000  0.000  0.000  0.001
    9  0.000  0.000  0.000  0.000  0.000  0.000  0.000  0.000  0.000  0.000
   10  0.008  0.000  0.000  0.000  0.000  0.000  0.000  0.000  0.000  0.008
   11  0.176  0.000  0.000  0.000  0.000  0.000  0.000  0.000  0.000  0.177
   12  0.003  0.000  0.000  0.002  0.000  0.000  0.000  0.000  0.000  0.005
   13  0.363  0.007  0.000  0.000  0.000  0.000  0.000  0.000  0.001  0.371
   14  0.001  0.000  0.000  0.000  0.000  0.000  0.000  0.000  0.000  0.002
   15  0.030  0.002  0.000  0.000  0.000  0.000  0.000  0.000  0.000  0.032
tot    0.625  0.024  0.005  0.015  0.004  0.000  0.003  0.001  0.001  0.678

band     5 # energy  -14.12893707 # occ.  2.00000000

ion      s     py     pz     px    dxy    dyz    dz2    dxz  x2-y2    tot
    1  0.023  0.006  0.000  0.009  0.002  0.000  0.001  0.000  0.000  0.041
    2  0.023  0.006  0.000  0.009  0.002  0.000  0.001  0.000  0.000  0.041
    3  0.000  0.000  0.000  0.000  0.000  0.000  0.000  0.000  0.000  0.000
    4  0.000  0.000  0.000  0.000  0.000  0.000  0.000  0.000  0.000  0.000
    5  0.000  0.000  0.000  0.000  0.000  0.000  0.000  0.000  0.000  0.000
    6  0.000  0.000  0.000  0.000  0.000  0.000  0.000  0.000  0.000  0.000
    7  0.025  0.006  0.000  0.010  0.003  0.000  0.001  0.000  0.000  0.044
    8  0.025  0.006  0.000  0.010  0.003  0.000  0.001  0.000  0.000  0.044
    9  0.184  0.000  0.000  0.004  0.000  0.000  0.000  0.000  0.000  0.188
   10  0.166  0.000  0.000  0.004  0.000  0.000  0.000  0.000  0.000  0.171
   11  0.003  0.000  0.000  0.000  0.000  0.000  0.000  0.000  0.000  0.003
   12  0.000  0.000  0.000  0.000  0.000  0.000  0.000  0.000  0.000  0.000
   13  0.008  0.000  0.000  0.000  0.000  0.000  0.000  0.000  0.000  0.009
   14  0.000  0.000  0.000  0.000  0.000  0.000  0.000  0.000  0.000  0.000
   15  0.001  0.000  0.000  0.000  0.000  0.000  0.000  0.000  0.000  0.001
tot    0.458  0.025  0.000  0.045  0.010  0.000  0.004  0.000  0.000  0.543

band     6 # energy   -9.12681507 # occ.  2.00000000

ion      s     py     pz     px    dxy    dyz    dz2    dxz  x2-y2    tot
    1  0.008  0.001  0.000  0.001  0.000  0.000  0.000  0.000  0.000  0.010
    2  0.005  0.000  0.000  0.000  0.000  0.000  0.000  0.000  0.000  0.006
    3  0.045  0.002  0.003  0.000  0.000  0.001  0.000  0.000  0.000  0.052
    4  0.020  0.003  0.003  0.001  0.000  0.001  0.000  0.000  0.001  0.028
    5  0.024  0.006  0.001  0.000  0.000  0.000  0.001  0.000  0.001  0.033
    6  0.047  0.003  0.002  0.000  0.000  0.000  0.001  0.000  0.000  0.055
    7  0.005  0.000  0.000  0.000  0.000  0.000  0.000  0.000  0.000  0.006
    8  0.007  0.001  0.000  0.001  0.000  0.000  0.000  0.000  0.000  0.009
    9  0.000  0.001  0.000  0.000  0.000  0.000  0.000  0.000  0.000  0.001
   10  0.000  0.006  0.000  0.000  0.000  0.000  0.000  0.000  0.000  0.006
   11  0.000  0.001  0.000  0.049  0.000  0.000  0.000  0.000  0.000  0.051
   12  0.002  0.007  0.113  0.008  0.000  0.000  0.000  0.000  0.000  0.129
   13  0.000  0.001  0.001  0.000  0.000  0.000  0.000  0.000  0.000  0.003
   14  0.120  0.000  0.004  0.000  0.000  0.000  0.000  0.000  0.000  0.124
   15  0.001  0.000  0.000  0.000  0.000  0.000  0.000  0.000  0.000  0.001
tot    0.284  0.033  0.126  0.061  0.001  0.002  0.004  0.001  0.002  0.514

band     7 # energy   -8.84823722 # occ.  2.00000000

ion      s     py     pz     px    dxy    dyz    dz2    dxz  x2-y2    tot
    1  0.011  0.002  0.000  0.001  0.000  0.000  0.000  0.000  0.000  0.015
    2  0.013  0.003  0.000  0.001  0.000  0.000  0.000  0.000  0.000  0.018
    3  0.027  0.002  0.000  0.005  0.000  0.000  0.000  0.000  0.001  0.035
    4  0.071  0.001  0.000  0.004  0.000  0.000  0.000  0.000  0.000  0.076
    5  0.052  0.001  0.001  0.006  0.000  0.000  0.001  0.000  0.000  0.061
    6  0.019  0.003  0.000  0.004  0.000  0.000  0.000  0.000  0.001  0.028
    7  0.012  0.003  0.000  0.001  0.000  0.000  0.000  0.000  0.000  0.017
    8  0.011  0.002  0.000  0.001  0.000  0.000  0.000  0.000  0.000  0.015
    9  0.003  0.010  0.000  0.000  0.000  0.000  0.000  0.000  0.000  0.013
   10  0.002  0.004  0.000  0.000  0.000  0.000  0.000  0.000  0.000  0.006
   11  0.003  0.046  0.003  0.005  0.000  0.000  0.000  0.000  0.000  0.057
   12  0.000  0.018  0.008  0.002  0.000  0.000  0.000  0.000  0.000  0.028
   13  0.005  0.013  0.029  0.001  0.000  0.000  0.002  0.000  0.001  0.052
   14  0.009  0.000  0.000  0.000  0.000  0.000  0.000  0.000  0.000  0.009
   15  0.016  0.000  0.000  0.000  0.000  0.000  0.000  0.000  0.000  0.017
tot    0.254  0.110  0.041  0.031  0.001  0.000  0.004  0.000  0.004  0.447

band     8 # energy   -8.16399653 # occ.  2.00000000

ion      s     py     pz     px    dxy    dyz    dz2    dxz  x2-y2    tot
    1  0.001  0.001  0.000  0.002  0.000  0.000  0.000  0.000  0.001  0.005
    2  0.034  0.001  0.000  0.003  0.001  0.000  0.000  0.000  0.000  0.039
    3  0.039  0.001  0.000  0.003  0.000  0.000  0.000  0.000  0.000  0.043
    4  0.023  0.003  0.001  0.006  0.000  0.000  0.000  0.000  0.000  0.033
    5  0.032  0.004  0.000  0.007  0.001  0.000  0.000  0.000  0.001  0.045
    6  0.006  0.003  0.001  0.011  0.001  0.000  0.000  0.000  0.000  0.022
    7  0.029  0.003  0.000  0.005  0.000  0.000  0.000  0.000  0.000  0.038
    8  0.015  0.001  0.000  0.000  0.000  0.000  0.000  0.000  0.001  0.018
    9  0.003  0.005  0.000  0.002  0.000  0.000  0.000  0.000  0.000  0.010
   10  0.004  0.026  0.000  0.002  0.000  0.000  0.000  0.000  0.000  0.032
   11  0.011  0.020  0.003  0.003  0.000  0.000  0.000  0.000  0.000  0.037
   12  0.001  0.025  0.006  0.006  0.000  0.000  0.000  0.000  0.000  0.038
   13  0.000  0.030  0.025  0.004  0.000  0.000  0.002  0.000  0.002  0.064
   14  0.004  0.001  0.000  0.000  0.000  0.000  0.000  0.000  0.000  0.005
   15  0.025  0.000  0.000  0.000  0.000  0.000  0.000  0.000  0.000  0.025
tot    0.227  0.123  0.037  0.054  0.004  0.001  0.003  0.001  0.005  0.454

band     9 # energy   -7.94160598 # occ.  2.00000000

ion      s     py     pz     px    dxy    dyz    dz2    dxz  x2-y2    tot
    1  0.047  0.003  0.000  0.005  0.001  0.000  0.000  0.000  0.000  0.057
    2  0.005  0.000  0.000  0.006  0.000  0.000  0.000  0.000  0.001  0.012
    3  0.024  0.006  0.001  0.007  0.001  0.000  0.000  0.000  0.000  0.039
    4  0.010  0.000  0.001  0.002  0.000  0.000  0.000  0.000  0.001  0.015
    5  0.003  0.002  0.000  0.003  0.000  0.000  0.000  0.000  0.001  0.009
    6  0.052  0.004  0.000  0.002  0.001  0.000  0.000  0.000  0.000  0.059
    7  0.026  0.000  0.000  0.001  0.000  0.000  0.000  0.000  0.001  0.030
    8  0.037  0.004  0.000  0.007  0.000  0.000  0.000  0.000  0.000  0.049
    9  0.001  0.049  0.000  0.002  0.000  0.000  0.000  0.000  0.000  0.053
   10  0.006  0.004  0.000  0.001  0.000  0.000  0.000  0.000  0.000  0.011
   11  0.012  0.003  0.001  0.002  0.000  0.000  0.000  0.000  0.000  0.018
   12  0.000  0.036  0.001  0.006  0.000  0.000  0.000  0.000  0.000  0.043
   13  0.003  0.013  0.002  0.005  0.000  0.000  0.000  0.000  0.001  0.025
   14  0.000  0.001  0.000  0.000  0.000  0.000  0.000  0.000  0.000  0.001
   15  0.007  0.000  0.000  0.000  0.000  0.000  0.000  0.000  0.000  0.007
tot    0.234  0.127  0.006  0.050  0.004  0.001  0.001  0.001  0.005  0.428

band    10 # energy   -7.52633523 # occ.  2.00000000

ion      s     py     pz     px    dxy    dyz    dz2    dxz  x2-y2    tot
    1  0.017  0.002  0.000  0.004  0.002  0.000  0.000  0.000  0.001  0.027
    2  0.018  0.004  0.000  0.006  0.003  0.000  0.000  0.000  0.001  0.032
    3  0.003  0.002  0.002  0.004  0.001  0.000  0.000  0.001  0.000  0.012
    4  0.001  0.004  0.003  0.003  0.001  0.000  0.000  0.000  0.000  0.012
    5  0.013  0.001  0.001  0.002  0.001  0.000  0.000  0.000  0.000  0.018
    6  0.016  0.000  0.001  0.001  0.001  0.000  0.000  0.000  0.000  0.020
    7  0.026  0.001  0.000  0.006  0.002  0.000  0.000  0.000  0.001  0.037
    8  0.012  0.003  0.000  0.005  0.003  0.000  0.000  0.000  0.001  0.024
    9  0.022  0.003  0.000  0.032  0.000  0.000  0.000  0.000  0.000  0.057
   10  0.007  0.005  0.000  0.039  0.000  0.000  0.000  0.000  0.000  0.052
   11  0.018  0.005  0.002  0.001  0.000  0.000  0.000  0.000  0.000  0.026
   12  0.002  0.000  0.018  0.030  0.000  0.000  0.000  0.000  0.000  0.050
   13  0.015  0.089  0.003  0.002  0.000  0.000  0.001  0.000  0.003  0.113
   14  0.011  0.000  0.000  0.001  0.000  0.000  0.000  0.000  0.000  0.012
   15  0.047  0.000  0.000  0.000  0.000  0.000  0.000  0.000  0.000  0.048
tot    0.228  0.120  0.031  0.136  0.013  0.001  0.002  0.001  0.009  0.540

band    11 # energy   -7.45543049 # occ.  2.00000000

ion      s     py     pz     px    dxy    dyz    dz2    dxz  x2-y2    tot
    1  0.034  0.004  0.000  0.010  0.003  0.000  0.000  0.000  0.000  0.052
    2  0.041  0.003  0.000  0.004  0.001  0.000  0.000  0.000  0.002  0.051
    3  0.000  0.000  0.002  0.001  0.000  0.000  0.000  0.000  0.000  0.004
    4  0.003  0.007  0.000  0.002  0.001  0.000  0.000  0.000  0.000  0.014
    5  0.008  0.002  0.001  0.001  0.000  0.000  0.000  0.000  0.000  0.012
    6  0.002  0.004  0.000  0.000  0.001  0.000  0.000  0.000  0.000  0.007
    7  0.008  0.008  0.000  0.012  0.003  0.000  0.000  0.000  0.001  0.033
    8  0.036  0.003  0.000  0.013  0.002  0.000  0.000  0.000  0.001  0.056
    9  0.009  0.005  0.000  0.045  0.000  0.000  0.000  0.000  0.000  0.060
   10  0.018  0.033  0.000  0.042  0.000  0.000  0.000  0.000  0.000  0.093
   11  0.005  0.004  0.001  0.001  0.000  0.000  0.000  0.000  0.000  0.010
   12  0.004  0.002  0.014  0.010  0.000  0.000  0.000  0.000  0.000  0.030
   13  0.009  0.046  0.000  0.002  0.000  0.000  0.000  0.000  0.002  0.060
   14  0.008  0.000  0.000  0.000  0.000  0.000  0.000  0.000  0.000  0.009
   15  0.023  0.000  0.000  0.000  0.000  0.000  0.000  0.000  0.000  0.024
tot    0.207  0.122  0.019  0.144  0.011  0.001  0.002  0.001  0.007  0.513

band    12 # energy   -7.18515342 # occ.  2.00000000

ion      s     py     pz     px    dxy    dyz    dz2    dxz  x2-y2    tot
    1  0.001  0.004  0.000  0.004  0.001  0.000  0.000  0.000  0.001  0.010
    2  0.005  0.007  0.000  0.008  0.001  0.000  0.000  0.000  0.000  0.022
    3  0.003  0.003  0.001  0.008  0.002  0.000  0.000  0.000  0.001  0.019
    4  0.021  0.001  0.001  0.011  0.002  0.000  0.000  0.000  0.001  0.037
    5  0.017  0.004  0.001  0.008  0.003  0.000  0.000  0.000  0.000  0.034
    6  0.013  0.001  0.001  0.003  0.002  0.000  0.000  0.000  0.001  0.021
    7  0.021  0.003  0.000  0.003  0.001  0.000  0.000  0.000  0.000  0.027
    8  0.005  0.006  0.000  0.001  0.001  0.000  0.000  0.000  0.000  0.013
    9  0.003  0.001  0.000  0.021  0.000  0.000  0.000  0.000  0.000  0.025
   10  0.003  0.011  0.000  0.022  0.000  0.000  0.000  0.000  0.000  0.036
   11  0.011  0.004  0.000  0.014  0.000  0.000  0.000  0.000  0.000  0.029
   12  0.012  0.017  0.029  0.060  0.000  0.000  0.000  0.000  0.000  0.118
   13  0.014  0.061  0.001  0.006  0.000  0.000  0.001  0.000  0.002  0.085
   14  0.017  0.000  0.000  0.001  0.000  0.000  0.000  0.000  0.000  0.018
   15  0.033  0.000  0.000  0.000  0.000  0.000  0.000  0.000  0.000  0.033
tot    0.180  0.122  0.035  0.169  0.012  0.001  0.002  0.001  0.007  0.528

band    13 # energy   -6.97050738 # occ.  2.00000000

ion      s     py     pz     px    dxy    dyz    dz2    dxz  x2-y2    tot
    1  0.018  0.004  0.000  0.008  0.000  0.000  0.000  0.000  0.000  0.031
    2  0.015  0.003  0.000  0.007  0.000  0.000  0.000  0.000  0.000  0.025
    3  0.012  0.009  0.001  0.006  0.000  0.000  0.000  0.000  0.000  0.029
    4  0.007  0.006  0.001  0.006  0.000  0.000  0.000  0.000  0.000  0.021
    5  0.008  0.009  0.000  0.007  0.000  0.000  0.000  0.000  0.001  0.025
    6  0.004  0.008  0.001  0.009  0.000  0.000  0.000  0.000  0.000  0.024
    7  0.013  0.005  0.000  0.009  0.000  0.000  0.000  0.000  0.001  0.028
    8  0.018  0.004  0.000  0.009  0.000  0.000  0.000  0.000  0.000  0.032
    9  0.000  0.032  0.000  0.009  0.000  0.000  0.000  0.000  0.000  0.041
   10  0.001  0.028  0.000  0.008  0.000  0.000  0.000  0.000  0.000  0.036
   11  0.001  0.018  0.000  0.016  0.000  0.000  0.000  0.000  0.000  0.035
   12  0.001  0.016  0.004  0.033  0.000  0.000  0.000  0.000  0.000  0.054
   13  0.011  0.050  0.005  0.003  0.000  0.000  0.001  0.000  0.002  0.072
   14  0.002  0.000  0.000  0.001  0.000  0.000  0.000  0.000  0.000  0.003
   15  0.027  0.000  0.000  0.000  0.000  0.000  0.000  0.000  0.000  0.028
tot    0.137  0.192  0.013  0.131  0.002  0.001  0.002  0.001  0.005  0.484

band    14 # energy   -5.89169400 # occ.  2.00000000

ion      s     py     pz     px    dxy    dyz    dz2    dxz  x2-y2    tot
    1  0.006  0.001  0.000  0.002  0.001  0.000  0.000  0.000  0.000  0.011
    2  0.008  0.000  0.000  0.002  0.001  0.000  0.000  0.000  0.000  0.012
    3  0.014  0.002  0.001  0.011  0.004  0.000  0.000  0.000  0.001  0.033
    4  0.011  0.001  0.002  0.007  0.003  0.000  0.000  0.000  0.002  0.028
    5  0.014  0.000  0.003  0.009  0.005  0.000  0.000  0.000  0.002  0.033
    6  0.018  0.001  0.002  0.012  0.005  0.000  0.000  0.000  0.001  0.040
    7  0.005  0.000  0.000  0.003  0.001  0.000  0.000  0.000  0.001  0.011
    8  0.004  0.000  0.000  0.004  0.001  0.000  0.000  0.000  0.001  0.010
    9  0.005  0.007  0.000  0.012  0.000  0.000  0.000  0.000  0.000  0.025
   10  0.005  0.006  0.000  0.013  0.000  0.000  0.000  0.000  0.000  0.024
   11  0.012  0.004  0.006  0.089  0.000  0.000  0.000  0.000  0.000  0.110
   12  0.030  0.005  0.029  0.042  0.000  0.000  0.000  0.000  0.000  0.106
   13  0.012  0.023  0.015  0.023  0.000  0.000  0.000  0.001  0.001  0.075
   14  0.010  0.000  0.000  0.001  0.000  0.000  0.000  0.000  0.000  0.010
   15  0.009  0.000  0.000  0.000  0.000  0.000  0.000  0.000  0.000  0.009
tot    0.163  0.050  0.060  0.231  0.021  0.002  0.001  0.001  0.009  0.538

band    15 # energy   -5.70831130 # occ.  2.00000000

ion      s     py     pz     px    dxy    dyz    dz2    dxz  x2-y2    tot
    1  0.020  0.003  0.000  0.016  0.008  0.000  0.000  0.000  0.002  0.049
    2  0.020  0.004  0.000  0.017  0.008  0.000  0.000  0.000  0.002  0.051
    3  0.001  0.002  0.001  0.002  0.001  0.000  0.000  0.000  0.001  0.007
    4  0.001  0.002  0.000  0.004  0.001  0.000  0.000  0.000  0.000  0.009
    5  0.003  0.003  0.001  0.003  0.001  0.000  0.000  0.000  0.000  0.011
    6  0.001  0.002  0.001  0.002  0.001  0.000  0.000  0.000  0.000  0.008
    7  0.022  0.004  0.000  0.019  0.008  0.000  0.000  0.000  0.002  0.055
    8  0.021  0.004  0.000  0.017  0.008  0.000  0.000  0.000  0.002  0.052
    9  0.025  0.000  0.000  0.112  0.000  0.000  0.000  0.000  0.000  0.138
   10  0.026  0.000  0.000  0.109  0.000  0.000  0.000  0.000  0.000  0.136
   11  0.001  0.003  0.002  0.025  0.000  0.000  0.000  0.000  0.000  0.032
   12  0.004  0.004  0.004  0.014  0.000  0.000  0.000  0.000  0.000  0.026
   13  0.001  0.002  0.000  0.001  0.000  0.000  0.000  0.000  0.000  0.005
   14  0.002  0.000  0.000  0.000  0.000  0.000  0.000  0.000  0.000  0.002
   15  0.002  0.000  0.000  0.000  0.000  0.000  0.000  0.000  0.000  0.002
tot    0.149  0.035  0.008  0.342  0.036  0.001  0.001  0.000  0.009  0.581

band    16 # energy   -5.21527565 # occ.  2.00000000

ion      s     py     pz     px    dxy    dyz    dz2    dxz  x2-y2    tot
    1  0.003  0.006  0.003  0.006  0.001  0.000  0.000  0.000  0.001  0.019
    2  0.002  0.005  0.002  0.002  0.000  0.000  0.000  0.000  0.001  0.013
    3  0.000  0.012  0.004  0.003  0.000  0.000  0.000  0.001  0.001  0.022
    4  0.001  0.013  0.006  0.006  0.001  0.000  0.000  0.001  0.000  0.029
    5  0.007  0.010  0.000  0.010  0.001  0.000  0.000  0.000  0.001  0.030
    6  0.003  0.009  0.001  0.006  0.001  0.000  0.000  0.000  0.001  0.021
    7  0.002  0.007  0.000  0.001  0.000  0.000  0.000  0.000  0.001  0.012
    8  0.003  0.008  0.000  0.005  0.001  0.000  0.000  0.000  0.001  0.018
    9  0.000  0.033  0.003  0.008  0.000  0.000  0.000  0.000  0.000  0.044
   10  0.000  0.003  0.001  0.014  0.000  0.000  0.000  0.000  0.000  0.018
   11  0.002  0.026  0.002  0.025  0.000  0.000  0.000  0.000  0.000  0.055
   12  0.001  0.002  0.003  0.033  0.000  0.000  0.000  0.000  0.000  0.039
   13  0.007  0.012  0.144  0.001  0.000  0.000  0.001  0.000  0.000  0.165
   14  0.002  0.000  0.000  0.001  0.000  0.000  0.000  0.000  0.000  0.002
   15  0.001  0.000  0.000  0.000  0.000  0.000  0.000  0.000  0.000  0.002
tot    0.034  0.146  0.171  0.122  0.005  0.001  0.002  0.003  0.007  0.491

band    17 # energy   -4.94465820 # occ.  2.00000000

ion      s     py     pz     px    dxy    dyz    dz2    dxz  x2-y2    tot
    1  0.003  0.006  0.001  0.002  0.000  0.000  0.000  0.000  0.001  0.013
    2  0.003  0.007  0.002  0.006  0.000  0.000  0.000  0.000  0.001  0.018
    3  0.003  0.008  0.011  0.001  0.000  0.000  0.001  0.000  0.000  0.024
    4  0.002  0.013  0.005  0.001  0.000  0.000  0.001  0.001  0.000  0.024
    5  0.002  0.012  0.000  0.008  0.000  0.000  0.000  0.000  0.000  0.023
    6  0.004  0.010  0.001  0.006  0.000  0.000  0.000  0.000  0.001  0.022
    7  0.001  0.009  0.000  0.005  0.001  0.000  0.000  0.000  0.001  0.017
    8  0.001  0.008  0.000  0.001  0.000  0.000  0.000  0.000  0.001  0.012
    9  0.000  0.002  0.000  0.010  0.000  0.000  0.000  0.000  0.000  0.012
   10  0.001  0.031  0.001  0.001  0.000  0.000  0.000  0.000  0.000  0.034
   11  0.000  0.010  0.007  0.023  0.000  0.000  0.000  0.000  0.000  0.039
   12  0.003  0.021  0.001  0.001  0.000  0.000  0.000  0.000  0.000  0.026
   13  0.003  0.005  0.034  0.154  0.000  0.000  0.000  0.001  0.000  0.197
   14  0.001  0.000  0.000  0.000  0.000  0.000  0.000  0.000  0.000  0.002
   15  0.001  0.000  0.000  0.000  0.000  0.000  0.000  0.000  0.000  0.002
tot    0.028  0.141  0.064  0.219  0.002  0.000  0.002  0.003  0.005  0.465

band    18 # energy   -4.56179207 # occ.  2.00000000

ion      s     py     pz     px    dxy    dyz    dz2    dxz  x2-y2    tot
    1  0.003  0.012  0.008  0.003  0.000  0.001  0.000  0.000  0.000  0.028
    2  0.002  0.008  0.006  0.001  0.000  0.001  0.000  0.000  0.000  0.019
    3  0.004  0.010  0.007  0.002  0.001  0.000  0.000  0.001  0.001  0.024
    4  0.004  0.002  0.005  0.003  0.001  0.000  0.000  0.001  0.001  0.016
    5  0.003  0.003  0.002  0.001  0.000  0.000  0.000  0.001  0.002  0.011
    6  0.001  0.006  0.003  0.005  0.001  0.000  0.000  0.000  0.001  0.018
    7  0.003  0.007  0.007  0.001  0.000  0.001  0.000  0.000  0.000  0.019
    8  0.002  0.009  0.007  0.003  0.000  0.001  0.000  0.001  0.000  0.023
    9  0.002  0.011  0.028  0.002  0.000  0.000  0.000  0.000  0.000  0.043
   10  0.000  0.000  0.032  0.008  0.000  0.000  0.000  0.000  0.000  0.040
   11  0.001  0.023  0.031  0.006  0.000  0.000  0.000  0.000  0.000  0.062
   12  0.001  0.005  0.006  0.001  0.000  0.000  0.000  0.000  0.000  0.013
   13  0.002  0.004  0.020  0.036  0.000  0.001  0.000  0.000  0.000  0.063
   14  0.003  0.000  0.000  0.000  0.000  0.000  0.000  0.000  0.000  0.003
   15  0.003  0.000  0.000  0.000  0.000  0.000  0.000  0.000  0.000  0.003
tot    0.035  0.102  0.162  0.069  0.004  0.004  0.001  0.004  0.006  0.386

band    19 # energy   -4.44383102 # occ.  2.00000000

ion      s     py     pz     px    dxy    dyz    dz2    dxz  x2-y2    tot
    1  0.001  0.005  0.009  0.000  0.000  0.002  0.000  0.001  0.000  0.018
    2  0.001  0.002  0.012  0.000  0.000  0.001  0.000  0.001  0.000  0.018
    3  0.002  0.005  0.002  0.004  0.001  0.000  0.000  0.001  0.000  0.015
    4  0.002  0.001  0.004  0.001  0.000  0.000  0.000  0.000  0.001  0.009
    5  0.002  0.000  0.006  0.000  0.000  0.000  0.000  0.001  0.001  0.009
    6  0.000  0.003  0.004  0.003  0.001  0.000  0.000  0.001  0.000  0.012
    7  0.001  0.002  0.015  0.001  0.000  0.001  0.000  0.001  0.000  0.020
    8  0.001  0.002  0.015  0.002  0.000  0.001  0.000  0.001  0.000  0.022
    9  0.001  0.004  0.053  0.000  0.000  0.000  0.000  0.000  0.000  0.058
   10  0.000  0.001  0.058  0.002  0.000  0.000  0.000  0.000  0.000  0.061
   11  0.000  0.011  0.039  0.006  0.000  0.000  0.000  0.000  0.000  0.057
   12  0.000  0.001  0.002  0.003  0.000  0.000  0.000  0.000  0.000  0.006
   13  0.003  0.010  0.025  0.005  0.000  0.001  0.000  0.000  0.001  0.045
   14  0.001  0.000  0.000  0.000  0.000  0.000  0.000  0.000  0.000  0.001
   15  0.006  0.000  0.000  0.000  0.000  0.000  0.000  0.000  0.000  0.006
tot    0.020  0.047  0.245  0.027  0.003  0.006  0.000  0.006  0.003  0.358

band    20 # energy   -4.20899318 # occ.  2.00000000

ion      s     py     pz     px    dxy    dyz    dz2    dxz  x2-y2    tot
    1  0.006  0.008  0.002  0.001  0.000  0.000  0.000  0.000  0.000  0.017
    2  0.005  0.016  0.000  0.003  0.000  0.000  0.000  0.000  0.000  0.024
    3  0.001  0.002  0.002  0.006  0.001  0.000  0.001  0.000  0.001  0.015
    4  0.001  0.008  0.007  0.004  0.000  0.000  0.001  0.000  0.001  0.023
    5  0.005  0.012  0.003  0.004  0.001  0.000  0.000  0.000  0.002  0.027
    6  0.003  0.009  0.000  0.004  0.001  0.000  0.000  0.001  0.002  0.020
    7  0.005  0.020  0.002  0.001  0.000  0.000  0.000  0.000  0.000  0.028
    8  0.007  0.015  0.001  0.000  0.000  0.000  0.000  0.000  0.000  0.023
    9  0.000  0.004  0.008  0.010  0.000  0.000  0.000  0.000  0.000  0.023
   10  0.005  0.001  0.002  0.001  0.000  0.000  0.000  0.000  0.000  0.009
   11  0.001  0.004  0.004  0.000  0.000  0.000  0.000  0.000  0.000  0.009
   12  0.000  0.068  0.011  0.000  0.000  0.000  0.000  0.000  0.000  0.079
   13  0.000  0.000  0.000  0.149  0.000  0.000  0.000  0.000  0.000  0.150
   14  0.003  0.001  0.000  0.000  0.000  0.000  0.000  0.000  0.000  0.005
   15  0.000  0.000  0.000  0.000  0.000  0.000  0.000  0.000  0.000  0.001
tot    0.042  0.167  0.042  0.184  0.004  0.001  0.002  0.002  0.007  0.451

band    21 # energy   -3.84091821 # occ.  2.00000000

ion      s     py     pz     px    dxy    dyz    dz2    dxz  x2-y2    tot
    1  0.001  0.001  0.007  0.004  0.000  0.000  0.000  0.001  0.001  0.015
    2  0.002  0.003  0.005  0.004  0.000  0.001  0.000  0.001  0.001  0.018
    3  0.002  0.001  0.001  0.004  0.001  0.000  0.000  0.000  0.001  0.010
    4  0.001  0.005  0.000  0.004  0.001  0.000  0.001  0.000  0.001  0.014
    5  0.001  0.011  0.005  0.002  0.001  0.000  0.000  0.001  0.001  0.022
    6  0.005  0.012  0.005  0.001  0.000  0.000  0.000  0.001  0.002  0.026
    7  0.002  0.011  0.006  0.003  0.000  0.001  0.000  0.002  0.001  0.026
    8  0.001  0.012  0.009  0.000  0.000  0.000  0.000  0.001  0.002  0.026
    9  0.002  0.028  0.020  0.000  0.000  0.000  0.000  0.000  0.000  0.051
   10  0.000  0.001  0.058  0.004  0.000  0.000  0.000  0.000  0.000  0.063
   11  0.001  0.039  0.042  0.001  0.000  0.000  0.000  0.000  0.000  0.082
   12  0.000  0.001  0.000  0.003  0.000  0.000  0.000  0.000  0.000  0.005
   13  0.000  0.001  0.022  0.006  0.000  0.001  0.000  0.000  0.001  0.030
   14  0.000  0.000  0.000  0.000  0.000  0.000  0.000  0.000  0.000  0.000
   15  0.002  0.000  0.000  0.000  0.000  0.000  0.000  0.000  0.000  0.003
tot    0.022  0.125  0.181  0.036  0.004  0.004  0.002  0.008  0.009  0.391

band    22 # energy   -3.67186136 # occ.  2.00000000

ion      s     py     pz     px    dxy    dyz    dz2    dxz  x2-y2    tot
    1  0.001  0.003  0.009  0.002  0.000  0.001  0.000  0.002  0.000  0.019
    2  0.002  0.004  0.010  0.001  0.000  0.001  0.000  0.002  0.001  0.021
    3  0.002  0.002  0.001  0.002  0.001  0.000  0.000  0.000  0.000  0.008
    4  0.000  0.003  0.000  0.003  0.001  0.000  0.000  0.000  0.001  0.009
    5  0.000  0.005  0.001  0.003  0.001  0.000  0.000  0.000  0.001  0.011
    6  0.004  0.006  0.003  0.002  0.000  0.000  0.000  0.000  0.001  0.016
    7  0.003  0.006  0.012  0.001  0.000  0.001  0.000  0.002  0.000  0.026
    8  0.001  0.009  0.011  0.001  0.000  0.001  0.000  0.003  0.001  0.027
    9  0.001  0.016  0.090  0.000  0.000  0.000  0.000  0.000  0.000  0.108
   10  0.000  0.001  0.051  0.002  0.000  0.000  0.000  0.000  0.000  0.054
   11  0.000  0.033  0.019  0.000  0.000  0.000  0.000  0.000  0.000  0.052
   12  0.000  0.000  0.001  0.000  0.000  0.000  0.000  0.000  0.000  0.001
   13  0.000  0.001  0.011  0.002  0.000  0.000  0.000  0.000  0.000  0.015
   14  0.000  0.000  0.000  0.000  0.000  0.000  0.000  0.000  0.000  0.000
   15  0.001  0.000  0.000  0.000  0.000  0.000  0.000  0.000  0.000  0.001
tot    0.015  0.088  0.218  0.020  0.002  0.006  0.001  0.010  0.006  0.368

band    23 # energy   -3.41754988 # occ.  2.00000000

ion      s     py     pz     px    dxy    dyz    dz2    dxz  x2-y2    tot
    1  0.007  0.022  0.000  0.006  0.001  0.000  0.000  0.000  0.004  0.040
    2  0.002  0.015  0.000  0.006  0.001  0.000  0.000  0.000  0.003  0.028
    3  0.006  0.020  0.004  0.001  0.000  0.000  0.000  0.000  0.002  0.034
    4  0.011  0.013  0.004  0.003  0.001  0.000  0.000  0.000  0.001  0.033
    5  0.008  0.013  0.001  0.001  0.000  0.000  0.000  0.000  0.001  0.025
    6  0.004  0.012  0.001  0.001  0.000  0.000  0.000  0.000  0.001  0.019
    7  0.000  0.010  0.000  0.007  0.001  0.000  0.000  0.000  0.004  0.022
    8  0.002  0.008  0.000  0.009  0.001  0.000  0.000  0.000  0.003  0.023
    9  0.000  0.000  0.000  0.001  0.000  0.000  0.000  0.000  0.000  0.002
   10  0.001  0.103  0.000  0.000  0.000  0.000  0.000  0.000  0.000  0.104
   11  0.000  0.002  0.001  0.003  0.000  0.000  0.000  0.000  0.000  0.005
   12  0.004  0.037  0.007  0.000  0.000  0.000  0.000  0.000  0.000  0.048
   13  0.000  0.000  0.001  0.072  0.000  0.000  0.000  0.000  0.000  0.073
   14  0.003  0.001  0.000  0.000  0.000  0.000  0.000  0.000  0.000  0.004
   15  0.000  0.000  0.000  0.000  0.000  0.000  0.000  0.000  0.000  0.000
tot    0.049  0.255  0.021  0.110  0.006  0.001  0.001  0.001  0.019  0.461

band    24 # energy   -2.90394394 # occ.  2.00000000

ion      s     py     pz     px    dxy    dyz    dz2    dxz  x2-y2    tot
    1  0.006  0.017  0.001  0.002  0.001  0.000  0.000  0.000  0.002  0.029
    2  0.009  0.019  0.001  0.002  0.001  0.000  0.000  0.000  0.002  0.035
    3  0.007  0.009  0.002  0.002  0.000  0.002  0.001  0.000  0.001  0.024
    4  0.004  0.011  0.002  0.000  0.000  0.002  0.001  0.000  0.001  0.021
    5  0.001  0.005  0.008  0.003  0.000  0.000  0.000  0.002  0.001  0.021
    6  0.003  0.005  0.009  0.003  0.000  0.000  0.000  0.001  0.001  0.024
    7  0.001  0.002  0.000  0.005  0.000  0.000  0.000  0.000  0.002  0.011
    8  0.000  0.002  0.000  0.005  0.000  0.000  0.000  0.000  0.002  0.010
    9  0.002  0.052  0.003  0.000  0.000  0.000  0.000  0.000  0.000  0.057
   10  0.000  0.001  0.000  0.001  0.000  0.000  0.000  0.000  0.000  0.002
   11  0.002  0.012  0.060  0.000  0.000  0.000  0.000  0.000  0.000  0.074
   12  0.000  0.001  0.000  0.007  0.000  0.000  0.000  0.000  0.000  0.008
   13  0.002  0.003  0.136  0.001  0.000  0.000  0.000  0.000  0.000  0.143
   14  0.000  0.000  0.000  0.000  0.000  0.000  0.000  0.000  0.000  0.000
   15  0.000  0.000  0.000  0.000  0.000  0.000  0.000  0.000  0.000  0.001
tot    0.037  0.139  0.225  0.033  0.003  0.004  0.003  0.004  0.012  0.459

band    25 # energy   -0.48579300 # occ.  0.00000000

ion      s     py     pz     px    dxy    dyz    dz2    dxz  x2-y2    tot
    1  0.000  0.001  0.011  0.000  0.000  0.000  0.000  0.001  0.000  0.012
    2  0.000  0.001  0.009  0.000  0.000  0.000  0.000  0.000  0.000  0.011
    3  0.003  0.000  0.004  0.000  0.000  0.000  0.001  0.000  0.000  0.009
    4  0.002  0.000  0.001  0.000  0.000  0.001  0.000  0.000  0.000  0.006
    5  0.000  0.001  0.034  0.000  0.000  0.001  0.000  0.001  0.000  0.039
    6  0.000  0.001  0.037  0.001  0.000  0.001  0.000  0.001  0.000  0.042
    7  0.001  0.000  0.014  0.000  0.000  0.003  0.000  0.000  0.000  0.018
    8  0.001  0.000  0.014  0.000  0.000  0.003  0.000  0.000  0.000  0.018
    9  0.000  0.000  0.001  0.000  0.000  0.000  0.000  0.000  0.000  0.001
   10  0.000  0.000  0.005  0.000  0.000  0.000  0.000  0.000  0.000  0.006
   11  0.000  0.000  0.009  0.000  0.000  0.000  0.000  0.000  0.000  0.010
   12  0.000  0.000  0.008  0.000  0.000  0.000  0.000  0.000  0.000  0.008
   13  0.000  0.000  0.002  0.009  0.000  0.000  0.000  0.001  0.000  0.013
   14  0.014  0.000  0.000  0.000  0.000  0.000  0.000  0.000  0.000  0.014
   15  0.001  0.000  0.000  0.000  0.000  0.000  0.000  0.000  0.000  0.001
tot    0.023  0.006  0.150  0.012  0.000  0.008  0.002  0.004  0.001  0.207

band    26 # energy    0.21085792 # occ.  0.00000000

ion      s     py     pz     px    dxy    dyz    dz2    dxz  x2-y2    tot
    1  0.000  0.000  0.005  0.001  0.000  0.000  0.000  0.001  0.000  0.007
    2  0.000  0.000  0.014  0.000  0.000  0.001  0.000  0.001  0.000  0.017
    3  0.002  0.000  0.002  0.000  0.000  0.000  0.000  0.000  0.000  0.006
    4  0.005  0.001  0.007  0.000  0.000  0.000  0.001  0.001  0.000  0.016
    5  0.001  0.001  0.034  0.000  0.000  0.004  0.000  0.000  0.000  0.040
    6  0.000  0.000  0.013  0.000  0.000  0.004  0.000  0.000  0.000  0.018
    7  0.000  0.000  0.016  0.000  0.000  0.004  0.000  0.000  0.000  0.021
    8  0.002  0.001  0.019  0.000  0.000  0.002  0.000  0.000  0.000  0.024
    9  0.000  0.001  0.010  0.000  0.000  0.000  0.000  0.000  0.000  0.011
   10  0.000  0.000  0.003  0.000  0.000  0.000  0.000  0.000  0.000  0.003
   11  0.001  0.002  0.029  0.000  0.000  0.000  0.000  0.000  0.000  0.033
   12  0.000  0.001  0.001  0.000  0.000  0.000  0.000  0.000  0.000  0.002
   13  0.001  0.000  0.013  0.005  0.000  0.001  0.001  0.001  0.000  0.022
   14  0.004  0.000  0.000  0.000  0.000  0.000  0.000  0.000  0.000  0.004
   15  0.001  0.000  0.000  0.000  0.000  0.000  0.000  0.000  0.000  0.001
tot    0.018  0.007  0.167  0.007  0.001  0.016  0.003  0.004  0.001  0.223

band    27 # energy    0.60404765 # occ.  0.00000000

ion      s     py     pz     px    dxy    dyz    dz2    dxz  x2-y2    tot
    1  0.001  0.001  0.019  0.000  0.000  0.003  0.000  0.000  0.000  0.024
    2  0.001  0.000  0.006  0.001  0.000  0.003  0.000  0.000  0.000  0.011
    3  0.000  0.003  0.012  0.000  0.000  0.002  0.000  0.002  0.000  0.020
    4  0.003  0.002  0.021  0.000  0.001  0.001  0.001  0.001  0.000  0.029
    5  0.003  0.000  0.002  0.002  0.000  0.000  0.000  0.000  0.001  0.010
    6  0.001  0.002  0.022  0.001  0.000  0.001  0.000  0.000  0.001  0.028
    7  0.004  0.002  0.009  0.001  0.000  0.000  0.000  0.000  0.000  0.016
    8  0.003  0.001  0.001  0.001  0.000  0.003  0.000  0.001  0.000  0.009
    9  0.000  0.000  0.004  0.001  0.000  0.000  0.000  0.000  0.000  0.005
   10  0.000  0.003  0.025  0.000  0.000  0.000  0.000  0.000  0.000  0.028
   11  0.002  0.001  0.007  0.001  0.000  0.000  0.000  0.000  0.000  0.011
   12  0.000  0.001  0.002  0.000  0.000  0.000  0.000  0.000  0.000  0.004
   13  0.000  0.000  0.004  0.032  0.001  0.001  0.000  0.005  0.001  0.045
   14  0.002  0.000  0.000  0.000  0.000  0.000  0.000  0.000  0.000  0.002
   15  0.002  0.000  0.000  0.000  0.000  0.000  0.000  0.000  0.000  0.002
tot    0.022  0.016  0.135  0.039  0.002  0.015  0.002  0.010  0.003  0.244

band    28 # energy    0.97028394 # occ.  0.00000000

ion      s     py     pz     px    dxy    dyz    dz2    dxz  x2-y2    tot
    1  0.000  0.001  0.009  0.002  0.001  0.003  0.000  0.000  0.000  0.017
    2  0.003  0.002  0.012  0.002  0.002  0.001  0.000  0.000  0.000  0.022
    3  0.026  0.003  0.014  0.002  0.000  0.001  0.001  0.000  0.000  0.048
    4  0.023  0.001  0.004  0.005  0.000  0.001  0.000  0.000  0.000  0.035
    5  0.010  0.001  0.001  0.004  0.000  0.001  0.002  0.000  0.000  0.019
    6  0.013  0.001  0.002  0.003  0.000  0.000  0.001  0.000  0.000  0.020
    7  0.003  0.002  0.001  0.003  0.001  0.001  0.000  0.000  0.000  0.012
    8  0.001  0.001  0.001  0.002  0.001  0.000  0.000  0.000  0.001  0.008
    9  0.011  0.001  0.009  0.000  0.000  0.000  0.000  0.000  0.000  0.022
   10  0.001  0.001  0.002  0.000  0.000  0.000  0.000  0.000  0.000  0.004
   11  0.004  0.002  0.002  0.000  0.000  0.000  0.000  0.000  0.000  0.007
   12  0.000  0.000  0.000  0.001  0.000  0.000  0.000  0.000  0.000  0.002
   13  0.000  0.021  0.027  0.008  0.000  0.002  0.005  0.005  0.013  0.081
   14  0.001  0.000  0.000  0.000  0.000  0.000  0.000  0.000  0.000  0.001
   15  0.019  0.000  0.000  0.000  0.000  0.000  0.000  0.000  0.000  0.020
tot    0.118  0.035  0.085  0.031  0.006  0.010  0.010  0.006  0.016  0.318

band    29 # energy    1.14213869 # occ.  0.00000000

ion      s     py     pz     px    dxy    dyz    dz2    dxz  x2-y2    tot
    1  0.007  0.001  0.001  0.008  0.002  0.000  0.000  0.000  0.000  0.020
    2  0.010  0.000  0.001  0.008  0.002  0.000  0.001  0.000  0.001  0.023
    3  0.007  0.000  0.002  0.014  0.004  0.000  0.001  0.000  0.001  0.029
    4  0.008  0.002  0.000  0.012  0.003  0.000  0.001  0.000  0.001  0.027
    5  0.010  0.001  0.002  0.000  0.001  0.001  0.001  0.000  0.000  0.017
    6  0.021  0.000  0.000  0.001  0.001  0.001  0.001  0.000  0.001  0.026
    7  0.018  0.001  0.003  0.001  0.000  0.000  0.000  0.000  0.000  0.024
    8  0.019  0.004  0.005  0.000  0.000  0.000  0.002  0.000  0.000  0.032
    9  0.001  0.001  0.000  0.000  0.000  0.000  0.000  0.000  0.000  0.002
   10  0.006  0.001  0.003  0.001  0.000  0.000  0.000  0.000  0.000  0.011
   11  0.001  0.001  0.002  0.001  0.000  0.000  0.000  0.000  0.000  0.004
   12  0.013  0.002  0.001  0.002  0.000  0.000  0.000  0.000  0.000  0.018
   13  0.009  0.032  0.008  0.002  0.000  0.002  0.010  0.002  0.005  0.071
   14  0.001  0.000  0.001  0.000  0.000  0.000  0.000  0.000  0.000  0.001
   15  0.021  0.001  0.000  0.000  0.000  0.000  0.000  0.000  0.000  0.022
tot    0.152  0.048  0.028  0.052  0.013  0.006  0.016  0.004  0.010  0.328

band    30 # energy    1.42817886 # occ.  0.00000000

ion      s     py     pz     px    dxy    dyz    dz2    dxz  x2-y2    tot
    1  0.025  0.003  0.000  0.001  0.001  0.000  0.002  0.000  0.000  0.032
    2  0.016  0.000  0.003  0.001  0.001  0.000  0.001  0.000  0.001  0.023
    3  0.022  0.001  0.003  0.000  0.001  0.000  0.001  0.000  0.002  0.030
    4  0.018  0.001  0.003  0.001  0.001  0.000  0.002  0.000  0.000  0.028
    5  0.011  0.002  0.000  0.014  0.006  0.000  0.000  0.000  0.001  0.034
    6  0.010  0.000  0.001  0.017  0.006  0.000  0.000  0.000  0.001  0.036
    7  0.013  0.000  0.000  0.010  0.005  0.000  0.000  0.000  0.001  0.030
    8  0.012  0.000  0.001  0.013  0.005  0.000  0.000  0.000  0.001  0.032
    9  0.001  0.001  0.002  0.001  0.000  0.000  0.000  0.000  0.000  0.005
   10  0.010  0.001  0.002  0.001  0.000  0.000  0.000  0.000  0.000  0.014
   11  0.005  0.002  0.005  0.001  0.000  0.000  0.000  0.000  0.000  0.012
   12  0.013  0.001  0.001  0.001  0.000  0.000  0.000  0.000  0.000  0.016
   13  0.004  0.008  0.001  0.002  0.002  0.001  0.001  0.001  0.002  0.021
   14  0.002  0.000  0.000  0.000  0.000  0.000  0.000  0.000  0.000  0.002
   15  0.006  0.000  0.000  0.000  0.000  0.000  0.000  0.000  0.000  0.006
tot    0.168  0.021  0.023  0.062  0.027  0.003  0.008  0.002  0.009  0.322

band    31 # energy    1.57541534 # occ.  0.00000000

ion      s     py     pz     px    dxy    dyz    dz2    dxz  x2-y2    tot
    1  0.003  0.000  0.009  0.001  0.001  0.001  0.002  0.000  0.001  0.018
    2  0.001  0.000  0.014  0.006  0.001  0.002  0.000  0.000  0.000  0.024
    3  0.007  0.001  0.008  0.004  0.001  0.000  0.002  0.000  0.000  0.022
    4  0.001  0.002  0.003  0.008  0.001  0.001  0.001  0.000  0.000  0.016
    5  0.026  0.002  0.005  0.002  0.000  0.000  0.001  0.000  0.000  0.037
    6  0.001  0.000  0.006  0.003  0.000  0.000  0.001  0.000  0.000  0.011
    7  0.008  0.002  0.001  0.000  0.001  0.000  0.004  0.001  0.001  0.017
    8  0.001  0.000  0.002  0.001  0.001  0.000  0.001  0.001  0.000  0.007
    9  0.010  0.000  0.022  0.001  0.000  0.000  0.000  0.000  0.000  0.033
   10  0.004  0.001  0.000  0.001  0.000  0.000  0.000  0.000  0.000  0.006
   11  0.003  0.002  0.005  0.000  0.000  0.000  0.000  0.000  0.000  0.010
   12  0.002  0.002  0.001  0.000  0.000  0.000  0.000  0.000  0.000  0.005
   13  0.014  0.031  0.005  0.000  0.000  0.001  0.000  0.001  0.003  0.056
   14  0.000  0.000  0.000  0.000  0.000  0.000  0.000  0.000  0.000  0.000
   15  0.002  0.002  0.000  0.000  0.000  0.000  0.000  0.000  0.000  0.004
tot    0.082  0.044  0.080  0.028  0.006  0.005  0.011  0.002  0.006  0.266

band    32 # energy    2.16760564 # occ.  0.00000000

ion      s     py     pz     px    dxy    dyz    dz2    dxz  x2-y2    tot
    1  0.004  0.001  0.000  0.002  0.000  0.001  0.000  0.000  0.001  0.008
    2  0.003  0.001  0.000  0.001  0.000  0.000  0.001  0.000  0.000  0.007
    3  0.007  0.001  0.011  0.004  0.000  0.000  0.000  0.000  0.000  0.023
    4  0.003  0.001  0.000  0.002  0.000  0.000  0.000  0.000  0.001  0.008
    5  0.003  0.001  0.000  0.001  0.001  0.000  0.003  0.000  0.000  0.009
    6  0.004  0.004  0.002  0.000  0.000  0.001  0.002  0.000  0.000  0.014
    7  0.003  0.003  0.001  0.001  0.000  0.001  0.001  0.000  0.000  0.009
    8  0.010  0.003  0.001  0.001  0.001  0.000  0.003  0.000  0.001  0.020
    9  0.005  0.002  0.001  0.001  0.000  0.000  0.000  0.000  0.000  0.009
   10  0.002  0.001  0.003  0.001  0.000  0.000  0.000  0.000  0.000  0.006
   11  0.007  0.000  0.000  0.002  0.000  0.000  0.000  0.000  0.000  0.009
   12  0.003  0.003  0.003  0.001  0.000  0.000  0.000  0.000  0.000  0.011
   13  0.015  0.000  0.002  0.006  0.001  0.000  0.002  0.003  0.001  0.030
   14  0.001  0.000  0.001  0.000  0.000  0.000  0.000  0.000  0.000  0.002
   15  0.003  0.000  0.000  0.000  0.000  0.000  0.000  0.000  0.000  0.003
tot    0.074  0.021  0.026  0.023  0.004  0.003  0.011  0.003  0.005  0.170


 k-point     8 :   -0.20000000 0.33333333 0.00000000     weight = 0.13333333

band     1 # energy  -16.26712917 # occ.  2.00000000

ion      s     py     pz     px    dxy    dyz    dz2    dxz  x2-y2    tot
    1  0.000  0.000  0.000  0.000  0.000  0.000  0.000  0.000  0.000  0.000
    2  0.000  0.000  0.000  0.000  0.000  0.000  0.000  0.000  0.000  0.000
    3  0.021  0.005  0.000  0.001  0.000  0.000  0.001  0.000  0.000  0.028
    4  0.021  0.005  0.000  0.001  0.000  0.000  0.001  0.000  0.000  0.028
    5  0.022  0.005  0.001  0.001  0.000  0.000  0.001  0.000  0.000  0.030
    6  0.022  0.005  0.001  0.001  0.000  0.000  0.001  0.000  0.000  0.030
    7  0.000  0.000  0.000  0.000  0.000  0.000  0.000  0.000  0.000  0.000
    8  0.000  0.000  0.000  0.000  0.000  0.000  0.000  0.000  0.000  0.000
    9  0.000  0.000  0.000  0.000  0.000  0.000  0.000  0.000  0.000  0.000
   10  0.000  0.000  0.000  0.000  0.000  0.000  0.000  0.000  0.000  0.000
   11  0.052  0.000  0.001  0.001  0.000  0.000  0.000  0.000  0.000  0.053
   12  0.271  0.001  0.005  0.000  0.000  0.000  0.000  0.000  0.000  0.276
   13  0.020  0.000  0.001  0.000  0.000  0.000  0.000  0.000  0.000  0.020
   14  0.078  0.000  0.006  0.000  0.000  0.000  0.000  0.000  0.000  0.085
   15  0.001  0.000  0.000  0.000  0.000  0.000  0.000  0.000  0.000  0.001
tot    0.508  0.020  0.014  0.005  0.001  0.001  0.003  0.001  0.000  0.552

band     2 # energy  -15.16915809 # occ.  2.00000000

ion      s     py     pz     px    dxy    dyz    dz2    dxz  x2-y2    tot
    1  0.035  0.008  0.000  0.001  0.000  0.000  0.002  0.000  0.000  0.046
    2  0.035  0.008  0.000  0.001  0.000  0.000  0.002  0.000  0.000  0.046
    3  0.000  0.000  0.000  0.000  0.000  0.000  0.000  0.000  0.000  0.001
    4  0.000  0.000  0.000  0.000  0.000  0.000  0.000  0.000  0.000  0.001
    5  0.000  0.000  0.000  0.000  0.000  0.000  0.000  0.000  0.000  0.000
    6  0.000  0.000  0.000  0.000  0.000  0.000  0.000  0.000  0.000  0.000
    7  0.037  0.009  0.000  0.001  0.000  0.000  0.002  0.000  0.000  0.049
    8  0.037  0.009  0.000  0.001  0.000  0.000  0.002  0.000  0.000  0.049
    9  0.159  0.000  0.000  0.001  0.000  0.000  0.000  0.000  0.000  0.159
   10  0.162  0.000  0.000  0.001  0.000  0.000  0.000  0.000  0.000  0.163
   11  0.000  0.000  0.000  0.000  0.000  0.000  0.000  0.000  0.000  0.000
   12  0.002  0.000  0.000  0.000  0.000  0.000  0.000  0.000  0.000  0.002
   13  0.012  0.000  0.000  0.000  0.000  0.000  0.000  0.000  0.000  0.013
   14  0.001  0.000  0.000  0.000  0.000  0.000  0.000  0.000  0.000  0.001
   15  0.001  0.000  0.000  0.000  0.000  0.000  0.000  0.000  0.000  0.001
tot    0.483  0.034  0.000  0.006  0.001  0.000  0.007  0.000  0.000  0.532

band     3 # energy  -14.84610374 # occ.  2.00000000

ion      s     py     pz     px    dxy    dyz    dz2    dxz  x2-y2    tot
    1  0.000  0.000  0.000  0.000  0.000  0.000  0.000  0.000  0.000  0.001
    2  0.000  0.000  0.000  0.000  0.000  0.000  0.000  0.000  0.000  0.001
    3  0.007  0.000  0.000  0.005  0.001  0.000  0.000  0.000  0.000  0.013
    4  0.007  0.000  0.000  0.005  0.001  0.000  0.000  0.000  0.000  0.013
    5  0.002  0.000  0.000  0.003  0.001  0.000  0.000  0.000  0.000  0.007
    6  0.002  0.001  0.000  0.003  0.001  0.000  0.000  0.000  0.000  0.007
    7  0.001  0.000  0.000  0.000  0.000  0.000  0.000  0.000  0.000  0.002
    8  0.001  0.000  0.000  0.000  0.000  0.000  0.000  0.000  0.000  0.001
    9  0.004  0.000  0.000  0.000  0.000  0.000  0.000  0.000  0.000  0.004
   10  0.006  0.000  0.000  0.000  0.000  0.000  0.000  0.000  0.000  0.006
   11  0.051  0.000  0.001  0.000  0.000  0.000  0.000  0.000  0.000  0.052
   12  0.051  0.000  0.002  0.001  0.000  0.000  0.000  0.000  0.000  0.054
   13  0.490  0.005  0.002  0.000  0.000  0.000  0.000  0.000  0.001  0.498
   14  0.018  0.000  0.001  0.000  0.000  0.000  0.000  0.000  0.000  0.019
   15  0.033  0.002  0.000  0.000  0.000  0.000  0.000  0.000  0.000  0.035
tot    0.673  0.010  0.006  0.017  0.003  0.001  0.001  0.000  0.001  0.712

band     4 # energy  -14.21491254 # occ.  2.00000000

ion      s     py     pz     px    dxy    dyz    dz2    dxz  x2-y2    tot
    1  0.000  0.000  0.000  0.000  0.000  0.000  0.000  0.000  0.000  0.000
    2  0.000  0.000  0.000  0.000  0.000  0.000  0.000  0.000  0.000  0.000
    3  0.006  0.003  0.002  0.005  0.002  0.000  0.000  0.000  0.000  0.019
    4  0.006  0.003  0.002  0.005  0.002  0.000  0.000  0.000  0.000  0.019
    5  0.016  0.004  0.000  0.009  0.003  0.000  0.001  0.000  0.000  0.032
    6  0.016  0.004  0.000  0.009  0.003  0.000  0.001  0.000  0.000  0.032
    7  0.000  0.000  0.000  0.000  0.000  0.000  0.000  0.000  0.000  0.000
    8  0.000  0.000  0.000  0.000  0.000  0.000  0.000  0.000  0.000  0.000
    9  0.000  0.000  0.000  0.000  0.000  0.000  0.000  0.000  0.000  0.000
   10  0.001  0.000  0.000  0.000  0.000  0.000  0.000  0.000  0.000  0.001
   11  0.251  0.000  0.001  0.000  0.000  0.000  0.000  0.000  0.000  0.252
   12  0.034  0.000  0.003  0.002  0.000  0.000  0.000  0.000  0.000  0.039
   13  0.186  0.004  0.000  0.000  0.000  0.000  0.000  0.000  0.000  0.191
   14  0.017  0.000  0.001  0.000  0.000  0.000  0.000  0.000  0.000  0.018
   15  0.016  0.001  0.000  0.000  0.000  0.000  0.000  0.000  0.000  0.017
tot    0.548  0.019  0.010  0.030  0.009  0.001  0.003  0.001  0.001  0.622

band     5 # energy  -13.40782664 # occ.  2.00000000

ion      s     py     pz     px    dxy    dyz    dz2    dxz  x2-y2    tot
    1  0.011  0.003  0.000  0.016  0.005  0.000  0.000  0.000  0.000  0.035
    2  0.011  0.003  0.000  0.016  0.005  0.000  0.000  0.000  0.000  0.035
    3  0.000  0.000  0.000  0.000  0.000  0.000  0.000  0.000  0.000  0.000
    4  0.000  0.000  0.000  0.000  0.000  0.000  0.000  0.000  0.000  0.000
    5  0.000  0.000  0.000  0.000  0.000  0.000  0.000  0.000  0.000  0.000
    6  0.000  0.000  0.000  0.000  0.000  0.000  0.000  0.000  0.000  0.000
    7  0.011  0.003  0.000  0.018  0.005  0.000  0.000  0.000  0.000  0.038
    8  0.012  0.003  0.000  0.018  0.005  0.000  0.000  0.000  0.000  0.038
    9  0.200  0.000  0.000  0.003  0.000  0.000  0.000  0.000  0.000  0.204
   10  0.196  0.000  0.000  0.003  0.000  0.000  0.000  0.000  0.000  0.199
   11  0.000  0.000  0.000  0.000  0.000  0.000  0.000  0.000  0.000  0.000
   12  0.000  0.000  0.000  0.000  0.000  0.000  0.000  0.000  0.000  0.000
   13  0.000  0.000  0.000  0.000  0.000  0.000  0.000  0.000  0.000  0.001
   14  0.000  0.000  0.000  0.000  0.000  0.000  0.000  0.000  0.000  0.000
   15  0.000  0.000  0.000  0.000  0.000  0.000  0.000  0.000  0.000  0.000
tot    0.442  0.012  0.000  0.074  0.019  0.000  0.002  0.000  0.000  0.549

band     6 # energy   -9.43430452 # occ.  2.00000000

ion      s     py     pz     px    dxy    dyz    dz2    dxz  x2-y2    tot
    1  0.011  0.001  0.000  0.000  0.000  0.000  0.000  0.000  0.000  0.013
    2  0.002  0.000  0.000  0.000  0.000  0.000  0.000  0.000  0.000  0.003
    3  0.070  0.006  0.001  0.000  0.000  0.000  0.001  0.000  0.001  0.080
    4  0.019  0.009  0.001  0.000  0.000  0.000  0.000  0.000  0.002  0.033
    5  0.024  0.011  0.001  0.000  0.000  0.000  0.001  0.000  0.002  0.040
    6  0.074  0.007  0.001  0.001  0.000  0.000  0.001  0.000  0.001  0.085
    7  0.002  0.001  0.000  0.000  0.000  0.000  0.000  0.000  0.000  0.003
    8  0.012  0.001  0.000  0.000  0.000  0.000  0.000  0.000  0.000  0.013
    9  0.001  0.002  0.000  0.001  0.000  0.000  0.000  0.000  0.000  0.004
   10  0.000  0.004  0.000  0.001  0.000  0.000  0.000  0.000  0.000  0.005
   11  0.001  0.003  0.001  0.065  0.000  0.000  0.000  0.000  0.000  0.070
   12  0.002  0.004  0.038  0.052  0.000  0.000  0.000  0.000  0.000  0.095
   13  0.001  0.002  0.002  0.002  0.000  0.000  0.000  0.000  0.000  0.008
   14  0.043  0.000  0.001  0.001  0.000  0.000  0.000  0.000  0.000  0.046
   15  0.002  0.000  0.000  0.000  0.000  0.000  0.000  0.000  0.000  0.002
tot    0.265  0.051  0.047  0.124  0.001  0.001  0.003  0.001  0.005  0.498

band     7 # energy   -9.27189823 # occ.  2.00000000

ion      s     py     pz     px    dxy    dyz    dz2    dxz  x2-y2    tot
    1  0.012  0.002  0.000  0.000  0.000  0.000  0.000  0.000  0.000  0.014
    2  0.020  0.003  0.000  0.001  0.000  0.000  0.000  0.000  0.000  0.024
    3  0.014  0.004  0.000  0.001  0.000  0.000  0.000  0.000  0.001  0.021
    4  0.083  0.001  0.000  0.002  0.000  0.000  0.001  0.000  0.000  0.087
    5  0.074  0.001  0.000  0.002  0.000  0.000  0.001  0.000  0.000  0.079
    6  0.011  0.006  0.000  0.000  0.000  0.000  0.000  0.000  0.002  0.019
    7  0.020  0.003  0.000  0.001  0.000  0.000  0.000  0.000  0.000  0.024
    8  0.012  0.003  0.000  0.000  0.000  0.000  0.000  0.000  0.000  0.015
    9  0.001  0.010  0.000  0.000  0.000  0.000  0.000  0.000  0.000  0.011
   10  0.003  0.008  0.000  0.000  0.000  0.000  0.000  0.000  0.000  0.011
   11  0.004  0.031  0.001  0.012  0.000  0.000  0.000  0.000  0.000  0.048
   12  0.000  0.022  0.003  0.011  0.000  0.000  0.000  0.000  0.000  0.036
   13  0.007  0.006  0.017  0.001  0.000  0.000  0.001  0.000  0.001  0.032
   14  0.003  0.000  0.000  0.000  0.000  0.000  0.000  0.000  0.000  0.004
   15  0.009  0.000  0.000  0.000  0.000  0.000  0.000  0.000  0.000  0.009
tot    0.271  0.101  0.022  0.031  0.001  0.000  0.004  0.000  0.005  0.435

band     8 # energy   -8.89976966 # occ.  2.00000000

ion      s     py     pz     px    dxy    dyz    dz2    dxz  x2-y2    tot
    1  0.047  0.014  0.000  0.005  0.002  0.000  0.001  0.000  0.002  0.072
    2  0.056  0.013  0.000  0.006  0.002  0.000  0.001  0.000  0.002  0.080
    3  0.000  0.001  0.000  0.000  0.000  0.000  0.000  0.000  0.000  0.001
    4  0.002  0.001  0.000  0.000  0.000  0.000  0.000  0.000  0.000  0.003
    5  0.002  0.001  0.000  0.000  0.000  0.000  0.000  0.000  0.000  0.003
    6  0.000  0.001  0.000  0.000  0.000  0.000  0.000  0.000  0.000  0.001
    7  0.059  0.013  0.000  0.006  0.002  0.000  0.001  0.000  0.002  0.084
    8  0.050  0.014  0.000  0.006  0.002  0.000  0.001  0.000  0.002  0.076
    9  0.020  0.000  0.000  0.096  0.000  0.000  0.000  0.000  0.000  0.116
   10  0.018  0.000  0.000  0.097  0.000  0.000  0.000  0.000  0.000  0.115
   11  0.000  0.000  0.000  0.001  0.000  0.000  0.000  0.000  0.000  0.002
   12  0.000  0.000  0.001  0.001  0.000  0.000  0.000  0.000  0.000  0.002
   13  0.000  0.000  0.000  0.000  0.000  0.000  0.000  0.000  0.000  0.001
   14  0.001  0.000  0.000  0.000  0.000  0.000  0.000  0.000  0.000  0.001
   15  0.000  0.000  0.000  0.000  0.000  0.000  0.000  0.000  0.000  0.000
tot    0.256  0.059  0.002  0.218  0.009  0.000  0.004  0.000  0.008  0.556

band     9 # energy   -8.49884371 # occ.  2.00000000

ion      s     py     pz     px    dxy    dyz    dz2    dxz  x2-y2    tot
    1  0.033  0.003  0.000  0.001  0.000  0.000  0.000  0.000  0.001  0.038
    2  0.025  0.003  0.000  0.000  0.000  0.000  0.000  0.000  0.001  0.030
    3  0.038  0.004  0.000  0.003  0.001  0.000  0.000  0.000  0.000  0.046
    4  0.010  0.004  0.000  0.001  0.000  0.000  0.000  0.000  0.001  0.016
    5  0.011  0.003  0.001  0.001  0.001  0.000  0.000  0.000  0.001  0.019
    6  0.027  0.005  0.000  0.005  0.001  0.000  0.000  0.000  0.000  0.039
    7  0.026  0.004  0.000  0.001  0.000  0.000  0.000  0.000  0.001  0.031
    8  0.035  0.003  0.000  0.001  0.000  0.000  0.000  0.000  0.001  0.040
    9  0.001  0.024  0.000  0.000  0.000  0.000  0.000  0.000  0.000  0.026
   10  0.003  0.024  0.000  0.000  0.000  0.000  0.000  0.000  0.000  0.027
   11  0.018  0.015  0.001  0.006  0.000  0.000  0.000  0.000  0.000  0.040
   12  0.000  0.009  0.016  0.012  0.000  0.000  0.000  0.000  0.000  0.037
   13  0.002  0.012  0.014  0.001  0.000  0.000  0.001  0.000  0.001  0.031
   14  0.015  0.000  0.000  0.000  0.000  0.000  0.000  0.000  0.000  0.015
   15  0.010  0.000  0.000  0.000  0.000  0.000  0.000  0.000  0.000  0.011
tot    0.254  0.113  0.033  0.033  0.003  0.000  0.003  0.001  0.007  0.447

band    10 # energy   -7.92429926 # occ.  2.00000000

ion      s     py     pz     px    dxy    dyz    dz2    dxz  x2-y2    tot
    1  0.006  0.000  0.000  0.000  0.000  0.000  0.000  0.000  0.000  0.007
    2  0.007  0.000  0.000  0.000  0.000  0.000  0.000  0.000  0.000  0.008
    3  0.003  0.002  0.001  0.008  0.001  0.000  0.000  0.000  0.001  0.018
    4  0.010  0.003  0.003  0.010  0.001  0.000  0.000  0.000  0.000  0.028
    5  0.007  0.005  0.001  0.008  0.002  0.000  0.000  0.000  0.000  0.023
    6  0.005  0.004  0.001  0.006  0.001  0.000  0.000  0.000  0.001  0.019
    7  0.009  0.000  0.000  0.000  0.000  0.000  0.000  0.000  0.000  0.010
    8  0.008  0.000  0.000  0.000  0.000  0.000  0.000  0.000  0.000  0.009
    9  0.000  0.009  0.000  0.000  0.000  0.000  0.000  0.000  0.000  0.009
   10  0.000  0.008  0.000  0.000  0.000  0.000  0.000  0.000  0.000  0.008
   11  0.006  0.002  0.002  0.006  0.000  0.000  0.000  0.000  0.000  0.016
   12  0.017  0.009  0.136  0.024  0.000  0.000  0.000  0.000  0.000  0.186
   13  0.001  0.028  0.010  0.003  0.000  0.000  0.001  0.000  0.001  0.044
   14  0.096  0.000  0.002  0.000  0.000  0.000  0.000  0.000  0.000  0.099
   15  0.019  0.000  0.000  0.000  0.000  0.000  0.000  0.000  0.000  0.019
tot    0.195  0.072  0.156  0.066  0.007  0.001  0.003  0.001  0.005  0.504

band    11 # energy   -7.46488034 # occ.  2.00000000

ion      s     py     pz     px    dxy    dyz    dz2    dxz  x2-y2    tot
    1  0.007  0.002  0.000  0.000  0.000  0.000  0.000  0.000  0.000  0.009
    2  0.004  0.001  0.000  0.000  0.000  0.000  0.000  0.000  0.000  0.005
    3  0.003  0.002  0.003  0.002  0.000  0.000  0.000  0.001  0.000  0.011
    4  0.003  0.001  0.002  0.003  0.000  0.000  0.000  0.001  0.000  0.010
    5  0.012  0.001  0.001  0.005  0.000  0.000  0.000  0.000  0.000  0.019
    6  0.013  0.001  0.000  0.004  0.001  0.000  0.000  0.000  0.000  0.020
    7  0.001  0.002  0.000  0.001  0.000  0.000  0.000  0.000  0.000  0.003
    8  0.002  0.003  0.000  0.001  0.000  0.000  0.000  0.000  0.000  0.006
    9  0.001  0.006  0.000  0.000  0.000  0.000  0.000  0.000  0.000  0.008
   10  0.002  0.001  0.000  0.000  0.000  0.000  0.000  0.000  0.000  0.003
   11  0.009  0.000  0.004  0.001  0.000  0.000  0.000  0.000  0.000  0.014
   12  0.001  0.015  0.024  0.002  0.000  0.000  0.000  0.000  0.000  0.042
   13  0.031  0.206  0.019  0.003  0.000  0.000  0.004  0.000  0.008  0.270
   14  0.015  0.001  0.000  0.000  0.000  0.000  0.000  0.000  0.000  0.016
   15  0.119  0.001  0.000  0.000  0.000  0.000  0.000  0.000  0.000  0.120
tot    0.221  0.242  0.053  0.023  0.001  0.001  0.005  0.002  0.009  0.557

band    12 # energy   -6.99758503 # occ.  2.00000000

ion      s     py     pz     px    dxy    dyz    dz2    dxz  x2-y2    tot
    1  0.008  0.002  0.000  0.006  0.000  0.000  0.000  0.000  0.000  0.017
    2  0.008  0.003  0.000  0.006  0.000  0.000  0.000  0.000  0.000  0.018
    3  0.017  0.001  0.002  0.017  0.000  0.000  0.000  0.000  0.000  0.038
    4  0.019  0.002  0.001  0.016  0.000  0.000  0.000  0.000  0.000  0.040
    5  0.016  0.002  0.000  0.014  0.000  0.000  0.000  0.000  0.000  0.032
    6  0.021  0.001  0.000  0.014  0.000  0.000  0.000  0.000  0.000  0.036
    7  0.010  0.003  0.000  0.006  0.000  0.000  0.000  0.000  0.000  0.019
    8  0.005  0.003  0.000  0.006  0.000  0.000  0.000  0.000  0.000  0.015
    9  0.001  0.012  0.000  0.002  0.000  0.000  0.000  0.000  0.000  0.015
   10  0.000  0.018  0.000  0.002  0.000  0.000  0.000  0.000  0.000  0.019
   11  0.001  0.043  0.000  0.001  0.000  0.000  0.000  0.000  0.000  0.045
   12  0.000  0.052  0.001  0.001  0.000  0.000  0.000  0.000  0.000  0.054
   13  0.013  0.045  0.004  0.010  0.000  0.000  0.000  0.000  0.002  0.074
   14  0.002  0.001  0.000  0.000  0.000  0.000  0.000  0.000  0.000  0.003
   15  0.020  0.000  0.000  0.000  0.000  0.000  0.000  0.000  0.000  0.020
tot    0.141  0.190  0.009  0.100  0.001  0.000  0.000  0.001  0.002  0.445

band    13 # energy   -6.29606164 # occ.  2.00000000

ion      s     py     pz     px    dxy    dyz    dz2    dxz  x2-y2    tot
    1  0.016  0.002  0.000  0.022  0.001  0.000  0.000  0.000  0.000  0.041
    2  0.016  0.001  0.000  0.022  0.001  0.000  0.000  0.000  0.000  0.040
    3  0.002  0.005  0.000  0.007  0.001  0.000  0.000  0.000  0.000  0.015
    4  0.005  0.003  0.001  0.007  0.001  0.000  0.000  0.000  0.000  0.016
    5  0.007  0.005  0.000  0.006  0.000  0.000  0.000  0.000  0.000  0.019
    6  0.002  0.005  0.001  0.006  0.000  0.000  0.000  0.000  0.000  0.013
    7  0.014  0.003  0.000  0.024  0.000  0.000  0.000  0.000  0.000  0.041
    8  0.021  0.002  0.000  0.022  0.001  0.000  0.000  0.000  0.000  0.046
    9  0.001  0.054  0.000  0.001  0.000  0.000  0.000  0.000  0.000  0.056
   10  0.000  0.078  0.000  0.001  0.000  0.000  0.000  0.000  0.000  0.079
   11  0.002  0.016  0.001  0.003  0.000  0.000  0.000  0.000  0.000  0.021
   12  0.000  0.030  0.001  0.002  0.000  0.000  0.000  0.000  0.000  0.033
   13  0.002  0.005  0.010  0.005  0.000  0.000  0.000  0.000  0.000  0.022
   14  0.001  0.001  0.000  0.000  0.000  0.000  0.000  0.000  0.000  0.001
   15  0.002  0.000  0.000  0.000  0.000  0.000  0.000  0.000  0.000  0.002
tot    0.092  0.209  0.013  0.126  0.005  0.000  0.001  0.000  0.002  0.447

band    14 # energy   -5.63463880 # occ.  2.00000000

ion      s     py     pz     px    dxy    dyz    dz2    dxz  x2-y2    tot
    1  0.009  0.003  0.003  0.001  0.000  0.000  0.000  0.000  0.002  0.017
    2  0.015  0.006  0.003  0.002  0.000  0.000  0.000  0.000  0.001  0.028
    3  0.012  0.006  0.004  0.001  0.000  0.000  0.000  0.001  0.001  0.025
    4  0.008  0.010  0.006  0.000  0.000  0.000  0.000  0.001  0.001  0.026
    5  0.015  0.007  0.000  0.000  0.000  0.000  0.000  0.000  0.001  0.025
    6  0.014  0.007  0.000  0.002  0.001  0.000  0.000  0.000  0.001  0.025
    7  0.010  0.006  0.001  0.001  0.000  0.000  0.000  0.000  0.002  0.020
    8  0.005  0.008  0.001  0.001  0.000  0.000  0.000  0.000  0.002  0.018
    9  0.004  0.037  0.003  0.000  0.000  0.000  0.000  0.000  0.000  0.045
   10  0.004  0.011  0.003  0.000  0.000  0.000  0.000  0.000  0.000  0.018
   11  0.012  0.024  0.006  0.001  0.000  0.000  0.000  0.000  0.000  0.042
   12  0.007  0.008  0.003  0.002  0.000  0.000  0.000  0.000  0.000  0.020
   13  0.018  0.029  0.092  0.014  0.000  0.000  0.000  0.000  0.000  0.154
   14  0.000  0.000  0.000  0.000  0.000  0.000  0.000  0.000  0.000  0.000
   15  0.008  0.000  0.000  0.000  0.000  0.000  0.000  0.000  0.000  0.008
tot    0.142  0.164  0.125  0.025  0.002  0.001  0.001  0.002  0.011  0.472

band    15 # energy   -5.02074703 # occ.  2.00000000

ion      s     py     pz     px    dxy    dyz    dz2    dxz  x2-y2    tot
    1  0.003  0.004  0.006  0.001  0.000  0.001  0.000  0.000  0.000  0.015
    2  0.005  0.007  0.007  0.000  0.000  0.001  0.000  0.000  0.000  0.020
    3  0.004  0.003  0.012  0.002  0.001  0.000  0.000  0.000  0.000  0.023
    4  0.001  0.010  0.007  0.001  0.000  0.000  0.000  0.001  0.001  0.021
    5  0.002  0.007  0.001  0.007  0.001  0.001  0.000  0.000  0.000  0.019
    6  0.000  0.004  0.004  0.004  0.001  0.000  0.000  0.000  0.002  0.015
    7  0.003  0.002  0.006  0.000  0.000  0.001  0.000  0.000  0.000  0.014
    8  0.005  0.004  0.007  0.001  0.000  0.001  0.000  0.000  0.000  0.019
    9  0.003  0.000  0.026  0.000  0.000  0.000  0.000  0.000  0.000  0.028
   10  0.004  0.008  0.023  0.001  0.000  0.000  0.000  0.000  0.000  0.036
   11  0.001  0.024  0.016  0.026  0.000  0.000  0.000  0.000  0.000  0.067
   12  0.000  0.014  0.000  0.006  0.000  0.000  0.000  0.000  0.000  0.021
   13  0.004  0.005  0.033  0.060  0.000  0.000  0.000  0.001  0.000  0.103
   14  0.000  0.000  0.000  0.000  0.000  0.000  0.000  0.000  0.000  0.001
   15  0.002  0.000  0.000  0.000  0.000  0.000  0.000  0.000  0.000  0.002
tot    0.037  0.094  0.148  0.111  0.003  0.004  0.001  0.003  0.004  0.405

band    16 # energy   -4.91974985 # occ.  2.00000000

ion      s     py     pz     px    dxy    dyz    dz2    dxz  x2-y2    tot
    1  0.001  0.001  0.013  0.001  0.000  0.002  0.000  0.000  0.000  0.017
    2  0.000  0.001  0.012  0.001  0.000  0.002  0.000  0.000  0.000  0.016
    3  0.002  0.002  0.003  0.002  0.001  0.000  0.000  0.000  0.000  0.010
    4  0.003  0.003  0.006  0.001  0.001  0.000  0.000  0.000  0.000  0.014
    5  0.001  0.000  0.003  0.006  0.001  0.000  0.000  0.000  0.000  0.012
    6  0.001  0.001  0.001  0.006  0.001  0.000  0.000  0.000  0.000  0.011
    7  0.000  0.000  0.017  0.001  0.000  0.001  0.000  0.000  0.000  0.019
    8  0.000  0.000  0.015  0.000  0.000  0.001  0.000  0.000  0.000  0.018
    9  0.000  0.003  0.050  0.000  0.000  0.000  0.000  0.000  0.000  0.053
   10  0.000  0.003  0.055  0.000  0.000  0.000  0.000  0.000  0.000  0.058
   11  0.002  0.006  0.006  0.026  0.000  0.000  0.000  0.000  0.000  0.040
   12  0.001  0.009  0.003  0.006  0.000  0.000  0.000  0.000  0.000  0.019
   13  0.003  0.009  0.009  0.069  0.000  0.000  0.000  0.001  0.000  0.091
   14  0.000  0.000  0.000  0.000  0.000  0.000  0.000  0.000  0.000  0.001
   15  0.004  0.000  0.000  0.000  0.000  0.000  0.000  0.000  0.000  0.004
tot    0.017  0.039  0.193  0.120  0.003  0.007  0.001  0.002  0.001  0.383

band    17 # energy   -4.80592106 # occ.  2.00000000

ion      s     py     pz     px    dxy    dyz    dz2    dxz  x2-y2    tot
    1  0.008  0.014  0.002  0.001  0.000  0.000  0.000  0.000  0.001  0.026
    2  0.001  0.002  0.001  0.002  0.000  0.000  0.000  0.000  0.000  0.006
    3  0.008  0.022  0.003  0.003  0.000  0.000  0.001  0.001  0.002  0.040
    4  0.013  0.005  0.002  0.007  0.001  0.000  0.001  0.000  0.000  0.029
    5  0.001  0.002  0.007  0.004  0.001  0.001  0.000  0.000  0.001  0.017
    6  0.005  0.002  0.007  0.005  0.001  0.001  0.000  0.000  0.000  0.021
    7  0.005  0.004  0.001  0.003  0.000  0.000  0.000  0.000  0.000  0.013
    8  0.003  0.000  0.001  0.002  0.000  0.000  0.000  0.000  0.000  0.006
    9  0.003  0.011  0.004  0.002  0.000  0.000  0.000  0.000  0.000  0.021
   10  0.002  0.001  0.003  0.001  0.000  0.000  0.000  0.000  0.000  0.008
   11  0.002  0.016  0.035  0.005  0.000  0.000  0.000  0.000  0.000  0.058
   12  0.001  0.017  0.004  0.028  0.000  0.000  0.000  0.000  0.000  0.051
   13  0.003  0.007  0.010  0.138  0.000  0.001  0.000  0.002  0.001  0.162
   14  0.003  0.000  0.000  0.000  0.000  0.000  0.000  0.000  0.000  0.004
   15  0.006  0.000  0.000  0.000  0.000  0.000  0.000  0.000  0.000  0.007
tot    0.064  0.104  0.080  0.203  0.004  0.003  0.002  0.003  0.005  0.468

band    18 # energy   -4.46812253 # occ.  2.00000000

ion      s     py     pz     px    dxy    dyz    dz2    dxz  x2-y2    tot
    1  0.002  0.001  0.001  0.002  0.001  0.000  0.000  0.000  0.000  0.008
    2  0.004  0.003  0.000  0.000  0.000  0.000  0.000  0.000  0.000  0.009
    3  0.004  0.001  0.006  0.006  0.004  0.001  0.000  0.001  0.001  0.025
    4  0.001  0.007  0.004  0.012  0.004  0.001  0.000  0.001  0.001  0.032
    5  0.002  0.005  0.005  0.015  0.006  0.001  0.000  0.001  0.002  0.037
    6  0.008  0.001  0.003  0.012  0.005  0.001  0.000  0.000  0.002  0.030
    7  0.004  0.005  0.001  0.000  0.000  0.000  0.000  0.000  0.000  0.012
    8  0.002  0.002  0.002  0.002  0.001  0.000  0.000  0.000  0.000  0.009
    9  0.002  0.005  0.004  0.001  0.000  0.000  0.000  0.000  0.000  0.011
   10  0.004  0.002  0.005  0.005  0.000  0.000  0.000  0.000  0.000  0.016
   11  0.000  0.010  0.000  0.084  0.000  0.000  0.000  0.000  0.000  0.095
   12  0.008  0.013  0.011  0.101  0.000  0.000  0.000  0.000  0.000  0.133
   13  0.000  0.004  0.094  0.002  0.000  0.000  0.000  0.000  0.000  0.100
   14  0.005  0.000  0.000  0.002  0.000  0.000  0.000  0.000  0.000  0.007
   15  0.000  0.000  0.000  0.000  0.000  0.000  0.000  0.000  0.000  0.000
tot    0.047  0.059  0.137  0.245  0.021  0.004  0.001  0.003  0.006  0.523

band    19 # energy   -4.17302869 # occ.  2.00000000

ion      s     py     pz     px    dxy    dyz    dz2    dxz  x2-y2    tot
    1  0.002  0.001  0.000  0.006  0.000  0.000  0.000  0.000  0.001  0.009
    2  0.000  0.003  0.000  0.012  0.001  0.000  0.000  0.000  0.000  0.017
    3  0.001  0.002  0.002  0.010  0.002  0.000  0.000  0.000  0.000  0.018
    4  0.003  0.000  0.003  0.002  0.000  0.000  0.000  0.000  0.001  0.009
    5  0.034  0.025  0.001  0.001  0.000  0.000  0.000  0.000  0.001  0.063
    6  0.023  0.036  0.001  0.006  0.001  0.000  0.000  0.000  0.002  0.069
    7  0.016  0.028  0.000  0.007  0.001  0.000  0.000  0.000  0.002  0.054
    8  0.029  0.032  0.000  0.002  0.000  0.000  0.000  0.000  0.002  0.065
    9  0.002  0.012  0.000  0.011  0.000  0.000  0.000  0.000  0.000  0.025
   10  0.001  0.027  0.001  0.003  0.000  0.000  0.000  0.000  0.000  0.032
   11  0.000  0.019  0.004  0.015  0.000  0.000  0.000  0.000  0.000  0.038
   12  0.001  0.018  0.001  0.006  0.000  0.000  0.000  0.000  0.000  0.026
   13  0.000  0.001  0.003  0.010  0.000  0.000  0.000  0.000  0.000  0.013
   14  0.001  0.000  0.000  0.000  0.000  0.000  0.000  0.000  0.000  0.001
   15  0.000  0.000  0.000  0.000  0.000  0.000  0.000  0.000  0.000  0.000
tot    0.113  0.204  0.017  0.092  0.006  0.001  0.001  0.001  0.008  0.441

band    20 # energy   -4.04285619 # occ.  2.00000000

ion      s     py     pz     px    dxy    dyz    dz2    dxz  x2-y2    tot
    1  0.005  0.004  0.000  0.026  0.011  0.000  0.000  0.000  0.001  0.048
    2  0.008  0.006  0.000  0.017  0.010  0.000  0.000  0.000  0.001  0.042
    3  0.001  0.001  0.001  0.001  0.001  0.000  0.000  0.000  0.000  0.004
    4  0.001  0.002  0.001  0.001  0.001  0.000  0.000  0.000  0.000  0.007
    5  0.001  0.003  0.001  0.001  0.001  0.000  0.000  0.000  0.000  0.007
    6  0.002  0.001  0.001  0.001  0.001  0.000  0.000  0.000  0.000  0.006
    7  0.010  0.001  0.000  0.022  0.011  0.000  0.000  0.000  0.002  0.046
    8  0.003  0.005  0.000  0.030  0.013  0.000  0.000  0.000  0.001  0.052
    9  0.010  0.009  0.000  0.147  0.000  0.000  0.000  0.000  0.000  0.165
   10  0.011  0.001  0.001  0.151  0.000  0.000  0.000  0.000  0.000  0.164
   11  0.001  0.002  0.014  0.009  0.000  0.000  0.000  0.000  0.000  0.026
   12  0.002  0.002  0.003  0.005  0.000  0.000  0.000  0.000  0.000  0.011
   13  0.000  0.000  0.001  0.000  0.000  0.000  0.000  0.000  0.000  0.002
   14  0.002  0.000  0.000  0.000  0.000  0.000  0.000  0.000  0.000  0.002
   15  0.001  0.000  0.000  0.000  0.000  0.000  0.000  0.000  0.000  0.001
tot    0.056  0.035  0.023  0.412  0.047  0.001  0.000  0.001  0.006  0.582

band    21 # energy   -3.84438800 # occ.  2.00000000

ion      s     py     pz     px    dxy    dyz    dz2    dxz  x2-y2    tot
    1  0.003  0.002  0.000  0.004  0.001  0.000  0.000  0.000  0.002  0.013
    2  0.005  0.015  0.000  0.010  0.003  0.000  0.000  0.000  0.002  0.034
    3  0.005  0.001  0.001  0.003  0.002  0.000  0.001  0.000  0.001  0.013
    4  0.002  0.014  0.001  0.004  0.002  0.000  0.001  0.001  0.002  0.027
    5  0.001  0.012  0.006  0.004  0.001  0.000  0.000  0.001  0.002  0.027
    6  0.005  0.006  0.006  0.001  0.001  0.000  0.000  0.002  0.002  0.022
    7  0.004  0.016  0.000  0.010  0.002  0.000  0.000  0.000  0.001  0.033
    8  0.000  0.011  0.000  0.002  0.001  0.000  0.000  0.000  0.002  0.016
    9  0.000  0.030  0.001  0.033  0.000  0.000  0.000  0.000  0.000  0.064
   10  0.000  0.003  0.002  0.029  0.000  0.000  0.000  0.000  0.000  0.034
   11  0.001  0.027  0.057  0.017  0.000  0.000  0.000  0.000  0.000  0.102
   12  0.002  0.017  0.005  0.013  0.000  0.000  0.000  0.000  0.000  0.038
   13  0.000  0.000  0.011  0.020  0.000  0.001  0.000  0.000  0.001  0.033
   14  0.003  0.000  0.000  0.000  0.000  0.000  0.000  0.000  0.000  0.003
   15  0.002  0.000  0.000  0.000  0.000  0.000  0.000  0.000  0.000  0.003
tot    0.035  0.154  0.089  0.150  0.013  0.003  0.002  0.003  0.013  0.462

band    22 # energy   -3.51304289 # occ.  2.00000000

ion      s     py     pz     px    dxy    dyz    dz2    dxz  x2-y2    tot
    1  0.027  0.030  0.001  0.003  0.001  0.000  0.000  0.000  0.002  0.063
    2  0.019  0.016  0.000  0.001  0.000  0.000  0.000  0.000  0.002  0.040
    3  0.009  0.024  0.005  0.003  0.000  0.000  0.000  0.000  0.002  0.044
    4  0.019  0.012  0.008  0.002  0.001  0.001  0.001  0.000  0.000  0.043
    5  0.001  0.003  0.000  0.001  0.000  0.000  0.000  0.000  0.001  0.005
    6  0.000  0.010  0.000  0.002  0.001  0.000  0.000  0.000  0.000  0.013
    7  0.001  0.004  0.000  0.004  0.000  0.000  0.000  0.000  0.001  0.010
    8  0.002  0.005  0.000  0.006  0.000  0.000  0.000  0.000  0.001  0.015
    9  0.001  0.000  0.000  0.002  0.000  0.000  0.000  0.000  0.000  0.003
   10  0.001  0.043  0.000  0.004  0.000  0.000  0.000  0.000  0.000  0.049
   11  0.000  0.013  0.003  0.008  0.000  0.000  0.000  0.000  0.000  0.024
   12  0.001  0.008  0.002  0.002  0.000  0.000  0.000  0.000  0.000  0.013
   13  0.000  0.000  0.006  0.149  0.000  0.000  0.000  0.000  0.000  0.156
   14  0.002  0.000  0.000  0.000  0.000  0.000  0.000  0.000  0.000  0.002
   15  0.000  0.000  0.000  0.000  0.000  0.000  0.000  0.000  0.000  0.001
tot    0.084  0.168  0.025  0.188  0.003  0.001  0.001  0.001  0.010  0.481

band    23 # energy   -3.11309012 # occ.  2.00000000

ion      s     py     pz     px    dxy    dyz    dz2    dxz  x2-y2    tot
    1  0.004  0.015  0.001  0.000  0.000  0.000  0.000  0.000  0.002  0.023
    2  0.009  0.016  0.001  0.001  0.000  0.000  0.000  0.000  0.002  0.030
    3  0.010  0.007  0.003  0.002  0.001  0.002  0.001  0.000  0.000  0.025
    4  0.004  0.007  0.003  0.000  0.001  0.001  0.001  0.000  0.002  0.018
    5  0.002  0.007  0.010  0.001  0.000  0.000  0.000  0.002  0.000  0.024
    6  0.003  0.004  0.013  0.002  0.000  0.000  0.000  0.001  0.001  0.024
    7  0.002  0.003  0.000  0.001  0.000  0.000  0.000  0.000  0.002  0.009
    8  0.002  0.004  0.001  0.001  0.000  0.000  0.000  0.000  0.002  0.010
    9  0.001  0.027  0.002  0.001  0.000  0.000  0.000  0.000  0.000  0.030
   10  0.000  0.015  0.008  0.001  0.000  0.000  0.000  0.000  0.000  0.025
   11  0.002  0.007  0.062  0.003  0.000  0.000  0.000  0.000  0.000  0.074
   12  0.002  0.006  0.002  0.008  0.000  0.000  0.000  0.000  0.000  0.017
   13  0.002  0.002  0.125  0.003  0.000  0.000  0.000  0.000  0.000  0.132
   14  0.001  0.000  0.000  0.000  0.000  0.000  0.000  0.000  0.000  0.002
   15  0.001  0.000  0.000  0.000  0.000  0.000  0.000  0.000  0.000  0.001
tot    0.043  0.120  0.229  0.024  0.003  0.004  0.003  0.004  0.012  0.441

band    24 # energy   -2.85610983 # occ.  2.00000000

ion      s     py     pz     px    dxy    dyz    dz2    dxz  x2-y2    tot
    1  0.000  0.000  0.008  0.000  0.000  0.001  0.000  0.006  0.000  0.015
    2  0.000  0.001  0.008  0.000  0.000  0.001  0.000  0.006  0.000  0.017
    3  0.000  0.000  0.000  0.000  0.000  0.000  0.000  0.000  0.000  0.000
    4  0.000  0.000  0.000  0.000  0.000  0.000  0.000  0.000  0.000  0.001
    5  0.000  0.000  0.001  0.000  0.000  0.000  0.000  0.000  0.000  0.001
    6  0.000  0.000  0.000  0.000  0.000  0.000  0.000  0.000  0.000  0.001
    7  0.000  0.000  0.010  0.000  0.000  0.001  0.000  0.007  0.000  0.018
    8  0.000  0.000  0.009  0.000  0.000  0.001  0.000  0.007  0.000  0.018
    9  0.000  0.002  0.137  0.001  0.000  0.000  0.000  0.000  0.000  0.140
   10  0.000  0.000  0.123  0.001  0.000  0.000  0.000  0.000  0.000  0.124
   11  0.000  0.000  0.003  0.000  0.000  0.000  0.000  0.000  0.000  0.003
   12  0.000  0.000  0.000  0.000  0.000  0.000  0.000  0.000  0.000  0.000
   13  0.000  0.001  0.008  0.001  0.000  0.000  0.000  0.000  0.000  0.011
   14  0.000  0.000  0.000  0.000  0.000  0.000  0.000  0.000  0.000  0.000
   15  0.000  0.000  0.000  0.000  0.000  0.000  0.000  0.000  0.000  0.000
tot    0.002  0.006  0.308  0.004  0.000  0.003  0.000  0.027  0.000  0.350

band    25 # energy   -0.65047818 # occ.  0.00000000

ion      s     py     pz     px    dxy    dyz    dz2    dxz  x2-y2    tot
    1  0.001  0.001  0.015  0.000  0.000  0.000  0.000  0.000  0.000  0.018
    2  0.001  0.002  0.015  0.000  0.000  0.000  0.000  0.000  0.000  0.018
    3  0.001  0.000  0.003  0.001  0.001  0.001  0.001  0.000  0.000  0.006
    4  0.000  0.000  0.000  0.001  0.000  0.001  0.000  0.001  0.000  0.004
    5  0.001  0.001  0.013  0.000  0.001  0.003  0.000  0.001  0.000  0.020
    6  0.000  0.000  0.016  0.002  0.000  0.003  0.000  0.001  0.000  0.023
    7  0.001  0.000  0.018  0.000  0.000  0.003  0.000  0.000  0.000  0.022
    8  0.001  0.000  0.018  0.000  0.000  0.003  0.000  0.000  0.000  0.023
    9  0.001  0.000  0.002  0.000  0.000  0.000  0.000  0.000  0.000  0.004
   10  0.000  0.001  0.003  0.000  0.000  0.000  0.000  0.000  0.000  0.004
   11  0.001  0.002  0.034  0.001  0.000  0.000  0.000  0.000  0.000  0.038
   12  0.000  0.000  0.004  0.001  0.000  0.000  0.000  0.000  0.000  0.005
   13  0.002  0.000  0.010  0.002  0.000  0.001  0.000  0.000  0.001  0.016
   14  0.003  0.000  0.000  0.000  0.000  0.000  0.000  0.000  0.000  0.004
   15  0.002  0.000  0.000  0.000  0.000  0.000  0.000  0.000  0.000  0.002
tot    0.014  0.008  0.152  0.008  0.002  0.015  0.001  0.003  0.002  0.206

band    26 # energy    0.08150010 # occ.  0.00000000

ion      s     py     pz     px    dxy    dyz    dz2    dxz  x2-y2    tot
    1  0.008  0.001  0.002  0.004  0.004  0.001  0.000  0.000  0.000  0.019
    2  0.008  0.000  0.005  0.005  0.003  0.001  0.000  0.000  0.000  0.022
    3  0.008  0.000  0.003  0.006  0.004  0.001  0.000  0.001  0.000  0.022
    4  0.014  0.000  0.008  0.006  0.005  0.000  0.000  0.000  0.000  0.035
    5  0.009  0.000  0.003  0.014  0.006  0.000  0.000  0.000  0.001  0.034
    6  0.005  0.001  0.002  0.008  0.007  0.000  0.000  0.000  0.001  0.024
    7  0.012  0.001  0.002  0.005  0.006  0.000  0.000  0.000  0.000  0.026
    8  0.011  0.001  0.000  0.004  0.006  0.000  0.000  0.000  0.000  0.023
    9  0.006  0.005  0.002  0.000  0.000  0.000  0.000  0.000  0.000  0.013
   10  0.006  0.000  0.004  0.000  0.000  0.000  0.000  0.000  0.000  0.011
   11  0.009  0.000  0.004  0.001  0.000  0.000  0.000  0.000  0.000  0.013
   12  0.012  0.001  0.002  0.001  0.000  0.000  0.000  0.000  0.000  0.016
   13  0.002  0.000  0.002  0.012  0.000  0.001  0.001  0.001  0.001  0.020
   14  0.001  0.000  0.000  0.000  0.000  0.000  0.000  0.000  0.000  0.001
   15  0.001  0.000  0.000  0.000  0.000  0.000  0.000  0.000  0.000  0.001
tot    0.110  0.010  0.039  0.066  0.041  0.005  0.002  0.003  0.004  0.280

band    27 # energy    0.34975506 # occ.  0.00000000

ion      s     py     pz     px    dxy    dyz    dz2    dxz  x2-y2    tot
    1  0.000  0.000  0.005  0.003  0.002  0.002  0.000  0.000  0.000  0.013
    2  0.003  0.000  0.005  0.003  0.002  0.003  0.000  0.000  0.000  0.016
    3  0.007  0.001  0.004  0.002  0.003  0.001  0.001  0.001  0.000  0.019
    4  0.003  0.002  0.009  0.007  0.001  0.000  0.003  0.001  0.000  0.026
    5  0.005  0.001  0.027  0.000  0.001  0.001  0.001  0.000  0.000  0.036
    6  0.005  0.000  0.005  0.000  0.000  0.000  0.000  0.001  0.000  0.012
    7  0.003  0.000  0.004  0.001  0.001  0.002  0.000  0.000  0.000  0.012
    8  0.001  0.000  0.007  0.002  0.001  0.000  0.000  0.000  0.000  0.012
    9  0.004  0.000  0.004  0.000  0.000  0.000  0.000  0.000  0.000  0.009
   10  0.002  0.000  0.017  0.000  0.000  0.000  0.000  0.000  0.000  0.019
   11  0.001  0.001  0.004  0.001  0.000  0.000  0.000  0.000  0.000  0.007
   12  0.004  0.004  0.002  0.002  0.000  0.000  0.000  0.000  0.000  0.012
   13  0.001  0.001  0.032  0.004  0.000  0.001  0.004  0.000  0.004  0.048
   14  0.003  0.000  0.000  0.000  0.000  0.000  0.000  0.000  0.000  0.004
   15  0.007  0.000  0.000  0.000  0.000  0.000  0.000  0.000  0.000  0.007
tot    0.049  0.013  0.125  0.026  0.011  0.012  0.008  0.004  0.005  0.252

band    28 # energy    0.63954995 # occ.  0.00000000

ion      s     py     pz     px    dxy    dyz    dz2    dxz  x2-y2    tot
    1  0.000  0.001  0.001  0.001  0.001  0.001  0.000  0.000  0.000  0.007
    2  0.001  0.000  0.003  0.001  0.001  0.000  0.000  0.001  0.000  0.007
    3  0.003  0.001  0.006  0.006  0.000  0.001  0.001  0.001  0.000  0.020
    4  0.003  0.002  0.000  0.000  0.002  0.001  0.000  0.000  0.000  0.009
    5  0.002  0.001  0.025  0.002  0.000  0.001  0.001  0.000  0.000  0.032
    6  0.002  0.002  0.045  0.002  0.000  0.002  0.000  0.000  0.001  0.053
    7  0.002  0.000  0.020  0.000  0.000  0.000  0.000  0.000  0.000  0.023
    8  0.002  0.000  0.014  0.000  0.000  0.002  0.000  0.000  0.000  0.019
    9  0.000  0.001  0.013  0.000  0.000  0.000  0.000  0.000  0.000  0.015
   10  0.002  0.000  0.005  0.000  0.000  0.000  0.000  0.000  0.000  0.007
   11  0.002  0.003  0.008  0.003  0.000  0.000  0.000  0.000  0.000  0.016
   12  0.002  0.000  0.000  0.003  0.000  0.000  0.000  0.000  0.000  0.006
   13  0.001  0.003  0.010  0.003  0.001  0.001  0.003  0.001  0.002  0.025
   14  0.002  0.000  0.000  0.000  0.000  0.000  0.000  0.000  0.000  0.003
   15  0.004  0.000  0.000  0.000  0.000  0.000  0.000  0.000  0.000  0.005
tot    0.029  0.016  0.151  0.020  0.006  0.010  0.005  0.004  0.004  0.246

band    29 # energy    0.85380379 # occ.  0.00000000

ion      s     py     pz     px    dxy    dyz    dz2    dxz  x2-y2    tot
    1  0.002  0.002  0.004  0.003  0.002  0.000  0.000  0.000  0.000  0.015
    2  0.003  0.001  0.003  0.002  0.003  0.000  0.001  0.000  0.001  0.013
    3  0.013  0.003  0.006  0.003  0.003  0.000  0.001  0.000  0.000  0.029
    4  0.016  0.001  0.001  0.003  0.002  0.000  0.000  0.000  0.000  0.024
    5  0.005  0.000  0.000  0.003  0.004  0.000  0.000  0.001  0.000  0.015
    6  0.019  0.001  0.006  0.008  0.003  0.000  0.002  0.000  0.000  0.040
    7  0.002  0.000  0.004  0.003  0.005  0.000  0.000  0.000  0.000  0.015
    8  0.005  0.004  0.005  0.003  0.005  0.000  0.001  0.000  0.000  0.022
    9  0.008  0.011  0.004  0.001  0.000  0.000  0.000  0.000  0.000  0.024
   10  0.005  0.004  0.001  0.000  0.000  0.000  0.000  0.000  0.000  0.010
   11  0.000  0.007  0.000  0.001  0.000  0.000  0.000  0.000  0.000  0.008
   12  0.014  0.008  0.001  0.001  0.000  0.000  0.000  0.000  0.000  0.023
   13  0.007  0.016  0.004  0.012  0.000  0.001  0.005  0.004  0.003  0.053
   14  0.001  0.000  0.001  0.000  0.000  0.000  0.000  0.000  0.000  0.001
   15  0.011  0.001  0.000  0.000  0.000  0.000  0.000  0.000  0.000  0.012
tot    0.110  0.060  0.041  0.042  0.028  0.003  0.009  0.006  0.004  0.304

band    30 # energy    1.22796646 # occ.  0.00000000

ion      s     py     pz     px    dxy    dyz    dz2    dxz  x2-y2    tot
    1  0.001  0.001  0.024  0.001  0.001  0.001  0.001  0.000  0.000  0.029
    2  0.001  0.001  0.020  0.001  0.000  0.000  0.001  0.000  0.000  0.025
    3  0.002  0.000  0.013  0.001  0.000  0.001  0.001  0.000  0.001  0.020
    4  0.001  0.002  0.010  0.001  0.001  0.000  0.000  0.000  0.000  0.016
    5  0.005  0.002  0.000  0.001  0.003  0.000  0.000  0.000  0.000  0.011
    6  0.002  0.000  0.001  0.002  0.003  0.001  0.000  0.000  0.000  0.008
    7  0.004  0.000  0.004  0.001  0.002  0.000  0.001  0.001  0.000  0.013
    8  0.001  0.000  0.002  0.001  0.002  0.001  0.001  0.001  0.000  0.009
    9  0.001  0.004  0.002  0.000  0.000  0.000  0.000  0.000  0.000  0.009
   10  0.007  0.003  0.015  0.001  0.000  0.000  0.000  0.000  0.000  0.026
   11  0.005  0.006  0.002  0.001  0.000  0.000  0.000  0.000  0.000  0.014
   12  0.002  0.001  0.001  0.000  0.000  0.000  0.000  0.000  0.000  0.004
   13  0.004  0.028  0.002  0.016  0.001  0.001  0.002  0.004  0.005  0.063
   14  0.002  0.000  0.000  0.000  0.000  0.000  0.000  0.000  0.000  0.002
   15  0.010  0.001  0.000  0.000  0.000  0.000  0.000  0.000  0.000  0.011
tot    0.047  0.050  0.096  0.025  0.013  0.006  0.007  0.007  0.006  0.258

band    31 # energy    1.37305024 # occ.  0.00000000

ion      s     py     pz     px    dxy    dyz    dz2    dxz  x2-y2    tot
    1  0.001  0.001  0.016  0.001  0.001  0.000  0.002  0.000  0.000  0.021
    2  0.003  0.000  0.019  0.002  0.001  0.000  0.001  0.000  0.000  0.027
    3  0.006  0.000  0.006  0.000  0.001  0.000  0.000  0.000  0.000  0.014
    4  0.001  0.002  0.008  0.001  0.000  0.000  0.000  0.000  0.000  0.015
    5  0.007  0.003  0.003  0.000  0.000  0.000  0.000  0.000  0.000  0.015
    6  0.003  0.002  0.001  0.000  0.000  0.000  0.001  0.000  0.000  0.009
    7  0.004  0.001  0.001  0.000  0.001  0.001  0.003  0.001  0.000  0.011
    8  0.002  0.003  0.005  0.001  0.000  0.000  0.001  0.001  0.000  0.013
    9  0.005  0.002  0.010  0.001  0.000  0.000  0.000  0.000  0.000  0.018
   10  0.006  0.001  0.005  0.001  0.000  0.000  0.000  0.000  0.000  0.013
   11  0.002  0.003  0.001  0.000  0.000  0.000  0.000  0.000  0.000  0.006
   12  0.006  0.002  0.003  0.000  0.000  0.000  0.000  0.000  0.000  0.010
   13  0.008  0.023  0.000  0.011  0.000  0.000  0.000  0.003  0.001  0.047
   14  0.000  0.000  0.000  0.000  0.000  0.000  0.000  0.000  0.000  0.001
   15  0.002  0.001  0.000  0.000  0.000  0.000  0.000  0.000  0.000  0.004
tot    0.057  0.045  0.078  0.018  0.004  0.002  0.009  0.006  0.003  0.223

band    32 # energy    1.68416501 # occ.  0.00000000

ion      s     py     pz     px    dxy    dyz    dz2    dxz  x2-y2    tot
    1  0.006  0.001  0.013  0.001  0.000  0.001  0.002  0.000  0.000  0.024
    2  0.000  0.001  0.000  0.000  0.000  0.001  0.002  0.000  0.000  0.005
    3  0.005  0.005  0.001  0.001  0.000  0.000  0.000  0.000  0.000  0.012
    4  0.004  0.000  0.003  0.000  0.000  0.000  0.000  0.001  0.000  0.010
    5  0.001  0.002  0.001  0.001  0.001  0.000  0.003  0.000  0.000  0.009
    6  0.012  0.003  0.001  0.000  0.001  0.000  0.001  0.000  0.000  0.018
    7  0.003  0.001  0.000  0.000  0.000  0.000  0.001  0.000  0.000  0.007
    8  0.009  0.002  0.003  0.000  0.001  0.001  0.003  0.000  0.000  0.020
    9  0.008  0.001  0.011  0.002  0.000  0.000  0.000  0.000  0.000  0.021
   10  0.006  0.003  0.002  0.001  0.000  0.000  0.000  0.000  0.000  0.012
   11  0.007  0.001  0.006  0.001  0.000  0.000  0.000  0.000  0.000  0.015
   12  0.003  0.004  0.002  0.001  0.000  0.000  0.000  0.000  0.000  0.010
   13  0.018  0.017  0.000  0.000  0.000  0.000  0.000  0.000  0.006  0.043
   14  0.003  0.000  0.000  0.000  0.000  0.000  0.000  0.000  0.000  0.003
   15  0.011  0.001  0.000  0.000  0.000  0.000  0.000  0.000  0.000  0.012
tot    0.095  0.042  0.045  0.009  0.004  0.004  0.012  0.002  0.007  0.220

