--------------------------------------------------------------------------
[[10234,1],0]: A high-performance Open MPI point-to-point messaging module
was unable to find any relevant network interfaces:

Module: OpenFabrics (openib)
  Host: compute-4-0

Another transport will be used instead, although this may result in
lower performance.
--------------------------------------------------------------------------
 running on    4 total cores
 distrk:  each k-point on    4 cores,    1 groups
 distr:  one band on    1 cores,    4 groups
 using from now: INCAR     
 vasp.5.4.4.18Apr17-6-g9f103f2a35 (build Dec  6 2019 17:49:40) complex           
 POSCAR found type information on POSCAR  Al C  Te H 
 POSCAR found :  4 types and      15 ions
 scaLAPACK will be used
 LDA part: xc-table for Pade appr. of Perdew
 POSCAR found type information on POSCAR  Al C  Te H 
 POSCAR found :  4 types and      15 ions
 WARNING: stress and forces are not correct
 POSCAR, INCAR and KPOINTS ok, starting setup
 FFT: planning ...
[compute-4-0.cluster.gsc.inifta.unlp.edu.ar:27084] 3 more processes have sent help message help-mpi-btl-base.txt / btl:no-nics
[compute-4-0.cluster.gsc.inifta.unlp.edu.ar:27084] Set MCA parameter "orte_base_help_aggregate" to 0 to see all help / error messages
 WAVECAR not read
 charge-density read from file: Al2C                                    
 entering main loop

 ----------------------------------------------------------------------------- 
|                                                                             |
|           W    W    AA    RRRRR   N    N  II  N    N   GGGG   !!!           |
|           W    W   A  A   R    R  NN   N  II  NN   N  G    G  !!!           |
|           W    W  A    A  R    R  N N  N  II  N N  N  G       !!!           |
|           W WW W  AAAAAA  RRRRR   N  N N  II  N  N N  G  GGG   !            |
|           WW  WW  A    A  R   R   N   NN  II  N   NN  G    G                |
|           W    W  A    A  R    R  N    N  II  N    N   GGGG   !!!           |
|                                                                             |
|      ALGO=A and IALGO=5X tend to fail with the tetrahedron method           |
|      (e.g. Bloechls method ISMEAR=-5 is not variational)                    |
|      please switch to IMSEAR=0-n, except for DOS calculations               |
|      For DOS calculations use IALGO=53 after preconverging with ISMEAR>=0   |
|          I HOPE YOU KNOW, WHAT YOU ARE  DOING                               |
|                                                                             |
 ----------------------------------------------------------------------------- 

       N       E                     dE             d eps       ncg     rms          ort
DAV:   1     0.441083705243E+03    0.44108E+03   -0.11273E+04   256   0.961E+02
DAV:   2     0.217019737361E+03   -0.22406E+03   -0.21230E+03   256   0.249E+02
DAV:   3     0.121365076067E+03   -0.95655E+02   -0.90285E+02   256   0.161E+02
DAV:   4     0.711042830022E+02   -0.50261E+02   -0.48014E+02   256   0.129E+02
DAV:   5     0.423481847040E+02   -0.28756E+02   -0.27575E+02   256   0.912E+01
DAV:   6     0.246736055136E+02   -0.17675E+02   -0.16876E+02   256   0.719E+01
DAV:   7     0.132980182618E+02   -0.11376E+02   -0.10975E+02   256   0.541E+01
 gam= 0.000 g(H,U,f)=  0.460E+02 0.316E+00 0.982E-02 ort(H,U,f) = 0.000E+00 0.000E+00 0.000E+00
SDA:   8    -0.444700846443E+02   -0.57768E+02   -0.18535E+02   256   0.463E+02 0.000E+00
 gam= 0.382 g(H,U,f)=  0.182E+02 0.131E+01 0.408E-01 ort(H,U,f) = 0.249E+02 0.519E+00 0.186E-01
DMP:   9    -0.590113031647E+02   -0.14541E+02   -0.11703E+02   256   0.196E+02 0.254E+02
 gam= 0.382 g(H,U,f)=  0.730E+01 0.225E+01 0.678E+00 ort(H,U,f) = 0.925E+01 0.180E+01 0.450E+00
DMP:  10    -0.673683037670E+02   -0.83570E+01   -0.58503E+01   256   0.102E+02 0.115E+02
 gam= 0.382 g(H,U,f)=  0.442E+01 0.213E+01 0.672E+00 ort(H,U,f) = 0.399E+01 0.242E+01 0.691E+00
DMP:  11    -0.717446305698E+02   -0.43763E+01   -0.39735E+01   256   0.722E+01 0.710E+01
 gam= 0.382 g(H,U,f)=  0.246E+01 0.145E+01 0.151E-03 ort(H,U,f) = 0.294E+01 0.197E+01 0.272E-03
DMP:  12    -0.748010569701E+02   -0.30564E+01   -0.23136E+01   256   0.391E+01 0.490E+01
 gam= 0.382 g(H,U,f)=  0.130E+01 0.125E+01 0.244E-06 ort(H,U,f) = 0.189E+01 0.196E+01 0.395E-06
DMP:  13    -0.769052312960E+02   -0.21042E+01   -0.16122E+01   256   0.256E+01 0.385E+01
 gam= 0.382 g(H,U,f)=  0.722E+00 0.997E+00 0.558E-02 ort(H,U,f) = 0.118E+01 0.170E+01 0.863E-02
DMP:  14    -0.784059143135E+02   -0.15007E+01   -0.11310E+01   256   0.172E+01 0.289E+01
 gam= 0.382 g(H,U,f)=  0.394E+00 0.781E+00 0.209E+00 ort(H,U,f) = 0.741E+00 0.135E+01 0.327E+00
DMP:  15    -0.794720602324E+02   -0.10661E+01   -0.92356E+00   256   0.138E+01 0.242E+01
 gam= 0.382 g(H,U,f)=  0.220E+00 0.816E+00 0.948E-03 ort(H,U,f) = 0.470E+00 0.141E+01 0.160E-02
DMP:  16    -0.803157271324E+02   -0.84367E+00   -0.70192E+00   256   0.104E+01 0.188E+01
 gam= 0.382 g(H,U,f)=  0.128E+00 0.655E+00 0.347E-01 ort(H,U,f) = 0.288E+00 0.111E+01 0.464E-01
DMP:  17    -0.809721002338E+02   -0.65637E+00   -0.54720E+00   256   0.818E+00 0.144E+01
 gam= 0.382 g(H,U,f)=  0.772E-01 0.352E+00 0.137E-03 ort(H,U,f) = 0.180E+00 0.641E+00 0.212E-03
DMP:  18    -0.814398454736E+02   -0.46775E+00   -0.29719E+00   256   0.429E+00 0.821E+00
 gam= 0.382 g(H,U,f)=  0.340E-01 0.970E-01-0.586E-30 ort(H,U,f) = 0.816E-01 0.220E+00-0.148E-29
DMP:  19    -0.816412092556E+02   -0.20136E+00   -0.98395E-01   256   0.131E+00 0.301E+00
 gam= 0.382 g(H,U,f)=  0.167E-01 0.360E-01 0.243E-04 ort(H,U,f) = 0.364E-01 0.920E-01 0.563E-04
DMP:  20    -0.817164207974E+02   -0.75212E-01   -0.40717E-01   256   0.527E-01 0.128E+00
 gam= 0.382 g(H,U,f)=  0.100E-01 0.157E-01 0.206E-02 ort(H,U,f) = 0.202E-01 0.429E-01 0.578E-02
DMP:  21    -0.817499133971E+02   -0.33493E-01   -0.21646E-01   256   0.278E-01 0.689E-01
 gam= 0.382 g(H,U,f)=  0.630E-02 0.747E-02 0.282E-03 ort(H,U,f) = 0.134E-01 0.210E-01 0.940E-03
DMP:  22    -0.817669569414E+02   -0.17044E-01   -0.11013E-01   256   0.141E-01 0.353E-01
 gam= 0.382 g(H,U,f)=  0.401E-02 0.376E-02 0.537E-04 ort(H,U,f) = 0.910E-02 0.106E-01 0.202E-03
DMP:  23    -0.817763436101E+02   -0.93867E-02   -0.61696E-02   256   0.782E-02 0.199E-01
 gam= 0.382 g(H,U,f)=  0.262E-02 0.198E-02 0.128E-04 ort(H,U,f) = 0.616E-02 0.553E-02 0.527E-04
DMP:  24    -0.817817638177E+02   -0.54202E-02   -0.36393E-02   256   0.461E-02 0.117E-01
 gam= 0.382 g(H,U,f)=  0.182E-02 0.109E-02 0.345E-05 ort(H,U,f) = 0.423E-02 0.297E-02 0.154E-04
DMP:  25    -0.817850289262E+02   -0.32651E-02   -0.22632E-02   256   0.290E-02 0.721E-02
 gam= 0.382 g(H,U,f)=  0.134E-02 0.615E-03 0.970E-06 ort(H,U,f) = 0.301E-02 0.164E-02 0.462E-05
DMP:  26    -0.817870985268E+02   -0.20696E-02   -0.14938E-02   256   0.195E-02 0.466E-02
 gam= 0.382 g(H,U,f)=  0.101E-02 0.358E-03 0.272E-06 ort(H,U,f) = 0.225E-02 0.937E-03 0.138E-05
DMP:  27    -0.817884856828E+02   -0.13872E-02   -0.10331E-02   256   0.137E-02 0.319E-02
 gam= 0.382 g(H,U,f)=  0.777E-03 0.213E-03 0.770E-07 ort(H,U,f) = 0.172E-02 0.547E-03 0.413E-06
DMP:  28    -0.817894585343E+02   -0.97285E-03   -0.74272E-03   256   0.990E-03 0.227E-02
 gam= 0.382 g(H,U,f)=  0.613E-03 0.129E-03 0.213E-07 ort(H,U,f) = 0.134E-02 0.327E-03 0.121E-06
DMP:  29    -0.817901657163E+02   -0.70718E-03   -0.55225E-03   256   0.742E-03 0.167E-02
 gam= 0.382 g(H,U,f)=  0.497E-03 0.803E-04 0.596E-08 ort(H,U,f) = 0.106E-02 0.200E-03 0.351E-07
DMP:  30    -0.817906956121E+02   -0.52990E-03   -0.42380E-03   256   0.577E-03 0.126E-02
 gam= 0.382 g(H,U,f)=  0.403E-03 0.508E-04 0.171E-08 ort(H,U,f) = 0.858E-03 0.124E-03 0.102E-07
DMP:  31    -0.817911047161E+02   -0.40910E-03   -0.33161E-03   256   0.454E-03 0.982E-03
 gam= 0.382 g(H,U,f)=  0.330E-03 0.326E-04 0.555E-09 ort(H,U,f) = 0.698E-03 0.787E-04 0.319E-08
DMP:  32    -0.817914264145E+02   -0.32170E-03   -0.26391E-03   256   0.363E-03 0.777E-03
 gam= 0.382 g(H,U,f)=  0.273E-03 0.213E-04 0.214E-09 ort(H,U,f) = 0.573E-03 0.507E-04 0.109E-08
DMP:  33    -0.817916834935E+02   -0.25708E-03   -0.21323E-03   256   0.295E-03 0.624E-03
 gam= 0.382 g(H,U,f)=  0.228E-03 0.141E-04 0.108E-09 ort(H,U,f) = 0.475E-03 0.331E-04 0.444E-09
DMP:  34    -0.817918919366E+02   -0.20844E-03   -0.17462E-03   256   0.243E-03 0.508E-03
 gam= 0.382 g(H,U,f)=  0.193E-03 0.938E-05 0.685E-10 ort(H,U,f) = 0.397E-03 0.218E-04 0.219E-09
DMP:  35    -0.817920631416E+02   -0.17121E-03   -0.14488E-03   256   0.202E-03 0.419E-03
 gam= 0.382 g(H,U,f)=  0.165E-03 0.632E-05 0.515E-10 ort(H,U,f) = 0.335E-03 0.146E-04 0.131E-09
DMP:  36    -0.817922055344E+02   -0.14239E-03   -0.12172E-03   256   0.171E-03 0.349E-03
 gam= 0.382 g(H,U,f)=  0.142E-03 0.430E-05 0.413E-10 ort(H,U,f) = 0.285E-03 0.980E-05 0.903E-10
DMP:  37    -0.817923254177E+02   -0.11988E-03   -0.10350E-03   256   0.146E-03 0.295E-03
 gam= 0.382 g(H,U,f)=  0.124E-03 0.296E-05 0.337E-10 ort(H,U,f) = 0.245E-03 0.667E-05 0.680E-10
DMP:  38    -0.817924275411E+02   -0.10212E-03   -0.89031E-04   256   0.127E-03 0.252E-03
 gam= 0.382 g(H,U,f)=  0.108E-03 0.207E-05 0.278E-10 ort(H,U,f) = 0.212E-03 0.460E-05 0.543E-10
DMP:  39    -0.817925155229E+02   -0.87982E-04   -0.77377E-04   256   0.111E-03 0.217E-03
 gam= 0.382 g(H,U,f)=  0.959E-04 0.146E-05 0.223E-10 ort(H,U,f) = 0.186E-03 0.321E-05 0.433E-10
DMP:  40    -0.817925920839E+02   -0.76561E-04   -0.67847E-04   256   0.974E-04 0.189E-03
 gam= 0.382 g(H,U,f)=  0.850E-04 0.105E-05 0.176E-10 ort(H,U,f) = 0.164E-03 0.227E-05 0.344E-10
DMP:  41    -0.817926592872E+02   -0.67203E-04   -0.59806E-04   256   0.860E-04 0.166E-03
 gam= 0.382 g(H,U,f)=  0.758E-04 0.764E-06 0.138E-10 ort(H,U,f) = 0.145E-03 0.163E-05 0.272E-10
DMP:  42    -0.817927185807E+02   -0.59293E-04   -0.53043E-04   256   0.765E-04 0.147E-03
 gam= 0.382 g(H,U,f)=  0.678E-04 0.566E-06 0.107E-10 ort(H,U,f) = 0.129E-03 0.119E-05 0.212E-10
DMP:  43    -0.817927712124E+02   -0.52632E-04   -0.47259E-04   256   0.683E-04 0.130E-03
 gam= 0.382 g(H,U,f)=  0.609E-04 0.426E-06 0.827E-11 ort(H,U,f) = 0.115E-03 0.886E-06 0.165E-10
DMP:  44    -0.817928181379E+02   -0.46925E-04   -0.42301E-04   256   0.613E-04 0.116E-03
 gam= 0.382 g(H,U,f)=  0.548E-04 0.326E-06 0.640E-11 ort(H,U,f) = 0.104E-03 0.668E-06 0.128E-10
DMP:  45    -0.817928601661E+02   -0.42028E-04   -0.37974E-04   256   0.551E-04 0.104E-03
 gam= 0.382 g(H,U,f)=  0.493E-04 0.253E-06 0.497E-11 ort(H,U,f) = 0.932E-04 0.511E-06 0.993E-11
DMP:  46    -0.817928979162E+02   -0.37750E-04   -0.34146E-04   256   0.496E-04 0.937E-04
 gam= 0.382 g(H,U,f)=  0.445E-04 0.197E-06 0.393E-11 ort(H,U,f) = 0.840E-04 0.396E-06 0.783E-11
DMP:  47    -0.817929318770E+02   -0.33961E-04   -0.30785E-04   256   0.447E-04 0.844E-04
 gam= 0.382 g(H,U,f)=  0.403E-04 0.156E-06 0.309E-11 ort(H,U,f) = 0.758E-04 0.309E-06 0.613E-11
DMP:  48    -0.817929625087E+02   -0.30632E-04   -0.27820E-04   256   0.405E-04 0.761E-04
 gam= 0.382 g(H,U,f)=  0.365E-04 0.123E-06 0.245E-11 ort(H,U,f) = 0.686E-04 0.244E-06 0.483E-11
DMP:  49    -0.817929902014E+02   -0.27693E-04   -0.25156E-04   256   0.366E-04 0.689E-04
 gam= 0.382 g(H,U,f)=  0.330E-04 0.983E-07 0.195E-11 ort(H,U,f) = 0.621E-04 0.193E-06 0.383E-11
DMP:  50    -0.817930152520E+02   -0.25051E-04   -0.22755E-04   256   0.331E-04 0.623E-04
 gam= 0.382 g(H,U,f)=  0.299E-04 0.787E-07 0.157E-11 ort(H,U,f) = 0.563E-04 0.154E-06 0.306E-11
DMP:  51    -0.817930379194E+02   -0.22667E-04   -0.20599E-04   256   0.299E-04 0.564E-04
 gam= 0.382 g(H,U,f)=  0.270E-04 0.632E-07 0.127E-11 ort(H,U,f) = 0.510E-04 0.123E-06 0.246E-11
DMP:  52    -0.817930584455E+02   -0.20526E-04   -0.18650E-04   256   0.271E-04 0.511E-04
 gam= 0.382 g(H,U,f)=  0.244E-04 0.510E-07 0.103E-11 ort(H,U,f) = 0.462E-04 0.990E-07 0.199E-11
DMP:  53    -0.817930770355E+02   -0.18590E-04   -0.16864E-04   256   0.245E-04 0.463E-04
 gam= 0.382 g(H,U,f)=  0.219E-04 0.412E-07 0.842E-12 ort(H,U,f) = 0.418E-04 0.798E-07 0.162E-11
DMP:  54    -0.817930938503E+02   -0.16815E-04   -0.15193E-04   256   0.220E-04 0.419E-04
 gam= 0.382 g(H,U,f)=  0.197E-04 0.333E-07 0.688E-12 ort(H,U,f) = 0.377E-04 0.644E-07 0.132E-11
DMP:  55    -0.817931090029E+02   -0.15153E-04   -0.13657E-04   256   0.197E-04 0.378E-04
 gam= 0.382 g(H,U,f)=  0.177E-04 0.269E-07 0.562E-12 ort(H,U,f) = 0.339E-04 0.520E-07 0.108E-11
DMP:  56    -0.817931226271E+02   -0.13624E-04   -0.12260E-04   256   0.177E-04 0.340E-04
 gam= 0.382 g(H,U,f)=  0.158E-04 0.217E-07 0.459E-12 ort(H,U,f) = 0.305E-04 0.421E-07 0.880E-12
DMP:  57    -0.817931348605E+02   -0.12233E-04   -0.10997E-04   256   0.158E-04 0.305E-04
 gam= 0.382 g(H,U,f)=  0.142E-04 0.176E-07 0.375E-12 ort(H,U,f) = 0.273E-04 0.340E-07 0.718E-12
DMP:  58    -0.817931458360E+02   -0.10976E-04   -0.98590E-05   256   0.142E-04 0.274E-04
 gam= 0.382 g(H,U,f)=  0.127E-04 0.142E-07 0.305E-12 ort(H,U,f) = 0.245E-04 0.274E-07 0.586E-12
DMP:  59    -0.817931556781E+02   -0.98421E-05   -0.88369E-05   256   0.127E-04 0.245E-04
 final diagonalization
   1 F= -.81793156E+02 E0= -.81793156E+02  d E =0.000000E+00
