Al2C                                    
           1
     6.019200    0.000000    0.000000
     0.000000   10.140000    0.000000
     0.000000    0.000000   15.000000
   Al   C    Te   H 
   8   4   1   2
Direct configuration=     1
   0.34176744  0.86319265  0.24556459
   0.84024875  0.86325318  0.24580877
   0.32788601  0.61426608  0.28830266
   0.85454888  0.61424887  0.28823968
   0.33437010  0.36368240  0.25530487
   0.84792340  0.36368733  0.25515012
   0.34036239  0.10731376  0.23806990
   0.84199417  0.10732791  0.23785248
   0.09108445  0.98603911  0.23670566
   0.59112235  0.98703768  0.24107831
   0.09116687  0.48610332  0.24909377
   0.59122965  0.48207308  0.30064779
   0.09170311  0.64349602  0.45013016
   0.59134768  0.45568393  0.37284558
   0.09321562  0.80788817  0.46520566
