Al   C    S    H                        
   1.0000000000000000     
     6.0191999999999997    0.0000000000000000    0.0000000000000000
     0.0000000000000000   10.1400000000000006    0.0000000000000000
     0.0000000000000000    0.0000000000000000   15.0000000000000000
   Al   C    S    H 
     8     4     1     2
Selective dynamics
Direct
  0.4399991348085950  0.8781901848090549  0.2568144427931183   T   T   T
  0.9386345669775562  0.8790623254412820  0.2319627198510386   T   T   T
  0.4551304239855364  0.6267016098966596  0.2949233811475047   T   T   T
  0.9407803742867642  0.6215012671351562  0.2480774966457213   T   T   T
  0.4386212835776599  0.3819743727680924  0.2413522098375759   T   T   T
  0.9306800166477900  0.3754041147542572  0.2735690483225382   T   T   T
  0.4371127377115719  0.1211403737990275  0.2293574062437300   T   T   T
  0.9378318069190988  0.1200864405460716  0.2558476444428724   T   T   T
  0.1887091351375458  0.0001067726663210  0.2438551734129107   T   T   T
  0.6882116947302465  0.0009294436851625  0.2384714451768600   T   T   T
  0.1890422569591265  0.4979663575518497  0.2857171875205269   T   T   T
  0.6900816869203651  0.4998373809256583  0.2521760842868926   T   T   T
  0.4339300254832220  0.6091301020983481  0.4551039924556730   T   T   T
  0.2531753081810838  0.6867778490414974  0.4690020746578621   T   T   T
  0.2328304397797005  0.5120849039400325  0.3637697102117630   T   T   T

  0.00000000E+00  0.00000000E+00  0.00000000E+00
  0.00000000E+00  0.00000000E+00  0.00000000E+00
  0.00000000E+00  0.00000000E+00  0.00000000E+00
  0.00000000E+00  0.00000000E+00  0.00000000E+00
  0.00000000E+00  0.00000000E+00  0.00000000E+00
  0.00000000E+00  0.00000000E+00  0.00000000E+00
  0.00000000E+00  0.00000000E+00  0.00000000E+00
  0.00000000E+00  0.00000000E+00  0.00000000E+00
  0.00000000E+00  0.00000000E+00  0.00000000E+00
  0.00000000E+00  0.00000000E+00  0.00000000E+00
  0.00000000E+00  0.00000000E+00  0.00000000E+00
  0.00000000E+00  0.00000000E+00  0.00000000E+00
  0.00000000E+00  0.00000000E+00  0.00000000E+00
  0.00000000E+00  0.00000000E+00  0.00000000E+00
  0.00000000E+00  0.00000000E+00  0.00000000E+00
