   15   15  999    1
  0.6103469E+02  0.6019200E-09  0.1014000E-08  0.1500000E-08  0.3500000E-15
   1.0000000000000000E-004
  CAR 
 Al2C                                    
     48      8     32

  0.3742002E-15  0.3742002E-15  0.1262379E-14  0.6666667E-01
    1      -15.318467   1.000000
    2      -14.331028   1.000000
    3      -13.840555   1.000000
    4      -12.594505   1.000000
    5      -11.715408   1.000000
    6       -9.172685   1.000000
    7       -8.862227   1.000000
    8       -8.701092   1.000000
    9       -7.607999   1.000000
   10       -7.082874   1.000000
   11       -6.719487   1.000000
   12       -6.235304   1.000000
   13       -5.787083   1.000000
   14       -5.293460   1.000000
   15       -5.042311   1.000000
   16       -4.714275   1.000000
   17       -4.271280   1.000000
   18       -4.145381   1.000000
   19       -3.553714   1.000000
   20       -3.286239   1.000000
   21       -3.206298   1.000000
   22       -2.972692   1.000000
   23       -2.554987   1.000000
   24       -2.422896   1.000000
   25       -1.556576   0.000000
   26       -1.112153   0.000000
   27       -0.440979   0.000000
   28       -0.226620   0.000000
   29       -0.010903   0.000000
   30        0.412119   0.000000
   31        0.440294   0.000000
   32        0.698816   0.000000

  0.2000000E+00  0.3742002E-15  0.1262379E-14  0.1333333E+00
    1      -15.291802   1.000000
    2      -14.272084   1.000000
    3      -13.716629   1.000000
    4      -12.837544   1.000000
    5      -12.096200   1.000000
    6       -8.892210   1.000000
    7       -8.648837   1.000000
    8       -8.130358   1.000000
    9       -7.505114   1.000000
   10       -7.084834   1.000000
   11       -6.606810   1.000000
   12       -6.550505   1.000000
   13       -6.101909   1.000000
   14       -5.289994   1.000000
   15       -4.955278   1.000000
   16       -4.652130   1.000000
   17       -4.349226   1.000000
   18       -4.053745   1.000000
   19       -3.720834   1.000000
   20       -3.684246   1.000000
   21       -3.536193   1.000000
   22       -3.247015   1.000000
   23       -2.914520   1.000000
   24       -2.528359   1.000000
   25       -1.572184   0.000000
   26       -0.507583   0.000000
   27       -0.230482   0.000000
   28       -0.055026   0.000000
   29        0.208321   0.000000
   30        0.559300   0.000000
   31        0.717704   0.000000
   32        0.875645   0.000000

  0.4000000E+00  0.3742002E-15  0.1262379E-14  0.1333333E+00
    1      -15.248568   1.000000
    2      -14.123068   1.000000
    3      -13.365078   1.000000
    4      -13.229219   1.000000
    5      -12.768539   1.000000
    6       -8.522818   1.000000
    7       -8.151583   1.000000
    8       -7.579409   1.000000
    9       -7.265123   1.000000
   10       -6.865293   1.000000
   11       -6.631778   1.000000
   12       -6.285413   1.000000
   13       -5.926983   1.000000
   14       -5.752793   1.000000
   15       -5.265555   1.000000
   16       -5.040239   1.000000
   17       -4.995482   1.000000
   18       -4.495515   1.000000
   19       -4.260109   1.000000
   20       -3.842794   1.000000
   21       -3.683826   1.000000
   22       -3.321746   1.000000
   23       -2.964615   1.000000
   24       -2.585317   1.000000
   25       -1.272326   0.000000
   26       -0.749803   0.000000
   27       -0.226563   0.000000
   28        0.511746   0.000000
   29        0.735279   0.000000
   30        1.098389   0.000000
   31        1.308470   0.000000
   32        1.384704   0.000000

  0.3742002E-15  0.3333333E+00  0.1262379E-14  0.1333333E+00
    1      -15.317970   1.000000
    2      -14.328275   1.000000
    3      -13.846522   1.000000
    4      -12.595632   1.000000
    5      -11.716438   1.000000
    6       -9.155171   1.000000
    7       -8.747610   1.000000
    8       -8.585949   1.000000
    9       -7.883385   1.000000
   10       -7.371823   1.000000
   11       -7.027082   1.000000
   12       -5.653899   1.000000
   13       -5.307054   1.000000
   14       -5.249724   1.000000
   15       -5.038939   1.000000
   16       -4.744179   1.000000
   17       -4.228113   1.000000
   18       -4.134042   1.000000
   19       -3.730608   1.000000
   20       -3.430532   1.000000
   21       -3.264085   1.000000
   22       -3.152854   1.000000
   23       -2.973188   1.000000
   24       -2.421342   1.000000
   25       -1.403725   0.000000
   26       -0.805506   0.000000
   27       -0.549695   0.000000
   28       -0.285769   0.000000
   29        0.248601   0.000000
   30        0.472853   0.000000
   31        0.567445   0.000000
   32        0.676348   0.000000

  0.2000000E+00  0.3333333E+00  0.1262379E-14  0.1333333E+00
    1      -15.291404   1.000000
    2      -14.269813   1.000000
    3      -13.721292   1.000000
    4      -12.838359   1.000000
    5      -12.098372   1.000000
    6       -8.865752   1.000000
    7       -8.406531   1.000000
    8       -8.151897   1.000000
    9       -7.774212   1.000000
   10       -7.263408   1.000000
   11       -7.016602   1.000000
   12       -6.322847   1.000000
   13       -5.734569   1.000000
   14       -5.137182   1.000000
   15       -4.828630   1.000000
   16       -4.627957   1.000000
   17       -4.335231   1.000000
   18       -3.938324   1.000000
   19       -3.771333   1.000000
   20       -3.674188   1.000000
   21       -3.521890   1.000000
   22       -3.328438   1.000000
   23       -3.092724   1.000000
   24       -2.874947   1.000000
   25       -1.218838   0.000000
   26       -0.845363   0.000000
   27       -0.311096   0.000000
   28       -0.174558   0.000000
   29        0.450245   0.000000
   30        0.489367   0.000000
   31        0.697574   0.000000
   32        0.925621   0.000000

  0.4000000E+00  0.3333333E+00  0.1262379E-14  0.1333333E+00
    1      -15.248366   1.000000
    2      -14.121909   1.000000
    3      -13.356716   1.000000
    4      -13.238820   1.000000
    5      -12.774043   1.000000
    6       -8.495872   1.000000
    7       -7.954408   1.000000
    8       -7.446745   1.000000
    9       -7.299273   1.000000
   10       -7.055362   1.000000
   11       -6.864539   1.000000
   12       -6.593426   1.000000
   13       -6.328562   1.000000
   14       -5.434833   1.000000
   15       -5.228999   1.000000
   16       -4.718253   1.000000
   17       -4.455684   1.000000
   18       -4.343830   1.000000
   19       -4.227101   1.000000
   20       -3.825014   1.000000
   21       -3.628122   1.000000
   22       -3.391895   1.000000
   23       -3.227436   1.000000
   24       -2.984653   1.000000
   25       -1.025452   0.000000
   26       -0.846250   0.000000
   27       -0.244726   0.000000
   28        0.437970   0.000000
   29        0.646034   0.000000
   30        0.740255   0.000000
   31        1.008795   0.000000
   32        1.361414   0.000000

 -0.4000000E+00  0.3333333E+00  0.1262379E-14  0.1333333E+00
    1      -15.248385   1.000000
    2      -14.121684   1.000000
    3      -13.358932   1.000000
    4      -13.236539   1.000000
    5      -12.774314   1.000000
    6       -8.508883   1.000000
    7       -7.908303   1.000000
    8       -7.511036   1.000000
    9       -7.235119   1.000000
   10       -7.102653   1.000000
   11       -6.850122   1.000000
   12       -6.564686   1.000000
   13       -6.376126   1.000000
   14       -5.420449   1.000000
   15       -5.227250   1.000000
   16       -4.717330   1.000000
   17       -4.498159   1.000000
   18       -4.366666   1.000000
   19       -4.067290   1.000000
   20       -3.865946   1.000000
   21       -3.689282   1.000000
   22       -3.400562   1.000000
   23       -3.192399   1.000000
   24       -2.991587   1.000000
   25       -1.249994   0.000000
   26       -0.544007   0.000000
   27       -0.213814   0.000000
   28        0.338309   0.000000
   29        0.614870   0.000000
   30        0.708984   0.000000
   31        0.991800   0.000000
   32        1.232734   0.000000

 -0.2000000E+00  0.3333333E+00  0.1262379E-14  0.1333333E+00
    1      -15.291430   1.000000
    2      -14.269537   1.000000
    3      -13.721712   1.000000
    4      -12.838076   1.000000
    5      -12.098483   1.000000
    6       -8.870329   1.000000
    7       -8.419509   1.000000
    8       -8.143312   1.000000
    9       -7.687607   1.000000
   10       -7.379902   1.000000
   11       -6.987735   1.000000
   12       -6.306487   1.000000
   13       -5.758165   1.000000
   14       -5.147644   1.000000
   15       -4.841847   1.000000
   16       -4.624481   1.000000
   17       -4.263090   1.000000
   18       -3.950622   1.000000
   19       -3.734503   1.000000
   20       -3.673007   1.000000
   21       -3.563736   1.000000
   22       -3.263489   1.000000
   23       -3.145964   1.000000
   24       -2.887756   1.000000
   25       -1.430057   0.000000
   26       -0.571587   0.000000
   27       -0.304393   0.000000
   28       -0.182236   0.000000
   29        0.370815   0.000000
   30        0.446888   0.000000
   31        0.734904   0.000000
   32        0.861047   0.000000
