       N       E                     dE             d eps       ncg     rms          rms(c)
DAV:   1     0.303189352937E+03    0.30319E+03   -0.13411E+04   512   0.924E+02
DAV:   2    -0.684210294221E+01   -0.31003E+03   -0.29322E+03   760   0.214E+02
DAV:   3    -0.875482469631E+02   -0.80706E+02   -0.79253E+02   840   0.101E+02
DAV:   4    -0.905620279203E+02   -0.30138E+01   -0.30033E+01   672   0.242E+01
DAV:   5    -0.906939713749E+02   -0.13194E+00   -0.13190E+00   848   0.522E+00
DAV:   6    -0.906962522722E+02   -0.22809E-02   -0.22806E-02   752   0.754E-01
DAV:   7    -0.906963545598E+02   -0.10229E-03   -0.10228E-03   800   0.131E-01    0.186E+01
DAV:   8    -0.730424681464E+02    0.17654E+02   -0.71736E+01   576   0.418E+01    0.544E+00
DAV:   9    -0.728130190265E+02    0.22945E+00   -0.59131E+00   664   0.120E+01    0.375E+00
DAV:  10    -0.722969293067E+02    0.51609E+00   -0.13169E+00   648   0.663E+00    0.833E-01
DAV:  11    -0.722566293078E+02    0.40300E-01   -0.12336E-01   712   0.211E+00    0.442E-01
DAV:  12    -0.722563987521E+02    0.23056E-03   -0.13644E-01   744   0.182E+00    0.442E-01
DAV:  13    -0.722502256846E+02    0.61731E-02   -0.29618E-02   688   0.960E-01    0.207E-01
DAV:  14    -0.722481405438E+02    0.20851E-02   -0.16961E-02   672   0.552E-01    0.104E-01
DAV:  15    -0.722502419746E+02   -0.21014E-02   -0.61285E-03   768   0.362E-01    0.102E-01
DAV:  16    -0.722534346945E+02   -0.31927E-02   -0.39657E-03   704   0.357E-01    0.557E-02
DAV:  17    -0.722549732727E+02   -0.15386E-02   -0.95714E-04   616   0.175E-01    0.349E-02
DAV:  18    -0.722562050037E+02   -0.12317E-02   -0.14018E-03   680   0.165E-01    0.408E-02
DAV:  19    -0.722573242799E+02   -0.11193E-02   -0.65167E-04   744   0.156E-01    0.189E-02
DAV:  20    -0.722581160272E+02   -0.79175E-03   -0.18167E-04   600   0.731E-02    0.102E-02
DAV:  21    -0.722586274341E+02   -0.51141E-03   -0.11045E-04   608   0.404E-02    0.791E-03
DAV:  22    -0.722588672268E+02   -0.23979E-03   -0.34669E-05   640   0.247E-02    0.358E-03
DAV:  23    -0.722589641444E+02   -0.96918E-04   -0.13143E-05   616   0.155E-02    0.218E-03
DAV:  24    -0.722589989561E+02   -0.34812E-04   -0.41074E-06   520   0.782E-03    0.154E-03
DAV:  25    -0.722590087481E+02   -0.97920E-05   -0.94063E-07   392   0.452E-03    0.797E-04
DAV:  26    -0.722590154695E+02   -0.67214E-05   -0.18766E-06   440   0.448E-03    0.466E-04
DAV:  27    -0.722590164577E+02   -0.98815E-06   -0.17615E-07   440   0.255E-03
   1 F= -.72259016E+02 E0= -.72259016E+02  d E =-.722590E+02
       N       E                     dE             d eps       ncg     rms          rms(c)
DAV:   1    -0.722604058891E+02   -0.13904E-02   -0.84118E-04   536   0.184E-01    0.548E-03
DAV:   2    -0.722604085006E+02   -0.26115E-05   -0.30857E-05   712   0.307E-02    0.403E-03
DAV:   3    -0.722604083719E+02    0.12873E-06   -0.97936E-07   432   0.681E-03
   2 F= -.72260408E+02 E0= -.72260408E+02  d E =-.139191E-02
       N       E                     dE             d eps       ncg     rms          rms(c)
DAV:   1    -0.722628566614E+02   -0.24482E-02   -0.21181E-03   512   0.291E-01    0.923E-03
DAV:   2    -0.722628637760E+02   -0.71146E-05   -0.84089E-05   736   0.498E-02    0.624E-03
DAV:   3    -0.722628633653E+02    0.41080E-06   -0.22229E-06   536   0.975E-03
   3 F= -.72262863E+02 E0= -.72262863E+02  d E =-.245499E-02
       N       E                     dE             d eps       ncg     rms          rms(c)
DAV:   1    -0.722673750432E+02   -0.45113E-02   -0.68184E-03   512   0.511E-01    0.169E-02
DAV:   2    -0.722673996920E+02   -0.24649E-04   -0.29137E-04   744   0.917E-02    0.108E-02
DAV:   3    -0.722673985236E+02    0.11683E-05   -0.87367E-06   728   0.175E-02    0.665E-03
DAV:   4    -0.722673981097E+02    0.41395E-06   -0.43914E-06   592   0.940E-03
   4 F= -.72267398E+02 E0= -.72267398E+02  d E =-.453474E-02
       N       E                     dE             d eps       ncg     rms          rms(c)
DAV:   1    -0.722716589671E+02   -0.42604E-02   -0.57648E-03   512   0.430E-01    0.163E-02
DAV:   2    -0.722716845038E+02   -0.25537E-04   -0.29466E-04   744   0.898E-02    0.925E-03
DAV:   3    -0.722716835848E+02    0.91901E-06   -0.66341E-06   712   0.153E-02
   5 F= -.72271684E+02 E0= -.72271684E+02  d E =-.428548E-02
       N       E                     dE             d eps       ncg     rms          rms(c)
DAV:   1    -0.722754955672E+02   -0.38111E-02   -0.46067E-03   512   0.392E-01    0.151E-02
DAV:   2    -0.722755154541E+02   -0.19887E-04   -0.23418E-04   768   0.815E-02    0.873E-03
DAV:   3    -0.722755145476E+02    0.90649E-06   -0.47289E-06   680   0.134E-02
   6 F= -.72275515E+02 E0= -.72275515E+02  d E =-.383096E-02
