Al   C    S    H                        
   1.0000000000000000     
     6.0191999999999997    0.0000000000000000    0.0000000000000000
     0.0000000000000000   10.1400000000000006    0.0000000000000000
     0.0000000000000000    0.0000000000000000   15.0000000000000000
   Al   C    S    H 
     8     4     1     2
Selective dynamics
Direct
  0.4398965475218065  0.8781862017736375  0.2567243361525277   T   T   T
  0.9385392904804689  0.8789934626352184  0.2319462583130511   T   T   T
  0.4551134408985308  0.6266682555232378  0.2946295528297004   T   T   T
  0.9407755095033273  0.6214208523336187  0.2481023734232044   T   T   T
  0.4384171036580536  0.3819045905480925  0.2413938509358425   T   T   T
  0.9307206192403253  0.3754015486072682  0.2736173055172071   T   T   T
  0.4370230527435980  0.1211203235802832  0.2293477894642665   T   T   T
  0.9377550846372715  0.1200569747329688  0.2557751467083147   T   T   T
  0.1886096297900186  1.0000624248098011  0.2437655760468169   T   T   T
  0.6881278772946003  0.0008906498293259  0.2384324628260449   T   T   T
  0.1890626854257962  0.4980276367390153  0.2858029632102961   T   T   T
  0.6900144679778043  0.4997456095657685  0.2520482678913700   T   T   T
  0.4335185483647480  0.6087479167849258  0.4551563021919948   T   T   T
  0.2534967091850103  0.6869321410484155  0.4691821001779630   T   T   T
  0.2337003274451810  0.5127349111869157  0.3640757326898670   T   T   T

  0.00000000E+00  0.00000000E+00  0.00000000E+00
  0.00000000E+00  0.00000000E+00  0.00000000E+00
  0.00000000E+00  0.00000000E+00  0.00000000E+00
  0.00000000E+00  0.00000000E+00  0.00000000E+00
  0.00000000E+00  0.00000000E+00  0.00000000E+00
  0.00000000E+00  0.00000000E+00  0.00000000E+00
  0.00000000E+00  0.00000000E+00  0.00000000E+00
  0.00000000E+00  0.00000000E+00  0.00000000E+00
  0.00000000E+00  0.00000000E+00  0.00000000E+00
  0.00000000E+00  0.00000000E+00  0.00000000E+00
  0.00000000E+00  0.00000000E+00  0.00000000E+00
  0.00000000E+00  0.00000000E+00  0.00000000E+00
  0.00000000E+00  0.00000000E+00  0.00000000E+00
  0.00000000E+00  0.00000000E+00  0.00000000E+00
  0.00000000E+00  0.00000000E+00  0.00000000E+00
