Al2C                                    
           1
     6.019200    0.000000    0.000000
     0.000000   10.140000    0.000000
     0.000000    0.000000   15.000000
   Al   C    S    H 
   8   4   1   2
Direct configuration=     1
   0.43989655  0.87818620  0.25672434
   0.93853929  0.87899346  0.23194626
   0.45511344  0.62666826  0.29462955
   0.94077551  0.62142085  0.24810237
   0.43841710  0.38190459  0.24139385
   0.93072062  0.37540155  0.27361731
   0.43702305  0.12112032  0.22934779
   0.93775508  0.12005697  0.25577515
   0.18860963  0.00006242  0.24376558
   0.68812788  0.00089065  0.23843246
   0.18906269  0.49802764  0.28580296
   0.69001447  0.49974561  0.25204827
   0.43351855  0.60874792  0.45515630
   0.25349671  0.68693214  0.46918210
   0.23370033  0.51273491  0.36407573
Direct configuration=     2
   0.43991011  0.87818756  0.25673495
   0.93854793  0.87900387  0.23195037
   0.45510257  0.62666849  0.29465400
   0.94077326  0.62143027  0.24809338
   0.43843768  0.38191017  0.24138772
   0.93073653  0.37540767  0.27361127
   0.43703230  0.12112389  0.22934979
   0.93776526  0.12006301  0.25578526
   0.18861675  0.00006533  0.24377466
   0.68813748  0.00089343  0.23843449
   0.18906327  0.49802723  0.28580343
   0.69001835  0.49975386  0.25207139
   0.43353678  0.60876801  0.45514612
   0.25345992  0.68691167  0.46915786
   0.23363270  0.51267905  0.36404534
Direct configuration=     3
   0.43992715  0.87818799  0.25675007
   0.93856243  0.87901542  0.23195431
   0.45509740  0.62667378  0.29469792
   0.94077052  0.62144494  0.24808482
   0.43846832  0.38192109  0.24138058
   0.93074662  0.37541277  0.27360374
   0.43704517  0.12112577  0.22935174
   0.93777888  0.12006982  0.25579864
   0.18863431  0.00007319  0.24378996
   0.68815084  0.00090242  0.23843923
   0.18905921  0.49802052  0.28579523
   0.69003195  0.49976716  0.25210154
   0.43358594  0.60881142  0.45513391
   0.25340375  0.68688396  0.46912317
   0.23350840  0.51258325  0.36399515
Direct configuration=     4
   0.43995648  0.87818953  0.25677579
   0.93858857  0.87903557  0.23195965
   0.45509856  0.62668384  0.29477955
   0.94076866  0.62146872  0.24807496
   0.43852459  0.38194157  0.24136944
   0.93074776  0.37541618  0.27359143
   0.43706932  0.12113012  0.22935447
   0.93780179  0.12008021  0.25582039
   0.18866435  0.00008693  0.24381702
   0.68817388  0.00091629  0.23844905
   0.18905154  0.49800504  0.28577236
   0.69005342  0.49979172  0.25214691
   0.43368702  0.60890680  0.45511609
   0.25331272  0.68683559  0.46906601
   0.23327222  0.51240539  0.36390689
Direct configuration=     5
   0.43998132  0.87819117  0.25679631
   0.93861418  0.87905283  0.23196162
   0.45511958  0.62669578  0.29485683
   0.94077459  0.62148755  0.24807747
   0.43858097  0.38196045  0.24136214
   0.93071032  0.37540736  0.27358181
   0.43709365  0.12113744  0.22935609
   0.93782025  0.12008509  0.25583536
   0.18868084  0.00009481  0.24383654
   0.68819183  0.00092120  0.23845973
   0.18904701  0.49798658  0.28573820
   0.69006482  0.49981179  0.25216177
   0.43381556  0.60902242  0.45511068
   0.25323937  0.68680313  0.46903069
   0.23303660  0.51223590  0.36383476
Direct configuration=     6
   0.43999913  0.87819018  0.25681444
   0.93863457  0.87906233  0.23196272
   0.45513042  0.62670161  0.29492338
   0.94078037  0.62150127  0.24807750
   0.43862128  0.38197437  0.24135221
   0.93068002  0.37540411  0.27356905
   0.43711274  0.12114037  0.22935741
   0.93783181  0.12008644  0.25584764
   0.18870914  0.00010677  0.24385517
   0.68821169  0.00092944  0.23847145
   0.18904226  0.49796636  0.28571719
   0.69008169  0.49983738  0.25217608
   0.43393003  0.60913010  0.45510399
   0.25317531  0.68677785  0.46900207
   0.23283044  0.51208490  0.36376971
