Al   C    Te   H                        
   1.0000000000000000     
     6.0191999999999997    0.0000000000000000    0.0000000000000000
     0.0000000000000000   10.1400000000000006    0.0000000000000000
     0.0000000000000000    0.0000000000000000   15.0000000000000000
   Al   C    Te   H 
     8     4     1     2
Selective dynamics
Direct
  0.4017536912796218  0.8694928852167899  0.2390771782119337   T   T   T
  0.9001707764779078  0.8693311054051731  0.2351650423099032   T   T   T
  0.4057591087987888  0.6133485381446033  0.2522181283686956   T   T   T
  0.8917545438439222  0.6130622719172882  0.2503570418983749   T   T   T
  0.4095425634899594  0.3629856483630998  0.2833189581955459   T   T   T
  0.8835484341394481  0.3629511836269236  0.2845285259861301   T   T   T
  0.4001930125237130  0.1135340636504266  0.2430016362313724   T   T   T
  0.9011624575546313  0.1127369552481670  0.2476757727049766   T   T   T
  0.1507700726793345  0.9895685615641867  0.2416459829480690   T   T   T
  0.6508412942344737  0.9905554758422040  0.2359559947714001   T   T   T
  0.1470360590710865  0.4949460954844271  0.2952457526782495   T   T   T
  0.6484019982686271  0.4905956034991136  0.2443606872413500   T   T   T
  0.6252513520392042  0.3515262330638896  0.4464182852050561   T   T   T
  0.5852054606083626  0.1949956070352103  0.4805523240153299   T   T   T
  0.1495695315325580  0.5195317652807573  0.3677242382849966   T   T   T

  0.00000000E+00  0.00000000E+00  0.00000000E+00
  0.00000000E+00  0.00000000E+00  0.00000000E+00
  0.00000000E+00  0.00000000E+00  0.00000000E+00
  0.00000000E+00  0.00000000E+00  0.00000000E+00
  0.00000000E+00  0.00000000E+00  0.00000000E+00
  0.00000000E+00  0.00000000E+00  0.00000000E+00
  0.00000000E+00  0.00000000E+00  0.00000000E+00
  0.00000000E+00  0.00000000E+00  0.00000000E+00
  0.00000000E+00  0.00000000E+00  0.00000000E+00
  0.00000000E+00  0.00000000E+00  0.00000000E+00
  0.00000000E+00  0.00000000E+00  0.00000000E+00
  0.00000000E+00  0.00000000E+00  0.00000000E+00
  0.00000000E+00  0.00000000E+00  0.00000000E+00
  0.00000000E+00  0.00000000E+00  0.00000000E+00
  0.00000000E+00  0.00000000E+00  0.00000000E+00
