Al   C    Te   H                        
   1.0000000000000000     
     6.0191999999999997    0.0000000000000000    0.0000000000000000
     0.0000000000000000   10.1400000000000006    0.0000000000000000
     0.0000000000000000    0.0000000000000000   15.0000000000000000
   Al   C    Te   H 
     8     4     1     2
Selective dynamics
Direct
  0.4019381544906392  0.8694350018805276  0.2390122821812642   T   T   T
  0.9002862626193718  0.8692751893664671  0.2351380550074736   T   T   T
  0.4058724294923262  0.6132734364737636  0.2521539894775363   T   T   T
  0.8917814456717941  0.6130072444161224  0.2503402185068776   T   T   T
  0.4096065436886543  0.3629553665828129  0.2834435766891938   T   T   T
  0.8836928736695484  0.3629018530370424  0.2845327115543253   T   T   T
  0.4003137149132018  0.1134865490127586  0.2430461015942907   T   T   T
  0.9013497289351289  0.1126768473710237  0.2476655249839042   T   T   T
  0.1509244350001024  0.9894913151254153  0.2415871527033778   T   T   T
  0.6509881600087638  0.9905306278806393  0.2359447110388892   T   T   T
  0.1471090773305130  0.4949656015455627  0.2952538092431570   T   T   T
  0.6484901563472797  0.4904964208705627  0.2443647920988795   T   T   T
  0.6251914166410985  0.3516791808655516  0.4464760888496312   T   T   T
  0.5842344683164311  0.1952669422820450  0.4806751936003577   T   T   T
  0.1495933899329347  0.5198031450654402  0.3676938087081937   T   T   T

  0.00000000E+00  0.00000000E+00  0.00000000E+00
  0.00000000E+00  0.00000000E+00  0.00000000E+00
  0.00000000E+00  0.00000000E+00  0.00000000E+00
  0.00000000E+00  0.00000000E+00  0.00000000E+00
  0.00000000E+00  0.00000000E+00  0.00000000E+00
  0.00000000E+00  0.00000000E+00  0.00000000E+00
  0.00000000E+00  0.00000000E+00  0.00000000E+00
  0.00000000E+00  0.00000000E+00  0.00000000E+00
  0.00000000E+00  0.00000000E+00  0.00000000E+00
  0.00000000E+00  0.00000000E+00  0.00000000E+00
  0.00000000E+00  0.00000000E+00  0.00000000E+00
  0.00000000E+00  0.00000000E+00  0.00000000E+00
  0.00000000E+00  0.00000000E+00  0.00000000E+00
  0.00000000E+00  0.00000000E+00  0.00000000E+00
  0.00000000E+00  0.00000000E+00  0.00000000E+00
