Al2C                                    
   1.0000000000000000     
     6.0191999999999997    0.0000000000000000    0.0000000000000000
     0.0000000000000000   10.1400000000000006    0.0000000000000000
     0.0000000000000000    0.0000000000000000   15.0000000000000000
   Al   C    Se   H 
     8     4     1     2
Selective dynamics
Direct
  0.4368982348975436  0.8752556414416844  0.2225898867591817   T   T   T
  0.9365082268173490  0.8759222590837623  0.2736504169525552   T   T   T
  0.4371549071749417  0.6122662764122072  0.2237854261274638   T   T   T
  0.9371619828301117  0.6137242793195306  0.2760980127462512   T   T   T
  0.4352191990082620  0.3747382825888600  0.2781812284436730   T   T   T
  0.9366501222191308  0.3762253808584259  0.2240439919185163   T   T   T
  0.4358952999939002  0.1136101360708745  0.2724639974168534   T   T   T
  0.9363276097003471  0.1130968275493869  0.2220374152121587   T   T   T
  0.1864214364876191 -0.0058458309518862  0.2470829512803876   T   T   T
  0.6864595791861925 -0.0055026615599551  0.2479634364033896   T   T   T
  0.1866888727362758  0.4946059947677738  0.2503081228971954   T   T   T
  0.6866304911300561  0.4943184174636170  0.2523342341795406   T   T   T
  0.5598150235277145  0.4472352894256436  0.4774935687104239   T   T   T
  0.7718413086999150  0.3713203677566374  0.4767371629180097   T   T   T
  0.4910985721509999  0.3809228308977035  0.5628701480343797   T   T   T

  0.00000000E+00  0.00000000E+00  0.00000000E+00
  0.00000000E+00  0.00000000E+00  0.00000000E+00
  0.00000000E+00  0.00000000E+00  0.00000000E+00
  0.00000000E+00  0.00000000E+00  0.00000000E+00
  0.00000000E+00  0.00000000E+00  0.00000000E+00
  0.00000000E+00  0.00000000E+00  0.00000000E+00
  0.00000000E+00  0.00000000E+00  0.00000000E+00
  0.00000000E+00  0.00000000E+00  0.00000000E+00
  0.00000000E+00  0.00000000E+00  0.00000000E+00
  0.00000000E+00  0.00000000E+00  0.00000000E+00
  0.00000000E+00  0.00000000E+00  0.00000000E+00
  0.00000000E+00  0.00000000E+00  0.00000000E+00
  0.00000000E+00  0.00000000E+00  0.00000000E+00
  0.00000000E+00  0.00000000E+00  0.00000000E+00
  0.00000000E+00  0.00000000E+00  0.00000000E+00
