  15  15   0   0
  0.6103469E+02  0.6019200E-09  0.1014000E-08  0.1500000E-08  0.3500000E-15
   1.0000000000000000E-004
  CAR 
 Al2C                                    
      1.92787058    -17.68295014  301     -1.72873037      1.00000000
    -17.683  0.0000E+00  0.0000E+00
    -17.618  0.0000E+00  0.0000E+00
    -17.552  0.0000E+00  0.0000E+00
    -17.487  0.0000E+00  0.0000E+00
    -17.421  0.0000E+00  0.0000E+00
    -17.356  0.0000E+00  0.0000E+00
    -17.291  0.0000E+00  0.0000E+00
    -17.225  0.0000E+00  0.0000E+00
    -17.160  0.0000E+00  0.0000E+00
    -17.095  0.0000E+00  0.0000E+00
    -17.029  0.4971E-12  0.3249E-13
    -16.964  0.3296E-07  0.2154E-08
    -16.899  0.8101E-04  0.5298E-05
    -16.833  0.8352E-02  0.5513E-03
    -16.768  0.4765E-01  0.3666E-02
    -16.702  0.1989E-01  0.4966E-02
    -16.637  0.5155E-03  0.5000E-02
    -16.572  0.6014E-06  0.5000E-02
    -16.506  0.2677E-10  0.5000E-02
    -16.441  0.3906E-16  0.5000E-02
    -16.376  0.0000E+00  0.5000E-02
    -16.310  0.0000E+00  0.5000E-02
    -16.245  0.0000E+00  0.5000E-02
    -16.179  0.0000E+00  0.5000E-02
    -16.114  0.0000E+00  0.5000E-02
    -16.049  0.0000E+00  0.5000E-02
    -15.983  0.0000E+00  0.5000E-02
    -15.918  0.0000E+00  0.5000E-02
    -15.853  0.0000E+00  0.5000E-02
    -15.787  0.0000E+00  0.5000E-02
    -15.722  0.0000E+00  0.5000E-02
    -15.656  0.0000E+00  0.5000E-02
    -15.591  0.0000E+00  0.5000E-02
    -15.526  0.0000E+00  0.5000E-02
    -15.460  0.0000E+00  0.5000E-02
    -15.395  0.0000E+00  0.5000E-02
    -15.330  0.0000E+00  0.5000E-02
    -15.264  0.0000E+00  0.5000E-02
    -15.199  0.0000E+00  0.5000E-02
    -15.134  0.0000E+00  0.5000E-02
    -15.068  0.0000E+00  0.5000E-02
    -15.003  0.0000E+00  0.5000E-02
    -14.937  0.0000E+00  0.5000E-02
    -14.872  0.0000E+00  0.5000E-02
    -14.807  0.0000E+00  0.5000E-02
    -14.741  0.0000E+00  0.5000E-02
    -14.676  0.0000E+00  0.5000E-02
    -14.611  0.0000E+00  0.5000E-02
    -14.545  0.0000E+00  0.5000E-02
    -14.480  0.0000E+00  0.5000E-02
    -14.414  0.0000E+00  0.5000E-02
    -14.349  0.0000E+00  0.5000E-02
    -14.284  0.0000E+00  0.5000E-02
    -14.218  0.0000E+00  0.5000E-02
    -14.153  0.0000E+00  0.5000E-02
    -14.088  0.0000E+00  0.5000E-02
    -14.022  0.0000E+00  0.5000E-02
    -13.957  0.0000E+00  0.5000E-02
    -13.892  0.0000E+00  0.5000E-02
    -13.826  0.0000E+00  0.5000E-02
    -13.761  0.0000E+00  0.5000E-02
    -13.695  0.0000E+00  0.5000E-02
    -13.630  0.5613E-14  0.5000E-02
    -13.565  0.5923E-09  0.5000E-02
    -13.499  0.2330E-05  0.5000E-02
    -13.434  0.4148E-03  0.5027E-02
    -13.369  0.5449E-02  0.5383E-02
    -13.303  0.1069E-01  0.6082E-02
    -13.238  0.2177E-01  0.7506E-02
    -13.172  0.2451E-01  0.9108E-02
    -13.107  0.1957E-01  0.1039E-01
    -13.042  0.8818E-02  0.1096E-01
    -12.976  0.6265E-03  0.1100E-01
    -12.911  0.3830E-02  0.1126E-01
    -12.846  0.1826E-01  0.1245E-01
    -12.780  0.1990E-01  0.1375E-01
    -12.715  0.1633E-01  0.1482E-01
    -12.650  0.2757E-02  0.1500E-01
    -12.584  0.4337E-04  0.1500E-01
    -12.519  0.3549E-07  0.1500E-01
    -12.453  0.3427E-06  0.1500E-01
    -12.388  0.1917E-03  0.1501E-01
    -12.323  0.6404E-02  0.1543E-01
    -12.257  0.2155E-01  0.1684E-01
    -12.192  0.2248E-01  0.1831E-01
    -12.127  0.9995E-02  0.1896E-01
    -12.061  0.5664E-03  0.1900E-01
    -11.996  0.2188E-05  0.1900E-01
    -11.930  0.3791E-09  0.1900E-01
    -11.865  0.5052E-12  0.1900E-01
    -11.800  0.2092E-07  0.1900E-01
    -11.734  0.3569E-04  0.1900E-01
    -11.669  0.3114E-02  0.1921E-01
    -11.604  0.2149E-01  0.2061E-01
    -11.538  0.2744E-01  0.2240E-01
    -11.473  0.8804E-02  0.2298E-01
    -11.407  0.3089E-03  0.2300E-01
    -11.342  0.5488E-04  0.2300E-01
    -11.277  0.3114E-02  0.2321E-01
    -11.211  0.1540E-01  0.2421E-01
    -11.146  0.1102E-01  0.2493E-01
    -11.081  0.1004E-02  0.2500E-01
    -11.015  0.6399E-05  0.2500E-01
    -10.950  0.1917E-08  0.2500E-01
    -10.885  0.2290E-13  0.2500E-01
    -10.819  0.0000E+00  0.2500E-01
    -10.754  0.0000E+00  0.2500E-01
    -10.688  0.0000E+00  0.2500E-01
    -10.623  0.0000E+00  0.2500E-01
    -10.558  0.0000E+00  0.2500E-01
    -10.492  0.0000E+00  0.2500E-01
    -10.427  0.0000E+00  0.2500E-01
    -10.362  0.0000E+00  0.2500E-01
    -10.296  0.0000E+00  0.2500E-01
    -10.231  0.0000E+00  0.2500E-01
    -10.165  0.0000E+00  0.2500E-01
    -10.100  0.0000E+00  0.2500E-01
    -10.035  0.0000E+00  0.2500E-01
     -9.969  0.0000E+00  0.2500E-01
     -9.904  0.0000E+00  0.2500E-01
     -9.839  0.0000E+00  0.2500E-01
     -9.773  0.0000E+00  0.2500E-01
     -9.708  0.0000E+00  0.2500E-01
     -9.643  0.0000E+00  0.2500E-01
     -9.577  0.0000E+00  0.2500E-01
     -9.512  0.0000E+00  0.2500E-01
     -9.446  0.0000E+00  0.2500E-01
     -9.381  0.0000E+00  0.2500E-01
     -9.316  0.0000E+00  0.2500E-01
     -9.250  0.0000E+00  0.2500E-01
     -9.185  0.0000E+00  0.2500E-01
     -9.120  0.0000E+00  0.2500E-01
     -9.054  0.0000E+00  0.2500E-01
     -8.989  0.8267E-12  0.2500E-01
     -8.923  0.3967E-07  0.2500E-01
     -8.858  0.7554E-04  0.2500E-01
     -8.793  0.6975E-02  0.2546E-01
     -8.727  0.4372E-01  0.2832E-01
     -8.662  0.2459E-01  0.2993E-01
     -8.597  0.1119E-02  0.3000E-01
     -8.531  0.2924E-05  0.3000E-01
     -8.466  0.1479E-05  0.3000E-01
     -8.400  0.2866E-03  0.3002E-01
     -8.335  0.3458E-02  0.3024E-01
     -8.270  0.7750E-02  0.3075E-01
     -8.204  0.3970E-02  0.3101E-01
     -8.139  0.6203E-02  0.3142E-01
     -8.074  0.9407E-02  0.3203E-01
     -8.008  0.7779E-02  0.3254E-01
     -7.943  0.6468E-02  0.3296E-01
     -7.878  0.3282E-02  0.3318E-01
     -7.812  0.1068E-01  0.3388E-01
     -7.747  0.2240E-01  0.3534E-01
     -7.681  0.2063E-01  0.3669E-01
     -7.616  0.1484E-01  0.3766E-01
     -7.551  0.3564E-01  0.3999E-01
     -7.485  0.2885E-01  0.4187E-01
     -7.420  0.1775E-01  0.4303E-01
     -7.355  0.2011E-01  0.4435E-01
     -7.289  0.1644E-01  0.4542E-01
     -7.224  0.8392E-02  0.4597E-01
     -7.158  0.4623E-03  0.4600E-01
     -7.093  0.2124E-02  0.4614E-01
     -7.028  0.6631E-02  0.4657E-01
     -6.962  0.6118E-02  0.4697E-01
     -6.897  0.1664E-01  0.4806E-01
     -6.832  0.8552E-02  0.4862E-01
     -6.766  0.1906E-02  0.4875E-01
     -6.701  0.1118E-01  0.4948E-01
     -6.636  0.8422E-02  0.5003E-01
     -6.570  0.1116E-01  0.5076E-01
     -6.505  0.2176E-01  0.5218E-01
     -6.439  0.1608E-01  0.5323E-01
     -6.374  0.1559E-02  0.5333E-01
     -6.309  0.1033E-04  0.5333E-01
     -6.243  0.2610E-03  0.5335E-01
     -6.178  0.6582E-02  0.5378E-01
     -6.113  0.1916E-01  0.5503E-01
     -6.047  0.1256E-01  0.5585E-01
     -5.982  0.9595E-02  0.5648E-01
     -5.916  0.6953E-02  0.5694E-01
     -5.851  0.1298E-02  0.5702E-01
     -5.786  0.9020E-02  0.5761E-01
     -5.720  0.2385E-01  0.5917E-01
     -5.655  0.1236E-01  0.5998E-01
     -5.590  0.1152E-01  0.6073E-01
     -5.524  0.1059E-01  0.6142E-01
     -5.459  0.8264E-02  0.6196E-01
     -5.394  0.4322E-02  0.6225E-01
     -5.328  0.1689E-02  0.6236E-01
     -5.263  0.5253E-02  0.6270E-01
     -5.197  0.1066E-01  0.6340E-01
     -5.132  0.1723E-01  0.6452E-01
     -5.067  0.7012E-02  0.6498E-01
     -5.001  0.1942E-02  0.6511E-01
     -4.936  0.9133E-02  0.6571E-01
     -4.871  0.2760E-01  0.6751E-01
     -4.805  0.3024E-01  0.6949E-01
     -4.740  0.2755E-01  0.7129E-01
     -4.674  0.2097E-01  0.7266E-01
     -4.609  0.2830E-01  0.7451E-01
     -4.544  0.2014E-01  0.7583E-01
     -4.478  0.2603E-01  0.7753E-01
     -4.413  0.1690E-01  0.7863E-01
     -4.348  0.2104E-01  0.8001E-01
     -4.282  0.2528E-01  0.8166E-01
     -4.217  0.2704E-01  0.8343E-01
     -4.151  0.3669E-01  0.8583E-01
     -4.086  0.7774E-02  0.8633E-01
     -4.021  0.5205E-02  0.8667E-01
     -3.955  0.1286E-01  0.8751E-01
     -3.890  0.5611E-02  0.8788E-01
     -3.825  0.1679E-01  0.8898E-01
     -3.759  0.1717E-01  0.9010E-01
     -3.694  0.1335E-01  0.9097E-01
     -3.629  0.7504E-02  0.9146E-01
     -3.563  0.1764E-01  0.9262E-01
     -3.498  0.2420E-01  0.9420E-01
     -3.432  0.2290E-01  0.9570E-01
     -3.367  0.1659E-01  0.9678E-01
     -3.302  0.2240E-01  0.9824E-01
     -3.236  0.4048E-01  0.1009E+00
     -3.171  0.4263E-01  0.1037E+00
     -3.106  0.1882E-01  0.1049E+00
     -3.040  0.1405E-02  0.1050E+00
     -2.975  0.5847E-03  0.1050E+00
     -2.909  0.1208E-01  0.1058E+00
     -2.844  0.2248E-01  0.1073E+00
     -2.779  0.6358E-02  0.1077E+00
     -2.713  0.1124E-01  0.1084E+00
     -2.648  0.2472E-01  0.1101E+00
     -2.583  0.4094E-01  0.1127E+00
     -2.517  0.3427E-01  0.1150E+00
     -2.452  0.1381E-01  0.1159E+00
     -2.387  0.6907E-02  0.1163E+00
     -2.321  0.8213E-02  0.1169E+00
     -2.256  0.6835E-02  0.1173E+00
     -2.190  0.5447E-02  0.1177E+00
     -2.125  0.8914E-02  0.1183E+00
     -2.060  0.5672E-02  0.1186E+00
     -1.994  0.1055E-01  0.1193E+00
     -1.929  0.8276E-02  0.1199E+00
     -1.864  0.2132E-02  0.1200E+00
     -1.798  0.4075E-04  0.1200E+00
     -1.733  0.3447E-07  0.1200E+00
     -1.667  0.1097E-11  0.1200E+00
     -1.602  0.1132E-17  0.1200E+00
     -1.537  0.0000E+00  0.1200E+00
     -1.471  0.0000E+00  0.1200E+00
     -1.406  0.1868E-16  0.1200E+00
     -1.341  0.8983E-11  0.1200E+00
     -1.275  0.1557E-06  0.1200E+00
     -1.210  0.1034E-03  0.1200E+00
     -1.144  0.3146E-02  0.1202E+00
     -1.079  0.6138E-02  0.1206E+00
     -1.014  0.4147E-02  0.1209E+00
     -0.948  0.1650E-01  0.1220E+00
     -0.883  0.1604E-01  0.1230E+00
     -0.818  0.9320E-02  0.1236E+00
     -0.752  0.7319E-03  0.1237E+00
     -0.687  0.2608E-02  0.1238E+00
     -0.622  0.1255E-01  0.1247E+00
     -0.556  0.9192E-02  0.1253E+00
     -0.491  0.1171E-01  0.1260E+00
     -0.425  0.1150E-01  0.1268E+00
     -0.360  0.1989E-01  0.1281E+00
     -0.295  0.1876E-01  0.1293E+00
     -0.229  0.1911E-01  0.1306E+00
     -0.164  0.3206E-01  0.1326E+00
     -0.099  0.1718E-01  0.1338E+00
     -0.033  0.1512E-01  0.1348E+00
      0.032  0.2553E-01  0.1364E+00
      0.098  0.2360E-01  0.1380E+00
      0.163  0.1703E-01  0.1391E+00
      0.228  0.2478E-01  0.1407E+00
      0.294  0.3335E-01  0.1429E+00
      0.359  0.2710E-01  0.1447E+00
      0.424  0.2640E-01  0.1464E+00
      0.490  0.2796E-01  0.1482E+00
      0.555  0.4172E-01  0.1509E+00
      0.620  0.2673E-01  0.1527E+00
      0.686  0.1911E-01  0.1539E+00
      0.751  0.2617E-01  0.1556E+00
      0.817  0.1172E-01  0.1564E+00
      0.882  0.1067E-01  0.1571E+00
      0.947  0.1386E-01  0.1580E+00
      1.013  0.1541E-01  0.1590E+00
      1.078  0.1339E-01  0.1599E+00
      1.143  0.1560E-02  0.1600E+00
      1.209  0.1366E-04  0.1600E+00
      1.274  0.5686E-08  0.1600E+00
      1.340  0.9110E-13  0.1600E+00
      1.405  0.0000E+00  0.1600E+00
      1.470  0.0000E+00  0.1600E+00
      1.536  0.0000E+00  0.1600E+00
      1.601  0.0000E+00  0.1600E+00
      1.666  0.0000E+00  0.1600E+00
      1.732  0.0000E+00  0.1600E+00
      1.797  0.0000E+00  0.1600E+00
      1.863  0.0000E+00  0.1600E+00
      1.928  0.0000E+00  0.1600E+00
