   15   15  400    1
  0.6103469E+02  0.6019200E-09  0.1014000E-08  0.1500000E-08  0.3500000E-15
   1.0000000000000000E-004
  CAR 
 Al2C                                    
     48      8     32

  0.3742002E-15  0.3742002E-15  0.1262379E-14  0.6666667E-01
    1      -16.791524   1.000000
    2      -13.381812   1.000000
    3      -13.222011   1.000000
    4      -11.254124   1.000000
    5      -11.191646   1.000000
    6       -8.727355   1.000000
    7       -8.344209   1.000000
    8       -8.138080   1.000000
    9       -8.046519   1.000000
   10       -7.477477   1.000000
   11       -6.086445   1.000000
   12       -5.653890   1.000000
   13       -5.416177   1.000000
   14       -4.983136   1.000000
   15       -4.697718   1.000000
   16       -4.336775   1.000000
   17       -4.272410   1.000000
   18       -3.829923   1.000000
   19       -3.466865   1.000000
   20       -2.546007   1.000000
   21       -2.523098   1.000000
   22       -2.338825   1.000000
   23       -2.159713   1.000000
   24       -2.057247   1.000000
   25       -0.963882   0.000000
   26       -0.538746   0.000000
   27       -0.205832   0.000000
   28       -0.141060   0.000000
   29       -0.124065   0.000000
   30       -0.061213   0.000000
   31        0.437750   0.000000
   32        0.630757   0.000000

  0.2000000E+00  0.3742002E-15  0.1262379E-14  0.1333333E+00
    1      -16.790343   1.000000
    2      -13.256612   1.000000
    3      -13.100139   1.000000
    4      -11.636184   1.000000
    5      -11.543981   1.000000
    6       -8.738590   1.000000
    7       -7.997500   1.000000
    8       -7.788372   1.000000
    9       -7.556809   1.000000
   10       -7.366081   1.000000
   11       -6.033914   1.000000
   12       -5.962559   1.000000
   13       -5.563959   1.000000
   14       -4.905955   1.000000
   15       -4.649035   1.000000
   16       -4.479035   1.000000
   17       -4.203134   1.000000
   18       -3.732135   1.000000
   19       -3.239680   1.000000
   20       -3.204808   1.000000
   21       -3.184906   1.000000
   22       -2.855988   1.000000
   23       -2.568555   1.000000
   24       -1.957325   1.000000
   25       -1.127817   0.000000
   26       -0.342818   0.000000
   27       -0.076985   0.000000
   28        0.029056   0.000000
   29        0.227396   0.000000
   30        0.426172   0.000000
   31        0.701045   0.000000
   32        0.807434   0.000000

  0.4000000E+00  0.3742002E-15  0.1262379E-14  0.1333333E+00
    1      -16.788417   1.000000
    2      -12.889083   1.000000
    3      -12.743118   1.000000
    4      -12.312110   1.000000
    5      -12.186091   1.000000
    6       -8.757071   1.000000
    7       -7.609981   1.000000
    8       -7.507406   1.000000
    9       -6.885184   1.000000
   10       -6.486462   1.000000
   11       -6.173005   1.000000
   12       -5.629839   1.000000
   13       -5.502163   1.000000
   14       -5.133528   1.000000
   15       -4.772011   1.000000
   16       -4.626774   1.000000
   17       -4.329290   1.000000
   18       -4.320376   1.000000
   19       -4.190387   1.000000
   20       -3.867988   1.000000
   21       -3.587605   1.000000
   22       -3.249472   1.000000
   23       -2.438906   1.000000
   24       -2.030389   1.000000
   25       -0.964933   0.000000
   26       -0.460945   0.000000
   27        0.224765   0.000000
   28        0.351404   0.000000
   29        0.575205   0.000000
   30        0.624166   0.000000
   31        0.727566   0.000000
   32        0.986760   0.000000

  0.3742002E-15  0.3333333E+00  0.1262379E-14  0.1333333E+00
    1      -16.791549   1.000000
    2      -13.344705   1.000000
    3      -13.263726   1.000000
    4      -11.240671   1.000000
    5      -11.205727   1.000000
    6       -8.725949   1.000000
    7       -8.282052   1.000000
    8       -8.128018   1.000000
    9       -7.854700   1.000000
   10       -7.478862   1.000000
   11       -7.064870   1.000000
   12       -5.265205   1.000000
   13       -4.879391   1.000000
   14       -4.821333   1.000000
   15       -4.521893   1.000000
   16       -4.474784   1.000000
   17       -4.281590   1.000000
   18       -3.702735   1.000000
   19       -3.488255   1.000000
   20       -2.910101   1.000000
   21       -2.540660   1.000000
   22       -2.529391   1.000000
   23       -2.317662   1.000000
   24       -2.182745   1.000000
   25       -0.984500   0.000000
   26       -0.532070   0.000000
   27       -0.375938   0.000000
   28       -0.195294   0.000000
   29       -0.001517   0.000000
   30        0.244915   0.000000
   31        0.377040   0.000000
   32        0.486476   0.000000

  0.2000000E+00  0.3333333E+00  0.1262379E-14  0.1333333E+00
    1      -16.790329   1.000000
    2      -13.220263   1.000000
    3      -13.140895   1.000000
    4      -11.615218   1.000000
    5      -11.566307   1.000000
    6       -8.737603   1.000000
    7       -7.762967   1.000000
    8       -7.706213   1.000000
    9       -7.589265   1.000000
   10       -7.399547   1.000000
   11       -6.937200   1.000000
   12       -5.777147   1.000000
   13       -5.164333   1.000000
   14       -4.826552   1.000000
   15       -4.537557   1.000000
   16       -4.387425   1.000000
   17       -4.217028   1.000000
   18       -3.392486   1.000000
   19       -3.283381   1.000000
   20       -3.218387   1.000000
   21       -3.161148   1.000000
   22       -2.894892   1.000000
   23       -2.646382   1.000000
   24       -2.595648   1.000000
   25       -0.874496   0.000000
   26       -0.399164   0.000000
   27       -0.181599   0.000000
   28        0.103044   0.000000
   29        0.223836   0.000000
   30        0.331910   0.000000
   31        0.527686   0.000000
   32        0.719921   0.000000

  0.4000000E+00  0.3333333E+00  0.1262379E-14  0.1333333E+00
    1      -16.788398   1.000000
    2      -12.855171   1.000000
    3      -12.780828   1.000000
    4      -12.282971   1.000000
    5      -12.217982   1.000000
    6       -8.756654   1.000000
    7       -7.555137   1.000000
    8       -7.294803   1.000000
    9       -6.715919   1.000000
   10       -6.575787   1.000000
   11       -6.501767   1.000000
   12       -6.130476   1.000000
   13       -5.739019   1.000000
   14       -4.888758   1.000000
   15       -4.754359   1.000000
   16       -4.643109   1.000000
   17       -4.173022   1.000000
   18       -3.999849   1.000000
   19       -3.817019   1.000000
   20       -3.574135   1.000000
   21       -3.493397   1.000000
   22       -3.300739   1.000000
   23       -2.717141   1.000000
   24       -2.627251   1.000000
   25       -0.634835   0.000000
   26       -0.255359   0.000000
   27        0.011775   0.000000
   28        0.290882   0.000000
   29        0.478427   0.000000
   30        0.550276   0.000000
   31        0.897485   0.000000
   32        1.011428   0.000000

 -0.4000000E+00  0.3333333E+00  0.1262379E-14  0.1333333E+00
    1      -16.788398   1.000000
    2      -12.855245   1.000000
    3      -12.780746   1.000000
    4      -12.282856   1.000000
    5      -12.218108   1.000000
    6       -8.756599   1.000000
    7       -7.555793   1.000000
    8       -7.297223   1.000000
    9       -6.705377   1.000000
   10       -6.569525   1.000000
   11       -6.509863   1.000000
   12       -6.138823   1.000000
   13       -5.735083   1.000000
   14       -4.912868   1.000000
   15       -4.732714   1.000000
   16       -4.640323   1.000000
   17       -4.184328   1.000000
   18       -3.994982   1.000000
   19       -3.813684   1.000000
   20       -3.561934   1.000000
   21       -3.489866   1.000000
   22       -3.314899   1.000000
   23       -2.718367   1.000000
   24       -2.624322   1.000000
   25       -0.655687   0.000000
   26       -0.222621   0.000000
   27        0.032043   0.000000
   28        0.269670   0.000000
   29        0.505057   0.000000
   30        0.526247   0.000000
   31        0.895854   0.000000
   32        1.036470   0.000000

 -0.2000000E+00  0.3333333E+00  0.1262379E-14  0.1333333E+00
    1      -16.790340   1.000000
    2      -13.220296   1.000000
    3      -13.140856   1.000000
    4      -11.615081   1.000000
    5      -11.566452   1.000000
    6       -8.737486   1.000000
    7       -7.765246   1.000000
    8       -7.706818   1.000000
    9       -7.587169   1.000000
   10       -7.399948   1.000000
   11       -6.934040   1.000000
   12       -5.771287   1.000000
   13       -5.189542   1.000000
   14       -4.812932   1.000000
   15       -4.543280   1.000000
   16       -4.390565   1.000000
   17       -4.202387   1.000000
   18       -3.395469   1.000000
   19       -3.283993   1.000000
   20       -3.216069   1.000000
   21       -3.159454   1.000000
   22       -2.893806   1.000000
   23       -2.646341   1.000000
   24       -2.594525   1.000000
   25       -0.894812   0.000000
   26       -0.337890   0.000000
   27       -0.205552   0.000000
   28        0.093977   0.000000
   29        0.156642   0.000000
   30        0.376125   0.000000
   31        0.548065   0.000000
   32        0.699383   0.000000
