       N       E                     dE             d eps       ncg     rms          rms(c)
DAV:   1     0.312122964374E+03    0.31212E+03   -0.13384E+04   520   0.924E+02
DAV:   2     0.152856173227E+02   -0.29684E+03   -0.27874E+03   728   0.208E+02
DAV:   3    -0.698465993278E+02   -0.85132E+02   -0.84100E+02   840   0.103E+02
DAV:   4    -0.731818338246E+02   -0.33352E+01   -0.33259E+01   648   0.247E+01
DAV:   5    -0.733040843788E+02   -0.12225E+00   -0.12221E+00   808   0.503E+00
DAV:   6    -0.733060080340E+02   -0.19237E-02   -0.19233E-02   672   0.706E-01
DAV:   7    -0.733061050873E+02   -0.97053E-04   -0.97043E-04   776   0.132E-01    0.220E+01
DAV:   8    -0.506438375177E+02    0.22662E+02   -0.11027E+02   688   0.536E+01    0.602E+00
DAV:   9    -0.505094154599E+02    0.13442E+00   -0.61486E+00   640   0.113E+01    0.413E+00
DAV:  10    -0.498826497633E+02    0.62677E+00   -0.21945E+00   704   0.876E+00    0.998E-01
DAV:  11    -0.498138409995E+02    0.68809E-01   -0.31596E-01   744   0.250E+00    0.457E-01
DAV:  12    -0.497862080431E+02    0.27633E-01   -0.89858E-02   744   0.137E+00    0.357E-01
DAV:  13    -0.497653679016E+02    0.20840E-01   -0.17153E-02   696   0.713E-01    0.168E-01
DAV:  14    -0.497575837955E+02    0.77841E-02   -0.12056E-02   720   0.541E-01    0.888E-02
DAV:  15    -0.497468011379E+02    0.10783E-01   -0.68882E-03   608   0.518E-01    0.636E-02
DAV:  16    -0.497482554250E+02   -0.14543E-02   -0.33616E-03   576   0.330E-01    0.625E-02
DAV:  17    -0.497491825329E+02   -0.92711E-03   -0.32090E-03   760   0.338E-01    0.552E-02
DAV:  18    -0.497505855505E+02   -0.14030E-02   -0.13769E-03   720   0.227E-01    0.337E-02
DAV:  19    -0.497521218428E+02   -0.15363E-02   -0.57008E-04   608   0.103E-01    0.177E-02
DAV:  20    -0.497529460521E+02   -0.82421E-03   -0.28904E-04   640   0.666E-02    0.107E-02
DAV:  21    -0.497534965791E+02   -0.55053E-03   -0.17825E-04   608   0.581E-02    0.437E-03
DAV:  22    -0.497536216617E+02   -0.12508E-03   -0.54392E-05   616   0.370E-02    0.712E-03
DAV:  23    -0.497536572486E+02   -0.35587E-04   -0.13502E-05   488   0.259E-02    0.324E-03
DAV:  24    -0.497536734029E+02   -0.16154E-04   -0.10606E-05   440   0.176E-02    0.129E-03
DAV:  25    -0.497536804610E+02   -0.70581E-05   -0.32254E-06   416   0.122E-02
   1 F= -.49753680E+02 E0= -.49753680E+02  d E =-.497537E+02
       N       E                     dE             d eps       ncg     rms          rms(c)
DAV:   1    -0.497603727017E+02   -0.66993E-02   -0.12763E-01   560   0.171E+00    0.915E-02
DAV:   2    -0.497609145089E+02   -0.54181E-03   -0.71400E-03   672   0.373E-01    0.662E-02
DAV:   3    -0.497608479077E+02    0.66601E-04   -0.47225E-04   752   0.114E-01    0.330E-02
DAV:   4    -0.497608469371E+02    0.97066E-06   -0.56484E-05   608   0.421E-02
   2 F= -.49760847E+02 E0= -.49760847E+02  d E =-.716648E-02
       N       E                     dE             d eps       ncg     rms          rms(c)
DAV:   1    -0.497613483721E+02   -0.50046E-03   -0.17075E-02   576   0.629E-01    0.338E-02
DAV:   2    -0.497614196629E+02   -0.71291E-04   -0.95609E-04   672   0.137E-01    0.247E-02
DAV:   3    -0.497614104524E+02    0.92105E-05   -0.63578E-05   688   0.422E-02
   3 F= -.49761410E+02 E0= -.49761410E+02  d E =-.772999E-02
       N       E                     dE             d eps       ncg     rms          rms(c)
DAV:   1    -0.497666185105E+02   -0.51988E-02   -0.10233E-01   512   0.140E+00    0.814E-02
DAV:   2    -0.497671946529E+02   -0.57614E-03   -0.66651E-03   672   0.330E-01    0.469E-02
DAV:   3    -0.497671966487E+02   -0.19959E-05   -0.19768E-04   696   0.710E-02    0.292E-02
DAV:   4    -0.497672004865E+02   -0.38378E-05   -0.69254E-05   632   0.439E-02
   4 F= -.49767200E+02 E0= -.49767200E+02  d E =-.579003E-02
       N       E                     dE             d eps       ncg     rms          rms(c)
DAV:   1    -0.497739199169E+02   -0.67233E-02   -0.92434E-01   512   0.421E+00    0.241E-01
DAV:   2    -0.497791291989E+02   -0.52093E-02   -0.60288E-02   680   0.987E-01    0.138E-01
DAV:   3    -0.497791574714E+02   -0.28273E-04   -0.17427E-03   696   0.209E-01    0.864E-02
DAV:   4    -0.497791848709E+02   -0.27399E-04   -0.60504E-04   640   0.129E-01    0.180E-02
DAV:   5    -0.497791941126E+02   -0.92417E-05   -0.11258E-04   640   0.566E-02    0.131E-02
DAV:   6    -0.497792057235E+02   -0.11611E-04   -0.66749E-05   704   0.460E-02    0.719E-03
DAV:   7    -0.497792090268E+02   -0.33032E-05   -0.11460E-05   448   0.209E-02
   5 F= -.49779209E+02 E0= -.49779209E+02  d E =-.177986E-01
       N       E                     dE             d eps       ncg     rms          rms(c)
DAV:   1    -0.497592811249E+02    0.19925E-01   -0.37012E+00   512   0.841E+00    0.479E-01
DAV:   2    -0.497799290998E+02   -0.20648E-01   -0.23916E-01   656   0.195E+00    0.272E-01
DAV:   3    -0.497801145997E+02   -0.18550E-03   -0.77310E-03   696   0.437E-01    0.171E-01
DAV:   4    -0.497801265548E+02   -0.11955E-04   -0.23589E-03   648   0.254E-01    0.345E-02
DAV:   5    -0.497801630921E+02   -0.36537E-04   -0.46735E-04   640   0.110E-01    0.252E-02
DAV:   6    -0.497801997501E+02   -0.36658E-04   -0.24749E-04   744   0.860E-02    0.142E-02
DAV:   7    -0.497802093419E+02   -0.95919E-05   -0.43314E-05   640   0.382E-02
   6 F= -.49780209E+02 E0= -.49780209E+02  d E =-.187989E-01
       N       E                     dE             d eps       ncg     rms          rms(c)
DAV:   1    -0.497793103554E+02    0.88939E-03   -0.75088E-01   512   0.378E+00    0.212E-01
DAV:   2    -0.497834111283E+02   -0.41008E-02   -0.47452E-02   688   0.869E-01    0.124E-01
DAV:   3    -0.497834602317E+02   -0.49103E-04   -0.13670E-03   680   0.188E-01    0.769E-02
DAV:   4    -0.497835253895E+02   -0.65158E-04   -0.49429E-04   624   0.113E-01    0.179E-02
DAV:   5    -0.497835252131E+02    0.17638E-06   -0.75193E-05   640   0.496E-02
   7 F= -.49783525E+02 E0= -.49783525E+02  d E =-.221148E-01
       N       E                     dE             d eps       ncg     rms          rms(c)
DAV:   1    -0.497875739521E+02   -0.40486E-02   -0.12200E-01   512   0.181E+00    0.766E-02
DAV:   2    -0.497881092204E+02   -0.53527E-03   -0.61820E-03   656   0.363E-01    0.530E-02
DAV:   3    -0.497880879248E+02    0.21296E-04   -0.21853E-04   744   0.822E-02    0.322E-02
DAV:   4    -0.497880937807E+02   -0.58559E-05   -0.12545E-04   576   0.563E-02    0.804E-03
DAV:   5    -0.497880946446E+02   -0.86385E-06   -0.22513E-05   512   0.263E-02
   8 F= -.49788095E+02 E0= -.49788095E+02  d E =-.456943E-02
       N       E                     dE             d eps       ncg     rms          rms(c)
DAV:   1    -0.497896051477E+02   -0.15114E-02   -0.10372E+00   512   0.528E+00    0.225E-01
DAV:   2    -0.497942369487E+02   -0.46318E-02   -0.52740E-02   648   0.106E+00    0.152E-01
DAV:   3    -0.497941130886E+02    0.12386E-03   -0.18738E-03   752   0.235E-01    0.927E-02
DAV:   4    -0.497941550637E+02   -0.41975E-04   -0.10513E-03   624   0.164E-01    0.219E-02
DAV:   5    -0.497941650787E+02   -0.10015E-04   -0.21102E-04   640   0.760E-02    0.152E-02
DAV:   6    -0.497941738308E+02   -0.87521E-05   -0.63656E-05   664   0.415E-02
   9 F= -.49794174E+02 E0= -.49794174E+02  d E =-.106486E-01
       N       E                     dE             d eps       ncg     rms          rms(c)
DAV:   1    -0.498002937361E+02   -0.61287E-02   -0.34665E-01   512   0.357E+00    0.105E-01
DAV:   2    -0.498010613143E+02   -0.76758E-03   -0.98517E-03   672   0.532E-01    0.761E-02
DAV:   3    -0.498009887666E+02    0.72548E-04   -0.40048E-04   712   0.115E-01    0.409E-02
DAV:   4    -0.498010239073E+02   -0.35141E-04   -0.29004E-04   576   0.795E-02    0.121E-02
DAV:   5    -0.498010287541E+02   -0.48468E-05   -0.54292E-05   640   0.409E-02
  10 F= -.49801029E+02 E0= -.49801029E+02  d E =-.685492E-02
       N       E                     dE             d eps       ncg     rms          rms(c)
DAV:   1    -0.498098640842E+02   -0.88402E-02   -0.31252E+00   512   0.107E+01    0.316E-01
DAV:   2    -0.498169423124E+02   -0.70782E-02   -0.89744E-02   672   0.161E+00    0.230E-01
DAV:   3    -0.498161857146E+02    0.75660E-03   -0.35478E-03   712   0.346E-01    0.126E-01
DAV:   4    -0.498163264335E+02   -0.14072E-03   -0.29277E-03   640   0.253E-01    0.386E-02
DAV:   5    -0.498163247550E+02    0.16785E-05   -0.50492E-04   640   0.124E-01    0.210E-02
DAV:   6    -0.498163597119E+02   -0.34957E-04   -0.18111E-04   680   0.602E-02    0.139E-02
DAV:   7    -0.498163558891E+02    0.38228E-05   -0.85715E-06   448   0.225E-02
  11 F= -.49816356E+02 E0= -.49816356E+02  d E =-.221821E-01
       N       E                     dE             d eps       ncg     rms          rms(c)
DAV:   1    -0.497947937444E+02    0.21566E-01   -0.12502E+01   512   0.214E+01    0.639E-01
DAV:   2    -0.498240453713E+02   -0.29252E-01   -0.37077E-01   680   0.328E+00    0.463E-01
DAV:   3    -0.498208178643E+02    0.32275E-02   -0.14105E-02   704   0.685E-01    0.258E-01
DAV:   4    -0.498211453089E+02   -0.32744E-03   -0.12506E-02   664   0.521E-01    0.802E-02
DAV:   5    -0.498211419419E+02    0.33670E-05   -0.20994E-03   640   0.239E-01    0.512E-02
DAV:   6    -0.498212481700E+02   -0.10623E-03   -0.96960E-04   664   0.152E-01    0.303E-02
DAV:   7    -0.498212374828E+02    0.10687E-04   -0.10180E-04   760   0.614E-02    0.185E-02
DAV:   8    -0.498212758079E+02   -0.38325E-04   -0.18819E-04   688   0.681E-02    0.127E-02
DAV:   9    -0.498212802748E+02   -0.44669E-05   -0.22620E-05   488   0.286E-02
  12 F= -.49821280E+02 E0= -.49821280E+02  d E =-.271064E-01
       N       E                     dE             d eps       ncg     rms          rms(c)
DAV:   1    -0.498200163572E+02    0.12595E-02   -0.17369E+00   512   0.789E+00    0.236E-01
DAV:   2    -0.498240084305E+02   -0.39921E-02   -0.50503E-02   648   0.120E+00    0.172E-01
DAV:   3    -0.498236127786E+02    0.39565E-03   -0.21410E-03   712   0.263E-01    0.935E-02
DAV:   4    -0.498236963472E+02   -0.83569E-04   -0.15317E-03   616   0.178E-01    0.274E-02
DAV:   5    -0.498237024358E+02   -0.60886E-05   -0.32750E-04   632   0.902E-02    0.133E-02
DAV:   6    -0.498237180768E+02   -0.15641E-04   -0.31602E-05   552   0.320E-02    0.733E-03
DAV:   7    -0.498237236455E+02   -0.55687E-05   -0.51225E-06   392   0.171E-02
  13 F= -.49823724E+02 E0= -.49823724E+02  d E =-.295498E-01
       N       E                     dE             d eps       ncg     rms          rms(c)
DAV:   1    -0.498293043172E+02   -0.55862E-02   -0.42440E-01   512   0.391E+00    0.118E-01
DAV:   2    -0.498302231229E+02   -0.91881E-03   -0.12082E-02   656   0.587E-01    0.861E-02
DAV:   3    -0.498301234355E+02    0.99687E-04   -0.50407E-04   704   0.127E-01    0.452E-02
DAV:   4    -0.498301542924E+02   -0.30857E-04   -0.36085E-04   544   0.868E-02    0.134E-02
DAV:   5    -0.498301544720E+02   -0.17956E-06   -0.60240E-05   640   0.407E-02
  14 F= -.49830154E+02 E0= -.49830154E+02  d E =-.643083E-02
       N       E                     dE             d eps       ncg     rms          rms(c)
DAV:   1    -0.498328837284E+02   -0.27294E-02   -0.38262E+00   512   0.117E+01    0.357E-01
DAV:   2    -0.498414183855E+02   -0.85347E-02   -0.11008E-01   664   0.181E+00    0.259E-01
DAV:   3    -0.498404735921E+02    0.94479E-03   -0.45542E-03   704   0.388E-01    0.135E-01
DAV:   4    -0.498406362437E+02   -0.16265E-03   -0.30798E-03   624   0.252E-01    0.387E-02
DAV:   5    -0.498406514977E+02   -0.15254E-04   -0.51912E-04   640   0.123E-01    0.196E-02
DAV:   6    -0.498406781975E+02   -0.26700E-04   -0.11235E-04   696   0.498E-02    0.123E-02
DAV:   7    -0.498406818045E+02   -0.36070E-05   -0.90050E-06   456   0.235E-02
  15 F= -.49840682E+02 E0= -.49840682E+02  d E =-.169582E-01
       N       E                     dE             d eps       ncg     rms          rms(c)
DAV:   1    -0.498405907595E+02    0.87438E-04   -0.33391E-01   512   0.348E+00    0.105E-01
DAV:   2    -0.498413207660E+02   -0.73001E-03   -0.95907E-03   664   0.527E-01    0.761E-02
DAV:   3    -0.498412431696E+02    0.77596E-04   -0.39942E-04   688   0.114E-01    0.401E-02
DAV:   4    -0.498412724187E+02   -0.29249E-04   -0.27601E-04   560   0.778E-02    0.115E-02
DAV:   5    -0.498412815715E+02   -0.91528E-05   -0.40438E-05   584   0.340E-02
  16 F= -.49841282E+02 E0= -.49841282E+02  d E =-.175579E-01
       N       E                     dE             d eps       ncg     rms          rms(c)
DAV:   1    -0.498448281860E+02   -0.35558E-02   -0.13277E-01   512   0.218E+00    0.731E-02
DAV:   2    -0.498452208944E+02   -0.39271E-03   -0.54413E-03   712   0.385E-01    0.626E-02
DAV:   3    -0.498451472297E+02    0.73665E-04   -0.21509E-04   696   0.927E-02    0.390E-02
DAV:   4    -0.498451582847E+02   -0.11055E-04   -0.31168E-04   584   0.899E-02    0.137E-02
DAV:   5    -0.498451613351E+02   -0.30504E-05   -0.56346E-05   584   0.433E-02
  17 F= -.49845161E+02 E0= -.49845161E+02  d E =-.387976E-02
       N       E                     dE             d eps       ncg     rms          rms(c)
DAV:   1    -0.498459989438E+02   -0.84066E-03   -0.61482E-02   528   0.149E+00    0.495E-02
DAV:   2    -0.498461935325E+02   -0.19459E-03   -0.25732E-03   696   0.263E-01    0.427E-02
DAV:   3    -0.498461593410E+02    0.34191E-04   -0.95793E-05   696   0.636E-02    0.274E-02
DAV:   4    -0.498461683338E+02   -0.89929E-05   -0.17584E-04   608   0.682E-02    0.107E-02
DAV:   5    -0.498461684519E+02   -0.11806E-06   -0.29727E-05   512   0.328E-02
  18 F= -.49846168E+02 E0= -.49846168E+02  d E =-.488688E-02
       N       E                     dE             d eps       ncg     rms          rms(c)
DAV:   1    -0.498462071281E+02   -0.38794E-04   -0.30586E-03   544   0.330E-01    0.112E-02
DAV:   2    -0.498462221639E+02   -0.15036E-04   -0.14977E-04   720   0.618E-02    0.110E-02
DAV:   3    -0.498462203654E+02    0.17986E-05   -0.35981E-06   448   0.150E-02
  19 F= -.49846220E+02 E0= -.49846220E+02  d E =-.493879E-02
       N       E                     dE             d eps       ncg     rms          rms(c)
DAV:   1    -0.498482533870E+02   -0.20312E-02   -0.69798E-02   512   0.174E+00    0.443E-02
DAV:   2    -0.498483560410E+02   -0.10265E-03   -0.16340E-03   688   0.229E-01    0.356E-02
DAV:   3    -0.498483354903E+02    0.20551E-04   -0.10264E-04   696   0.557E-02    0.185E-02
DAV:   4    -0.498483442241E+02   -0.87338E-05   -0.51676E-05   536   0.348E-02
  20 F= -.49848344E+02 E0= -.49848344E+02  d E =-.212386E-02
       N       E                     dE             d eps       ncg     rms          rms(c)
DAV:   1    -0.498496801004E+02   -0.13446E-02   -0.25113E-01   512   0.330E+00    0.829E-02
DAV:   2    -0.498500564788E+02   -0.37638E-03   -0.57747E-03   696   0.432E-01    0.665E-02
DAV:   3    -0.498499796710E+02    0.76808E-04   -0.35532E-04   712   0.105E-01    0.349E-02
DAV:   4    -0.498499990561E+02   -0.19385E-04   -0.18791E-04   592   0.662E-02    0.107E-02
DAV:   5    -0.498500081984E+02   -0.91423E-05   -0.40227E-05   560   0.346E-02
  21 F= -.49850008E+02 E0= -.49850008E+02  d E =-.378783E-02
       N       E                     dE             d eps       ncg     rms          rms(c)
DAV:   1    -0.498511244567E+02   -0.11254E-02   -0.76433E-02   512   0.181E+00    0.463E-02
DAV:   2    -0.498512685837E+02   -0.14413E-03   -0.21450E-03   720   0.257E-01    0.391E-02
DAV:   3    -0.498512388258E+02    0.29758E-04   -0.96543E-05   688   0.601E-02    0.233E-02
DAV:   4    -0.498512483857E+02   -0.95599E-05   -0.10821E-04   560   0.526E-02    0.817E-03
DAV:   5    -0.498512510266E+02   -0.26409E-05   -0.18373E-05   512   0.266E-02
  22 F= -.49851251E+02 E0= -.49851251E+02  d E =-.124283E-02
       N       E                     dE             d eps       ncg     rms          rms(c)
DAV:   1    -0.498514209481E+02   -0.17256E-03   -0.25384E-02   528   0.104E+00    0.267E-02
DAV:   2    -0.498514713743E+02   -0.50426E-04   -0.72976E-04   720   0.149E-01    0.227E-02
DAV:   3    -0.498514608502E+02    0.10524E-04   -0.30068E-05   552   0.356E-02    0.139E-02
DAV:   4    -0.498514667577E+02   -0.59074E-05   -0.50636E-05   560   0.362E-02
  23 F= -.49851467E+02 E0= -.49851467E+02  d E =-.145856E-02
       N       E                     dE             d eps       ncg     rms          rms(c)
DAV:   1    -0.498522745747E+02   -0.81372E-03   -0.52739E-02   512   0.151E+00    0.407E-02
DAV:   2    -0.498523789789E+02   -0.10440E-03   -0.13742E-03   720   0.205E-01    0.321E-02
DAV:   3    -0.498523663735E+02    0.12605E-04   -0.63966E-05   656   0.480E-02    0.180E-02
DAV:   4    -0.498523770410E+02   -0.10668E-04   -0.58019E-05   528   0.377E-02    0.651E-03
DAV:   5    -0.498523778545E+02   -0.81345E-06   -0.96356E-06   432   0.211E-02
  24 F= -.49852378E+02 E0= -.49852378E+02  d E =-.911097E-03
       N       E                     dE             d eps       ncg     rms          rms(c)
DAV:   1    -0.498526156510E+02   -0.23861E-03   -0.61962E-02   512   0.163E+00    0.430E-02
DAV:   2    -0.498527375111E+02   -0.12186E-03   -0.15824E-03   720   0.221E-01    0.339E-02
DAV:   3    -0.498527224903E+02    0.15021E-04   -0.78405E-05   680   0.527E-02    0.186E-02
DAV:   4    -0.498527330983E+02   -0.10608E-04   -0.57755E-05   528   0.375E-02    0.673E-03
DAV:   5    -0.498527342867E+02   -0.11885E-05   -0.10235E-05   400   0.213E-02
  25 F= -.49852734E+02 E0= -.49852734E+02  d E =-.126753E-02
       N       E                     dE             d eps       ncg     rms          rms(c)
DAV:   1    -0.498531353083E+02   -0.40221E-03   -0.70093E-02   512   0.169E+00    0.461E-02
DAV:   2    -0.498532758578E+02   -0.14055E-03   -0.20549E-03   720   0.248E-01    0.384E-02
DAV:   3    -0.498532492071E+02    0.26651E-04   -0.81872E-05   680   0.567E-02    0.232E-02
DAV:   4    -0.498532588746E+02   -0.96675E-05   -0.12559E-04   576   0.562E-02    0.905E-03
DAV:   5    -0.498532582260E+02    0.64863E-06   -0.19847E-05   512   0.263E-02
  26 F= -.49853258E+02 E0= -.49853258E+02  d E =-.523939E-03
       N       E                     dE             d eps       ncg     rms          rms(c)
DAV:   1    -0.498532650815E+02   -0.62069E-05   -0.62482E-04   528   0.158E-01    0.498E-03
DAV:   2    -0.498532675077E+02   -0.24262E-05   -0.23387E-05   480   0.276E-02
  27 F= -.49853268E+02 E0= -.49853268E+02  d E =-.533221E-03
       N       E                     dE             d eps       ncg     rms          rms(c)
DAV:   1    -0.498535432650E+02   -0.27818E-03   -0.48996E-02   512   0.143E+00    0.367E-02
DAV:   2    -0.498536225908E+02   -0.79326E-04   -0.11564E-03   704   0.188E-01    0.280E-02
DAV:   3    -0.498536093331E+02    0.13258E-04   -0.56559E-05   608   0.470E-02    0.149E-02
DAV:   4    -0.498536169989E+02   -0.76659E-05   -0.49675E-05   520   0.350E-02
  28 F= -.49853617E+02 E0= -.49853617E+02  d E =-.349491E-03
       N       E                     dE             d eps       ncg     rms          rms(c)
DAV:   1    -0.498536566019E+02   -0.47269E-04   -0.12299E-02   512   0.715E-01    0.187E-02
DAV:   2    -0.498536793990E+02   -0.22797E-04   -0.31422E-04   680   0.970E-02    0.150E-02
DAV:   3    -0.498536751124E+02    0.42866E-05   -0.11369E-05   464   0.245E-02
  29 F= -.49853675E+02 E0= -.49853675E+02  d E =-.407605E-03
       N       E                     dE             d eps       ncg     rms          rms(c)
DAV:   1    -0.498539704583E+02   -0.29106E-03   -0.41787E-02   512   0.127E+00    0.364E-02
DAV:   2    -0.498540494919E+02   -0.79034E-04   -0.10594E-03   672   0.174E-01    0.248E-02
DAV:   3    -0.498540449992E+02    0.44927E-05   -0.44096E-05   584   0.396E-02
  30 F= -.49854045E+02 E0= -.49854045E+02  d E =-.369887E-03
       N       E                     dE             d eps       ncg     rms          rms(c)
DAV:   1    -0.498539745230E+02    0.74969E-04   -0.26392E-01   512   0.320E+00    0.904E-02
DAV:   2    -0.498544911171E+02   -0.51659E-03   -0.65612E-03   672   0.433E-01    0.605E-02
DAV:   3    -0.498544590669E+02    0.32050E-04   -0.26076E-04   696   0.921E-02    0.324E-02
DAV:   4    -0.498544881384E+02   -0.29072E-04   -0.18255E-04   600   0.650E-02    0.103E-02
DAV:   5    -0.498544886443E+02   -0.50584E-06   -0.24586E-05   504   0.292E-02
  31 F= -.49854489E+02 E0= -.49854489E+02  d E =-.813532E-03
       N       E                     dE             d eps       ncg     rms          rms(c)
DAV:   1    -0.498546693563E+02   -0.18122E-03   -0.18660E-02   512   0.824E-01    0.252E-02
DAV:   2    -0.498547095837E+02   -0.40227E-04   -0.51470E-04   608   0.117E-01    0.165E-02
DAV:   3    -0.498547081538E+02    0.14299E-05   -0.16702E-05   480   0.262E-02
  32 F= -.49854708E+02 E0= -.49854708E+02  d E =-.219509E-03
       N       E                     dE             d eps       ncg     rms          rms(c)
DAV:   1    -0.498547396242E+02   -0.30041E-04   -0.16458E-01   512   0.246E+00    0.741E-02
DAV:   2    -0.498550939617E+02   -0.35434E-03   -0.43614E-03   664   0.342E-01    0.480E-02
DAV:   3    -0.498550818339E+02    0.12128E-04   -0.16919E-04   728   0.723E-02    0.258E-02
DAV:   4    -0.498551011314E+02   -0.19298E-04   -0.98094E-05   576   0.472E-02    0.739E-03
DAV:   5    -0.498551022742E+02   -0.11428E-05   -0.16538E-05   512   0.227E-02
  33 F= -.49855102E+02 E0= -.49855102E+02  d E =-.613630E-03
       N       E                     dE             d eps       ncg     rms          rms(c)
DAV:   1    -0.498551024249E+02   -0.12935E-05   -0.18301E-02   512   0.817E-01    0.249E-02
DAV:   2    -0.498551402899E+02   -0.37865E-04   -0.49743E-04   656   0.116E-01    0.161E-02
DAV:   3    -0.498551387199E+02    0.15700E-05   -0.16435E-05   464   0.253E-02
  34 F= -.49855139E+02 E0= -.49855139E+02  d E =-.650076E-03
       N       E                     dE             d eps       ncg     rms          rms(c)
DAV:   1    -0.498553467293E+02   -0.20644E-03   -0.42945E-02   512   0.123E+00    0.396E-02
DAV:   2    -0.498554476077E+02   -0.10088E-03   -0.12386E-03   664   0.179E-01    0.248E-02
DAV:   3    -0.498554460635E+02    0.15442E-05   -0.44683E-05   664   0.388E-02
  35 F= -.49855446E+02 E0= -.49855446E+02  d E =-.307344E-03
       N       E                     dE             d eps       ncg     rms          rms(c)
DAV:   1    -0.498550725100E+02    0.37510E-03   -0.34480E-01   512   0.349E+00    0.111E-01
DAV:   2    -0.498559113235E+02   -0.83881E-03   -0.99973E-03   672   0.511E-01    0.697E-02
DAV:   3    -0.498558833409E+02    0.27983E-04   -0.35433E-04   696   0.108E-01    0.388E-02
DAV:   4    -0.498559198551E+02   -0.36514E-04   -0.24980E-04   568   0.797E-02    0.127E-02
DAV:   5    -0.498559179144E+02    0.19407E-05   -0.41909E-05   632   0.369E-02
  36 F= -.49855918E+02 E0= -.49855918E+02  d E =-.779194E-03
       N       E                     dE             d eps       ncg     rms          rms(c)
DAV:   1    -0.498561472301E+02   -0.22738E-03   -0.60835E-02   512   0.141E+00    0.496E-02
DAV:   2    -0.498563064336E+02   -0.15920E-03   -0.18882E-03   632   0.215E-01    0.295E-02
DAV:   3    -0.498563068581E+02   -0.42445E-06   -0.68415E-05   704   0.456E-02
  37 F= -.49856307E+02 E0= -.49856307E+02  d E =-.388944E-03
       N       E                     dE             d eps       ncg     rms          rms(c)
DAV:   1    -0.498562638392E+02    0.42594E-04   -0.12890E-01   512   0.207E+00    0.728E-02
DAV:   2    -0.498565927254E+02   -0.32889E-03   -0.38403E-03   648   0.307E-01    0.431E-02
DAV:   3    -0.498565952296E+02   -0.25042E-05   -0.14019E-04   704   0.658E-02    0.239E-02
DAV:   4    -0.498566110631E+02   -0.15834E-04   -0.70954E-05   528   0.454E-02    0.650E-03
DAV:   5    -0.498566110747E+02   -0.11602E-07   -0.15013E-05   448   0.225E-02
  38 F= -.49856611E+02 E0= -.49856611E+02  d E =-.693160E-03
       N       E                     dE             d eps       ncg     rms          rms(c)
DAV:   1    -0.498565936684E+02    0.17395E-04   -0.18872E-02   512   0.786E-01    0.276E-02
DAV:   2    -0.498566412516E+02   -0.47583E-04   -0.58520E-04   648   0.120E-01    0.167E-02
DAV:   3    -0.498566405812E+02    0.67039E-06   -0.19978E-05   512   0.281E-02
  39 F= -.49856641E+02 E0= -.49856641E+02  d E =-.722667E-03
       N       E                     dE             d eps       ncg     rms          rms(c)
DAV:   1    -0.498567684942E+02   -0.12724E-03   -0.56006E-02   512   0.131E+00    0.493E-02
DAV:   2    -0.498569098300E+02   -0.14134E-03   -0.16781E-03   648   0.202E-01    0.297E-02
DAV:   3    -0.498569124800E+02   -0.26500E-05   -0.65587E-05   688   0.444E-02
  40 F= -.49856912E+02 E0= -.49856912E+02  d E =-.271899E-03
       N       E                     dE             d eps       ncg     rms          rms(c)
DAV:   1    -0.498569350461E+02   -0.25216E-04   -0.23773E-02   512   0.858E-01    0.332E-02
DAV:   2    -0.498569922638E+02   -0.57218E-04   -0.67133E-04   648   0.128E-01    0.196E-02
DAV:   3    -0.498569959153E+02   -0.36515E-05   -0.23136E-05   504   0.282E-02
  41 F= -.49856996E+02 E0= -.49856996E+02  d E =-.355334E-03
       N       E                     dE             d eps       ncg     rms          rms(c)
DAV:   1    -0.498571567258E+02   -0.16446E-03   -0.74878E-03   512   0.512E-01    0.168E-02
DAV:   2    -0.498571721740E+02   -0.15448E-04   -0.16882E-04   720   0.679E-02    0.123E-02
DAV:   3    -0.498571720232E+02    0.15079E-06   -0.64544E-06   416   0.194E-02
  42 F= -.49857172E+02 E0= -.49857172E+02  d E =-.176108E-03
       N       E                     dE             d eps       ncg     rms          rms(c)
DAV:   1    -0.498572622842E+02   -0.90110E-04   -0.67744E-02   512   0.153E+00    0.490E-02
DAV:   2    -0.498574009181E+02   -0.13863E-03   -0.15081E-03   720   0.204E-01    0.346E-02
DAV:   3    -0.498573968813E+02    0.40368E-05   -0.59170E-05   680   0.498E-02
  43 F= -.49857397E+02 E0= -.49857397E+02  d E =-.400966E-03
       N       E                     dE             d eps       ncg     rms          rms(c)
DAV:   1    -0.498575428671E+02   -0.14195E-03   -0.85462E-03   512   0.552E-01    0.196E-02
DAV:   2    -0.498575529643E+02   -0.10097E-04   -0.14320E-04   696   0.679E-02    0.131E-02
DAV:   3    -0.498575569140E+02   -0.39496E-05   -0.16872E-05   376   0.257E-02
  44 F= -.49857557E+02 E0= -.49857557E+02  d E =-.160033E-03
       N       E                     dE             d eps       ncg     rms          rms(c)
DAV:   1    -0.498577440398E+02   -0.19108E-03   -0.77799E-02   512   0.165E+00    0.520E-02
DAV:   2    -0.498578630844E+02   -0.11904E-03   -0.14124E-03   672   0.207E-01    0.360E-02
DAV:   3    -0.498578668798E+02   -0.37954E-05   -0.81388E-05   624   0.501E-02
  45 F= -.49857867E+02 E0= -.49857867E+02  d E =-.469999E-03
       N       E                     dE             d eps       ncg     rms          rms(c)
DAV:   1    -0.498574381262E+02    0.42496E-03   -0.31037E-01   512   0.330E+00    0.102E-01
DAV:   2    -0.498579412618E+02   -0.50314E-03   -0.55887E-03   672   0.412E-01    0.706E-02
DAV:   3    -0.498579436706E+02   -0.24088E-05   -0.30249E-04   664   0.967E-02    0.286E-02
DAV:   4    -0.498579772927E+02   -0.33622E-04   -0.13094E-04   552   0.532E-02    0.115E-02
DAV:   5    -0.498579763716E+02    0.92111E-06   -0.20818E-05   488   0.266E-02
  46 F= -.49857976E+02 E0= -.49857976E+02  d E =-.579490E-03
       N       E                     dE             d eps       ncg     rms          rms(c)
DAV:   1    -0.498579042825E+02    0.73010E-04   -0.70306E-02   512   0.157E+00    0.479E-02
DAV:   2    -0.498580122914E+02   -0.10801E-03   -0.12680E-03   616   0.197E-01    0.335E-02
DAV:   3    -0.498580168260E+02   -0.45346E-05   -0.70433E-05   672   0.462E-02
  47 F= -.49858017E+02 E0= -.49858017E+02  d E =-.619945E-03
       N       E                     dE             d eps       ncg     rms          rms(c)
DAV:   1    -0.498580140767E+02   -0.17853E-05   -0.12138E-02   512   0.649E-01    0.190E-02
DAV:   2    -0.498580306951E+02   -0.16618E-04   -0.25092E-04   640   0.854E-02    0.142E-02
DAV:   3    -0.498580286905E+02    0.20047E-05   -0.11074E-05   416   0.208E-02
  48 F= -.49858029E+02 E0= -.49858029E+02  d E =-.631809E-03
       N       E                     dE             d eps       ncg     rms          rms(c)
DAV:   1    -0.498581189759E+02   -0.88281E-04   -0.41563E-03   512   0.384E-01    0.127E-02
DAV:   2    -0.498581235647E+02   -0.45888E-05   -0.61915E-05   648   0.446E-02
  49 F= -.49858124E+02 E0= -.49858124E+02  d E =-.948742E-04
       N       E                     dE             d eps       ncg     rms          rms(c)
DAV:   1    -0.498583254558E+02   -0.20648E-03   -0.37821E-02   512   0.115E+00    0.373E-02
DAV:   2    -0.498583737845E+02   -0.48329E-04   -0.60430E-04   688   0.137E-01    0.254E-02
DAV:   3    -0.498583805642E+02   -0.67797E-05   -0.44911E-05   520   0.373E-02
  50 F= -.49858381E+02 E0= -.49858381E+02  d E =-.351874E-03
       N       E                     dE             d eps       ncg     rms          rms(c)
DAV:   1    -0.498585411549E+02   -0.16737E-03   -0.15158E-01   512   0.231E+00    0.713E-02
DAV:   2    -0.498587552403E+02   -0.21409E-03   -0.24221E-03   688   0.276E-01    0.487E-02
DAV:   3    -0.498587656155E+02   -0.10375E-04   -0.15757E-04   632   0.698E-02    0.165E-02
DAV:   4    -0.498587806488E+02   -0.15033E-04   -0.53730E-05   496   0.338E-02    0.747E-03
DAV:   5    -0.498587802849E+02    0.36383E-06   -0.70477E-06   440   0.197E-02
  51 F= -.49858780E+02 E0= -.49858780E+02  d E =-.751594E-03
       N       E                     dE             d eps       ncg     rms          rms(c)
DAV:   1    -0.498581774934E+02    0.60316E-03   -0.60664E-01   512   0.462E+00    0.141E-01
DAV:   2    -0.498590505928E+02   -0.87310E-03   -0.98815E-03   688   0.556E-01    0.974E-02
DAV:   3    -0.498590418977E+02    0.86951E-05   -0.67629E-04   648   0.143E-01    0.332E-02
DAV:   4    -0.498590924326E+02   -0.50535E-04   -0.23986E-04   624   0.687E-02    0.166E-02
DAV:   5    -0.498590903905E+02    0.20421E-05   -0.48621E-05   640   0.382E-02
  52 F= -.49859090E+02 E0= -.49859090E+02  d E =-.106170E-02
       N       E                     dE             d eps       ncg     rms          rms(c)
DAV:   1    -0.498593842768E+02   -0.29184E-03   -0.18521E-02   512   0.802E-01    0.266E-02
DAV:   2    -0.498594236494E+02   -0.39373E-04   -0.42455E-04   688   0.108E-01    0.187E-02
DAV:   3    -0.498594247371E+02   -0.10877E-05   -0.19276E-05   488   0.287E-02
  53 F= -.49859425E+02 E0= -.49859425E+02  d E =-.334347E-03
       N       E                     dE             d eps       ncg     rms          rms(c)
DAV:   1    -0.498595761683E+02   -0.15252E-03   -0.57276E-02   512   0.141E+00    0.463E-02
DAV:   2    -0.498596880756E+02   -0.11191E-03   -0.12434E-03   688   0.186E-01    0.326E-02
DAV:   3    -0.498596879296E+02    0.14601E-06   -0.64940E-05   672   0.482E-02
  54 F= -.49859688E+02 E0= -.49859688E+02  d E =-.597539E-03
       N       E                     dE             d eps       ncg     rms          rms(c)
DAV:   1    -0.498599190207E+02   -0.23095E-03   -0.11096E-02   512   0.633E-01    0.221E-02
DAV:   2    -0.498599439929E+02   -0.24972E-04   -0.30902E-04   688   0.899E-02    0.148E-02
DAV:   3    -0.498599458358E+02   -0.18430E-05   -0.10685E-05   440   0.210E-02
  55 F= -.49859946E+02 E0= -.49859946E+02  d E =-.257906E-03
       N       E                     dE             d eps       ncg     rms          rms(c)
DAV:   1    -0.498600077840E+02   -0.63791E-04   -0.48823E-02   512   0.133E+00    0.422E-02
DAV:   2    -0.498601207965E+02   -0.11301E-03   -0.13328E-03   696   0.184E-01    0.290E-02
DAV:   3    -0.498601203428E+02    0.45364E-06   -0.46092E-05   664   0.398E-02
  56 F= -.49860120E+02 E0= -.49860120E+02  d E =-.432413E-03
       N       E                     dE             d eps       ncg     rms          rms(c)
DAV:   1    -0.498602852445E+02   -0.16445E-03   -0.18634E-02   512   0.850E-01    0.272E-02
DAV:   2    -0.498603177213E+02   -0.32477E-04   -0.41842E-04   712   0.108E-01    0.180E-02
DAV:   3    -0.498603195200E+02   -0.17986E-05   -0.22827E-05   488   0.302E-02
  57 F= -.49860320E+02 E0= -.49860320E+02  d E =-.199177E-03
       N       E                     dE             d eps       ncg     rms          rms(c)
DAV:   1    -0.498603234173E+02   -0.56960E-05   -0.70268E-02   512   0.165E+00    0.508E-02
DAV:   2    -0.498604543965E+02   -0.13098E-03   -0.16090E-03   712   0.211E-01    0.335E-02
DAV:   3    -0.498604531882E+02    0.12083E-05   -0.72450E-05   656   0.492E-02
  58 F= -.49860453E+02 E0= -.49860453E+02  d E =-.332845E-03
       N       E                     dE             d eps       ncg     rms          rms(c)
DAV:   1    -0.498606243647E+02   -0.16997E-03   -0.23660E-02   512   0.962E-01    0.297E-02
DAV:   2    -0.498606745684E+02   -0.50204E-04   -0.62328E-04   728   0.129E-01    0.205E-02
DAV:   3    -0.498606740986E+02    0.46974E-06   -0.26310E-05   512   0.312E-02
  59 F= -.49860674E+02 E0= -.49860674E+02  d E =-.220910E-03
       N       E                     dE             d eps       ncg     rms          rms(c)
DAV:   1    -0.498606937517E+02   -0.19183E-04   -0.64875E-03   512   0.506E-01    0.163E-02
DAV:   2    -0.498607079722E+02   -0.14221E-04   -0.16335E-04   720   0.657E-02    0.110E-02
DAV:   3    -0.498607092022E+02   -0.12300E-05   -0.55991E-06   424   0.155E-02
  60 F= -.49860709E+02 E0= -.49860709E+02  d E =-.256014E-03
       N       E                     dE             d eps       ncg     rms          rms(c)
DAV:   1    -0.498608189388E+02   -0.11097E-03   -0.14112E-02   512   0.717E-01    0.225E-02
DAV:   2    -0.498608571091E+02   -0.38170E-04   -0.46893E-04   688   0.109E-01    0.162E-02
DAV:   3    -0.498608555697E+02    0.15394E-05   -0.12739E-05   448   0.230E-02
  61 F= -.49860856E+02 E0= -.49860856E+02  d E =-.146368E-03
       N       E                     dE             d eps       ncg     rms          rms(c)
DAV:   1    -0.498608688971E+02   -0.11788E-04   -0.55627E-03   512   0.454E-01    0.149E-02
DAV:   2    -0.498608832444E+02   -0.14347E-04   -0.16900E-04   712   0.651E-02    0.101E-02
DAV:   3    -0.498608837893E+02   -0.54487E-06   -0.42947E-06   416   0.133E-02
  62 F= -.49860884E+02 E0= -.49860884E+02  d E =-.174587E-03
       N       E                     dE             d eps       ncg     rms          rms(c)
DAV:   1    -0.498609779330E+02   -0.94689E-04   -0.20895E-02   512   0.901E-01    0.265E-02
DAV:   2    -0.498610187258E+02   -0.40793E-04   -0.54355E-04   680   0.122E-01    0.179E-02
DAV:   3    -0.498610169144E+02    0.18115E-05   -0.18678E-05   488   0.270E-02
  63 F= -.49861017E+02 E0= -.49861017E+02  d E =-.133125E-03
       N       E                     dE             d eps       ncg     rms          rms(c)
DAV:   1    -0.498610269483E+02   -0.82225E-05   -0.11920E-02   512   0.684E-01    0.207E-02
DAV:   2    -0.498610500053E+02   -0.23057E-04   -0.29495E-04   712   0.891E-02    0.136E-02
DAV:   3    -0.498610501476E+02   -0.14225E-06   -0.85969E-06   440   0.190E-02
  64 F= -.49861050E+02 E0= -.49861050E+02  d E =-.166358E-03
       N       E                     dE             d eps       ncg     rms          rms(c)
DAV:   1    -0.498611313050E+02   -0.81300E-04   -0.16173E-02   512   0.794E-01    0.231E-02
DAV:   2    -0.498611661142E+02   -0.34809E-04   -0.43679E-04   680   0.106E-01    0.152E-02
DAV:   3    -0.498611650305E+02    0.10837E-05   -0.12074E-05   448   0.224E-02
  65 F= -.49861165E+02 E0= -.49861165E+02  d E =-.114883E-03
       N       E                     dE             d eps       ncg     rms          rms(c)
DAV:   1    -0.498611097271E+02    0.56387E-04   -0.65515E-02   512   0.160E+00    0.459E-02
DAV:   2    -0.498612546447E+02   -0.14492E-03   -0.17684E-03   696   0.213E-01    0.304E-02
DAV:   3    -0.498612495574E+02    0.50873E-05   -0.55022E-05   664   0.431E-02
  66 F= -.49861250E+02 E0= -.49861250E+02  d E =-.199410E-03
       N       E                     dE             d eps       ncg     rms          rms(c)
DAV:   1    -0.498613213364E+02   -0.66692E-04   -0.17137E-02   512   0.762E-01    0.274E-02
DAV:   2    -0.498613707952E+02   -0.49459E-04   -0.56318E-04   704   0.112E-01    0.180E-02
DAV:   3    -0.498613715548E+02   -0.75954E-06   -0.14403E-05   480   0.249E-02
  67 F= -.49861372E+02 E0= -.49861372E+02  d E =-.121997E-03
       N       E                     dE             d eps       ncg     rms          rms(c)
DAV:   1    -0.498610984938E+02    0.27230E-03   -0.11572E-01   512   0.197E+00    0.660E-02
DAV:   2    -0.498614487391E+02   -0.35025E-03   -0.39395E-03   648   0.294E-01    0.434E-02
DAV:   3    -0.498614462465E+02    0.24926E-05   -0.11266E-04   704   0.614E-02    0.266E-02
DAV:   4    -0.498614625850E+02   -0.16339E-04   -0.80101E-05   584   0.478E-02    0.753E-03
DAV:   5    -0.498614619915E+02    0.59347E-06   -0.14181E-05   432   0.245E-02
  68 F= -.49861462E+02 E0= -.49861462E+02  d E =-.212434E-03
       N       E                     dE             d eps       ncg     rms          rms(c)
DAV:   1    -0.498614398007E+02    0.22784E-04   -0.92340E-03   512   0.559E-01    0.182E-02
DAV:   2    -0.498614663717E+02   -0.26571E-04   -0.30959E-04   632   0.828E-02    0.120E-02
DAV:   3    -0.498614660846E+02    0.28717E-06   -0.73678E-06   344   0.173E-02
  69 F= -.49861466E+02 E0= -.49861466E+02  d E =-.216527E-03
       N       E                     dE             d eps       ncg     rms          rms(c)
DAV:   1    -0.498615373139E+02   -0.70942E-04   -0.77023E-03   512   0.489E-01    0.175E-02
DAV:   2    -0.498615586789E+02   -0.21365E-04   -0.25068E-04   656   0.732E-02    0.107E-02
DAV:   3    -0.498615585515E+02    0.12738E-06   -0.60532E-06   360   0.156E-02
  70 F= -.49861559E+02 E0= -.49861559E+02  d E =-.924669E-04
       N       E                     dE             d eps       ncg     rms          rms(c)
DAV:   1    -0.498615449051E+02    0.13774E-04   -0.67704E-02   512   0.146E+00    0.543E-02
DAV:   2    -0.498617279080E+02   -0.18300E-03   -0.20912E-03   664   0.209E-01    0.325E-02
DAV:   3    -0.498617341020E+02   -0.61940E-05   -0.70885E-05   680   0.444E-02
  71 F= -.49861734E+02 E0= -.49861734E+02  d E =-.268017E-03
       N       E                     dE             d eps       ncg     rms          rms(c)
DAV:   1    -0.498617489166E+02   -0.21009E-04   -0.10133E-02   512   0.569E-01    0.227E-02
DAV:   2    -0.498617738588E+02   -0.24942E-04   -0.28898E-04   672   0.782E-02    0.134E-02
DAV:   3    -0.498617765944E+02   -0.27355E-05   -0.75017E-06   416   0.169E-02
  72 F= -.49861777E+02 E0= -.49861777E+02  d E =-.310510E-03
       N       E                     dE             d eps       ncg     rms          rms(c)
DAV:   1    -0.498618803606E+02   -0.10650E-03   -0.21673E-02   512   0.842E-01    0.295E-02
DAV:   2    -0.498619444207E+02   -0.64060E-04   -0.72531E-04   688   0.126E-01    0.191E-02
DAV:   3    -0.498619442208E+02    0.19987E-06   -0.20111E-05   568   0.275E-02
  73 F= -.49861944E+02 E0= -.49861944E+02  d E =-.167626E-03
       N       E                     dE             d eps       ncg     rms          rms(c)
DAV:   1    -0.498617652385E+02    0.17918E-03   -0.11493E-01   512   0.194E+00    0.686E-02
DAV:   2    -0.498621049341E+02   -0.33970E-03   -0.38090E-03   680   0.290E-01    0.439E-02
DAV:   3    -0.498621047961E+02    0.13798E-06   -0.11407E-04   728   0.617E-02    0.259E-02
DAV:   4    -0.498621221952E+02   -0.17399E-04   -0.66748E-05   560   0.430E-02    0.724E-03
DAV:   5    -0.498621220599E+02    0.13527E-06   -0.11501E-05   448   0.232E-02
  74 F= -.49862122E+02 E0= -.49862122E+02  d E =-.345466E-03
       N       E                     dE             d eps       ncg     rms          rms(c)
DAV:   1    -0.498621293191E+02   -0.71239E-05   -0.34167E-02   512   0.100E+00    0.388E-02
DAV:   2    -0.498622248861E+02   -0.95567E-04   -0.10781E-03   640   0.148E-01    0.239E-02
DAV:   3    -0.498622276472E+02   -0.27610E-05   -0.32343E-05   624   0.317E-02
  75 F= -.49862228E+02 E0= -.49862228E+02  d E =-.105587E-03
       N       E                     dE             d eps       ncg     rms          rms(c)
DAV:   1    -0.498622187616E+02    0.61246E-05   -0.22258E-02   512   0.813E-01    0.326E-02
DAV:   2    -0.498622782222E+02   -0.59461E-04   -0.66967E-04   664   0.116E-01    0.199E-02
DAV:   3    -0.498622822017E+02   -0.39795E-05   -0.19792E-05   584   0.247E-02
  76 F= -.49862282E+02 E0= -.49862282E+02  d E =-.160142E-03
       N       E                     dE             d eps       ncg     rms          rms(c)
DAV:   1    -0.498624028611E+02   -0.12464E-03   -0.12330E-02   512   0.651E-01    0.227E-02
DAV:   2    -0.498624300569E+02   -0.27196E-04   -0.30209E-04   704   0.845E-02    0.160E-02
DAV:   3    -0.498624297729E+02    0.28407E-06   -0.10840E-05   448   0.237E-02
  77 F= -.49862430E+02 E0= -.49862430E+02  d E =-.147571E-03
       N       E                     dE             d eps       ncg     rms          rms(c)
DAV:   1    -0.498623978540E+02    0.32203E-04   -0.70880E-02   512   0.156E+00    0.538E-02
DAV:   2    -0.498625585266E+02   -0.16067E-03   -0.17591E-03   696   0.203E-01    0.372E-02
DAV:   3    -0.498625555609E+02    0.29657E-05   -0.64780E-05   680   0.510E-02
  78 F= -.49862556E+02 E0= -.49862556E+02  d E =-.273359E-03
       N       E                     dE             d eps       ncg     rms          rms(c)
DAV:   1    -0.498625619474E+02   -0.34207E-05   -0.29450E-03   512   0.312E-01    0.102E-02
DAV:   2    -0.498625676971E+02   -0.57498E-05   -0.88783E-05   632   0.487E-02
  79 F= -.49862568E+02 E0= -.49862568E+02  d E =-.285495E-03
       N       E                     dE             d eps       ncg     rms          rms(c)
DAV:   1    -0.498625672504E+02   -0.53031E-05   -0.71369E-04   512   0.156E-01    0.456E-03
DAV:   2    -0.498625700727E+02   -0.28223E-05   -0.26277E-05   464   0.254E-02
  80 F= -.49862570E+02 E0= -.49862570E+02  d E =-.287871E-03
       N       E                     dE             d eps       ncg     rms          rms(c)
DAV:   1    -0.498626373719E+02   -0.70122E-04   -0.71236E-03   512   0.502E-01    0.169E-02
DAV:   2    -0.498626523532E+02   -0.14981E-04   -0.18027E-04   672   0.666E-02    0.114E-02
DAV:   3    -0.498626527811E+02   -0.42798E-06   -0.51840E-06   352   0.146E-02
  81 F= -.49862653E+02 E0= -.49862653E+02  d E =-.827084E-04
       N       E                     dE             d eps       ncg     rms          rms(c)
DAV:   1    -0.498626905289E+02   -0.38176E-04   -0.63638E-02   512   0.151E+00    0.479E-02
DAV:   2    -0.498628300144E+02   -0.13949E-03   -0.15842E-03   672   0.195E-01    0.323E-02
DAV:   3    -0.498628303072E+02   -0.29277E-06   -0.45383E-05   632   0.395E-02
  82 F= -.49862830E+02 E0= -.49862830E+02  d E =-.260234E-03
       N       E                     dE             d eps       ncg     rms          rms(c)
DAV:   1    -0.498622831886E+02    0.54683E-03   -0.25471E-01   512   0.301E+00    0.965E-02
DAV:   2    -0.498628531446E+02   -0.56996E-03   -0.63035E-03   672   0.391E-01    0.647E-02
DAV:   3    -0.498628520919E+02    0.10527E-05   -0.18828E-04   680   0.792E-02    0.352E-02
DAV:   4    -0.498628832186E+02   -0.31127E-04   -0.10720E-04   536   0.523E-02    0.891E-03
DAV:   5    -0.498628839921E+02   -0.77354E-06   -0.18762E-05   512   0.248E-02
  83 F= -.49862884E+02 E0= -.49862884E+02  d E =-.313919E-03
       N       E                     dE             d eps       ncg     rms          rms(c)
DAV:   1    -0.498627406102E+02    0.14261E-03   -0.75994E-02   512   0.164E+00    0.514E-02
DAV:   2    -0.498629078931E+02   -0.16728E-03   -0.18987E-03   648   0.215E-01    0.351E-02
DAV:   3    -0.498629059844E+02    0.19087E-05   -0.53857E-05   640   0.428E-02
  84 F= -.49862906E+02 E0= -.49862906E+02  d E =-.335912E-03
       N       E                     dE             d eps       ncg     rms          rms(c)
DAV:   1    -0.498628731997E+02    0.34693E-04   -0.19519E-02   512   0.826E-01    0.243E-02
DAV:   2    -0.498629185577E+02   -0.45358E-04   -0.54590E-04   632   0.114E-01    0.176E-02
DAV:   3    -0.498629149098E+02    0.36479E-05   -0.12129E-05   408   0.228E-02
  85 F= -.49862915E+02 E0= -.49862915E+02  d E =-.344837E-03
       N       E                     dE             d eps       ncg     rms          rms(c)
DAV:   1    -0.498629901847E+02   -0.71627E-04   -0.13902E-02   512   0.715E-01    0.232E-02
DAV:   2    -0.498630162584E+02   -0.26074E-04   -0.30745E-04   696   0.883E-02    0.156E-02
DAV:   3    -0.498630172112E+02   -0.95285E-06   -0.97396E-06   368   0.213E-02
  86 F= -.49863017E+02 E0= -.49863017E+02  d E =-.102301E-03
       N       E                     dE             d eps       ncg     rms          rms(c)
DAV:   1    -0.498629762993E+02    0.39959E-04   -0.12720E-01   512   0.215E+00    0.673E-02
DAV:   2    -0.498632375358E+02   -0.26124E-03   -0.29654E-03   696   0.274E-01    0.455E-02
DAV:   3    -0.498632338882E+02    0.36476E-05   -0.96558E-05   648   0.586E-02
  87 F= -.49863234E+02 E0= -.49863234E+02  d E =-.318978E-03
       N       E                     dE             d eps       ncg     rms          rms(c)
DAV:   1    -0.498632593993E+02   -0.21864E-04   -0.25836E-02   512   0.976E-01    0.332E-02
DAV:   2    -0.498633089934E+02   -0.49594E-04   -0.55842E-04   712   0.120E-01    0.215E-02
DAV:   3    -0.498633137270E+02   -0.47335E-05   -0.16698E-05   448   0.259E-02
  88 F= -.49863314E+02 E0= -.49863314E+02  d E =-.398817E-03
       N       E                     dE             d eps       ncg     rms          rms(c)
DAV:   1    -0.498631597416E+02    0.14925E-03   -0.10468E-01   512   0.195E+00    0.609E-02
DAV:   2    -0.498633752115E+02   -0.21547E-03   -0.24312E-03   688   0.248E-01    0.411E-02
DAV:   3    -0.498633736935E+02    0.15180E-05   -0.76464E-05   656   0.525E-02
  89 F= -.49863374E+02 E0= -.49863374E+02  d E =-.458784E-03
       N       E                     dE             d eps       ncg     rms          rms(c)
DAV:   1    -0.498635824719E+02   -0.20726E-03   -0.27439E-02   512   0.936E-01    0.367E-02
DAV:   2    -0.498636374521E+02   -0.54980E-04   -0.59251E-04   696   0.118E-01    0.238E-02
DAV:   3    -0.498636443524E+02   -0.69003E-05   -0.23849E-05   544   0.312E-02
  90 F= -.49863644E+02 E0= -.49863644E+02  d E =-.270659E-03
       N       E                     dE             d eps       ncg     rms          rms(c)
DAV:   1    -0.498634766542E+02    0.16080E-03   -0.17050E-01   512   0.232E+00    0.853E-02
DAV:   2    -0.498638420044E+02   -0.36535E-03   -0.38586E-03   696   0.301E-01    0.556E-02
DAV:   3    -0.498638528861E+02   -0.10882E-04   -0.13655E-04   672   0.694E-02    0.277E-02
DAV:   4    -0.498638773310E+02   -0.24445E-04   -0.65735E-05   576   0.408E-02    0.830E-03
DAV:   5    -0.498638770067E+02    0.32430E-06   -0.90287E-06   440   0.200E-02
  91 F= -.49863877E+02 E0= -.49863877E+02  d E =-.503313E-03
       N       E                     dE             d eps       ncg     rms          rms(c)
DAV:   1    -0.498639872887E+02   -0.10996E-03   -0.33978E-02   512   0.102E+00    0.372E-02
DAV:   2    -0.498640740565E+02   -0.86768E-04   -0.94074E-04   616   0.144E-01    0.243E-02
DAV:   3    -0.498640758319E+02   -0.17754E-05   -0.25532E-05   608   0.305E-02
  92 F= -.49864076E+02 E0= -.49864076E+02  d E =-.198825E-03
       N       E                     dE             d eps       ncg     rms          rms(c)
DAV:   1    -0.498638632560E+02    0.21080E-03   -0.16983E-01   512   0.229E+00    0.842E-02
DAV:   2    -0.498642964505E+02   -0.43319E-03   -0.45947E-03   648   0.318E-01    0.545E-02
DAV:   3    -0.498643067001E+02   -0.10250E-04   -0.12146E-04   696   0.640E-02    0.303E-02
DAV:   4    -0.498643318145E+02   -0.25114E-04   -0.69225E-05   528   0.440E-02    0.732E-03
DAV:   5    -0.498643316894E+02    0.12515E-06   -0.11412E-05   448   0.220E-02
  93 F= -.49864332E+02 E0= -.49864332E+02  d E =-.454683E-03
       N       E                     dE             d eps       ncg     rms          rms(c)
DAV:   1    -0.498643051512E+02    0.26663E-04   -0.17665E-02   512   0.736E-01    0.269E-02
DAV:   2    -0.498643498721E+02   -0.44721E-04   -0.48924E-04   632   0.104E-01    0.175E-02
DAV:   3    -0.498643509613E+02   -0.10892E-05   -0.12313E-05   440   0.231E-02
  94 F= -.49864351E+02 E0= -.49864351E+02  d E =-.473955E-03
       N       E                     dE             d eps       ncg     rms          rms(c)
DAV:   1    -0.498645514138E+02   -0.20154E-03   -0.42994E-02   512   0.127E+00    0.386E-02
DAV:   2    -0.498646492744E+02   -0.97861E-04   -0.11419E-03   672   0.173E-01    0.268E-02
DAV:   3    -0.498646458378E+02    0.34366E-05   -0.39930E-05   640   0.384E-02
  95 F= -.49864646E+02 E0= -.49864646E+02  d E =-.294876E-03
       N       E                     dE             d eps       ncg     rms          rms(c)
DAV:   1    -0.498646669693E+02   -0.17695E-04   -0.67588E-02   512   0.160E+00    0.498E-02
DAV:   2    -0.498648204573E+02   -0.15349E-03   -0.17700E-03   672   0.216E-01    0.340E-02
DAV:   3    -0.498648172039E+02    0.32534E-05   -0.60393E-05   656   0.461E-02
  96 F= -.49864817E+02 E0= -.49864817E+02  d E =-.466243E-03
       N       E                     dE             d eps       ncg     rms          rms(c)
DAV:   1    -0.498649998818E+02   -0.17942E-03   -0.22205E-02   512   0.941E-01    0.303E-02
DAV:   2    -0.498650417451E+02   -0.41863E-04   -0.48551E-04   728   0.114E-01    0.209E-02
DAV:   3    -0.498650433322E+02   -0.15870E-05   -0.24493E-05   480   0.314E-02
  97 F= -.49865043E+02 E0= -.49865043E+02  d E =-.226128E-03
       N       E                     dE             d eps       ncg     rms          rms(c)
DAV:   1    -0.498650679746E+02   -0.26229E-04   -0.92358E-03   512   0.607E-01    0.194E-02
DAV:   2    -0.498650861692E+02   -0.18195E-04   -0.20395E-04   728   0.736E-02    0.132E-02
DAV:   3    -0.498650872140E+02   -0.10449E-05   -0.69681E-06   432   0.181E-02
  98 F= -.49865087E+02 E0= -.49865087E+02  d E =-.270010E-03
       N       E                     dE             d eps       ncg     rms          rms(c)
DAV:   1    -0.498651613631E+02   -0.75194E-04   -0.11753E-02   512   0.644E-01    0.208E-02
DAV:   2    -0.498651917692E+02   -0.30406E-04   -0.34689E-04   656   0.899E-02    0.149E-02
DAV:   3    -0.498651912909E+02    0.47826E-06   -0.77228E-06   440   0.194E-02
  99 F= -.49865191E+02 E0= -.49865191E+02  d E =-.104077E-03
       N       E                     dE             d eps       ncg     rms          rms(c)
DAV:   1    -0.498651742824E+02    0.17487E-04   -0.26824E-02   512   0.974E-01    0.313E-02
DAV:   2    -0.498652430323E+02   -0.68750E-04   -0.77040E-04   680   0.133E-01    0.218E-02
DAV:   3    -0.498652430829E+02   -0.50566E-07   -0.17090E-05   552   0.258E-02
 100 F= -.49865243E+02 E0= -.49865243E+02  d E =-.155869E-03
       N       E                     dE             d eps       ncg     rms          rms(c)
DAV:   1    -0.498653133875E+02   -0.70355E-04   -0.10523E-02   512   0.653E-01    0.189E-02
DAV:   2    -0.498653334834E+02   -0.20096E-04   -0.24463E-04   696   0.817E-02    0.127E-02
DAV:   3    -0.498653337677E+02   -0.28430E-06   -0.84705E-06   400   0.190E-02
 101 F= -.49865334E+02 E0= -.49865334E+02  d E =-.906849E-04
       N       E                     dE             d eps       ncg     rms          rms(c)
DAV:   1    -0.498652601119E+02    0.73371E-04   -0.96353E-02   512   0.196E+00    0.549E-02
DAV:   2    -0.498654587816E+02   -0.19867E-03   -0.23470E-03   704   0.251E-01    0.383E-02
DAV:   3    -0.498654499287E+02    0.88529E-05   -0.80393E-05   672   0.528E-02
 102 F= -.49865450E+02 E0= -.49865450E+02  d E =-.206846E-03
       N       E                     dE             d eps       ncg     rms          rms(c)
DAV:   1    -0.498655584739E+02   -0.99692E-04   -0.23585E-02   512   0.997E-01    0.291E-02
DAV:   2    -0.498656011839E+02   -0.42710E-04   -0.52280E-04   720   0.122E-01    0.201E-02
DAV:   3    -0.498656007188E+02    0.46505E-06   -0.26618E-05   512   0.322E-02
 103 F= -.49865601E+02 E0= -.49865601E+02  d E =-.150790E-03
       N       E                     dE             d eps       ncg     rms          rms(c)
DAV:   1    -0.498656099061E+02   -0.87222E-05   -0.17590E-02   512   0.858E-01    0.245E-02
DAV:   2    -0.498656428455E+02   -0.32939E-04   -0.40226E-04   720   0.106E-01    0.168E-02
DAV:   3    -0.498656420460E+02    0.79953E-06   -0.14060E-05   448   0.240E-02
 104 F= -.49865642E+02 E0= -.49865642E+02  d E =-.192117E-03
       N       E                     dE             d eps       ncg     rms          rms(c)
DAV:   1    -0.498656806695E+02   -0.37824E-04   -0.10124E-02   512   0.577E-01    0.203E-02
DAV:   2    -0.498657119277E+02   -0.31258E-04   -0.33619E-04   712   0.844E-02    0.138E-02
DAV:   3    -0.498657118696E+02    0.58012E-07   -0.63428E-06   416   0.178E-02
 105 F= -.49865712E+02 E0= -.49865712E+02  d E =-.698236E-04
       N       E                     dE             d eps       ncg     rms          rms(c)
DAV:   1    -0.498656947112E+02    0.17216E-04   -0.15866E-02   512   0.721E-01    0.248E-02
DAV:   2    -0.498657425358E+02   -0.47825E-04   -0.52438E-04   712   0.106E-01    0.167E-02
DAV:   3    -0.498657421651E+02    0.37064E-06   -0.96321E-06   448   0.215E-02
 106 F= -.49865742E+02 E0= -.49865742E+02  d E =-.100119E-03
       N       E                     dE             d eps       ncg     rms          rms(c)
DAV:   1    -0.498657928140E+02   -0.50278E-04   -0.42591E-03   512   0.387E-01    0.137E-02
DAV:   2    -0.498658019867E+02   -0.91727E-05   -0.10603E-04   672   0.509E-02    0.858E-03
DAV:   3    -0.498658029261E+02   -0.93936E-06   -0.39468E-06   368   0.129E-02
 107 F= -.49865803E+02 E0= -.49865803E+02  d E =-.607610E-04
       N       E                     dE             d eps       ncg     rms          rms(c)
DAV:   1    -0.498658369313E+02   -0.34945E-04   -0.39258E-02   512   0.117E+00    0.393E-02
DAV:   2    -0.498659296638E+02   -0.92732E-04   -0.10251E-03   704   0.158E-01    0.253E-02
DAV:   3    -0.498659310149E+02   -0.13511E-05   -0.30035E-05   608   0.329E-02
 108 F= -.49865931E+02 E0= -.49865931E+02  d E =-.188850E-03
       N       E                     dE             d eps       ncg     rms          rms(c)
DAV:   1    -0.498656056823E+02    0.32398E-03   -0.15669E-01   512   0.233E+00    0.789E-02
DAV:   2    -0.498659799744E+02   -0.37429E-03   -0.40596E-03   696   0.314E-01    0.504E-02
DAV:   3    -0.498659845102E+02   -0.45358E-05   -0.12051E-04   672   0.645E-02    0.266E-02
DAV:   4    -0.498660055532E+02   -0.21043E-04   -0.66700E-05   608   0.414E-02    0.751E-03
DAV:   5    -0.498660053989E+02    0.15436E-06   -0.11012E-05   448   0.217E-02
 109 F= -.49866005E+02 E0= -.49866005E+02  d E =-.263234E-03
       N       E                     dE             d eps       ncg     rms          rms(c)
DAV:   1    -0.498659493959E+02    0.56157E-04   -0.25195E-02   512   0.936E-01    0.309E-02
DAV:   2    -0.498660075786E+02   -0.58183E-04   -0.65614E-04   648   0.127E-01    0.199E-02
DAV:   3    -0.498660079973E+02   -0.41864E-06   -0.16773E-05   488   0.256E-02
 110 F= -.49866008E+02 E0= -.49866008E+02  d E =-.265832E-03
       N       E                     dE             d eps       ncg     rms          rms(c)
DAV:   1    -0.498660033786E+02    0.42001E-05   -0.48956E-03   512   0.407E-01    0.131E-02
DAV:   2    -0.498660150205E+02   -0.11642E-04   -0.14137E-04   616   0.593E-02    0.897E-03
DAV:   3    -0.498660140899E+02    0.93053E-06   -0.39205E-06   288   0.132E-02
 111 F= -.49866014E+02 E0= -.49866014E+02  d E =-.271925E-03
       N       E                     dE             d eps       ncg     rms          rms(c)
DAV:   1    -0.498660653836E+02   -0.50363E-04   -0.10952E-02   512   0.639E-01    0.202E-02
DAV:   2    -0.498660864878E+02   -0.21104E-04   -0.25224E-04   704   0.819E-02    0.133E-02
DAV:   3    -0.498660864714E+02    0.16420E-07   -0.84842E-06   400   0.190E-02
 112 F= -.49866086E+02 E0= -.49866086E+02  d E =-.723815E-04
       N       E                     dE             d eps       ncg     rms          rms(c)
DAV:   1    -0.498660225466E+02    0.63941E-04   -0.99203E-02   512   0.192E+00    0.598E-02
DAV:   2    -0.498662231883E+02   -0.20064E-03   -0.23273E-03   696   0.248E-01    0.391E-02
DAV:   3    -0.498662192393E+02    0.39491E-05   -0.83600E-05   648   0.536E-02
 113 F= -.49866219E+02 E0= -.49866219E+02  d E =-.205149E-03
       N       E                     dE             d eps       ncg     rms          rms(c)
DAV:   1    -0.498662894898E+02   -0.66302E-04   -0.26617E-03   512   0.332E-01    0.109E-02
DAV:   2    -0.498662953782E+02   -0.58884E-05   -0.74695E-05   664   0.463E-02
 114 F= -.49866295E+02 E0= -.49866295E+02  d E =-.761390E-04
       N       E                     dE             d eps       ncg     rms          rms(c)
DAV:   1    -0.498663208881E+02   -0.31398E-04   -0.68983E-03   512   0.526E-01    0.167E-02
DAV:   2    -0.498663368904E+02   -0.16002E-04   -0.22156E-04   744   0.779E-02    0.132E-02
DAV:   3    -0.498663346429E+02    0.22475E-05   -0.84749E-06   448   0.199E-02
 115 F= -.49866335E+02 E0= -.49866335E+02  d E =-.115404E-03
       N       E                     dE             d eps       ncg     rms          rms(c)
DAV:   1    -0.498663881732E+02   -0.51283E-04   -0.36329E-03   512   0.407E-01    0.991E-03
DAV:   2    -0.498663921179E+02   -0.39447E-05   -0.59268E-05   680   0.451E-02
 116 F= -.49866392E+02 E0= -.49866392E+02  d E =-.574750E-04
       N       E                     dE             d eps       ncg     rms          rms(c)
DAV:   1    -0.498664326160E+02   -0.44443E-04   -0.13837E-02   512   0.792E-01    0.199E-02
DAV:   2    -0.498664470453E+02   -0.14429E-04   -0.23786E-04   720   0.880E-02    0.154E-02
DAV:   3    -0.498664454086E+02    0.16367E-05   -0.17904E-05   456   0.255E-02
 117 F= -.49866445E+02 E0= -.49866445E+02  d E =-.110766E-03
       N       E                     dE             d eps       ncg     rms          rms(c)
DAV:   1    -0.498664949257E+02   -0.47880E-04   -0.46858E-03   512   0.456E-01    0.110E-02
DAV:   2    -0.498665018208E+02   -0.68951E-05   -0.99342E-05   720   0.543E-02
 118 F= -.49866502E+02 E0= -.49866502E+02  d E =-.564122E-04
       N       E                     dE             d eps       ncg     rms          rms(c)
DAV:   1    -0.498665200879E+02   -0.25162E-04   -0.10733E-02   512   0.690E-01    0.200E-02
DAV:   2    -0.498665308151E+02   -0.10727E-04   -0.21309E-04   760   0.808E-02    0.160E-02
DAV:   3    -0.498665277082E+02    0.31069E-05   -0.21796E-05   440   0.283E-02
 119 F= -.49866528E+02 E0= -.49866528E+02  d E =-.822997E-04
       N       E                     dE             d eps       ncg     rms          rms(c)
DAV:   1    -0.498665583806E+02   -0.27566E-04   -0.40156E-03   512   0.419E-01    0.104E-02
DAV:   2    -0.498665635385E+02   -0.51579E-05   -0.78564E-05   696   0.499E-02
 120 F= -.49866564E+02 E0= -.49866564E+02  d E =-.358303E-04
       N       E                     dE             d eps       ncg     rms          rms(c)
DAV:   1    -0.498665726189E+02   -0.14238E-04   -0.32760E-02   512   0.119E+00    0.301E-02
DAV:   2    -0.498666138345E+02   -0.41216E-04   -0.64095E-04   704   0.141E-01    0.231E-02
DAV:   3    -0.498666078455E+02    0.59890E-05   -0.36390E-05   520   0.352E-02
 121 F= -.49866608E+02 E0= -.49866608E+02  d E =-.801372E-04
       N       E                     dE             d eps       ncg     rms          rms(c)
DAV:   1    -0.498666615758E+02   -0.47741E-04   -0.90376E-03   512   0.641E-01    0.152E-02
DAV:   2    -0.498666747160E+02   -0.13140E-04   -0.18492E-04   720   0.765E-02    0.120E-02
DAV:   3    -0.498666727127E+02    0.20033E-05   -0.89577E-06   440   0.211E-02
 122 F= -.49866673E+02 E0= -.49866673E+02  d E =-.648673E-04
       N       E                     dE             d eps       ncg     rms          rms(c)
DAV:   1    -0.498666657241E+02    0.89919E-05   -0.27670E-02   512   0.112E+00    0.254E-02
DAV:   2    -0.498667062157E+02   -0.40492E-04   -0.58145E-04   728   0.134E-01    0.200E-02
DAV:   3    -0.498666991287E+02    0.70870E-05   -0.22835E-05   504   0.299E-02
 123 F= -.49866699E+02 E0= -.49866699E+02  d E =-.912833E-04
       N       E                     dE             d eps       ncg     rms          rms(c)
DAV:   1    -0.498667044608E+02    0.17550E-05   -0.11919E-03   512   0.222E-01    0.555E-03
DAV:   2    -0.498667065318E+02   -0.20710E-05   -0.40601E-05   512   0.346E-02
 124 F= -.49866707E+02 E0= -.49866707E+02  d E =-.986863E-04
       N       E                     dE             d eps       ncg     rms          rms(c)
DAV:   1    -0.498667348290E+02   -0.30368E-04   -0.72369E-03   512   0.541E-01    0.139E-02
DAV:   2    -0.498667493681E+02   -0.14539E-04   -0.16721E-04   712   0.689E-02    0.989E-03
DAV:   3    -0.498667483677E+02    0.10004E-05   -0.40378E-06   424   0.153E-02
 125 F= -.49866748E+02 E0= -.49866748E+02  d E =-.418359E-04
       N       E                     dE             d eps       ncg     rms          rms(c)
DAV:   1    -0.498667359782E+02    0.13390E-04   -0.29215E-02   512   0.109E+00    0.298E-02
DAV:   2    -0.498667863838E+02   -0.50406E-04   -0.61616E-04   736   0.132E-01    0.208E-02
DAV:   3    -0.498667844801E+02    0.19037E-05   -0.20129E-05   488   0.301E-02
 126 F= -.49866784E+02 E0= -.49866784E+02  d E =-.779484E-04
       N       E                     dE             d eps       ncg     rms          rms(c)
DAV:   1    -0.498668374557E+02   -0.51072E-04   -0.82382E-03   512   0.538E-01    0.186E-02
DAV:   2    -0.498668551960E+02   -0.17740E-04   -0.21469E-04   656   0.733E-02    0.128E-02
DAV:   3    -0.498668552332E+02   -0.37181E-07   -0.76912E-06   432   0.204E-02
 127 F= -.49866855E+02 E0= -.49866855E+02  d E =-.707531E-04
       N       E                     dE             d eps       ncg     rms          rms(c)
DAV:   1    -0.498668525245E+02    0.26715E-05   -0.15058E-02   512   0.725E-01    0.244E-02
DAV:   2    -0.498668856937E+02   -0.33169E-04   -0.39308E-04   688   0.984E-02    0.162E-02
DAV:   3    -0.498668857762E+02   -0.82581E-07   -0.93960E-06   448   0.210E-02
 128 F= -.49866886E+02 E0= -.49866886E+02  d E =-.101296E-03
       N       E                     dE             d eps       ncg     rms          rms(c)
DAV:   1    -0.498669167868E+02   -0.31093E-04   -0.87660E-03   512   0.571E-01    0.182E-02
DAV:   2    -0.498669357573E+02   -0.18970E-04   -0.22144E-04   688   0.747E-02    0.122E-02
DAV:   3    -0.498669351969E+02    0.56043E-06   -0.70849E-06   384   0.198E-02
 129 F= -.49866935E+02 E0= -.49866935E+02  d E =-.494207E-04
       N       E                     dE             d eps       ncg     rms          rms(c)
DAV:   1    -0.498669034881E+02    0.32269E-04   -0.31551E-02   512   0.108E+00    0.342E-02
DAV:   2    -0.498669740631E+02   -0.70575E-04   -0.80436E-04   720   0.142E-01    0.231E-02
DAV:   3    -0.498669708842E+02    0.31789E-05   -0.26780E-05   552   0.359E-02
 130 F= -.49866971E+02 E0= -.49866971E+02  d E =-.851080E-04
       N       E                     dE             d eps       ncg     rms          rms(c)
DAV:   1    -0.498670115526E+02   -0.37489E-04   -0.64833E-03   512   0.496E-01    0.169E-02
DAV:   2    -0.498670241572E+02   -0.12605E-04   -0.15406E-04   656   0.634E-02    0.106E-02
DAV:   3    -0.498670250950E+02   -0.93781E-06   -0.80512E-06   352   0.185E-02
 131 F= -.49867025E+02 E0= -.49867025E+02  d E =-.542108E-04
       N       E                     dE             d eps       ncg     rms          rms(c)
DAV:   1    -0.498670103756E+02    0.13782E-04   -0.59503E-02   512   0.149E+00    0.461E-02
DAV:   2    -0.498671387514E+02   -0.12838E-03   -0.15330E-03   664   0.196E-01    0.294E-02
DAV:   3    -0.498671353644E+02    0.33870E-05   -0.50380E-05   648   0.420E-02
 132 F= -.49867135E+02 E0= -.49867135E+02  d E =-.164480E-03
       N       E                     dE             d eps       ncg     rms          rms(c)
DAV:   1    -0.498666982952E+02    0.44046E-03   -0.23731E-01   512   0.298E+00    0.921E-02
DAV:   2    -0.498672144626E+02   -0.51617E-03   -0.60361E-03   672   0.391E-01    0.583E-02
DAV:   3    -0.498671998474E+02    0.14615E-04   -0.19817E-04   656   0.827E-02    0.311E-02
DAV:   4    -0.498672258128E+02   -0.25965E-04   -0.12911E-04   576   0.549E-02    0.103E-02
DAV:   5    -0.498672258680E+02   -0.55168E-07   -0.20780E-05   504   0.292E-02
 133 F= -.49867226E+02 E0= -.49867226E+02  d E =-.254984E-03
       N       E                     dE             d eps       ncg     rms          rms(c)
DAV:   1    -0.498671629467E+02    0.62866E-04   -0.27455E-02   512   0.101E+00    0.302E-02
DAV:   2    -0.498672211599E+02   -0.58213E-04   -0.70984E-04   656   0.134E-01    0.195E-02
DAV:   3    -0.498672189106E+02    0.22493E-05   -0.20314E-05   472   0.275E-02
 134 F= -.49867219E+02 E0= -.49867219E+02  d E =-.248026E-03
       N       E                     dE             d eps       ncg     rms          rms(c)
DAV:   1    -0.498672067815E+02    0.14378E-04   -0.10095E-02   512   0.607E-01    0.175E-02
DAV:   2    -0.498672296154E+02   -0.22834E-04   -0.29198E-04   664   0.856E-02    0.120E-02
DAV:   3    -0.498672271533E+02    0.24621E-05   -0.78522E-06   296   0.186E-02
 135 F= -.49867227E+02 E0= -.49867227E+02  d E =-.256269E-03
       N       E                     dE             d eps       ncg     rms          rms(c)
DAV:   1    -0.498672632917E+02   -0.33676E-04   -0.50374E-03   512   0.404E-01    0.153E-02
DAV:   2    -0.498672746732E+02   -0.11381E-04   -0.12680E-04   632   0.529E-02    0.924E-03
DAV:   3    -0.498672756701E+02   -0.99689E-06   -0.39431E-06   280   0.133E-02
 136 F= -.49867276E+02 E0= -.49867276E+02  d E =-.485168E-04
       N       E                     dE             d eps       ncg     rms          rms(c)
DAV:   1    -0.498672837158E+02   -0.90426E-05   -0.46222E-02   512   0.122E+00    0.435E-02
DAV:   2    -0.498673961894E+02   -0.11247E-03   -0.12383E-03   624   0.165E-01    0.262E-02
DAV:   3    -0.498673993326E+02   -0.31433E-05   -0.36355E-05   624   0.347E-02
 137 F= -.49867399E+02 E0= -.49867399E+02  d E =-.172179E-03
       N       E                     dE             d eps       ncg     rms          rms(c)
DAV:   1    -0.498670915557E+02    0.30463E-03   -0.18462E-01   512   0.243E+00    0.874E-02
DAV:   2    -0.498675432774E+02   -0.45172E-03   -0.48873E-03   648   0.330E-01    0.523E-02
DAV:   3    -0.498675570510E+02   -0.13774E-04   -0.15341E-04   672   0.695E-02    0.287E-02
DAV:   4    -0.498675805966E+02   -0.23546E-04   -0.76619E-05   528   0.448E-02    0.764E-03
DAV:   5    -0.498675801614E+02    0.43519E-06   -0.13282E-05   448   0.239E-02
 138 F= -.49867580E+02 E0= -.49867580E+02  d E =-.353008E-03
       N       E                     dE             d eps       ncg     rms          rms(c)
DAV:   1    -0.498656475082E+02    0.19331E-02   -0.74354E-01   512   0.487E+00    0.173E-01
DAV:   2    -0.498675087327E+02   -0.18612E-02   -0.20057E-02   624   0.667E-01    0.104E-01
DAV:   3    -0.498675344528E+02   -0.25720E-04   -0.67785E-04   688   0.145E-01    0.574E-02
DAV:   4    -0.498676062847E+02   -0.71832E-04   -0.31791E-04   560   0.895E-02    0.159E-02
DAV:   5    -0.498676072128E+02   -0.92802E-06   -0.72134E-05   656   0.488E-02
 139 F= -.49867607E+02 E0= -.49867607E+02  d E =-.380059E-03
       N       E                     dE             d eps       ncg     rms          rms(c)
DAV:   1    -0.498670126689E+02    0.59362E-03   -0.24449E-01   512   0.279E+00    0.977E-02
DAV:   2    -0.498676120852E+02   -0.59942E-03   -0.65346E-03   608   0.384E-01    0.593E-02
DAV:   3    -0.498676197886E+02   -0.77035E-05   -0.21027E-04   672   0.817E-02    0.332E-02
DAV:   4    -0.498676469418E+02   -0.27153E-04   -0.11958E-04   544   0.554E-02    0.947E-03
DAV:   5    -0.498676452916E+02    0.16502E-05   -0.22400E-05   496   0.302E-02
 140 F= -.49867645E+02 E0= -.49867645E+02  d E =-.418138E-03
       N       E                     dE             d eps       ncg     rms          rms(c)
DAV:   1    -0.498674899442E+02    0.15700E-03   -0.60833E-02   512   0.140E+00    0.487E-02
DAV:   2    -0.498676367441E+02   -0.14680E-03   -0.16201E-03   624   0.190E-01    0.293E-02
DAV:   3    -0.498676400157E+02   -0.32716E-05   -0.50768E-05   632   0.397E-02
 141 F= -.49867640E+02 E0= -.49867640E+02  d E =-.412862E-03
       N       E                     dE             d eps       ncg     rms          rms(c)
DAV:   1    -0.498675959495E+02    0.40795E-04   -0.21566E-02   512   0.824E-01    0.280E-02
DAV:   2    -0.498676501601E+02   -0.54211E-04   -0.62367E-04   592   0.118E-01    0.176E-02
DAV:   3    -0.498676485626E+02    0.15975E-05   -0.17593E-05   408   0.264E-02
 142 F= -.49867649E+02 E0= -.49867649E+02  d E =-.421409E-03
       N       E                     dE             d eps       ncg     rms          rms(c)
DAV:   1    -0.498676786716E+02   -0.28511E-04   -0.43161E-02   512   0.113E+00    0.414E-02
DAV:   2    -0.498677819139E+02   -0.10324E-03   -0.11290E-03   648   0.158E-01    0.250E-02
DAV:   3    -0.498677842033E+02   -0.22894E-05   -0.37480E-05   624   0.352E-02
 143 F= -.49867784E+02 E0= -.49867784E+02  d E =-.135641E-03
       N       E                     dE             d eps       ncg     rms          rms(c)
DAV:   1    -0.498677990770E+02   -0.17163E-04   -0.26168E-02   512   0.886E-01    0.351E-02
DAV:   2    -0.498678588155E+02   -0.59739E-04   -0.63884E-04   672   0.118E-01    0.209E-02
DAV:   3    -0.498678641955E+02   -0.53800E-05   -0.18773E-05   552   0.256E-02
 144 F= -.49867864E+02 E0= -.49867864E+02  d E =-.215633E-03
       N       E                     dE             d eps       ncg     rms          rms(c)
DAV:   1    -0.498676722300E+02    0.18659E-03   -0.10552E-01   512   0.178E+00    0.674E-02
DAV:   2    -0.498679237293E+02   -0.25150E-03   -0.26629E-03   672   0.240E-01    0.403E-02
DAV:   3    -0.498679361185E+02   -0.12389E-04   -0.82762E-05   656   0.516E-02    0.216E-02
DAV:   4    -0.498679509647E+02   -0.14846E-04   -0.38322E-05   472   0.334E-02    0.533E-03
DAV:   5    -0.498679507940E+02    0.17075E-06   -0.59340E-06   448   0.191E-02
 145 F= -.49867951E+02 E0= -.49867951E+02  d E =-.302231E-03
       N       E                     dE             d eps       ncg     rms          rms(c)
DAV:   1    -0.498680349480E+02   -0.83983E-04   -0.15661E-02   512   0.742E-01    0.239E-02
DAV:   2    -0.498680688794E+02   -0.33931E-04   -0.38124E-04   688   0.987E-02    0.162E-02
DAV:   3    -0.498680676361E+02    0.12432E-05   -0.12569E-05   416   0.254E-02
 146 F= -.49868068E+02 E0= -.49868068E+02  d E =-.116842E-03
       N       E                     dE             d eps       ncg     rms          rms(c)
DAV:   1    -0.498679604241E+02    0.10846E-03   -0.12901E-01   512   0.214E+00    0.689E-02
DAV:   2    -0.498682402423E+02   -0.27982E-03   -0.30469E-03   704   0.279E-01    0.462E-02
DAV:   3    -0.498682347410E+02    0.55013E-05   -0.12034E-04   696   0.683E-02    0.245E-02
DAV:   4    -0.498682531958E+02   -0.18455E-04   -0.79830E-05   544   0.446E-02    0.912E-03
DAV:   5    -0.498682517986E+02    0.13972E-05   -0.12247E-05   456   0.257E-02
 147 F= -.49868252E+02 E0= -.49868252E+02  d E =-.301005E-03
       N       E                     dE             d eps       ncg     rms          rms(c)
DAV:   1    -0.498683393719E+02   -0.86176E-04   -0.38352E-02   512   0.119E+00    0.360E-02
DAV:   2    -0.498684112922E+02   -0.71920E-04   -0.84629E-04   696   0.153E-01    0.248E-02
DAV:   3    -0.498684092737E+02    0.20184E-05   -0.37853E-05   584   0.372E-02
 148 F= -.49868409E+02 E0= -.49868409E+02  d E =-.157475E-03
       N       E                     dE             d eps       ncg     rms          rms(c)
DAV:   1    -0.498684262167E+02   -0.14925E-04   -0.30705E-02   512   0.107E+00    0.342E-02
DAV:   2    -0.498684826032E+02   -0.56386E-04   -0.64056E-04   704   0.134E-01    0.229E-02
DAV:   3    -0.498684840207E+02   -0.14175E-05   -0.25837E-05   512   0.315E-02
 149 F= -.49868484E+02 E0= -.49868484E+02  d E =-.232222E-03
       N       E                     dE             d eps       ncg     rms          rms(c)
DAV:   1    -0.498685729486E+02   -0.90345E-04   -0.28349E-02   512   0.104E+00    0.317E-02
DAV:   2    -0.498686236349E+02   -0.50686E-04   -0.58550E-04   728   0.128E-01    0.232E-02
DAV:   3    -0.498686217500E+02    0.18849E-05   -0.30188E-05   536   0.361E-02
 150 F= -.49868622E+02 E0= -.49868622E+02  d E =-.137729E-03
       N       E                     dE             d eps       ncg     rms          rms(c)
DAV:   1    -0.498686397273E+02   -0.16092E-04   -0.15845E-02   512   0.778E-01    0.246E-02
DAV:   2    -0.498686676962E+02   -0.27969E-04   -0.31541E-04   728   0.945E-02    0.170E-02
DAV:   3    -0.498686682622E+02   -0.56600E-06   -0.11251E-05   448   0.237E-02
 151 F= -.49868668E+02 E0= -.49868668E+02  d E =-.184241E-03
       N       E                     dE             d eps       ncg     rms          rms(c)
DAV:   1    -0.498687277680E+02   -0.60072E-04   -0.21893E-02   512   0.926E-01    0.266E-02
DAV:   2    -0.498687644038E+02   -0.36636E-04   -0.41538E-04   744   0.108E-01    0.194E-02
DAV:   3    -0.498687646423E+02   -0.23848E-06   -0.19721E-05   480   0.300E-02
 152 F= -.49868765E+02 E0= -.49868765E+02  d E =-.963801E-04
       N       E                     dE             d eps       ncg     rms          rms(c)
DAV:   1    -0.498687668067E+02   -0.24029E-05   -0.30031E-02   512   0.108E+00    0.315E-02
DAV:   2    -0.498688176077E+02   -0.50801E-04   -0.56637E-04   744   0.126E-01    0.224E-02
DAV:   3    -0.498688184914E+02   -0.88375E-06   -0.21699E-05   504   0.307E-02
 153 F= -.49868818E+02 E0= -.49868818E+02  d E =-.150229E-03
       N       E                     dE             d eps       ncg     rms          rms(c)
DAV:   1    -0.498688633863E+02   -0.45779E-04   -0.28986E-02   512   0.107E+00    0.298E-02
DAV:   2    -0.498689154503E+02   -0.52064E-04   -0.60023E-04   704   0.129E-01    0.220E-02
DAV:   3    -0.498689140062E+02    0.14441E-05   -0.23326E-05   504   0.314E-02
 154 F= -.49868914E+02 E0= -.49868914E+02  d E =-.955148E-04
       N       E                     dE             d eps       ncg     rms          rms(c)
DAV:   1    -0.498688994112E+02    0.16039E-04   -0.34187E-02   512   0.116E+00    0.332E-02
DAV:   2    -0.498689604351E+02   -0.61024E-04   -0.70605E-04   704   0.140E-01    0.241E-02
DAV:   3    -0.498689593682E+02    0.10668E-05   -0.23469E-05   504   0.311E-02
 155 F= -.49868959E+02 E0= -.49868959E+02  d E =-.140877E-03
       N       E                     dE             d eps       ncg     rms          rms(c)
DAV:   1    -0.498689970529E+02   -0.36618E-04   -0.43873E-02   512   0.135E+00    0.359E-02
DAV:   2    -0.498690608857E+02   -0.63833E-04   -0.77109E-04   728   0.149E-01    0.267E-02
DAV:   3    -0.498690577338E+02    0.31519E-05   -0.48403E-05   608   0.438E-02
 156 F= -.49869058E+02 E0= -.49869058E+02  d E =-.983655E-04
       N       E                     dE             d eps       ncg     rms          rms(c)
DAV:   1    -0.498690716080E+02   -0.10722E-04   -0.50970E-03   512   0.464E-01    0.142E-02
DAV:   2    -0.498690787187E+02   -0.71107E-05   -0.89522E-05   720   0.516E-02
 157 F= -.49869079E+02 E0= -.49869079E+02  d E =-.119350E-03
       N       E                     dE             d eps       ncg     rms          rms(c)
DAV:   1    -0.498690591474E+02    0.12461E-04   -0.20634E-02   512   0.925E-01    0.285E-02
DAV:   2    -0.498690865973E+02   -0.27450E-04   -0.36610E-04   744   0.103E-01    0.207E-02
DAV:   3    -0.498690869664E+02   -0.36908E-06   -0.32546E-05   488   0.352E-02
 158 F= -.49869087E+02 E0= -.49869087E+02  d E =-.127598E-03
       N       E                     dE             d eps       ncg     rms          rms(c)
DAV:   1    -0.498690778857E+02    0.87116E-05   -0.93921E-03   512   0.621E-01    0.162E-02
DAV:   2    -0.498690891624E+02   -0.11277E-04   -0.18061E-04   664   0.720E-02    0.128E-02
DAV:   3    -0.498690865611E+02    0.26013E-05   -0.13994E-05   456   0.239E-02
 159 F= -.49869087E+02 E0= -.49869087E+02  d E =-.127193E-03
       N       E                     dE             d eps       ncg     rms          rms(c)
DAV:   1    -0.498690878255E+02    0.13368E-05   -0.23740E-03   512   0.311E-01    0.742E-03
DAV:   2    -0.498690909766E+02   -0.31511E-05   -0.46563E-05   600   0.375E-02
 160 F= -.49869091E+02 E0= -.49869091E+02  d E =-.131608E-03
       N       E                     dE             d eps       ncg     rms          rms(c)
DAV:   1    -0.498690734194E+02    0.14406E-04   -0.53851E-02   512   0.143E+00    0.427E-02
DAV:   2    -0.498691746862E+02   -0.10127E-03   -0.11903E-03   672   0.177E-01    0.318E-02
DAV:   3    -0.498691688221E+02    0.58641E-05   -0.47965E-05   656   0.434E-02
 161 F= -.49869169E+02 E0= -.49869169E+02  d E =-.778455E-04
       N       E                     dE             d eps       ncg     rms          rms(c)
DAV:   1    -0.498691780804E+02   -0.33942E-05   -0.58064E-05   544   0.463E-02    0.635E-03
DAV:   2    -0.498691772116E+02    0.86878E-06   -0.39306E-06   424   0.163E-02
 162 F= -.49869177E+02 E0= -.49869177E+02  d E =-.862350E-04
       N       E                     dE             d eps       ncg     rms          rms(c)
DAV:   1    -0.498691790260E+02   -0.94560E-06   -0.15046E-04   512   0.731E-02    0.341E-03
DAV:   2    -0.498691792711E+02   -0.24513E-06   -0.40129E-06   256   0.129E-02
 163 F= -.49869179E+02 E0= -.49869179E+02  d E =-.882945E-04
       N       E                     dE             d eps       ncg     rms          rms(c)
DAV:   1    -0.498691809027E+02   -0.18767E-05   -0.52971E-04   512   0.142E-01    0.458E-03
DAV:   2    -0.498691817066E+02   -0.80386E-06   -0.97317E-06   376   0.178E-02
 164 F= -.49869182E+02 E0= -.49869182E+02  d E =-.907300E-04
       N       E                     dE             d eps       ncg     rms          rms(c)
DAV:   1    -0.498692045711E+02   -0.23668E-04   -0.23992E-02   512   0.919E-01    0.300E-02
DAV:   2    -0.498692600770E+02   -0.55506E-04   -0.62094E-04   664   0.126E-01    0.226E-02
DAV:   3    -0.498692563703E+02    0.37067E-05   -0.21336E-05   496   0.330E-02
 165 F= -.49869256E+02 E0= -.49869256E+02  d E =-.746637E-04
       N       E                     dE             d eps       ncg     rms          rms(c)
DAV:   1    -0.498692658058E+02   -0.57288E-05   -0.15469E-03   512   0.237E-01    0.100E-02
DAV:   2    -0.498692675774E+02   -0.17716E-05   -0.28702E-05   552   0.307E-02
 166 F= -.49869268E+02 E0= -.49869268E+02  d E =-.858708E-04
       N       E                     dE             d eps       ncg     rms          rms(c)
DAV:   1    -0.498692952647E+02   -0.29459E-04   -0.27908E-02   512   0.104E+00    0.326E-02
DAV:   2    -0.498693499272E+02   -0.54663E-04   -0.65863E-04   720   0.134E-01    0.233E-02
DAV:   3    -0.498693470879E+02    0.28393E-05   -0.32340E-05   560   0.363E-02
 167 F= -.49869347E+02 E0= -.49869347E+02  d E =-.795105E-04
       N       E                     dE             d eps       ncg     rms          rms(c)
DAV:   1    -0.498693559462E+02   -0.60189E-05   -0.22009E-03   512   0.296E-01    0.112E-02
DAV:   2    -0.498693597045E+02   -0.37584E-05   -0.45143E-05   664   0.365E-02
 168 F= -.49869360E+02 E0= -.49869360E+02  d E =-.921271E-04
       N       E                     dE             d eps       ncg     rms          rms(c)
DAV:   1    -0.498693722238E+02   -0.16278E-04   -0.24970E-02   512   0.974E-01    0.312E-02
DAV:   2    -0.498694301300E+02   -0.57906E-04   -0.67880E-04   640   0.133E-01    0.216E-02
DAV:   3    -0.498694283788E+02    0.17512E-05   -0.21010E-05   496   0.300E-02
 169 F= -.49869428E+02 E0= -.49869428E+02  d E =-.686743E-04
       N       E                     dE             d eps       ncg     rms          rms(c)
DAV:   1    -0.498694137016E+02    0.16428E-04   -0.15632E-02   512   0.776E-01    0.239E-02
DAV:   2    -0.498694485651E+02   -0.34864E-04   -0.39939E-04   680   0.102E-01    0.160E-02
DAV:   3    -0.498694487783E+02   -0.21319E-06   -0.99928E-06   432   0.212E-02
 170 F= -.49869449E+02 E0= -.49869449E+02  d E =-.890738E-04
       N       E                     dE             d eps       ncg     rms          rms(c)
DAV:   1    -0.498694336833E+02    0.14882E-04   -0.27290E-02   512   0.988E-01    0.316E-02
DAV:   2    -0.498695009963E+02   -0.67313E-04   -0.76323E-04   640   0.133E-01    0.214E-02
DAV:   3    -0.498694998034E+02    0.11929E-05   -0.20516E-05   504   0.299E-02
 171 F= -.49869500E+02 E0= -.49869500E+02  d E =-.510251E-04
       N       E                     dE             d eps       ncg     rms          rms(c)
DAV:   1    -0.498694958559E+02    0.51403E-05   -0.85248E-03   512   0.555E-01    0.189E-02
DAV:   2    -0.498695155926E+02   -0.19737E-04   -0.22686E-04   656   0.730E-02    0.121E-02
DAV:   3    -0.498695163881E+02   -0.79557E-06   -0.53781E-06   376   0.156E-02
 172 F= -.49869516E+02 E0= -.49869516E+02  d E =-.676099E-04
       N       E                     dE             d eps       ncg     rms          rms(c)
DAV:   1    -0.498695380458E+02   -0.22453E-04   -0.22601E-02   512   0.890E-01    0.296E-02
DAV:   2    -0.498695908184E+02   -0.52773E-04   -0.59967E-04   696   0.116E-01    0.192E-02
DAV:   3    -0.498695909772E+02   -0.15884E-06   -0.15133E-05   456   0.262E-02
 173 F= -.49869591E+02 E0= -.49869591E+02  d E =-.745891E-04
       N       E                     dE             d eps       ncg     rms          rms(c)
DAV:   1    -0.498695857872E+02    0.50311E-05   -0.14068E-02   512   0.704E-01    0.242E-02
DAV:   2    -0.498696175696E+02   -0.31782E-04   -0.36141E-04   704   0.903E-02    0.151E-02
DAV:   3    -0.498696190430E+02   -0.14734E-05   -0.82919E-06   416   0.184E-02
 174 F= -.49869619E+02 E0= -.49869619E+02  d E =-.102655E-03
       N       E                     dE             d eps       ncg     rms          rms(c)
DAV:   1    -0.498696357653E+02   -0.18196E-04   -0.22722E-02   512   0.922E-01    0.277E-02
DAV:   2    -0.498696931519E+02   -0.57387E-04   -0.65984E-04   632   0.125E-01    0.186E-02
DAV:   3    -0.498696916162E+02    0.15357E-05   -0.16902E-05   496   0.269E-02
 175 F= -.49869692E+02 E0= -.49869692E+02  d E =-.725732E-04
       N       E                     dE             d eps       ncg     rms          rms(c)
DAV:   1    -0.498692338898E+02    0.45926E-03   -0.19648E-01   512   0.271E+00    0.814E-02
DAV:   2    -0.498697389527E+02   -0.50506E-03   -0.57347E-03   672   0.369E-01    0.550E-02
DAV:   3    -0.498697220289E+02    0.16924E-04   -0.16407E-04   736   0.767E-02    0.322E-02
DAV:   4    -0.498697423437E+02   -0.20315E-04   -0.11937E-04   616   0.550E-02    0.913E-03
DAV:   5    -0.498697428720E+02   -0.52829E-06   -0.21003E-05   512   0.290E-02
 176 F= -.49869743E+02 E0= -.49869743E+02  d E =-.123829E-03
       N       E                     dE             d eps       ncg     rms          rms(c)
DAV:   1    -0.498696624312E+02    0.79913E-04   -0.37588E-02   512   0.118E+00    0.347E-02
DAV:   2    -0.498697569880E+02   -0.94557E-04   -0.11052E-03   648   0.163E-01    0.240E-02
DAV:   3    -0.498697524937E+02    0.44943E-05   -0.28890E-05   616   0.330E-02
 177 F= -.49869752E+02 E0= -.49869752E+02  d E =-.133451E-03
       N       E                     dE             d eps       ncg     rms          rms(c)
DAV:   1    -0.498697491199E+02    0.78681E-05   -0.36599E-03   512   0.362E-01    0.990E-03
DAV:   2    -0.498697598267E+02   -0.10707E-04   -0.13229E-04   608   0.558E-02    0.815E-03
DAV:   3    -0.498697583862E+02    0.14406E-05   -0.32354E-06   304   0.127E-02
 178 F= -.49869758E+02 E0= -.49869758E+02  d E =-.139343E-03
       N       E                     dE             d eps       ncg     rms          rms(c)
DAV:   1    -0.498697655050E+02   -0.56783E-05   -0.15384E-02   512   0.761E-01    0.233E-02
DAV:   2    -0.498697994149E+02   -0.33910E-04   -0.40961E-04   648   0.999E-02    0.153E-02
DAV:   3    -0.498697986952E+02    0.71974E-06   -0.10222E-05   384   0.207E-02
 179 F= -.49869799E+02 E0= -.49869799E+02  d E =-.403090E-04
       N       E                     dE             d eps       ncg     rms          rms(c)
DAV:   1    -0.498697510273E+02    0.48388E-04   -0.35443E-02   512   0.116E+00    0.350E-02
DAV:   2    -0.498698323962E+02   -0.81369E-04   -0.94898E-04   656   0.152E-01    0.227E-02
DAV:   3    -0.498698315875E+02    0.80867E-06   -0.25709E-05   600   0.300E-02
 180 F= -.49869832E+02 E0= -.49869832E+02  d E =-.732013E-04
       N       E                     dE             d eps       ncg     rms          rms(c)
DAV:   1    -0.498698684645E+02   -0.36068E-04   -0.74192E-04   512   0.166E-01    0.713E-03
DAV:   2    -0.498698716208E+02   -0.31563E-05   -0.36023E-05   568   0.307E-02
 181 F= -.49869872E+02 E0= -.49869872E+02  d E =-.400333E-04
       N       E                     dE             d eps       ncg     rms          rms(c)
DAV:   1    -0.498698854930E+02   -0.17028E-04   -0.15949E-03   512   0.238E-01    0.114E-02
DAV:   2    -0.498698906696E+02   -0.51766E-05   -0.64972E-05   672   0.408E-02
 182 F= -.49869891E+02 E0= -.49869891E+02  d E =-.590821E-04
       N       E                     dE             d eps       ncg     rms          rms(c)
DAV:   1    -0.498699050403E+02   -0.19547E-04   -0.81553E-04   512   0.179E-01    0.876E-03
DAV:   2    -0.498699073024E+02   -0.22621E-05   -0.24017E-05   456   0.281E-02
 183 F= -.49869907E+02 E0= -.49869907E+02  d E =-.166328E-04
