<?xml version="1.0" encoding="ISO-8859-1"?>
<modeling>
 <generator>
  <i name="program" type="string">vasp </i>
  <i name="version" type="string">5.4.4.18Apr17-6-g9f103f2a35  </i>
  <i name="subversion" type="string">(build Dec  6 2019 17:49:40) complex            parallel </i>
  <i name="platform" type="string">LinuxGNU </i>
  <i name="date" type="string">2022 05 07 </i>
  <i name="time" type="string">20:03:39 </i>
 </generator>
 <incar>
  <i type="string" name="SYSTEM"> Al2C</i>
  <i type="int" name="ISTART">     0</i>
  <i type="string" name="PREC">accurate</i>
  <i type="int" name="NSIM">     4</i>
  <i type="int" name="NELM">   300</i>
  <i type="int" name="NELMDL">    -7</i>
  <i type="int" name="IBRION">     2</i>
  <i name="EDIFF">      0.00001000</i>
  <i name="EDIFFG">     -0.01000000</i>
  <i type="int" name="NSW">   400</i>
  <i type="int" name="ISIF">     2</i>
  <i type="int" name="ISYM">     0</i>
  <i name="ENCUT">    450.00000000</i>
  <i name="POTIM">      0.35000000</i>
  <i type="string" name="LREAL"> auto</i>
  <v name="ROPT">     -0.00020000     -0.00020000     -0.00020000     -0.00020000</v>
  <i type="logical" name="LPLANE"> T  </i>
  <i type="int" name="ISMEAR">     0</i>
  <i name="SIGMA">      0.05000000</i>
  <i type="int" name="NWRITE">     2</i>
  <i type="logical" name="LWAVE"> F  </i>
  <i type="logical" name="LCHARG"> T  </i>
  <i type="logical" name="LSCALU"> F  </i>
  <i type="logical" name="LASPH"> T  </i>
  <v type="int" name="KPOINT_BSE">    -1     0     0     0</v>
  <i type="int" name="NELM">   300</i>
  <i type="string" name="GGA"> ML</i>
  <i type="logical" name="LUSE_VDW"> T  </i>
  <i name="Zab_VDW">     -1.88670000</i>
  <i name="AGGAC">      0.00000000</i>
  <i type="logical" name="LASPH"> T  </i>
 </incar>
 <structure name="primitive_cell" >
  <crystal>
   <varray name="basis" >
    <v>       6.01920000       0.00000000       0.00000000 </v>
    <v>       0.00000000      10.14000000       0.00000000 </v>
    <v>       0.00000000       0.00000000      15.00000000 </v>
   </varray>
   <i name="volume">    915.52032000 </i>
   <varray name="rec_basis" >
    <v>       0.16613503       0.00000000       0.00000000 </v>
    <v>       0.00000000       0.09861933       0.00000000 </v>
    <v>       0.00000000       0.00000000       0.06666667 </v>
   </varray>
  </crystal>
  <varray name="positions" >
   <v>       0.44535144      -0.11949767       0.23591930 </v>
   <v>       0.19528840       0.00158894       0.24839721 </v>
   <v>      -0.30501772       0.00183779       0.24939154 </v>
   <v>       0.44473942       0.12316102       0.26329208 </v>
   <v>       0.44613986      -0.37892068       0.23892319 </v>
   <v>      -0.05483262      -0.11895053       0.26276183 </v>
   <v>      -0.05481922       0.12281412       0.23712841 </v>
   <v>      -0.05359538      -0.37659108       0.27105757 </v>
   <v>       0.19627157      -0.49784540       0.25852101 </v>
   <v>      -0.30385342      -0.49765976       0.25937476 </v>
   <v>       0.44522904       0.38052964       0.27999511 </v>
   <v>      -0.46686601       0.42435048       0.46207973 </v>
   <v>      -0.05341439       0.38186555       0.24182508 </v>
   <v>      -0.25480509       0.35002531       0.46733842 </v>
   <v>       0.43495499       0.33518578      -0.46836525 </v>
  </varray>
 </structure>
 <varray name="primitive_index" >
  <v type="int" >        1 </v>
  <v type="int" >        9 </v>
  <v type="int" >       10 </v>
  <v type="int" >        7 </v>
  <v type="int" >        3 </v>
  <v type="int" >        2 </v>
  <v type="int" >        8 </v>
  <v type="int" >        4 </v>
  <v type="int" >       11 </v>
  <v type="int" >       12 </v>
  <v type="int" >        5 </v>
  <v type="int" >       13 </v>
  <v type="int" >        6 </v>
  <v type="int" >       14 </v>
  <v type="int" >       15 </v>
 </varray>
 <kpoints>
  <generation param="Gamma">
   <v type="int" name="divisions">       5        3        1 </v>
   <v name="usershift">      0.00000000       0.00000000       0.00000000 </v>
   <v name="genvec1">      0.20000000       0.00000000       0.00000000 </v>
   <v name="genvec2">      0.00000000       0.33333333       0.00000000 </v>
   <v name="genvec3">      0.00000000       0.00000000       1.00000000 </v>
   <v name="shift">      0.00000000       0.00000000       0.00000000 </v>
  </generation>
  <varray name="kpointlist" >
   <v>       0.00000000       0.00000000       0.00000000 </v>
   <v>       0.20000000       0.00000000       0.00000000 </v>
   <v>       0.40000000       0.00000000       0.00000000 </v>
   <v>       0.00000000       0.33333333       0.00000000 </v>
   <v>       0.20000000       0.33333333       0.00000000 </v>
   <v>       0.40000000       0.33333333       0.00000000 </v>
   <v>      -0.40000000       0.33333333       0.00000000 </v>
   <v>      -0.20000000       0.33333333       0.00000000 </v>
  </varray>
  <varray name="weights" >
   <v>       0.06666667 </v>
   <v>       0.13333333 </v>
   <v>       0.13333333 </v>
   <v>       0.13333333 </v>
   <v>       0.13333333 </v>
   <v>       0.13333333 </v>
   <v>       0.13333333 </v>
   <v>       0.13333333 </v>
  </varray>
 </kpoints>
 <parameters>
  <separator name="general" >
   <i type="string" name="SYSTEM">Al2C</i>
   <i type="logical" name="LCOMPAT"> F  </i>
  </separator>
  <separator name="electronic" >
   <i type="string" name="PREC">accura</i>
   <i name="ENMAX">    450.00000000</i>
   <i name="ENAUG">    644.87300000</i>
   <i name="EDIFF">      0.00001000</i>
   <i type="int" name="IALGO">    38</i>
   <i type="int" name="IWAVPR">    11</i>
   <i type="int" name="NBANDS">    32</i>
   <i name="NELECT">     48.00000000</i>
   <i type="int" name="TURBO">     0</i>
   <i type="int" name="IRESTART">     0</i>
   <i type="int" name="NREBOOT">     0</i>
   <i type="int" name="NMIN">     0</i>
   <i name="EREF">      0.00000000</i>
   <separator name="electronic smearing" >
    <i type="int" name="ISMEAR">     0</i>
    <i name="SIGMA">      0.05000000</i>
    <i name="KSPACING">      0.50000000</i>
    <i type="logical" name="KGAMMA"> T  </i>
   </separator>
   <separator name="electronic projectors" >
    <i type="logical" name="LREAL"> T  </i>
    <v name="ROPT">     -0.00020000     -0.00020000     -0.00020000     -0.00020000</v>
    <i type="int" name="LMAXPAW">  -100</i>
    <i type="int" name="LMAXMIX">     2</i>
    <i type="logical" name="NLSPLINE"> F  </i>
   </separator>
   <separator name="electronic startup" >
    <i type="int" name="ISTART">     0</i>
    <i type="int" name="ICHARG">     2</i>
    <i type="int" name="INIWAV">     1</i>
   </separator>
   <separator name="electronic spin" >
    <i type="int" name="ISPIN">     1</i>
    <i type="logical" name="LNONCOLLINEAR"> F  </i>
    <v name="MAGMOM">      1.00000000      1.00000000      1.00000000      1.00000000      1.00000000      1.00000000      1.00000000      1.00000000      1.00000000      1.00000000      1.00000000      1.00000000      1.00000000      1.00000000      1.00000000</v>
    <i name="NUPDOWN">     -1.00000000</i>
    <i type="logical" name="LSORBIT"> F  </i>
    <v name="SAXIS">      0.00000000      0.00000000      1.00000000</v>
    <i type="logical" name="LSPIRAL"> F  </i>
    <v name="QSPIRAL">      0.00000000      0.00000000      0.00000000</v>
    <i type="logical" name="LZEROZ"> F  </i>
   </separator>
   <separator name="electronic exchange-correlation" >
    <i type="logical" name="LASPH"> T  </i>
    <i type="logical" name="LMETAGGA"> F  </i>
   </separator>
   <separator name="electronic convergence" >
    <i type="int" name="NELM">   300</i>
    <i type="int" name="NELMDL">    -7</i>
    <i type="int" name="NELMIN">     2</i>
    <i name="ENINI">    450.00000000</i>
    <separator name="electronic convergence detail" >
     <i type="logical" name="LDIAG"> T  </i>
     <i type="logical" name="LSUBROT"> F  </i>
     <i name="WEIMIN">      0.00100000</i>
     <i name="EBREAK">      0.00000008</i>
     <i name="DEPER">      0.30000000</i>
     <i type="int" name="NRMM">     4</i>
     <i name="TIME">      0.40000000</i>
    </separator>
   </separator>
   <separator name="electronic mixer" >
    <i name="AMIX">      0.40000000</i>
    <i name="BMIX">      1.00000000</i>
    <i name="AMIN">      0.10000000</i>
    <i name="AMIX_MAG">      1.60000000</i>
    <i name="BMIX_MAG">      1.00000000</i>
    <separator name="electronic mixer details" >
     <i type="int" name="IMIX">     4</i>
     <i type="logical" name="MIXFIRST"> F  </i>
     <i type="int" name="MAXMIX">   -45</i>
     <i name="WC">    100.00000000</i>
     <i type="int" name="INIMIX">     1</i>
     <i type="int" name="MIXPRE">     1</i>
     <i type="int" name="MREMOVE">     5</i>
    </separator>
   </separator>
   <separator name="electronic dipolcorrection" >
    <i type="logical" name="LDIPOL"> F  </i>
    <i type="logical" name="LMONO"> F  </i>
    <i type="int" name="IDIPOL">     0</i>
    <i name="EPSILON">      1.00000000</i>
    <v name="DIPOL">   -100.00000000   -100.00000000   -100.00000000</v>
    <i name="EFIELD">      0.00000000</i>
   </separator>
  </separator>
  <separator name="grids" >
   <i type="int" name="NGX">    42</i>
   <i type="int" name="NGY">    70</i>
   <i type="int" name="NGZ">   108</i>
   <i type="int" name="NGXF">    84</i>
   <i type="int" name="NGYF">   140</i>
   <i type="int" name="NGZF">   216</i>
   <i type="logical" name="ADDGRID"> F  </i>
  </separator>
  <separator name="ionic" >
   <i type="int" name="NSW">   400</i>
   <i type="int" name="IBRION">     2</i>
   <i type="int" name="MDALGO">     0</i>
   <i type="int" name="ISIF">     2</i>
   <i name="PSTRESS">      0.00000000</i>
   <i name="EDIFFG">     -0.01000000</i>
   <i type="int" name="NFREE">     1</i>
   <i name="POTIM">      0.35000000</i>
   <i name="SMASS">     -3.00000000</i>
   <i name="SCALEE">      1.00000000</i>
  </separator>
  <separator name="ionic md" >
   <i name="TEBEG">      0.00010000</i>
   <i name="TEEND">      0.00010000</i>
   <i type="int" name="NBLOCK">     1</i>
   <i type="int" name="KBLOCK">   400</i>
   <i type="int" name="NPACO">   256</i>
   <i name="APACO">     16.00000000</i>
  </separator>
  <separator name="symmetry" >
   <i type="int" name="ISYM">     0</i>
   <i name="SYMPREC">      0.00001000</i>
  </separator>
  <separator name="dos" >
   <i type="int" name="LORBIT">     0</i>
   <v name="RWIGS">     -1.00000000     -1.00000000     -1.00000000     -1.00000000</v>
   <i type="int" name="NEDOS">   301</i>
   <i name="EMIN">     10.00000000</i>
   <i name="EMAX">    -10.00000000</i>
   <i name="EFERMI">      0.00000000</i>
  </separator>
  <separator name="writing" >
   <i type="int" name="NWRITE">     2</i>
   <i type="logical" name="LWAVE"> F  </i>
   <i type="logical" name="LDOWNSAMPLE"> F  </i>
   <i type="logical" name="LCHARG"> T  </i>
   <i type="logical" name="LPARD"> F  </i>
   <i type="logical" name="LVTOT"> F  </i>
   <i type="logical" name="LVHAR"> F  </i>
   <i type="logical" name="LELF"> F  </i>
   <i type="logical" name="LOPTICS"> F  </i>
   <v name="STM">      0.00000000      0.00000000      0.00000000      0.00000000      0.00000000      0.00000000      0.00000000</v>
  </separator>
  <separator name="performance" >
   <i type="int" name="NPAR">     4</i>
   <i type="int" name="NSIM">     4</i>
   <i type="int" name="NBLK">    -1</i>
   <i type="logical" name="LPLANE"> T  </i>
   <i type="logical" name="LSCALAPACK"> T  </i>
   <i type="logical" name="LSCAAWARE"> F  </i>
   <i type="logical" name="LSCALU"> F  </i>
   <i type="logical" name="LASYNC"> F  </i>
   <i type="logical" name="LORBITALREAL"> F  </i>
  </separator>
  <separator name="miscellaneous" >
   <i type="int" name="IDIOT">     3</i>
   <i type="int" name="ISPECIAL">     0</i>
   <i type="logical" name="LMUSIC"> F  </i>
   <v name="POMASS">     26.98200000     12.01100000     78.96000000      1.00000000</v>
   <v name="DARWINR">      0.00000000      0.00000000      0.00000000      0.00000000</v>
   <v name="DARWINV">      1.00000000      1.00000000      1.00000000      1.00000000</v>
   <i type="logical" name="LCORR"> T  </i>
  </separator>
  <i type="logical" name="GGA_COMPAT"> T  </i>
  <i type="logical" name="LBERRY"> F  </i>
  <i type="int" name="ICORELEVEL">     0</i>
  <i type="logical" name="LDAU"> F  </i>
  <i type="int" name="I_CONSTRAINED_M">     0</i>
  <separator name="electronic exchange-correlation" >
   <i type="string" name="GGA">ML</i>
   <i type="int" name="VOSKOWN">     0</i>
   <i type="logical" name="LHFCALC"> F  </i>
   <i type="string" name="PRECFOCK"></i>
   <i type="logical" name="LSYMGRAD"> F  </i>
   <i type="logical" name="LHFONE"> F  </i>
   <i type="logical" name="LRHFCALC"> F  </i>
   <i type="logical" name="LTHOMAS"> F  </i>
   <i type="logical" name="LMODELHF"> F  </i>
   <i name="ENCUT4O">     -1.00000000</i>
   <i type="int" name="EXXOEP">     0</i>
   <i type="int" name="FOURORBIT">     0</i>
   <i name="AEXX">      0.00000000</i>
   <i name="HFALPHA">      0.00000000</i>
   <i name="MCALPHA">      0.00000000</i>
   <i name="ALDAX">      1.00000000</i>
   <i name="AGGAX">      1.00000000</i>
   <i name="ALDAC">      1.00000000</i>
   <i name="AGGAC">      0.00000000</i>
   <i type="int" name="NKREDX">     1</i>
   <i type="int" name="NKREDY">     1</i>
   <i type="int" name="NKREDZ">     1</i>
   <i type="logical" name="SHIFTRED"> F  </i>
   <i type="logical" name="ODDONLY"> F  </i>
   <i type="logical" name="EVENONLY"> F  </i>
   <i type="int" name="LMAXFOCK">     0</i>
   <i type="int" name="NMAXFOCKAE">     0</i>
   <i type="logical" name="LFOCKAEDFT"> F  </i>
   <i name="HFSCREEN">      0.00000000</i>
   <i name="HFSCREENC">      0.00000000</i>
   <i type="int" name="NBANDSGWLOW">     0</i>
  </separator>
  <separator name="vdW DFT" >
   <i type="logical" name="LUSE_VDW"> T  </i>
   <i name="Zab_VDW">     -1.88670000</i>
   <i name="PARAM1">      0.12340000</i>
   <i name="PARAM2">      1.00000000</i>
   <i name="PARAM3">      0.00000000</i>
  </separator>
  <separator name="model GW" >
   <i type="int" name="MODEL_GW">     0</i>
   <i name="MODEL_EPS0">     36.62081280</i>
   <i name="MODEL_ALPHA">      1.00000000</i>
  </separator>
  <separator name="linear response parameters" >
   <i type="logical" name="LEPSILON"> F  </i>
   <i type="logical" name="LRPA"> F  </i>
   <i type="logical" name="LNABLA"> F  </i>
   <i type="logical" name="LVEL"> F  </i>
   <i type="int" name="KINTER">     0</i>
   <i name="CSHIFT">      0.10000000</i>
   <i name="OMEGAMAX">     -1.00000000</i>
   <i name="DEG_THRESHOLD">      0.00200000</i>
   <i name="RTIME">     -0.10000000</i>
   <i name="WPLASMAI">      0.00000000</i>
   <v name="DFIELD">      0.00000000      0.00000000      0.00000000</v>
   <v name="WPLASMA">      0.00000000      0.00000000      0.00000000      0.00000000      0.00000000      0.00000000      0.00000000      0.00000000      0.00000000</v>
  </separator>
  <separator name="orbital magnetization" >
   <i type="logical" name="NUCIND"> F  </i>
   <v name="MAGPOS">      0.00000000      0.00000000      0.00000000</v>
   <i type="logical" name="LNICSALL"> T  </i>
   <i type="logical" name="ORBITALMAG"> F  </i>
   <i type="logical" name="LMAGBLOCH"> F  </i>
   <i type="logical" name="LCHIMAG"> F  </i>
   <i type="logical" name="LGAUGE"> T  </i>
   <i type="int" name="MAGATOM">     0</i>
   <v name="MAGDIPOL">      0.00000000      0.00000000      0.00000000</v>
   <v name="AVECCONST">      0.00000000      0.00000000      0.00000000</v>
  </separator>
  <separator name="response functions" >
   <i type="logical" name="LADDER"> F  </i>
   <i type="logical" name="LRPAFORCE"> F  </i>
   <i type="logical" name="LFXC"> F  </i>
   <i type="logical" name="LHARTREE"> T  </i>
   <i type="int" name="IBSE">     0</i>
   <v type="int" name="KPOINT">    -1     0     0     0</v>
   <i type="logical" name="LTCTE"> F  </i>
   <i type="logical" name="LTETE"> F  </i>
   <i type="logical" name="LTRIPLET"> F  </i>
   <i type="logical" name="LFXCEPS"> F  </i>
   <i type="logical" name="LFXHEG"> F  </i>
   <i type="int" name="NATURALO">     2</i>
   <i type="logical" name="L2ORDER"> F  </i>
   <i type="logical" name="LMP2LT"> F  </i>
   <i type="logical" name="LUSEW"> F  </i>
   <i name="ENCUTGW">     -2.00000000</i>
   <i name="ENCUTGWSOFT">     -2.00000000</i>
   <i name="ENCUTLF">     -1.00000000</i>
   <i type="int" name="LMAXMP2">    -1</i>
   <i name="SCISSOR">      0.00000000</i>
   <i type="int" name="NOMEGA">     0</i>
   <i type="int" name="NOMEGAR">     0</i>
   <i type="int" name="NBANDSGW">    -1</i>
   <i type="int" name="NBANDSO">    -1</i>
   <i type="int" name="NBANDSV">    -1</i>
   <i type="int" name="NELM">   300</i>
   <i type="int" name="NELMHF">     1</i>
   <i type="int" name="DIM">     3</i>
   <i type="int" name="ANTIRES">     0</i>
   <i name="OMEGAMAX">    -30.00000000</i>
   <i name="OMEGAMIN">    -30.00000000</i>
   <i name="OMEGATL">   -200.00000000</i>
   <i type="int" name="OMEGAGRID">   140</i>
   <i name="CSHIFT">     -0.10000000</i>
   <i type="logical" name="SELFENERGY"> F  </i>
   <i type="logical" name="LSPECTRAL"> F  </i>
   <i type="logical" name="LSPECTRALGW"> F  </i>
   <i type="logical" name="LSINGLES"> F  </i>
   <i type="logical" name="LFERMIGW"> F  </i>
   <i type="logical" name="ODDONLYGW"> F  </i>
   <i type="logical" name="EVENONLYGW"> F  </i>
   <i type="int" name="NKREDLFX">     1</i>
   <i type="int" name="NKREDLFY">     1</i>
   <i type="int" name="NKREDLFZ">     1</i>
   <i type="int" name="MAXMEM">  2800</i>
   <i type="int" name="TELESCOPE">     0</i>
   <i type="int" name="TAUPAR">     1</i>
   <i type="int" name="OMEGAPAR">    -1</i>
   <i name="LAMBDA">      1.00000000</i>
  </separator>
  <separator name="External order field" >
   <i name="OFIELD_KAPPA">      0.00000000</i>
   <v name="OFIELD_K">      0.00000000      0.00000000      0.00000000</v>
   <i name="OFIELD_Q6_NEAR">      0.00000000</i>
   <i name="OFIELD_Q6_FAR">      0.00000000</i>
   <i name="OFIELD_A">      0.00000000</i>
  </separator>
 </parameters>
 <atominfo>
  <atoms>      15 </atoms>
  <types>       4 </types>
  <array name="atoms" >
   <dimension dim="1">ion</dimension>
   <field type="string">element</field>
   <field type="int">atomtype</field>
   <set>
    <rc><c>Al</c><c>   1</c></rc>
    <rc><c>Al</c><c>   1</c></rc>
    <rc><c>Al</c><c>   1</c></rc>
    <rc><c>Al</c><c>   1</c></rc>
    <rc><c>Al</c><c>   1</c></rc>
    <rc><c>Al</c><c>   1</c></rc>
    <rc><c>Al</c><c>   1</c></rc>
    <rc><c>Al</c><c>   1</c></rc>
    <rc><c>C </c><c>   2</c></rc>
    <rc><c>C </c><c>   2</c></rc>
    <rc><c>C </c><c>   2</c></rc>
    <rc><c>C </c><c>   2</c></rc>
    <rc><c>Se</c><c>   3</c></rc>
    <rc><c>H </c><c>   4</c></rc>
    <rc><c>H </c><c>   4</c></rc>
   </set>
  </array>
  <array name="atomtypes" >
   <dimension dim="1">type</dimension>
   <field type="int">atomspertype</field>
   <field type="string">element</field>
   <field>mass</field>
   <field>valence</field>
   <field type="string">pseudopotential</field>
   <set>
    <rc><c>   8</c><c>Al</c><c>     26.98200000</c><c>      3.00000000</c><c>  PAW Al_GW 19Mar2012                   </c></rc>
    <rc><c>   4</c><c>C </c><c>     12.01100000</c><c>      4.00000000</c><c>  PAW C_GW 28Sep2005                    </c></rc>
    <rc><c>   1</c><c>Se</c><c>     78.96000000</c><c>      6.00000000</c><c>  PAW Se_GW 20Mar2012                   </c></rc>
    <rc><c>   2</c><c>H </c><c>      1.00000000</c><c>      1.00000000</c><c>  PAW H_GW 21Apr2008                    </c></rc>
   </set>
  </array>
 </atominfo>
 <structure name="initialpos" >
  <crystal>
   <varray name="basis" >
    <v>       6.01920000       0.00000000       0.00000000 </v>
    <v>       0.00000000      10.14000000       0.00000000 </v>
    <v>       0.00000000       0.00000000      15.00000000 </v>
   </varray>
   <i name="volume">    915.52032000 </i>
   <varray name="rec_basis" >
    <v>       0.16613503       0.00000000       0.00000000 </v>
    <v>       0.00000000       0.09861933       0.00000000 </v>
    <v>       0.00000000       0.00000000       0.06666667 </v>
   </varray>
  </crystal>
  <varray name="positions" >
   <v>       0.44535144       0.88050233       0.23591930 </v>
   <v>       0.94516738       0.88104947       0.26276183 </v>
   <v>       0.44613986       0.62107932       0.23892319 </v>
   <v>       0.94640462       0.62340892       0.27105757 </v>
   <v>       0.44522904       0.38052964       0.27999511 </v>
   <v>       0.94658561       0.38186555       0.24182508 </v>
   <v>       0.44473942       0.12316102       0.26329208 </v>
   <v>       0.94518078       0.12281412       0.23712841 </v>
   <v>       0.19528840       0.00158894       0.24839721 </v>
   <v>       0.69498228       0.00183779       0.24939154 </v>
   <v>       0.19627157       0.50215460       0.25852101 </v>
   <v>       0.69614658       0.50234024       0.25937476 </v>
   <v>       0.53313399       0.42435048       0.46207973 </v>
   <v>       0.74519491       0.35002531       0.46733842 </v>
   <v>       0.43495499       0.33518578       0.53163475 </v>
  </varray>
  <varray name="selective"  type="logical" >
   <v type="logical" >  T  T  T </v>
   <v type="logical" >  T  T  T </v>
   <v type="logical" >  T  T  T </v>
   <v type="logical" >  T  T  T </v>
   <v type="logical" >  T  T  T </v>
   <v type="logical" >  T  T  T </v>
   <v type="logical" >  T  T  T </v>
   <v type="logical" >  T  T  T </v>
   <v type="logical" >  T  T  T </v>
   <v type="logical" >  T  T  T </v>
   <v type="logical" >  T  T  T </v>
   <v type="logical" >  T  T  T </v>
   <v type="logical" >  T  T  T </v>
   <v type="logical" >  T  T  T </v>
   <v type="logical" >  T  T  T </v>
  </varray>
  <nose>
   <v>      -3.00000000       0.00000000       0.00010000       0.00010000 </v>
  </nose>
 </structure>
 <calculation>
  <scstep>
   <time name="dav">   17.89   17.92</time>
   <time name="total">  122.99  123.29</time>
   <energy>
    <i name="alphaZ">     15.92198659 </i>
    <i name="ewald">   1392.78955708 </i>
    <i name="hartreedc">  -2391.43273424 </i>
    <i name="XCdc">   -179.34612067 </i>
    <i name="pawpsdc">   1200.49825669 </i>
    <i name="pawaedc">   -920.43073002 </i>
    <i name="eentropy">     -0.00316198 </i>
    <i name="bandstr">   -139.60227636 </i>
    <i name="atom">   1333.72818728 </i>
    <i name="e_fr_energy">    312.12296437 </i>
    <i name="e_wo_entrp">    312.12612635 </i>
    <i name="e_0_energy">    312.12454536 </i>
   </energy>
  </scstep>
  <scstep>
   <time name="dav">   23.50   23.55</time>
   <time name="total">   23.50   23.55</time>
   <energy>
    <i name="e_fr_energy">     15.28561732 </i>
    <i name="e_wo_entrp">     15.28590274 </i>
    <i name="e_0_energy">     15.28576003 </i>
   </energy>
  </scstep>
  <scstep>
   <time name="dav">   26.41   26.47</time>
   <time name="total">   26.41   26.47</time>
   <energy>
    <i name="e_fr_energy">    -69.84659933 </i>
    <i name="e_wo_entrp">    -69.84659933 </i>
    <i name="e_0_energy">    -69.84659933 </i>
   </energy>
  </scstep>
  <scstep>
   <time name="dav">   21.49   21.54</time>
   <time name="total">   21.49   21.54</time>
   <energy>
    <i name="e_fr_energy">    -73.18183382 </i>
    <i name="e_wo_entrp">    -73.18183382 </i>
    <i name="e_0_energy">    -73.18183382 </i>
   </energy>
  </scstep>
  <scstep>
   <time name="dav">   25.70   25.77</time>
   <time name="total">   25.70   25.77</time>
   <energy>
    <i name="e_fr_energy">    -73.30408438 </i>
    <i name="e_wo_entrp">    -73.30408438 </i>
    <i name="e_0_energy">    -73.30408438 </i>
   </energy>
  </scstep>
  <scstep>
   <time name="dav">   22.16   22.29</time>
   <time name="total">   22.16   22.29</time>
   <energy>
    <i name="e_fr_energy">    -73.30600803 </i>
    <i name="e_wo_entrp">    -73.30600803 </i>
    <i name="e_0_energy">    -73.30600803 </i>
   </energy>
  </scstep>
  <scstep>
   <time name="dav">   23.47   23.52</time>
   <time name="total">   24.62   24.67</time>
   <energy>
    <i name="e_fr_energy">    -73.30610509 </i>
    <i name="e_wo_entrp">    -73.30610509 </i>
    <i name="e_0_energy">    -73.30610509 </i>
   </energy>
  </scstep>
  <scstep>
   <time name="dav">   20.17   20.24</time>
   <time name="total">  122.66  122.87</time>
   <energy>
    <i name="e_fr_energy">    -50.64383752 </i>
    <i name="e_wo_entrp">    -50.64383752 </i>
    <i name="e_0_energy">    -50.64383752 </i>
   </energy>
  </scstep>
  <scstep>
   <time name="dav">   20.61   20.75</time>
   <time name="total">  123.12  123.59</time>
   <energy>
    <i name="e_fr_energy">    -50.50941546 </i>
    <i name="e_wo_entrp">    -50.50941546 </i>
    <i name="e_0_energy">    -50.50941546 </i>
   </energy>
  </scstep>
  <scstep>
   <time name="dav">   22.46   22.48</time>
   <time name="total">  127.27  127.37</time>
   <energy>
    <i name="e_fr_energy">    -49.88264976 </i>
    <i name="e_wo_entrp">    -49.88264976 </i>
    <i name="e_0_energy">    -49.88264976 </i>
   </energy>
  </scstep>
  <scstep>
   <time name="dav">   20.70   20.71</time>
   <time name="total">  124.13  124.17</time>
   <energy>
    <i name="e_fr_energy">    -49.81384100 </i>
    <i name="e_wo_entrp">    -49.81384100 </i>
    <i name="e_0_energy">    -49.81384100 </i>
   </energy>
  </scstep>
  <scstep>
   <time name="dav">   22.24   22.29</time>
   <time name="total">  126.97  127.11</time>
   <energy>
    <i name="e_fr_energy">    -49.78620804 </i>
    <i name="e_wo_entrp">    -49.78620804 </i>
    <i name="e_0_energy">    -49.78620804 </i>
   </energy>
  </scstep>
  <scstep>
   <time name="dav">   22.23   22.33</time>
   <time name="total">  126.61  126.85</time>
   <energy>
    <i name="e_fr_energy">    -49.76536790 </i>
    <i name="e_wo_entrp">    -49.76536790 </i>
    <i name="e_0_energy">    -49.76536790 </i>
   </energy>
  </scstep>
  <scstep>
   <time name="dav">   22.84   22.85</time>
   <time name="total">  128.77  128.85</time>
   <energy>
    <i name="e_fr_energy">    -49.75758380 </i>
    <i name="e_wo_entrp">    -49.75758380 </i>
    <i name="e_0_energy">    -49.75758380 </i>
   </energy>
  </scstep>
  <scstep>
   <time name="dav">   18.33   18.33</time>
   <time name="total">  121.57  121.63</time>
   <energy>
    <i name="e_fr_energy">    -49.74680114 </i>
    <i name="e_wo_entrp">    -49.74680114 </i>
    <i name="e_0_energy">    -49.74680114 </i>
   </energy>
  </scstep>
  <scstep>
   <time name="dav">   18.84   18.85</time>
   <time name="total">  120.21  120.21</time>
   <energy>
    <i name="e_fr_energy">    -49.74825542 </i>
    <i name="e_wo_entrp">    -49.74825542 </i>
    <i name="e_0_energy">    -49.74825542 </i>
   </energy>
  </scstep>
  <scstep>
   <time name="dav">   23.66   23.69</time>
   <time name="total">  128.81  128.90</time>
   <energy>
    <i name="e_fr_energy">    -49.74918253 </i>
    <i name="e_wo_entrp">    -49.74918253 </i>
    <i name="e_0_energy">    -49.74918253 </i>
   </energy>
  </scstep>
  <scstep>
   <time name="dav">   20.26   20.27</time>
   <time name="total">  123.80  124.04</time>
   <energy>
    <i name="e_fr_energy">    -49.75058555 </i>
    <i name="e_wo_entrp">    -49.75058555 </i>
    <i name="e_0_energy">    -49.75058555 </i>
   </energy>
  </scstep>
  <scstep>
   <time name="dav">   18.60   18.64</time>
   <time name="total">  123.58  123.90</time>
   <energy>
    <i name="e_fr_energy">    -49.75212184 </i>
    <i name="e_wo_entrp">    -49.75212184 </i>
    <i name="e_0_energy">    -49.75212184 </i>
   </energy>
  </scstep>
  <scstep>
   <time name="dav">   20.69   20.79</time>
   <time name="total">  125.73  126.09</time>
   <energy>
    <i name="e_fr_energy">    -49.75294605 </i>
    <i name="e_wo_entrp">    -49.75294605 </i>
    <i name="e_0_energy">    -49.75294605 </i>
   </energy>
  </scstep>
  <scstep>
   <time name="dav">   20.03   20.06</time>
   <time name="total">  124.06  124.21</time>
   <energy>
    <i name="e_fr_energy">    -49.75349658 </i>
    <i name="e_wo_entrp">    -49.75349658 </i>
    <i name="e_0_energy">    -49.75349658 </i>
   </energy>
  </scstep>
  <scstep>
   <time name="dav">   18.83   18.92</time>
   <time name="total">  121.82  122.05</time>
   <energy>
    <i name="e_fr_energy">    -49.75362166 </i>
    <i name="e_wo_entrp">    -49.75362166 </i>
    <i name="e_0_energy">    -49.75362166 </i>
   </energy>
  </scstep>
  <scstep>
   <time name="dav">   16.61   16.69</time>
   <time name="total">  121.97  122.18</time>
   <energy>
    <i name="e_fr_energy">    -49.75365725 </i>
    <i name="e_wo_entrp">    -49.75365725 </i>
    <i name="e_0_energy">    -49.75365725 </i>
   </energy>
  </scstep>
  <scstep>
   <time name="dav">   14.33   14.34</time>
   <time name="total">  118.95  119.06</time>
   <energy>
    <i name="e_fr_energy">    -49.75367340 </i>
    <i name="e_wo_entrp">    -49.75367340 </i>
    <i name="e_0_energy">    -49.75367340 </i>
   </energy>
  </scstep>
  <scstep>
   <time name="dav">   13.94   13.95</time>
   <time name="total">  120.18  120.25</time>
   <energy>
    <i name="alphaZ">     15.92198659 </i>
    <i name="ewald">   1392.78955708 </i>
    <i name="hartreedc">  -2568.68575297 </i>
    <i name="XCdc">   -169.89792262 </i>
    <i name="pawpsdc">   1772.55702610 </i>
    <i name="pawaedc">  -1494.07576167 </i>
    <i name="eentropy">     -0.00000000 </i>
    <i name="bandstr">   -332.09100024 </i>
    <i name="atom">   1333.72818728 </i>
    <i name="e_fr_energy">    -49.75368046 </i>
    <i name="e_wo_entrp">    -49.75368046 </i>
    <i name="e_0_energy">    -49.75368046 </i>
   </energy>
  </scstep>
  <structure>
   <crystal>
    <varray name="basis" >
     <v>       6.01920000       0.00000000       0.00000000 </v>
     <v>       0.00000000      10.14000000       0.00000000 </v>
     <v>       0.00000000       0.00000000      15.00000000 </v>
    </varray>
    <i name="volume">    915.52032000 </i>
    <varray name="rec_basis" >
     <v>       0.16613503       0.00000000       0.00000000 </v>
     <v>       0.00000000       0.09861933       0.00000000 </v>
     <v>       0.00000000       0.00000000       0.06666667 </v>
    </varray>
   </crystal>
   <varray name="positions" >
    <v>       0.44535144       0.88050233       0.23591930 </v>
    <v>       0.94516738       0.88104947       0.26276183 </v>
    <v>       0.44613986       0.62107932       0.23892319 </v>
    <v>       0.94640462       0.62340892       0.27105757 </v>
    <v>       0.44522904       0.38052964       0.27999511 </v>
    <v>       0.94658561       0.38186555       0.24182508 </v>
    <v>       0.44473942       0.12316102       0.26329208 </v>
    <v>       0.94518078       0.12281412       0.23712841 </v>
    <v>       0.19528840       0.00158894       0.24839721 </v>
    <v>       0.69498228       0.00183779       0.24939154 </v>
    <v>       0.19627157       0.50215460       0.25852101 </v>
    <v>       0.69614658       0.50234024       0.25937476 </v>
    <v>       0.53313399       0.42435048       0.46207973 </v>
    <v>       0.74519491       0.35002531       0.46733842 </v>
    <v>       0.43495499       0.33518578       0.53163475 </v>
   </varray>
  </structure>
  <varray name="forces" >
   <v>       0.00686290      -0.10231692      -0.09211767 </v>
   <v>       0.00067871      -0.10661983       0.09640796 </v>
   <v>       0.01100780       0.11948480      -0.15273843 </v>
   <v>      -0.00741327       0.12620885       0.11235573 </v>
   <v>      -0.02934878      -0.15889096      -0.13314148 </v>
   <v>       0.00407187      -0.11353947      -0.13235722 </v>
   <v>       0.00090392       0.10464602       0.08866715 </v>
   <v>      -0.00156324       0.11892957      -0.09473785 </v>
   <v>      -0.00415656       0.00374896       0.01197574 </v>
   <v>       0.00474987       0.00168299       0.00680797 </v>
   <v>       0.00421538      -0.01270701       0.02520816 </v>
   <v>      -0.01897671       0.00218583       0.01015829 </v>
   <v>      -0.04315539       0.17545832       0.09474877 </v>
   <v>       0.17008742      -0.06882512       0.02161837 </v>
   <v>      -0.09796391      -0.08944604       0.13714450 </v>
  </varray>
  <varray name="stress" >
   <v>      13.02544867       0.04083031      -0.02993630 </v>
   <v>       0.04082846      -3.91245975      -0.16970247 </v>
   <v>      -0.02993790      -0.16970078       0.54221090 </v>
  </varray>
  <energy>
   <i name="e_fr_energy">    -49.75368046 </i>
   <i name="e_wo_entrp">    -49.75368046 </i>
   <i name="e_0_energy">     -0.00000000 </i>
  </energy>
  <time name="totalsc"> 2739.98 2747.70</time>
 </calculation>
 <calculation>
  <scstep>
   <time name="dav">   15.39   15.41</time>
   <time name="total">  120.95  121.10</time>
   <energy>
    <i name="alphaZ">     15.92198659 </i>
    <i name="ewald">   1389.03017959 </i>
    <i name="hartreedc">  -2565.86389227 </i>
    <i name="XCdc">   -169.97013561 </i>
    <i name="pawpsdc">   1772.56136927 </i>
    <i name="pawaedc">  -1494.08007214 </i>
    <i name="eentropy">     -0.00000000 </i>
    <i name="bandstr">   -331.08799542 </i>
    <i name="atom">   1333.72818728 </i>
    <i name="e_fr_energy">    -49.76037270 </i>
    <i name="e_wo_entrp">    -49.76037270 </i>
    <i name="e_0_energy">    -49.76037270 </i>
   </energy>
  </scstep>
  <scstep>
   <time name="dav">   19.97   20.01</time>
   <time name="total">  123.75  123.90</time>
   <energy>
    <i name="e_fr_energy">    -49.76091451 </i>
    <i name="e_wo_entrp">    -49.76091451 </i>
    <i name="e_0_energy">    -49.76091451 </i>
   </energy>
  </scstep>
  <scstep>
   <time name="dav">   22.00   22.02</time>
   <time name="total">  126.19  126.32</time>
   <energy>
    <i name="e_fr_energy">    -49.76084791 </i>
    <i name="e_wo_entrp">    -49.76084791 </i>
    <i name="e_0_energy">    -49.76084791 </i>
   </energy>
  </scstep>
  <scstep>
   <time name="dav">   18.50   18.51</time>
   <time name="total">  121.49  121.58</time>
   <energy>
    <i name="alphaZ">     15.92198659 </i>
    <i name="ewald">   1389.03017959 </i>
    <i name="hartreedc">  -2565.40090114 </i>
    <i name="XCdc">   -169.99503660 </i>
    <i name="pawpsdc">   1767.83302772 </i>
    <i name="pawaedc">  -1489.33328808 </i>
    <i name="eentropy">     -0.00000000 </i>
    <i name="bandstr">   -331.54500231 </i>
    <i name="atom">   1333.72818728 </i>
    <i name="e_fr_energy">    -49.76084694 </i>
    <i name="e_wo_entrp">    -49.76084694 </i>
    <i name="e_0_energy">    -49.76084694 </i>
   </energy>
  </scstep>
  <structure>
   <crystal>
    <varray name="basis" >
     <v>       6.01920000       0.00000000       0.00000000 </v>
     <v>       0.00000000      10.14000000       0.00000000 </v>
     <v>       0.00000000       0.00000000      15.00000000 </v>
    </varray>
    <i name="volume">    915.52032000 </i>
    <varray name="rec_basis" >
     <v>       0.16613503       0.00000000       0.00000000 </v>
     <v>       0.00000000       0.09861933       0.00000000 </v>
     <v>       0.00000000       0.00000000       0.06666667 </v>
    </varray>
   </crystal>
   <varray name="positions" >
    <v>       0.44538994       0.88016158       0.23571192 </v>
    <v>       0.94517118       0.88069439       0.26297887 </v>
    <v>       0.44620162       0.62147725       0.23857933 </v>
    <v>       0.94636303       0.62382924       0.27131052 </v>
    <v>       0.44506438       0.38000048       0.27969536 </v>
    <v>       0.94660845       0.38148742       0.24152711 </v>
    <v>       0.44474449       0.12350953       0.26349170 </v>
    <v>       0.94517201       0.12321020       0.23691513 </v>
    <v>       0.19526508       0.00160142       0.24842417 </v>
    <v>       0.69500893       0.00184339       0.24940686 </v>
    <v>       0.19629522       0.50211228       0.25857777 </v>
    <v>       0.69604012       0.50234752       0.25939763 </v>
    <v>       0.53289187       0.42493482       0.46229304 </v>
    <v>       0.74614916       0.34979609       0.46738709 </v>
    <v>       0.43440538       0.33488789       0.53194351 </v>
   </varray>
  </structure>
  <varray name="forces" >
   <v>       0.00300164       0.02801984      -0.08104266 </v>
   <v>       0.00184992       0.03079891       0.08410388 </v>
   <v>       0.00314619      -0.02001275      -0.11768188 </v>
   <v>      -0.00562164      -0.02800828       0.09552409 </v>
   <v>      -0.01470401      -0.00842233      -0.11029032 </v>
   <v>      -0.00197027       0.03466570      -0.10856307 </v>
   <v>       0.00046667      -0.03721173       0.06718767 </v>
   <v>      -0.00014199      -0.01971860      -0.08543439 </v>
   <v>       0.00017545       0.00343195       0.01244615 </v>
   <v>       0.00281724       0.00431880       0.00805451 </v>
   <v>      -0.01001056       0.00337942       0.00501497 </v>
   <v>      -0.00388002       0.00119830      -0.00410336 </v>
   <v>       0.06695885      -0.01304312       0.16238254 </v>
   <v>       0.00588345       0.03123472       0.01513216 </v>
   <v>      -0.04797092      -0.01063082       0.05726971 </v>
  </varray>
  <varray name="stress" >
   <v>      12.24564213       0.15326077       0.04803847 </v>
   <v>       0.15325863      -5.11971820      -0.02683071 </v>
   <v>       0.04803704      -0.02682894       0.24751154 </v>
  </varray>
  <energy>
   <i name="e_fr_energy">    -49.76084694 </i>
   <i name="e_wo_entrp">    -49.76084694 </i>
   <i name="e_0_energy">     -0.00000000 </i>
  </energy>
  <time name="totalsc">  723.19  725.14</time>
 </calculation>
 <calculation>
  <scstep>
   <time name="dav">   17.08   17.10</time>
   <time name="total">  123.70  123.76</time>
   <energy>
    <i name="alphaZ">     15.92198659 </i>
    <i name="ewald">   1387.65305422 </i>
    <i name="hartreedc">  -2564.33664080 </i>
    <i name="XCdc">   -170.02214268 </i>
    <i name="pawpsdc">   1767.17210907 </i>
    <i name="pawaedc">  -1488.67023423 </i>
    <i name="eentropy">     -0.00000000 </i>
    <i name="bandstr">   -331.20766782 </i>
    <i name="atom">   1333.72818728 </i>
    <i name="e_fr_energy">    -49.76134837 </i>
    <i name="e_wo_entrp">    -49.76134837 </i>
    <i name="e_0_energy">    -49.76134837 </i>
   </energy>
  </scstep>
  <scstep>
   <time name="dav">   21.12   21.12</time>
   <time name="total">  125.66  125.67</time>
   <energy>
    <i name="e_fr_energy">    -49.76141966 </i>
    <i name="e_wo_entrp">    -49.76141966 </i>
    <i name="e_0_energy">    -49.76141966 </i>
   </energy>
  </scstep>
  <scstep>
   <time name="dav">   21.52   21.52</time>
   <time name="total">  125.39  125.45</time>
   <energy>
    <i name="alphaZ">     15.92198659 </i>
    <i name="ewald">   1387.65305422 </i>
    <i name="hartreedc">  -2564.17862663 </i>
    <i name="XCdc">   -170.03019755 </i>
    <i name="pawpsdc">   1765.83729679 </i>
    <i name="pawaedc">  -1487.33030980 </i>
    <i name="eentropy">     -0.00000000 </i>
    <i name="bandstr">   -331.36280135 </i>
    <i name="atom">   1333.72818728 </i>
    <i name="e_fr_energy">    -49.76141045 </i>
    <i name="e_wo_entrp">    -49.76141045 </i>
    <i name="e_0_energy">    -49.76141045 </i>
   </energy>
  </scstep>
  <structure>
   <crystal>
    <varray name="basis" >
     <v>       6.01920000       0.00000000       0.00000000 </v>
     <v>       0.00000000      10.14000000       0.00000000 </v>
     <v>       0.00000000       0.00000000      15.00000000 </v>
    </varray>
    <i name="volume">    915.52032000 </i>
    <varray name="rec_basis" >
     <v>       0.16613503       0.00000000       0.00000000 </v>
     <v>       0.00000000       0.09861933       0.00000000 </v>
     <v>       0.00000000       0.00000000       0.06666667 </v>
    </varray>
   </crystal>
   <varray name="positions" >
    <v>       0.44540408       0.88003649       0.23563578 </v>
    <v>       0.94517258       0.88056404       0.26305855 </v>
    <v>       0.44622429       0.62162333       0.23845309 </v>
    <v>       0.94634776       0.62398354       0.27140338 </v>
    <v>       0.44500393       0.37980621       0.27958532 </v>
    <v>       0.94661684       0.38134860       0.24141771 </v>
    <v>       0.44474635       0.12363747       0.26356498 </v>
    <v>       0.94516879       0.12335560       0.23683683 </v>
    <v>       0.19525652       0.00160601       0.24843407 </v>
    <v>       0.69501871       0.00184545       0.24941249 </v>
    <v>       0.19630390       0.50209674       0.25859860 </v>
    <v>       0.69600103       0.50235019       0.25940602 </v>
    <v>       0.53280298       0.42514934       0.46237135 </v>
    <v>       0.74649948       0.34971195       0.46740496 </v>
    <v>       0.43420361       0.33477853       0.53205686 </v>
   </varray>
  </structure>
  <varray name="forces" >
   <v>       0.00147822       0.07508840      -0.07725563 </v>
   <v>       0.00228054       0.08033809       0.07997761 </v>
   <v>       0.00032113      -0.07049134      -0.10534657 </v>
   <v>      -0.00494355      -0.08375955       0.08972474 </v>
   <v>      -0.00958139       0.04602231      -0.10094795 </v>
   <v>      -0.00408171       0.08817699      -0.10023451 </v>
   <v>       0.00018793      -0.08879233       0.05932189 </v>
   <v>       0.00017661      -0.06992334      -0.08226995 </v>
   <v>       0.00165548       0.00356028       0.01306135 </v>
   <v>       0.00205012       0.00525191       0.00848671 </v>
   <v>      -0.01534057       0.00855103      -0.00282376 </v>
   <v>       0.00070472       0.00153526      -0.01029208 </v>
   <v>       0.10717032      -0.08075482       0.18591509 </v>
   <v>      -0.05127767       0.06705880       0.01332893 </v>
   <v>      -0.03080017       0.01813833       0.02935412 </v>
  </varray>
  <varray name="stress" >
   <v>      11.94574963       0.19581045       0.07657208 </v>
   <v>       0.19580832      -5.61211773       0.01867826 </v>
   <v>       0.07657079       0.01868004       0.10214691 </v>
  </varray>
  <energy>
   <i name="e_fr_energy">    -49.76141045 </i>
   <i name="e_wo_entrp">    -49.76141045 </i>
   <i name="e_0_energy">     -0.00000000 </i>
  </energy>
  <time name="totalsc">  603.66  604.84</time>
 </calculation>
 <calculation>
  <scstep>
   <time name="dav">   17.08   17.08</time>
   <time name="total">  122.67  122.88</time>
   <energy>
    <i name="alphaZ">     15.92198659 </i>
    <i name="ewald">   1384.89560489 </i>
    <i name="hartreedc">  -2561.46450973 </i>
    <i name="XCdc">   -170.04110541 </i>
    <i name="pawpsdc">   1765.47307292 </i>
    <i name="pawaedc">  -1486.96470653 </i>
    <i name="eentropy">     -0.00000000 </i>
    <i name="bandstr">   -331.31514852 </i>
    <i name="atom">   1333.72818728 </i>
    <i name="e_fr_energy">    -49.76661851 </i>
    <i name="e_wo_entrp">    -49.76661851 </i>
    <i name="e_0_energy">    -49.76661851 </i>
   </energy>
  </scstep>
  <scstep>
   <time name="dav">   21.31   21.41</time>
   <time name="total">  127.42  127.66</time>
   <energy>
    <i name="e_fr_energy">    -49.76719465 </i>
    <i name="e_wo_entrp">    -49.76719465 </i>
    <i name="e_0_energy">    -49.76719465 </i>
   </energy>
  </scstep>
  <scstep>
   <time name="dav">   20.22   20.32</time>
   <time name="total">  124.26  124.77</time>
   <energy>
    <i name="e_fr_energy">    -49.76719665 </i>
    <i name="e_wo_entrp">    -49.76719665 </i>
    <i name="e_0_energy">    -49.76719665 </i>
   </energy>
  </scstep>
  <scstep>
   <time name="dav">   20.11   20.18</time>
   <time name="total">  120.65  121.09</time>
   <energy>
    <i name="alphaZ">     15.92198659 </i>
    <i name="ewald">   1384.89560489 </i>
    <i name="hartreedc">  -2561.46035877 </i>
    <i name="XCdc">   -170.04086654 </i>
    <i name="pawpsdc">   1765.09997555 </i>
    <i name="pawaedc">  -1486.59167161 </i>
    <i name="eentropy">     -0.00000000 </i>
    <i name="bandstr">   -331.32005788 </i>
    <i name="atom">   1333.72818728 </i>
    <i name="e_fr_energy">    -49.76720049 </i>
    <i name="e_wo_entrp">    -49.76720049 </i>
    <i name="e_0_energy">    -49.76720049 </i>
   </energy>
  </scstep>
  <structure>
   <crystal>
    <varray name="basis" >
     <v>       6.01920000       0.00000000       0.00000000 </v>
     <v>       0.00000000      10.14000000       0.00000000 </v>
     <v>       0.00000000       0.00000000      15.00000000 </v>
    </varray>
    <i name="volume">    915.52032000 </i>
    <varray name="rec_basis" >
     <v>       0.16613503       0.00000000       0.00000000 </v>
     <v>       0.00000000       0.09861933       0.00000000 </v>
     <v>       0.00000000       0.00000000       0.06666667 </v>
    </varray>
   </crystal>
   <varray name="positions" >
    <v>       0.44543386       0.88012015       0.23533663 </v>
    <v>       0.94518838       0.88065869       0.26336952 </v>
    <v>       0.44625971       0.62158711       0.23801205 </v>
    <v>       0.94629544       0.62391203       0.27175737 </v>
    <v>       0.44485695       0.37968380       0.27917883 </v>
    <v>       0.94660464       0.38145879       0.24101391 </v>
    <v>       0.44475023       0.12350903       0.26381658 </v>
    <v>       0.94516510       0.12332041       0.23652236 </v>
    <v>       0.19525384       0.00162550       0.24848025 </v>
    <v>       0.69504551       0.00186726       0.24944131 </v>
    <v>       0.19622434       0.50210436       0.25862255 </v>
    <v>       0.69594755       0.50235962       0.25939355 </v>
    <v>       0.53331711       0.42517750       0.46293631 </v>
    <v>       0.74670811       0.34982738       0.46746356 </v>
    <v>       0.43372010       0.33468185       0.53229522 </v>
   </varray>
  </structure>
  <varray name="forces" >
   <v>      -0.00031962       0.06467193      -0.07872521 </v>
   <v>       0.00220728       0.06746506       0.08460052 </v>
   <v>      -0.00696333      -0.07749909      -0.08637917 </v>
   <v>      -0.00565732      -0.07662813       0.08270581 </v>
   <v>       0.00114955       0.07211584      -0.06373316 </v>
   <v>      -0.01027391       0.08571931      -0.09647413 </v>
   <v>       0.00011100      -0.07822497       0.05450974 </v>
   <v>       0.00141731      -0.06050802      -0.08404055 </v>
   <v>       0.00062938       0.00045863       0.01010934 </v>
   <v>       0.00211134       0.00240604       0.00645019 </v>
   <v>      -0.00238707       0.01260156      -0.02084402 </v>
   <v>      -0.00227054      -0.00559962      -0.02467862 </v>
   <v>       0.05551934      -0.06391087       0.16064966 </v>
   <v>      -0.02510915       0.03840422       0.02639284 </v>
   <v>      -0.01016427       0.01852812       0.02945678 </v>
  </varray>
  <varray name="stress" >
   <v>      11.94393767       0.11712730       0.11013027 </v>
   <v>       0.11712514      -5.63667374       0.00043080 </v>
   <v>       0.11012888       0.00043274       0.11633836 </v>
  </varray>
  <energy>
   <i name="e_fr_energy">    -49.76720049 </i>
   <i name="e_wo_entrp">    -49.76720049 </i>
   <i name="e_0_energy">     -0.00000000 </i>
  </energy>
  <time name="totalsc">  728.25  731.23</time>
 </calculation>
 <calculation>
  <scstep>
   <time name="dav">   15.67   15.69</time>
   <time name="total">  116.05  116.18</time>
   <energy>
    <i name="alphaZ">     15.92198659 </i>
    <i name="ewald">   1376.53281051 </i>
    <i name="hartreedc">  -2553.34562718 </i>
    <i name="XCdc">   -170.07117973 </i>
    <i name="pawpsdc">   1765.10328930 </i>
    <i name="pawaedc">  -1486.59515095 </i>
    <i name="eentropy">     -0.00000000 </i>
    <i name="bandstr">   -331.04823575 </i>
    <i name="atom">   1333.72818728 </i>
    <i name="e_fr_energy">    -49.77391992 </i>
    <i name="e_wo_entrp">    -49.77391992 </i>
    <i name="e_0_energy">    -49.77391992 </i>
   </energy>
  </scstep>
  <scstep>
   <time name="dav">   21.16   21.20</time>
   <time name="total">  121.61  121.74</time>
   <energy>
    <i name="e_fr_energy">    -49.77912920 </i>
    <i name="e_wo_entrp">    -49.77912920 </i>
    <i name="e_0_energy">    -49.77912920 </i>
   </energy>
  </scstep>
  <scstep>
   <time name="dav">   21.64   21.67</time>
   <time name="total">  123.07  123.20</time>
   <energy>
    <i name="e_fr_energy">    -49.77915747 </i>
    <i name="e_wo_entrp">    -49.77915747 </i>
    <i name="e_0_energy">    -49.77915747 </i>
   </energy>
  </scstep>
  <scstep>
   <time name="dav">   18.13   18.15</time>
   <time name="total">  119.38  119.48</time>
   <energy>
    <i name="e_fr_energy">    -49.77918487 </i>
    <i name="e_wo_entrp">    -49.77918487 </i>
    <i name="e_0_energy">    -49.77918487 </i>
   </energy>
  </scstep>
  <scstep>
   <time name="dav">   18.77   18.81</time>
   <time name="total">  118.70  118.81</time>
   <energy>
    <i name="e_fr_energy">    -49.77919411 </i>
    <i name="e_wo_entrp">    -49.77919411 </i>
    <i name="e_0_energy">    -49.77919411 </i>
   </energy>
  </scstep>
  <scstep>
   <time name="dav">   21.35   21.37</time>
   <time name="total">  121.44  121.53</time>
   <energy>
    <i name="e_fr_energy">    -49.77920572 </i>
    <i name="e_wo_entrp">    -49.77920572 </i>
    <i name="e_0_energy">    -49.77920572 </i>
   </energy>
  </scstep>
  <scstep>
   <time name="dav">   15.01   15.03</time>
   <time name="total">  114.74  114.83</time>
   <energy>
    <i name="alphaZ">     15.92198659 </i>
    <i name="ewald">   1376.53281051 </i>
    <i name="hartreedc">  -2553.40794694 </i>
    <i name="XCdc">   -170.07225311 </i>
    <i name="pawpsdc">   1764.43733904 </i>
    <i name="pawaedc">  -1485.93107944 </i>
    <i name="eentropy">     -0.00000000 </i>
    <i name="bandstr">   -330.98825295 </i>
    <i name="atom">   1333.72818728 </i>
    <i name="e_fr_energy">    -49.77920903 </i>
    <i name="e_wo_entrp">    -49.77920903 </i>
    <i name="e_0_energy">    -49.77920903 </i>
   </energy>
  </scstep>
  <structure>
   <crystal>
    <varray name="basis" >
     <v>       6.01920000       0.00000000       0.00000000 </v>
     <v>       0.00000000      10.14000000       0.00000000 </v>
     <v>       0.00000000       0.00000000      15.00000000 </v>
    </varray>
    <i name="volume">    915.52032000 </i>
    <varray name="rec_basis" >
     <v>       0.16613503       0.00000000       0.00000000 </v>
     <v>       0.00000000       0.09861933       0.00000000 </v>
     <v>       0.00000000       0.00000000       0.06666667 </v>
    </varray>
   </crystal>
   <varray name="positions" >
    <v>       0.44552320       0.88037113       0.23443917 </v>
    <v>       0.94523578       0.88094266       0.26430243 </v>
    <v>       0.44636598       0.62147844       0.23668892 </v>
    <v>       0.94613847       0.62369749       0.27281935 </v>
    <v>       0.44441599       0.37931656       0.27795937 </v>
    <v>       0.94656806       0.38178934       0.23980249 </v>
    <v>       0.44476188       0.12312370       0.26457138 </v>
    <v>       0.94515402       0.12321482       0.23557895 </v>
    <v>       0.19524582       0.00168400       0.24861881 </v>
    <v>       0.69512590       0.00193271       0.24952777 </v>
    <v>       0.19598565       0.50212723       0.25869440 </v>
    <v>       0.69578709       0.50238793       0.25935614 </v>
    <v>       0.53485948       0.42526200       0.46463116 </v>
    <v>       0.74733400       0.35017370       0.46763937 </v>
    <v>       0.43226956       0.33439179       0.53301030 </v>
   </varray>
  </structure>
  <varray name="forces" >
   <v>      -0.00454712       0.03608796      -0.08246779 </v>
   <v>       0.00166143       0.03189352       0.10003550 </v>
   <v>      -0.02789799      -0.09712283      -0.02936333 </v>
   <v>      -0.00757323      -0.05649346       0.06325189 </v>
   <v>       0.03081827       0.14368973       0.03992480 </v>
   <v>      -0.02788675       0.07883801      -0.08551597 </v>
   <v>      -0.00017580      -0.04889877       0.04028152 </v>
   <v>       0.00477371      -0.03705898      -0.08856842 </v>
   <v>      -0.00258470      -0.00890695       0.00806274 </v>
   <v>       0.00320879      -0.00405157       0.00574252 </v>
   <v>       0.03111927       0.01921357      -0.07758245 </v>
   <v>      -0.01319288      -0.02750082      -0.07594578 </v>
   <v>      -0.09707350       0.00660276       0.08472027 </v>
   <v>       0.05639324      -0.05218514       0.06598713 </v>
   <v>       0.05295726       0.01589296       0.03143736 </v>
  </varray>
  <varray name="stress" >
   <v>      11.86125243      -0.12813778       0.20360347 </v>
   <v>      -0.12813966      -5.78213607      -0.06283049 </v>
   <v>       0.20360205      -0.06282812      -0.05859476 </v>
  </varray>
  <energy>
   <i name="e_fr_energy">    -49.77920903 </i>
   <i name="e_wo_entrp">    -49.77920903 </i>
   <i name="e_0_energy">     -0.00000000 </i>
  </energy>
  <time name="totalsc"> 1057.14 1058.99</time>
 </calculation>
 <calculation>
  <scstep>
   <time name="dav">   17.03   17.05</time>
   <time name="total">  119.89  120.04</time>
   <energy>
    <i name="alphaZ">     15.92198659 </i>
    <i name="ewald">   1359.39522926 </i>
    <i name="hartreedc">  -2536.83401157 </i>
    <i name="XCdc">   -170.13861304 </i>
    <i name="pawpsdc">   1764.43227527 </i>
    <i name="pawaedc">  -1485.92589230 </i>
    <i name="eentropy">     -0.00000000 </i>
    <i name="bandstr">   -330.33844261 </i>
    <i name="atom">   1333.72818728 </i>
    <i name="e_fr_energy">    -49.75928112 </i>
    <i name="e_wo_entrp">    -49.75928112 </i>
    <i name="e_0_energy">    -49.75928112 </i>
   </energy>
  </scstep>
  <scstep>
   <time name="dav">   20.68   20.71</time>
   <time name="total">  125.89  126.11</time>
   <energy>
    <i name="e_fr_energy">    -49.77992910 </i>
    <i name="e_wo_entrp">    -49.77992910 </i>
    <i name="e_0_energy">    -49.77992910 </i>
   </energy>
  </scstep>
  <scstep>
   <time name="dav">   19.89   19.91</time>
   <time name="total">  123.86  123.98</time>
   <energy>
    <i name="e_fr_energy">    -49.78011460 </i>
    <i name="e_wo_entrp">    -49.78011460 </i>
    <i name="e_0_energy">    -49.78011460 </i>
   </energy>
  </scstep>
  <scstep>
   <time name="dav">   19.46   19.50</time>
   <time name="total">  121.46  121.60</time>
   <energy>
    <i name="e_fr_energy">    -49.78012655 </i>
    <i name="e_wo_entrp">    -49.78012655 </i>
    <i name="e_0_energy">    -49.78012655 </i>
   </energy>
  </scstep>
  <scstep>
   <time name="dav">   20.80   20.82</time>
   <time name="total">  127.87  127.97</time>
   <energy>
    <i name="e_fr_energy">    -49.78016309 </i>
    <i name="e_wo_entrp">    -49.78016309 </i>
    <i name="e_0_energy">    -49.78016309 </i>
   </energy>
  </scstep>
  <scstep>
   <time name="dav">   22.10   22.12</time>
   <time name="total">  125.43  125.47</time>
   <energy>
    <i name="e_fr_energy">    -49.78019975 </i>
    <i name="e_wo_entrp">    -49.78019975 </i>
    <i name="e_0_energy">    -49.78019975 </i>
   </energy>
  </scstep>
  <scstep>
   <time name="dav">   19.80   19.83</time>
   <time name="total">  126.02  126.14</time>
   <energy>
    <i name="alphaZ">     15.92198659 </i>
    <i name="ewald">   1359.39522926 </i>
    <i name="hartreedc">  -2536.91167221 </i>
    <i name="XCdc">   -170.14617633 </i>
    <i name="pawpsdc">   1762.50444588 </i>
    <i name="pawaedc">  -1484.00066720 </i>
    <i name="eentropy">     -0.00000000 </i>
    <i name="bandstr">   -330.27154262 </i>
    <i name="atom">   1333.72818728 </i>
    <i name="e_fr_energy">    -49.78020934 </i>
    <i name="e_wo_entrp">    -49.78020934 </i>
    <i name="e_0_energy">    -49.78020934 </i>
   </energy>
  </scstep>
  <structure>
   <crystal>
    <varray name="basis" >
     <v>       6.01920000       0.00000000       0.00000000 </v>
     <v>       0.00000000      10.14000000       0.00000000 </v>
     <v>       0.00000000       0.00000000      15.00000000 </v>
    </varray>
    <i name="volume">    915.52032000 </i>
    <varray name="rec_basis" >
     <v>       0.16613503       0.00000000       0.00000000 </v>
     <v>       0.00000000       0.09861933       0.00000000 </v>
     <v>       0.00000000       0.00000000       0.06666667 </v>
    </varray>
   </crystal>
   <varray name="positions" >
    <v>       0.44570188       0.88087309       0.23264426 </v>
    <v>       0.94533057       0.88151061       0.26616823 </v>
    <v>       0.44657851       0.62126110       0.23404267 </v>
    <v>       0.94582452       0.62326841       0.27494330 </v>
    <v>       0.44353407       0.37858208       0.27552044 </v>
    <v>       0.94649490       0.38245044       0.23737964 </v>
    <v>       0.44478517       0.12235303       0.26608099 </v>
    <v>       0.94513187       0.12300365       0.23369214 </v>
    <v>       0.19522976       0.00180098       0.24889591 </v>
    <v>       0.69528668       0.00206359       0.24970069 </v>
    <v>       0.19550829       0.50217296       0.25883810 </v>
    <v>       0.69546616       0.50244454       0.25928131 </v>
    <v>       0.53794421       0.42543101       0.46802088 </v>
    <v>       0.74858579       0.35086632       0.46799098 </v>
    <v>       0.42936848       0.33381167       0.53444046 </v>
   </varray>
  </structure>
  <varray name="forces" >
   <v>      -0.01377977      -0.01314682      -0.08854743 </v>
   <v>       0.00025800      -0.03090990       0.12734314 </v>
   <v>      -0.06643445      -0.13817358       0.09014217 </v>
   <v>      -0.01162199      -0.02710435       0.02062867 </v>
   <v>       0.08580061       0.27832794       0.22375406 </v>
   <v>      -0.06192399       0.07665997      -0.05706973 </v>
   <v>      -0.00102658       0.00983392       0.01127893 </v>
   <v>       0.01157751      -0.00041377      -0.09409205 </v>
   <v>      -0.01097780      -0.02990845       0.00152308 </v>
   <v>       0.00754996      -0.02179024       0.00234586 </v>
   <v>       0.10234670       0.03132648      -0.18915636 </v>
   <v>      -0.03757272      -0.07444223      -0.17326519 </v>
   <v>      -0.40294118       0.16621566      -0.02780931 </v>
   <v>       0.21862994      -0.23804939       0.13057619 </v>
   <v>       0.18011576       0.01157476       0.02234797 </v>
  </varray>
  <varray name="stress" >
   <v>      11.64577814      -0.61708051       0.38956331 </v>
   <v>      -0.61708187      -6.13492078      -0.13283313 </v>
   <v>       0.38956185      -0.13282992      -0.36925972 </v>
  </varray>
  <energy>
   <i name="e_fr_energy">    -49.78020934 </i>
   <i name="e_wo_entrp">    -49.78020934 </i>
   <i name="e_0_energy">     -0.00000000 </i>
  </energy>
  <time name="totalsc"> 1108.01 1109.93</time>
 </calculation>
 <calculation>
  <scstep>
   <time name="dav">   15.05   15.10</time>
   <time name="total">  119.01  119.33</time>
   <energy>
    <i name="alphaZ">     15.92198659 </i>
    <i name="ewald">   1367.17016903 </i>
    <i name="hartreedc">  -2544.41389154 </i>
    <i name="XCdc">   -170.11452596 </i>
    <i name="pawpsdc">   1762.48959754 </i>
    <i name="pawaedc">  -1483.98550507 </i>
    <i name="eentropy">     -0.00000000 </i>
    <i name="bandstr">   -330.57532824 </i>
    <i name="atom">   1333.72818728 </i>
    <i name="e_fr_energy">    -49.77931036 </i>
    <i name="e_wo_entrp">    -49.77931036 </i>
    <i name="e_0_energy">    -49.77931036 </i>
   </energy>
  </scstep>
  <scstep>
   <time name="dav">   20.61   20.64</time>
   <time name="total">  122.65  122.79</time>
   <energy>
    <i name="e_fr_energy">    -49.78341113 </i>
    <i name="e_wo_entrp">    -49.78341113 </i>
    <i name="e_0_energy">    -49.78341113 </i>
   </energy>
  </scstep>
  <scstep>
   <time name="dav">   20.34   20.38</time>
   <time name="total">  122.00  122.18</time>
   <energy>
    <i name="e_fr_energy">    -49.78346023 </i>
    <i name="e_wo_entrp">    -49.78346023 </i>
    <i name="e_0_energy">    -49.78346023 </i>
   </energy>
  </scstep>
  <scstep>
   <time name="dav">   18.26   18.30</time>
   <time name="total">  120.16  120.30</time>
   <energy>
    <i name="e_fr_energy">    -49.78352539 </i>
    <i name="e_wo_entrp">    -49.78352539 </i>
    <i name="e_0_energy">    -49.78352539 </i>
   </energy>
  </scstep>
  <scstep>
   <time name="dav">   19.41   19.46</time>
   <time name="total">  120.15  120.35</time>
   <energy>
    <i name="alphaZ">     15.92198659 </i>
    <i name="ewald">   1367.17016903 </i>
    <i name="hartreedc">  -2544.39097575 </i>
    <i name="XCdc">   -170.11158764 </i>
    <i name="pawpsdc">   1763.47497507 </i>
    <i name="pawaedc">  -1484.96996677 </i>
    <i name="eentropy">     -0.00000000 </i>
    <i name="bandstr">   -330.60631303 </i>
    <i name="atom">   1333.72818728 </i>
    <i name="e_fr_energy">    -49.78352521 </i>
    <i name="e_wo_entrp">    -49.78352521 </i>
    <i name="e_0_energy">    -49.78352521 </i>
   </energy>
  </scstep>
  <structure>
   <crystal>
    <varray name="basis" >
     <v>       6.01920000       0.00000000       0.00000000 </v>
     <v>       0.00000000      10.14000000       0.00000000 </v>
     <v>       0.00000000       0.00000000      15.00000000 </v>
    </varray>
    <i name="volume">    915.52032000 </i>
    <varray name="rec_basis" >
     <v>       0.16613503       0.00000000       0.00000000 </v>
     <v>       0.00000000       0.09861933       0.00000000 </v>
     <v>       0.00000000       0.00000000       0.06666667 </v>
    </varray>
   </crystal>
   <varray name="positions" >
    <v>       0.44562153       0.88064737       0.23345141 </v>
    <v>       0.94528794       0.88125521       0.26532921 </v>
    <v>       0.44648294       0.62135883       0.23523265 </v>
    <v>       0.94596570       0.62346136       0.27398819 </v>
    <v>       0.44393065       0.37891237       0.27661719 </v>
    <v>       0.94652780       0.38215316       0.23846916 </v>
    <v>       0.44477469       0.12269959       0.26540214 </v>
    <v>       0.94514183       0.12309861       0.23454061 </v>
    <v>       0.19523698       0.00174838       0.24877130 </v>
    <v>       0.69521438       0.00200473       0.24962293 </v>
    <v>       0.19572295       0.50215239       0.25877348 </v>
    <v>       0.69561048       0.50241909       0.25931496 </v>
    <v>       0.53655705       0.42535501       0.46649658 </v>
    <v>       0.74802288       0.35055486       0.46783286 </v>
    <v>       0.43067305       0.33407254       0.53379734 </v>
   </varray>
  </structure>
  <varray name="forces" >
   <v>      -0.00952302       0.00685785      -0.08640973 </v>
   <v>       0.00121237      -0.00497574       0.11708924 </v>
   <v>      -0.04910775      -0.12091161       0.03550557 </v>
   <v>      -0.00975208      -0.03978920       0.04151073 </v>
   <v>       0.06214573       0.21976271       0.14654024 </v>
   <v>      -0.04643692       0.07719250      -0.07107179 </v>
   <v>      -0.00054256      -0.01520873       0.02483992 </v>
   <v>       0.00877009      -0.01451221      -0.09240367 </v>
   <v>      -0.00684127      -0.01997562       0.00565971 </v>
   <v>       0.00579128      -0.01270403       0.00452895 </v>
   <v>       0.06963308       0.02550650      -0.14047397 </v>
   <v>      -0.02624148      -0.05320064      -0.13147301 </v>
   <v>      -0.26810535       0.09011261       0.01396415 </v>
   <v>       0.14528890      -0.15284295       0.10463255 </v>
   <v>       0.12370897       0.01468857       0.02756109 </v>
  </varray>
  <varray name="stress" >
   <v>      11.75696959      -0.39725454       0.31011634 </v>
   <v>      -0.39725608      -5.97163695      -0.10932763 </v>
   <v>       0.31011476      -0.10932478      -0.24271688 </v>
  </varray>
  <energy>
   <i name="e_fr_energy">    -49.78352521 </i>
   <i name="e_wo_entrp">    -49.78352521 </i>
   <i name="e_0_energy">     -0.00000000 </i>
  </energy>
  <time name="totalsc">  830.08  832.42</time>
 </calculation>
 <calculation>
  <scstep>
   <time name="dav">   16.77   16.81</time>
   <time name="total">  118.09  118.40</time>
   <energy>
    <i name="alphaZ">     15.92198659 </i>
    <i name="ewald">   1364.48420875 </i>
    <i name="hartreedc">  -2541.76870450 </i>
    <i name="XCdc">   -170.12440199 </i>
    <i name="pawpsdc">   1763.46518158 </i>
    <i name="pawaedc">  -1484.95991509 </i>
    <i name="eentropy">     -0.00000000 </i>
    <i name="bandstr">   -330.53411658 </i>
    <i name="atom">   1333.72818728 </i>
    <i name="e_fr_energy">    -49.78757395 </i>
    <i name="e_wo_entrp">    -49.78757395 </i>
    <i name="e_0_energy">    -49.78757395 </i>
   </energy>
  </scstep>
  <scstep>
   <time name="dav">   20.49   20.51</time>
   <time name="total">  122.61  122.81</time>
   <energy>
    <i name="e_fr_energy">    -49.78810922 </i>
    <i name="e_wo_entrp">    -49.78810922 </i>
    <i name="e_0_energy">    -49.78810922 </i>
   </energy>
  </scstep>
  <scstep>
   <time name="dav">   20.46   20.48</time>
   <time name="total">  122.32  122.43</time>
   <energy>
    <i name="e_fr_energy">    -49.78808792 </i>
    <i name="e_wo_entrp">    -49.78808792 </i>
    <i name="e_0_energy">    -49.78808792 </i>
   </energy>
  </scstep>
  <scstep>
   <time name="dav">   17.38   17.44</time>
   <time name="total">  118.09  118.30</time>
   <energy>
    <i name="e_fr_energy">    -49.78809378 </i>
    <i name="e_wo_entrp">    -49.78809378 </i>
    <i name="e_0_energy">    -49.78809378 </i>
   </energy>
  </scstep>
  <scstep>
   <time name="dav">   16.96   16.99</time>
   <time name="total">  116.99  117.06</time>
   <energy>
    <i name="alphaZ">     15.92198659 </i>
    <i name="ewald">   1364.48420875 </i>
    <i name="hartreedc">  -2541.81712862 </i>
    <i name="XCdc">   -170.12414284 </i>
    <i name="pawpsdc">   1763.16565233 </i>
    <i name="pawaedc">  -1484.65834926 </i>
    <i name="eentropy">     -0.00000000 </i>
    <i name="bandstr">   -330.48850887 </i>
    <i name="atom">   1333.72818728 </i>
    <i name="e_fr_energy">    -49.78809464 </i>
    <i name="e_wo_entrp">    -49.78809464 </i>
    <i name="e_0_energy">    -49.78809464 </i>
   </energy>
  </scstep>
  <structure>
   <crystal>
    <varray name="basis" >
     <v>       6.01920000       0.00000000       0.00000000 </v>
     <v>       0.00000000      10.14000000       0.00000000 </v>
     <v>       0.00000000       0.00000000      15.00000000 </v>
    </varray>
    <i name="volume">    915.52032000 </i>
    <varray name="rec_basis" >
     <v>       0.16613503       0.00000000       0.00000000 </v>
     <v>       0.00000000       0.09861933       0.00000000 </v>
     <v>       0.00000000       0.00000000       0.06666667 </v>
    </varray>
   </crystal>
   <varray name="positions" >
    <v>       0.44562235       0.88072994       0.23310375 </v>
    <v>       0.94530469       0.88132895       0.26571909 </v>
    <v>       0.44638553       0.62114076       0.23489032 </v>
    <v>       0.94589529       0.62333833       0.27433611 </v>
    <v>       0.44396604       0.37914677       0.27642062 </v>
    <v>       0.94639638       0.38236728       0.23804749 </v>
    <v>       0.44477662       0.12256558       0.26564455 </v>
    <v>       0.94516150       0.12304590       0.23417351 </v>
    <v>       0.19521687       0.00173427       0.24881695 </v>
    <v>       0.69525251       0.00200386       0.24965246 </v>
    <v>       0.19583584       0.50219838       0.25864729 </v>
    <v>       0.69549613       0.50234496       0.25916684 </v>
    <v>       0.53630117       0.42551854       0.46699720 </v>
    <v>       0.74858072       0.35041790       0.46799262 </v>
    <v>       0.43057924       0.33401207       0.53403120 </v>
   </varray>
  </structure>
  <varray name="forces" >
   <v>      -0.00788037      -0.01061770      -0.08438302 </v>
   <v>      -0.00085405      -0.01255396       0.11743213 </v>
   <v>      -0.03923217      -0.06682963       0.03174486 </v>
   <v>      -0.00892395      -0.02507401       0.03333917 </v>
   <v>       0.05656852       0.15798429       0.16678510 </v>
   <v>      -0.03294409       0.04796474      -0.07185601 </v>
   <v>      -0.00018532       0.01288849       0.02610263 </v>
   <v>       0.00790390      -0.00521483      -0.09146731 </v>
   <v>      -0.00742360      -0.02259010       0.00045687 </v>
   <v>       0.00582009      -0.01767400       0.00061997 </v>
   <v>       0.02726134       0.02257778      -0.13822822 </v>
   <v>      -0.00178365      -0.03237927      -0.12787684 </v>
   <v>      -0.16175107       0.04797886      -0.00703884 </v>
   <v>       0.04694768      -0.09715487       0.10308870 </v>
   <v>       0.11647672       0.00069423       0.04128083 </v>
  </varray>
  <varray name="stress" >
   <v>      11.52492255      -0.25491310       0.27484448 </v>
   <v>      -0.25491488      -5.95516859      -0.16587995 </v>
   <v>       0.27484335      -0.16587709      -0.19179790 </v>
  </varray>
  <energy>
   <i name="e_fr_energy">    -49.78809464 </i>
   <i name="e_wo_entrp">    -49.78809464 </i>
   <i name="e_0_energy">     -0.00000000 </i>
  </energy>
  <time name="totalsc">  824.13  826.55</time>
 </calculation>
 <calculation>
  <scstep>
   <time name="dav">   15.81   15.88</time>
   <time name="total">  115.37  115.81</time>
   <energy>
    <i name="alphaZ">     15.92198659 </i>
    <i name="ewald">   1356.60779387 </i>
    <i name="hartreedc">  -2534.16029356 </i>
    <i name="XCdc">   -170.16285275 </i>
    <i name="pawpsdc">   1763.15935674 </i>
    <i name="pawaedc">  -1484.65202395 </i>
    <i name="eentropy">     -0.00000000 </i>
    <i name="bandstr">   -330.23175937 </i>
    <i name="atom">   1333.72818728 </i>
    <i name="e_fr_energy">    -49.78960515 </i>
    <i name="e_wo_entrp">    -49.78960515 </i>
    <i name="e_0_energy">    -49.78960515 </i>
   </energy>
  </scstep>
  <scstep>
   <time name="dav">   20.51   20.51</time>
   <time name="total">  121.04  121.07</time>
   <energy>
    <i name="e_fr_energy">    -49.79423695 </i>
    <i name="e_wo_entrp">    -49.79423695 </i>
    <i name="e_0_energy">    -49.79423695 </i>
   </energy>
  </scstep>
  <scstep>
   <time name="dav">   23.31   23.31</time>
   <time name="total">  124.63  124.63</time>
   <energy>
    <i name="e_fr_energy">    -49.79411309 </i>
    <i name="e_wo_entrp">    -49.79411309 </i>
    <i name="e_0_energy">    -49.79411309 </i>
   </energy>
  </scstep>
  <scstep>
   <time name="dav">   18.07   18.07</time>
   <time name="total">  118.76  118.76</time>
   <energy>
    <i name="e_fr_energy">    -49.79415506 </i>
    <i name="e_wo_entrp">    -49.79415506 </i>
    <i name="e_0_energy">    -49.79415506 </i>
   </energy>
  </scstep>
  <scstep>
   <time name="dav">   19.03   19.09</time>
   <time name="total">  119.03  119.10</time>
   <energy>
    <i name="e_fr_energy">    -49.79416508 </i>
    <i name="e_wo_entrp">    -49.79416508 </i>
    <i name="e_0_energy">    -49.79416508 </i>
   </energy>
  </scstep>
  <scstep>
   <time name="dav">   20.77   20.86</time>
   <time name="total">  119.88  120.17</time>
   <energy>
    <i name="alphaZ">     15.92198659 </i>
    <i name="ewald">   1356.60779387 </i>
    <i name="hartreedc">  -2534.30591788 </i>
    <i name="XCdc">   -170.16358831 </i>
    <i name="pawpsdc">   1762.23154809 </i>
    <i name="pawaedc">  -1483.71779684 </i>
    <i name="eentropy">     -0.00000000 </i>
    <i name="bandstr">   -330.09638663 </i>
    <i name="atom">   1333.72818728 </i>
    <i name="e_fr_energy">    -49.79417383 </i>
    <i name="e_wo_entrp">    -49.79417383 </i>
    <i name="e_0_energy">    -49.79417383 </i>
   </energy>
  </scstep>
  <structure>
   <crystal>
    <varray name="basis" >
     <v>       6.01920000       0.00000000       0.00000000 </v>
     <v>       0.00000000      10.14000000       0.00000000 </v>
     <v>       0.00000000       0.00000000      15.00000000 </v>
    </varray>
    <i name="volume">    915.52032000 </i>
    <varray name="rec_basis" >
     <v>       0.16613503       0.00000000       0.00000000 </v>
     <v>       0.00000000       0.09861933       0.00000000 </v>
     <v>       0.00000000       0.00000000       0.06666667 </v>
    </varray>
   </crystal>
   <varray name="positions" >
    <v>       0.44562474       0.88096995       0.23209323 </v>
    <v>       0.94535338       0.88154329       0.26685234 </v>
    <v>       0.44610239       0.62050690       0.23389531 </v>
    <v>       0.94569063       0.62298073       0.27534737 </v>
    <v>       0.44406888       0.37982811       0.27584926 </v>
    <v>       0.94601440       0.38298964       0.23682187 </v>
    <v>       0.44478222       0.12217606       0.26634915 </v>
    <v>       0.94521865       0.12289268       0.23310649 </v>
    <v>       0.19515839       0.00169327       0.24894962 </v>
    <v>       0.69536336       0.00200133       0.24973828 </v>
    <v>       0.19616396       0.50233204       0.25828050 </v>
    <v>       0.69516375       0.50212952       0.25873632 </v>
    <v>       0.53555741       0.42599387       0.46845232 </v>
    <v>       0.75020214       0.35001981       0.46845697 </v>
    <v>       0.43030657       0.33383630       0.53471095 </v>
   </varray>
  </structure>
  <varray name="forces" >
   <v>      -0.00356117      -0.05965834      -0.07833087 </v>
   <v>      -0.00717329      -0.03143380       0.12324580 </v>
   <v>      -0.01079987       0.08975041       0.01691036 </v>
   <v>      -0.00578531       0.01463134       0.01191376 </v>
   <v>       0.03904725      -0.02504020       0.22831094 </v>
   <v>       0.00715032      -0.03336225      -0.07759661 </v>
   <v>       0.00083653       0.09407126       0.03171962 </v>
   <v>       0.00474883       0.01843553      -0.08782688 </v>
   <v>      -0.00925084      -0.02853457      -0.00551465 </v>
   <v>       0.00620080      -0.02948712      -0.00508018 </v>
   <v>      -0.09383470       0.01672375      -0.14688316 </v>
   <v>       0.06617837       0.02435366      -0.13590542 </v>
   <v>       0.13448143      -0.06905390      -0.07002040 </v>
   <v>      -0.22428116       0.05739752       0.10963449 </v>
   <v>       0.09604281      -0.03879329       0.08542321 </v>
  </varray>
  <varray name="stress" >
   <v>      10.83865227       0.15011403       0.20351240 </v>
   <v>       0.15011134      -5.97191321      -0.34912546 </v>
   <v>       0.20351168      -0.34912283      -0.14462469 </v>
  </varray>
  <energy>
   <i name="e_fr_energy">    -49.79417383 </i>
   <i name="e_wo_entrp">    -49.79417383 </i>
   <i name="e_0_energy">     -0.00000000 </i>
  </energy>
  <time name="totalsc">  943.41  945.40</time>
 </calculation>
 <calculation>
  <scstep>
   <time name="dav">   15.82   15.82</time>
   <time name="total">  119.38  119.38</time>
   <energy>
    <i name="alphaZ">     15.92198659 </i>
    <i name="ewald">   1352.81492585 </i>
    <i name="hartreedc">  -2530.72776443 </i>
    <i name="XCdc">   -170.18350999 </i>
    <i name="pawpsdc">   1762.22110616 </i>
    <i name="pawaedc">  -1483.70726699 </i>
    <i name="eentropy">     -0.00000000 </i>
    <i name="bandstr">   -329.86795821 </i>
    <i name="atom">   1333.72818728 </i>
    <i name="e_fr_energy">    -49.80029374 </i>
    <i name="e_wo_entrp">    -49.80029374 </i>
    <i name="e_0_energy">    -49.80029374 </i>
   </energy>
  </scstep>
  <scstep>
   <time name="dav">   21.34   21.34</time>
   <time name="total">  125.37  125.63</time>
   <energy>
    <i name="e_fr_energy">    -49.80106131 </i>
    <i name="e_wo_entrp">    -49.80106131 </i>
    <i name="e_0_energy">    -49.80106131 </i>
   </energy>
  </scstep>
  <scstep>
   <time name="dav">   22.43   22.45</time>
   <time name="total">  127.15  127.24</time>
   <energy>
    <i name="e_fr_energy">    -49.80098877 </i>
    <i name="e_wo_entrp">    -49.80098877 </i>
    <i name="e_0_energy">    -49.80098877 </i>
   </energy>
  </scstep>
  <scstep>
   <time name="dav">   17.75   17.77</time>
   <time name="total">  120.42  120.52</time>
   <energy>
    <i name="e_fr_energy">    -49.80102391 </i>
    <i name="e_wo_entrp">    -49.80102391 </i>
    <i name="e_0_energy">    -49.80102391 </i>
   </energy>
  </scstep>
  <scstep>
   <time name="dav">   20.28   20.37</time>
   <time name="total">  121.69  122.16</time>
   <energy>
    <i name="alphaZ">     15.92198659 </i>
    <i name="ewald">   1352.81492585 </i>
    <i name="hartreedc">  -2530.76907795 </i>
    <i name="XCdc">   -170.18674976 </i>
    <i name="pawpsdc">   1761.22637977 </i>
    <i name="pawaedc">  -1482.71155000 </i>
    <i name="eentropy">     -0.00000000 </i>
    <i name="bandstr">   -329.82513053 </i>
    <i name="atom">   1333.72818728 </i>
    <i name="e_fr_energy">    -49.80102875 </i>
    <i name="e_wo_entrp">    -49.80102875 </i>
    <i name="e_0_energy">    -49.80102875 </i>
   </energy>
  </scstep>
  <structure>
   <crystal>
    <varray name="basis" >
     <v>       6.01920000       0.00000000       0.00000000 </v>
     <v>       0.00000000      10.14000000       0.00000000 </v>
     <v>       0.00000000       0.00000000      15.00000000 </v>
    </varray>
    <i name="volume">    915.52032000 </i>
    <varray name="rec_basis" >
     <v>       0.16613503       0.00000000       0.00000000 </v>
     <v>       0.00000000       0.09861933       0.00000000 </v>
     <v>       0.00000000       0.00000000       0.06666667 </v>
    </varray>
   </crystal>
   <varray name="positions" >
    <v>       0.44561107       0.88092422       0.23154234 </v>
    <v>       0.94534414       0.88155585       0.26752864 </v>
    <v>       0.44593983       0.62046193       0.23350826 </v>
    <v>       0.94558145       0.62286735       0.27578883 </v>
    <v>       0.44427258       0.38005106       0.27598825 </v>
    <v>       0.94588452       0.38316766       0.23618247 </v>
    <v>       0.44478800       0.12224355       0.26669543 </v>
    <v>       0.94526204       0.12287384       0.23251634 </v>
    <v>       0.19509591       0.00160642       0.24899585 </v>
    <v>       0.69543512       0.00192819       0.24976568 </v>
    <v>       0.19591440       0.50242867       0.25788480 </v>
    <v>       0.69529765       0.50209919       0.25833218 </v>
    <v>       0.53580100       0.42602331       0.46894351 </v>
    <v>       0.74995481       0.34999408       0.46883180 </v>
    <v>       0.43058835       0.33366816       0.53513562 </v>
   </varray>
  </structure>
  <varray name="forces" >
   <v>      -0.00091315      -0.02481203      -0.06302470 </v>
   <v>      -0.00817095      -0.00902815       0.11643797 </v>
   <v>      -0.00218295       0.09252628       0.00524509 </v>
   <v>      -0.00401327       0.02409464       0.00290395 </v>
   <v>       0.01319231      -0.03329395       0.22078229 </v>
   <v>       0.02132765      -0.05293393      -0.08565224 </v>
   <v>       0.00166877       0.05446613       0.02941909 </v>
   <v>       0.00169892      -0.00958334      -0.08173613 </v>
   <v>       0.00641430      -0.01506484      -0.01046608 </v>
   <v>      -0.00900080      -0.01816556      -0.01024549 </v>
   <v>      -0.05737543       0.00033781      -0.12484189 </v>
   <v>       0.03143964       0.04223462      -0.11279898 </v>
   <v>       0.09714253      -0.06273702      -0.06287268 </v>
   <v>      -0.18953370       0.03962858       0.10407787 </v>
   <v>       0.09830612      -0.02766925       0.07277192 </v>
  </varray>
  <varray name="stress" >
   <v>      10.74824935       0.12655004       0.17988407 </v>
   <v>       0.12654755      -6.26192616      -0.31580231 </v>
   <v>       0.17988330      -0.31579967      -0.19756373 </v>
  </varray>
  <energy>
   <i name="e_fr_energy">    -49.80102875 </i>
   <i name="e_wo_entrp">    -49.80102875 </i>
   <i name="e_0_energy">     -0.00000000 </i>
  </energy>
  <time name="totalsc">  844.17  847.41</time>
 </calculation>
 <calculation>
  <scstep>
   <time name="dav">   17.07   17.07</time>
   <time name="total">  119.93  119.94</time>
   <energy>
    <i name="alphaZ">     15.92198659 </i>
    <i name="ewald">   1341.19676873 </i>
    <i name="hartreedc">  -2519.83420794 </i>
    <i name="XCdc">   -170.25012778 </i>
    <i name="pawpsdc">   1761.19057137 </i>
    <i name="pawaedc">  -1482.67576233 </i>
    <i name="eentropy">     -0.00000000 </i>
    <i name="bandstr">   -329.08728001 </i>
    <i name="atom">   1333.72818728 </i>
    <i name="e_fr_energy">    -49.80986408 </i>
    <i name="e_wo_entrp">    -49.80986408 </i>
    <i name="e_0_energy">    -49.80986408 </i>
   </energy>
  </scstep>
  <scstep>
   <time name="dav">   20.32   20.32</time>
   <time name="total">  125.77  125.77</time>
   <energy>
    <i name="e_fr_energy">    -49.81694231 </i>
    <i name="e_wo_entrp">    -49.81694231 </i>
    <i name="e_0_energy">    -49.81694231 </i>
   </energy>
  </scstep>
  <scstep>
   <time name="dav">   21.57   21.57</time>
   <time name="total">  127.29  127.30</time>
   <energy>
    <i name="e_fr_energy">    -49.81618571 </i>
    <i name="e_wo_entrp">    -49.81618571 </i>
    <i name="e_0_energy">    -49.81618571 </i>
   </energy>
  </scstep>
  <scstep>
   <time name="dav">   19.24   19.30</time>
   <time name="total">  126.18  126.69</time>
   <energy>
    <i name="e_fr_energy">    -49.81632643 </i>
    <i name="e_wo_entrp">    -49.81632643 </i>
    <i name="e_0_energy">    -49.81632643 </i>
   </energy>
  </scstep>
  <scstep>
   <time name="dav">   19.73   19.87</time>
   <time name="total">  127.61  128.16</time>
   <energy>
    <i name="e_fr_energy">    -49.81632476 </i>
    <i name="e_wo_entrp">    -49.81632476 </i>
    <i name="e_0_energy">    -49.81632476 </i>
   </energy>
  </scstep>
  <scstep>
   <time name="dav">   20.68   20.72</time>
   <time name="total">  128.46  128.53</time>
   <energy>
    <i name="e_fr_energy">    -49.81635971 </i>
    <i name="e_wo_entrp">    -49.81635971 </i>
    <i name="e_0_energy">    -49.81635971 </i>
   </energy>
  </scstep>
  <scstep>
   <time name="dav">   13.56   13.56</time>
   <time name="total">  112.90  113.02</time>
   <energy>
    <i name="alphaZ">     15.92198659 </i>
    <i name="ewald">   1341.19676873 </i>
    <i name="hartreedc">  -2519.92962114 </i>
    <i name="XCdc">   -170.26268327 </i>
    <i name="pawpsdc">   1757.86978660 </i>
    <i name="pawaedc">  -1479.35175309 </i>
    <i name="eentropy">     -0.00000000 </i>
    <i name="bandstr">   -328.98902759 </i>
    <i name="atom">   1333.72818728 </i>
    <i name="e_fr_energy">    -49.81635589 </i>
    <i name="e_wo_entrp">    -49.81635589 </i>
    <i name="e_0_energy">    -49.81635589 </i>
   </energy>
  </scstep>
  <structure>
   <crystal>
    <varray name="basis" >
     <v>       6.01920000       0.00000000       0.00000000 </v>
     <v>       0.00000000      10.14000000       0.00000000 </v>
     <v>       0.00000000       0.00000000      15.00000000 </v>
    </varray>
    <i name="volume">    915.52032000 </i>
    <varray name="rec_basis" >
     <v>       0.16613503       0.00000000       0.00000000 </v>
     <v>       0.00000000       0.09861933       0.00000000 </v>
     <v>       0.00000000       0.00000000       0.06666667 </v>
    </varray>
   </crystal>
   <varray name="positions" >
    <v>       0.44557006       0.88078703       0.22988964 </v>
    <v>       0.94531643       0.88159352       0.26955756 </v>
    <v>       0.44545214       0.62032701       0.23234712 </v>
    <v>       0.94525391       0.62252720       0.27711321 </v>
    <v>       0.44488365       0.38071993       0.27640519 </v>
    <v>       0.94549491       0.38370171       0.23426427 </v>
    <v>       0.44480534       0.12244605       0.26773428 </v>
    <v>       0.94539221       0.12281733       0.23074587 </v>
    <v>       0.19490846       0.00134586       0.24913452 </v>
    <v>       0.69565041       0.00170878       0.24984788 </v>
    <v>       0.19516572       0.50271856       0.25669771 </v>
    <v>       0.69569934       0.50200822       0.25711977 </v>
    <v>       0.53653177       0.42611165       0.47041706 </v>
    <v>       0.74921280       0.34991690       0.46995631 </v>
    <v>       0.43143369       0.33316374       0.53640961 </v>
   </varray>
  </structure>
  <varray name="forces" >
   <v>       0.00614809       0.07687209      -0.01317990 </v>
   <v>      -0.01127955       0.05904266       0.09427845 </v>
   <v>       0.02466937       0.09557930      -0.02861703 </v>
   <v>       0.00030598       0.04016921      -0.02819453 </v>
   <v>      -0.06166014      -0.05581411       0.19461770 </v>
   <v>       0.06274394      -0.10466670      -0.10820455 </v>
   <v>       0.00356369      -0.06257480       0.02172944 </v>
   <v>      -0.00796411      -0.09550587      -0.05862247 </v>
   <v>       0.05161850       0.02042751      -0.02322189 </v>
   <v>      -0.05247449       0.01402828      -0.02563047 </v>
   <v>       0.05165082      -0.04358159      -0.06405070 </v>
   <v>      -0.07132402       0.09447517      -0.05855545 </v>
   <v>      -0.01627526      -0.02545943      -0.03286090 </v>
   <v>      -0.08482459      -0.01610361       0.09031232 </v>
   <v>       0.10510178       0.00311188       0.04019998 </v>
  </varray>
  <varray name="stress" >
   <v>      10.45335889       0.06037800       0.11374353 </v>
   <v>       0.06037597      -7.18080368      -0.21739569 </v>
   <v>       0.11374243      -0.21739287      -0.38240398 </v>
  </varray>
  <energy>
   <i name="e_fr_energy">    -49.81635589 </i>
   <i name="e_wo_entrp">    -49.81635589 </i>
   <i name="e_0_energy">     -0.00000000 </i>
  </energy>
  <time name="totalsc"> 1094.61 1101.51</time>
 </calculation>
 <calculation>
  <scstep>
   <time name="dav">   15.91   15.99</time>
   <time name="total">  117.04  117.36</time>
   <energy>
    <i name="alphaZ">     15.92198659 </i>
    <i name="ewald">   1316.90288888 </i>
    <i name="hartreedc">  -2497.19100528 </i>
    <i name="XCdc">   -170.40661897 </i>
    <i name="pawpsdc">   1757.81961342 </i>
    <i name="pawaedc">  -1479.30154171 </i>
    <i name="eentropy">     -0.00000000 </i>
    <i name="bandstr">   -327.26830395 </i>
    <i name="atom">   1333.72818728 </i>
    <i name="e_fr_energy">    -49.79479374 </i>
    <i name="e_wo_entrp">    -49.79479374 </i>
    <i name="e_0_energy">    -49.79479374 </i>
   </energy>
  </scstep>
  <scstep>
   <time name="dav">   19.78   19.88</time>
   <time name="total">  120.86  121.33</time>
   <energy>
    <i name="e_fr_energy">    -49.82404537 </i>
    <i name="e_wo_entrp">    -49.82404537 </i>
    <i name="e_0_energy">    -49.82404537 </i>
   </energy>
  </scstep>
  <scstep>
   <time name="dav">   20.59   20.61</time>
   <time name="total">  121.66  121.94</time>
   <energy>
    <i name="e_fr_energy">    -49.82081786 </i>
    <i name="e_wo_entrp">    -49.82081786 </i>
    <i name="e_0_energy">    -49.82081786 </i>
   </energy>
  </scstep>
  <scstep>
   <time name="dav">   19.66   19.70</time>
   <time name="total">  122.87  123.22</time>
   <energy>
    <i name="e_fr_energy">    -49.82114531 </i>
    <i name="e_wo_entrp">    -49.82114531 </i>
    <i name="e_0_energy">    -49.82114531 </i>
   </energy>
  </scstep>
  <scstep>
   <time name="dav">   20.24   20.29</time>
   <time name="total">  122.59  122.83</time>
   <energy>
    <i name="e_fr_energy">    -49.82114194 </i>
    <i name="e_wo_entrp">    -49.82114194 </i>
    <i name="e_0_energy">    -49.82114194 </i>
   </energy>
  </scstep>
  <scstep>
   <time name="dav">   20.73   20.77</time>
   <time name="total">  125.20  125.44</time>
   <energy>
    <i name="e_fr_energy">    -49.82124817 </i>
    <i name="e_wo_entrp">    -49.82124817 </i>
    <i name="e_0_energy">    -49.82124817 </i>
   </energy>
  </scstep>
  <scstep>
   <time name="dav">   22.10   22.11</time>
   <time name="total">  126.71  126.72</time>
   <energy>
    <i name="e_fr_energy">    -49.82123748 </i>
    <i name="e_wo_entrp">    -49.82123748 </i>
    <i name="e_0_energy">    -49.82123748 </i>
   </energy>
  </scstep>
  <scstep>
   <time name="dav">   22.00   22.00</time>
   <time name="total">  126.52  126.53</time>
   <energy>
    <i name="e_fr_energy">    -49.82127581 </i>
    <i name="e_wo_entrp">    -49.82127581 </i>
    <i name="e_0_energy">    -49.82127581 </i>
   </energy>
  </scstep>
  <scstep>
   <time name="dav">   14.09   14.09</time>
   <time name="total">  119.33  119.34</time>
   <energy>
    <i name="alphaZ">     15.92198659 </i>
    <i name="ewald">   1316.90288888 </i>
    <i name="hartreedc">  -2497.35276438 </i>
    <i name="XCdc">   -170.43973069 </i>
    <i name="pawpsdc">   1749.98603228 </i>
    <i name="pawaedc">  -1471.45907804 </i>
    <i name="eentropy">     -0.00000000 </i>
    <i name="bandstr">   -327.10880221 </i>
    <i name="atom">   1333.72818728 </i>
    <i name="e_fr_energy">    -49.82128027 </i>
    <i name="e_wo_entrp">    -49.82128027 </i>
    <i name="e_0_energy">    -49.82128027 </i>
   </energy>
  </scstep>
  <structure>
   <crystal>
    <varray name="basis" >
     <v>       6.01920000       0.00000000       0.00000000 </v>
     <v>       0.00000000      10.14000000       0.00000000 </v>
     <v>       0.00000000       0.00000000      15.00000000 </v>
    </varray>
    <i name="volume">    915.52032000 </i>
    <varray name="rec_basis" >
     <v>       0.16613503       0.00000000       0.00000000 </v>
     <v>       0.00000000       0.09861933       0.00000000 </v>
     <v>       0.00000000       0.00000000       0.06666667 </v>
    </varray>
   </crystal>
   <varray name="positions" >
    <v>       0.44548804       0.88051264       0.22658426 </v>
    <v>       0.94526102       0.88166885       0.27361540 </v>
    <v>       0.44447677       0.62005718       0.23002482 </v>
    <v>       0.94459883       0.62184692       0.27976197 </v>
    <v>       0.44610580       0.38205766       0.27723908 </v>
    <v>       0.94471569       0.38476982       0.23042787 </v>
    <v>       0.44484002       0.12285103       0.26981198 </v>
    <v>       0.94565256       0.12270431       0.22720493 </v>
    <v>       0.19453357       0.00082475       0.24941186 </v>
    <v>       0.69608100       0.00126995       0.25001228 </v>
    <v>       0.19366836       0.50329833       0.25432352 </v>
    <v>       0.69650272       0.50182627       0.25469494 </v>
    <v>       0.53799333       0.42628832       0.47336417 </v>
    <v>       0.74772878       0.34976255       0.47220533 </v>
    <v>       0.43312437       0.33215490       0.53895760 </v>
   </varray>
  </structure>
  <varray name="forces" >
   <v>       0.01907781       0.28838802       0.10412581 </v>
   <v>      -0.01898599       0.22549184       0.02671505 </v>
   <v>       0.07416628       0.10367531      -0.09942345 </v>
   <v>       0.01188257       0.03814207      -0.10020562 </v>
   <v>      -0.20881092      -0.10086969       0.13569558 </v>
   <v>       0.15342100      -0.19595461      -0.15005545 </v>
   <v>       0.00718044      -0.30140201      -0.00652545 </v>
   <v>      -0.02725327      -0.29176107       0.01044918 </v>
   <v>       0.13038932       0.08647039      -0.05403295 </v>
   <v>      -0.12761511       0.07441545      -0.05892223 </v>
   <v>       0.25207603      -0.11669961       0.06039230 </v>
   <v>      -0.27232191       0.21054451       0.05844420 </v>
   <v>      -0.24315094       0.05085261       0.03403919 </v>
   <v>       0.13288169      -0.13548390       0.06192129 </v>
   <v>       0.11706301       0.06419070      -0.02261747 </v>
  </varray>
  <varray name="stress" >
   <v>       9.81976237      -0.09148748      -0.04226624 </v>
   <v>      -0.09148833      -9.18870998      -0.00377892 </v>
   <v>      -0.04226801      -0.00377589      -0.78932360 </v>
  </varray>
  <energy>
   <i name="e_fr_energy">    -49.82128027 </i>
   <i name="e_wo_entrp">    -49.82128027 </i>
   <i name="e_0_energy">     -0.00000000 </i>
  </energy>
  <time name="totalsc"> 1343.98 1347.23</time>
 </calculation>
 <calculation>
  <scstep>
   <time name="dav">   16.31   16.34</time>
   <time name="total">  124.01  124.53</time>
   <energy>
    <i name="alphaZ">     15.92198659 </i>
    <i name="ewald">   1326.11767716 </i>
    <i name="hartreedc">  -2505.97193976 </i>
    <i name="XCdc">   -170.38139401 </i>
    <i name="pawpsdc">   1749.99726845 </i>
    <i name="pawaedc">  -1471.47028692 </i>
    <i name="eentropy">     -0.00000000 </i>
    <i name="bandstr">   -327.76151516 </i>
    <i name="atom">   1333.72818728 </i>
    <i name="e_fr_energy">    -49.82001636 </i>
    <i name="e_wo_entrp">    -49.82001636 </i>
    <i name="e_0_energy">    -49.82001636 </i>
   </energy>
  </scstep>
  <scstep>
   <time name="dav">   19.82   19.94</time>
   <time name="total">  127.18  127.50</time>
   <energy>
    <i name="e_fr_energy">    -49.82400843 </i>
    <i name="e_wo_entrp">    -49.82400843 </i>
    <i name="e_0_energy">    -49.82400843 </i>
   </energy>
  </scstep>
  <scstep>
   <time name="dav">   19.61   19.68</time>
   <time name="total">  124.96  125.37</time>
   <energy>
    <i name="e_fr_energy">    -49.82361278 </i>
    <i name="e_wo_entrp">    -49.82361278 </i>
    <i name="e_0_energy">    -49.82361278 </i>
   </energy>
  </scstep>
  <scstep>
   <time name="dav">   18.47   18.47</time>
   <time name="total">  119.59  119.60</time>
   <energy>
    <i name="e_fr_energy">    -49.82369635 </i>
    <i name="e_wo_entrp">    -49.82369635 </i>
    <i name="e_0_energy">    -49.82369635 </i>
   </energy>
  </scstep>
  <scstep>
   <time name="dav">   18.35   18.35</time>
   <time name="total">  120.12  120.12</time>
   <energy>
    <i name="e_fr_energy">    -49.82370244 </i>
    <i name="e_wo_entrp">    -49.82370244 </i>
    <i name="e_0_energy">    -49.82370244 </i>
   </energy>
  </scstep>
  <scstep>
   <time name="dav">   17.00   17.00</time>
   <time name="total">  118.69  118.69</time>
   <energy>
    <i name="e_fr_energy">    -49.82371808 </i>
    <i name="e_wo_entrp">    -49.82371808 </i>
    <i name="e_0_energy">    -49.82371808 </i>
   </energy>
  </scstep>
  <scstep>
   <time name="dav">   13.16   13.16</time>
   <time name="total">  113.69  113.69</time>
   <energy>
    <i name="alphaZ">     15.92198659 </i>
    <i name="ewald">   1326.11767716 </i>
    <i name="hartreedc">  -2506.09067906 </i>
    <i name="XCdc">   -170.36772415 </i>
    <i name="pawpsdc">   1753.07828571 </i>
    <i name="pawaedc">  -1474.55510061 </i>
    <i name="eentropy">     -0.00000000 </i>
    <i name="bandstr">   -327.65635657 </i>
    <i name="atom">   1333.72818728 </i>
    <i name="e_fr_energy">    -49.82372365 </i>
    <i name="e_wo_entrp">    -49.82372365 </i>
    <i name="e_0_energy">    -49.82372365 </i>
   </energy>
  </scstep>
  <structure>
   <crystal>
    <varray name="basis" >
     <v>       6.01920000       0.00000000       0.00000000 </v>
     <v>       0.00000000      10.14000000       0.00000000 </v>
     <v>       0.00000000       0.00000000      15.00000000 </v>
    </varray>
    <i name="volume">    915.52032000 </i>
    <varray name="rec_basis" >
     <v>       0.16613503       0.00000000       0.00000000 </v>
     <v>       0.00000000       0.09861933       0.00000000 </v>
     <v>       0.00000000       0.00000000       0.06666667 </v>
    </varray>
   </crystal>
   <varray name="positions" >
    <v>       0.44551860       0.88061488       0.22781590 </v>
    <v>       0.94528167       0.88164078       0.27210338 </v>
    <v>       0.44484021       0.62015773       0.23089014 </v>
    <v>       0.94484292       0.62210040       0.27877500 </v>
    <v>       0.44565041       0.38155920       0.27692836 </v>
    <v>       0.94500604       0.38437182       0.23185737 </v>
    <v>       0.44482710       0.12270013       0.26903780 </v>
    <v>       0.94555555       0.12274643       0.22852434 </v>
    <v>       0.19467326       0.00101893       0.24930852 </v>
    <v>       0.69592056       0.00143347       0.24995102 </v>
    <v>       0.19422630       0.50308230       0.25520818 </v>
    <v>       0.69620337       0.50189407       0.25559847 </v>
    <v>       0.53744873       0.42622249       0.47226603 </v>
    <v>       0.74828175       0.34982006       0.47136731 </v>
    <v>       0.43249440       0.33253081       0.53800818 </v>
   </varray>
  </structure>
  <varray name="forces" >
   <v>       0.01382445       0.20849596       0.05754189 </v>
   <v>      -0.01653217       0.15954525       0.05623811 </v>
   <v>       0.05519055       0.10059516      -0.07293620 </v>
   <v>       0.00723447       0.04443640      -0.07068184 </v>
   <v>      -0.15545390      -0.08515536       0.15809292 </v>
   <v>       0.11830493      -0.16409730      -0.13545098 </v>
   <v>       0.00544949      -0.21246575       0.00661859 </v>
   <v>      -0.02098873      -0.21587033      -0.01928948 </v>
   <v>       0.10186112       0.06224731      -0.04186066 </v>
   <v>      -0.10190688       0.05214837      -0.04615558 </v>
   <v>       0.17987730      -0.09178046       0.01277192 </v>
   <v>      -0.19836963       0.16607083       0.01286740 </v>
   <v>      -0.15054700       0.02496971       0.00769898 </v>
   <v>       0.04980389      -0.09007039       0.07330658 </v>
   <v>       0.11225210       0.04093060       0.00123835 </v>
  </varray>
  <varray name="stress" >
   <v>      10.05827068      -0.02772584       0.01867939 </v>
   <v>      -0.02772721      -8.40941570      -0.08518908 </v>
   <v>       0.01867790      -0.08518621      -0.66822524 </v>
  </varray>
  <energy>
   <i name="e_fr_energy">    -49.82372365 </i>
   <i name="e_wo_entrp">    -49.82372365 </i>
   <i name="e_0_energy">     -0.00000000 </i>
  </energy>
  <time name="totalsc"> 1072.01 1074.27</time>
 </calculation>
 <calculation>
  <scstep>
   <time name="dav">   16.93   16.94</time>
   <time name="total">  120.18  120.20</time>
   <energy>
    <i name="alphaZ">     15.92198659 </i>
    <i name="ewald">   1321.58022165 </i>
    <i name="hartreedc">  -2501.79752546 </i>
    <i name="XCdc">   -170.39404548 </i>
    <i name="pawpsdc">   1753.07407984 </i>
    <i name="pawaedc">  -1474.55072568 </i>
    <i name="eentropy">     -0.00000000 </i>
    <i name="bandstr">   -327.39148306 </i>
    <i name="atom">   1333.72818728 </i>
    <i name="e_fr_energy">    -49.82930432 </i>
    <i name="e_wo_entrp">    -49.82930432 </i>
    <i name="e_0_energy">    -49.82930432 </i>
   </energy>
  </scstep>
  <scstep>
   <time name="dav">   20.77   20.77</time>
   <time name="total">  125.95  125.99</time>
   <energy>
    <i name="e_fr_energy">    -49.83022312 </i>
    <i name="e_wo_entrp">    -49.83022312 </i>
    <i name="e_0_energy">    -49.83022312 </i>
   </energy>
  </scstep>
  <scstep>
   <time name="dav">   23.29   23.31</time>
   <time name="total">  126.53  126.58</time>
   <energy>
    <i name="e_fr_energy">    -49.83012344 </i>
    <i name="e_wo_entrp">    -49.83012344 </i>
    <i name="e_0_energy">    -49.83012344 </i>
   </energy>
  </scstep>
  <scstep>
   <time name="dav">   16.96   16.98</time>
   <time name="total">  119.23  119.42</time>
   <energy>
    <i name="e_fr_energy">    -49.83015429 </i>
    <i name="e_wo_entrp">    -49.83015429 </i>
    <i name="e_0_energy">    -49.83015429 </i>
   </energy>
  </scstep>
  <scstep>
   <time name="dav">   20.30   20.30</time>
   <time name="total">  124.10  124.12</time>
   <energy>
    <i name="alphaZ">     15.92198659 </i>
    <i name="ewald">   1321.58022165 </i>
    <i name="hartreedc">  -2501.81133096 </i>
    <i name="XCdc">   -170.39876750 </i>
    <i name="pawpsdc">   1751.80651253 </i>
    <i name="pawaedc">  -1473.28094000 </i>
    <i name="eentropy">     -0.00000000 </i>
    <i name="bandstr">   -327.37602406 </i>
    <i name="atom">   1333.72818728 </i>
    <i name="e_fr_energy">    -49.83015447 </i>
    <i name="e_wo_entrp">    -49.83015447 </i>
    <i name="e_0_energy">    -49.83015447 </i>
   </energy>
  </scstep>
  <structure>
   <crystal>
    <varray name="basis" >
     <v>       6.01920000       0.00000000       0.00000000 </v>
     <v>       0.00000000      10.14000000       0.00000000 </v>
     <v>       0.00000000       0.00000000      15.00000000 </v>
    </varray>
    <i name="volume">    915.52032000 </i>
    <varray name="rec_basis" >
     <v>       0.16613503       0.00000000       0.00000000 </v>
     <v>       0.00000000       0.09861933       0.00000000 </v>
     <v>       0.00000000       0.00000000       0.06666667 </v>
    </varray>
   </crystal>
   <varray name="positions" >
    <v>       0.44553593       0.88085316       0.22727190 </v>
    <v>       0.94523319       0.88187471       0.27288965 </v>
    <v>       0.44479222       0.62024784       0.23040212 </v>
    <v>       0.94474129       0.62203875       0.27918799 </v>
    <v>       0.44550980       0.38168351       0.27722672 </v>
    <v>       0.94514033       0.38433838       0.23103720 </v>
    <v>       0.44484605       0.12247998       0.26941969 </v>
    <v>       0.94555381       0.12242791       0.22786603 </v>
    <v>       0.19484241       0.00101065       0.24931959 </v>
    <v>       0.69576137       0.00142612       0.24993766 </v>
    <v>       0.19437396       0.50306040       0.25479078 </v>
    <v>       0.69588721       0.50209048       0.25517200 </v>
    <v>       0.53736282       0.42628891       0.47280614 </v>
    <v>       0.74812925       0.34966778       0.47184242 </v>
    <v>       0.43306124       0.33240490       0.53847009 </v>
   </varray>
  </structure>
  <varray name="forces" >
   <v>       0.01040928       0.17206591       0.06091805 </v>
   <v>      -0.01046279       0.15115579       0.04191635 </v>
   <v>       0.04741226       0.09619275      -0.08252937 </v>
   <v>       0.01530980       0.00793942      -0.08819833 </v>
   <v>      -0.13877571      -0.08130592       0.13864266 </v>
   <v>       0.08951878      -0.11315690      -0.12045874 </v>
   <v>       0.00319888      -0.16552703       0.01575970 </v>
   <v>      -0.01942603      -0.19658617      -0.01527528 </v>
   <v>       0.05859756       0.05620428      -0.04231123 </v>
   <v>      -0.06201289       0.04934906      -0.04643413 </v>
   <v>       0.12611320      -0.08062035       0.03207138 </v>
   <v>      -0.13336396       0.12588669       0.03334327 </v>
   <v>      -0.12094843       0.01832236       0.00086706 </v>
   <v>       0.03989737      -0.07458305       0.06347951 </v>
   <v>       0.09453266       0.03466315       0.00820910 </v>
  </varray>
  <varray name="stress" >
   <v>       9.85336690       0.03103109       0.03713909 </v>
   <v>       0.03102975      -8.71087742      -0.08474686 </v>
   <v>       0.03713760      -0.08474402      -0.67090078 </v>
  </varray>
  <energy>
   <i name="e_fr_energy">    -49.83015447 </i>
   <i name="e_wo_entrp">    -49.83015447 </i>
   <i name="e_0_energy">     -0.00000000 </i>
  </energy>
  <time name="totalsc">  845.51  846.83</time>
 </calculation>
 <calculation>
  <scstep>
   <time name="dav">   17.83   17.90</time>
   <time name="total">  119.35  119.50</time>
   <energy>
    <i name="alphaZ">     15.92198659 </i>
    <i name="ewald">   1307.67404911 </i>
    <i name="hartreedc">  -2488.73210039 </i>
    <i name="XCdc">   -170.48160869 </i>
    <i name="pawpsdc">   1751.76040170 </i>
    <i name="pawaedc">  -1473.23487781 </i>
    <i name="eentropy">     -0.00000000 </i>
    <i name="bandstr">   -326.46892152 </i>
    <i name="atom">   1333.72818728 </i>
    <i name="e_fr_energy">    -49.83288373 </i>
    <i name="e_wo_entrp">    -49.83288373 </i>
    <i name="e_0_energy">    -49.83288373 </i>
   </energy>
  </scstep>
  <scstep>
   <time name="dav">   22.00   22.02</time>
   <time name="total">  129.88  130.00</time>
   <energy>
    <i name="e_fr_energy">    -49.84141839 </i>
    <i name="e_wo_entrp">    -49.84141839 </i>
    <i name="e_0_energy">    -49.84141839 </i>
   </energy>
  </scstep>
  <scstep>
   <time name="dav">   23.57   23.60</time>
   <time name="total">  127.61  127.73</time>
   <energy>
    <i name="e_fr_energy">    -49.84047359 </i>
    <i name="e_wo_entrp">    -49.84047359 </i>
    <i name="e_0_energy">    -49.84047359 </i>
   </energy>
  </scstep>
  <scstep>
   <time name="dav">   18.75   18.76</time>
   <time name="total">  121.36  121.47</time>
   <energy>
    <i name="e_fr_energy">    -49.84063624 </i>
    <i name="e_wo_entrp">    -49.84063624 </i>
    <i name="e_0_energy">    -49.84063624 </i>
   </energy>
  </scstep>
  <scstep>
   <time name="dav">   20.67   20.80</time>
   <time name="total">  128.02  128.39</time>
   <energy>
    <i name="e_fr_energy">    -49.84065150 </i>
    <i name="e_wo_entrp">    -49.84065150 </i>
    <i name="e_0_energy">    -49.84065150 </i>
   </energy>
  </scstep>
  <scstep>
   <time name="dav">   21.53   21.67</time>
   <time name="total">  126.89  127.38</time>
   <energy>
    <i name="e_fr_energy">    -49.84067820 </i>
    <i name="e_wo_entrp">    -49.84067820 </i>
    <i name="e_0_energy">    -49.84067820 </i>
   </energy>
  </scstep>
  <scstep>
   <time name="dav">   15.54   15.64</time>
   <time name="total">  125.78  125.99</time>
   <energy>
    <i name="alphaZ">     15.92198659 </i>
    <i name="ewald">   1307.67404911 </i>
    <i name="hartreedc">  -2488.86425615 </i>
    <i name="XCdc">   -170.49812361 </i>
    <i name="pawpsdc">   1747.47738171 </i>
    <i name="pawaedc">  -1468.94456656 </i>
    <i name="eentropy">     -0.00000000 </i>
    <i name="bandstr">   -326.33534018 </i>
    <i name="atom">   1333.72818728 </i>
    <i name="e_fr_energy">    -49.84068180 </i>
    <i name="e_wo_entrp">    -49.84068180 </i>
    <i name="e_0_energy">    -49.84068180 </i>
   </energy>
  </scstep>
  <structure>
   <crystal>
    <varray name="basis" >
     <v>       6.01920000       0.00000000       0.00000000 </v>
     <v>       0.00000000      10.14000000       0.00000000 </v>
     <v>       0.00000000       0.00000000      15.00000000 </v>
    </varray>
    <i name="volume">    915.52032000 </i>
    <varray name="rec_basis" >
     <v>       0.16613503       0.00000000       0.00000000 </v>
     <v>       0.00000000       0.09861933       0.00000000 </v>
     <v>       0.00000000       0.00000000       0.06666667 </v>
    </varray>
   </crystal>
   <varray name="positions" >
    <v>       0.44558791       0.88156801       0.22563990 </v>
    <v>       0.94508776       0.88257649       0.27524847 </v>
    <v>       0.44464824       0.62051817       0.22893806 </v>
    <v>       0.94443640       0.62185378       0.28042698 </v>
    <v>       0.44508796       0.38205646       0.27812181 </v>
    <v>       0.94554320       0.38423804       0.22857669 </v>
    <v>       0.44490289       0.12181954       0.27056535 </v>
    <v>       0.94554858       0.12147236       0.22589110 </v>
    <v>       0.19534987       0.00098581       0.24935282 </v>
    <v>       0.69528380       0.00140409       0.24989760 </v>
    <v>       0.19481693       0.50299472       0.25353858 </v>
    <v>       0.69493871       0.50267973       0.25389259 </v>
    <v>       0.53710511       0.42648819       0.47442648 </v>
    <v>       0.74767174       0.34921092       0.47326777 </v>
    <v>       0.43476176       0.33202717       0.53985581 </v>
   </varray>
  </structure>
  <varray name="forces" >
   <v>       0.00049639       0.06850612       0.07168529 </v>
   <v>       0.00570880       0.13663573      -0.00389609 </v>
   <v>       0.02223414       0.08301357      -0.11254072 </v>
   <v>       0.03934245      -0.10472746      -0.14497363 </v>
   <v>      -0.09132483      -0.06988543       0.07830066 </v>
   <v>       0.00951084       0.03496709      -0.07577373 </v>
   <v>      -0.00297919      -0.03372496       0.04376745 </v>
   <v>      -0.01421038      -0.15067097       0.00004389 </v>
   <v>      -0.06790334       0.03750240      -0.04137637 </v>
   <v>       0.05885304       0.03634144      -0.04621387 </v>
   <v>      -0.02953153      -0.04654530       0.08442856 </v>
   <v>       0.05805815       0.01658853       0.08538804 </v>
   <v>      -0.04338590       0.00712682      -0.01324339 </v>
   <v>       0.01089418      -0.03047425       0.04016180 </v>
   <v>       0.04423717       0.01534668       0.03424210 </v>
  </varray>
  <varray name="stress" >
   <v>       9.22015872       0.18465078       0.10655933 </v>
   <v>       0.18464927      -9.68337190      -0.09354267 </v>
   <v>       0.10655806      -0.09354008      -0.81038911 </v>
  </varray>
  <energy>
   <i name="e_fr_energy">    -49.84068180 </i>
   <i name="e_wo_entrp">    -49.84068180 </i>
   <i name="e_0_energy">     -0.00000000 </i>
  </energy>
  <time name="totalsc"> 1121.89 1125.11</time>
 </calculation>
 <calculation>
  <scstep>
   <time name="dav">   16.68   16.72</time>
   <time name="total">  125.17  125.47</time>
   <energy>
    <i name="alphaZ">     15.92198659 </i>
    <i name="ewald">   1303.48371471 </i>
    <i name="hartreedc">  -2484.97382987 </i>
    <i name="XCdc">   -170.52412317 </i>
    <i name="pawpsdc">   1747.43495753 </i>
    <i name="pawaedc">  -1468.90203113 </i>
    <i name="eentropy">     -0.00000000 </i>
    <i name="bandstr">   -326.00945271 </i>
    <i name="atom">   1333.72818728 </i>
    <i name="e_fr_energy">    -49.84059076 </i>
    <i name="e_wo_entrp">    -49.84059076 </i>
    <i name="e_0_energy">    -49.84059076 </i>
   </energy>
  </scstep>
  <scstep>
   <time name="dav">   19.69   19.71</time>
   <time name="total">  121.30  121.42</time>
   <energy>
    <i name="e_fr_energy">    -49.84132077 </i>
    <i name="e_wo_entrp">    -49.84132077 </i>
    <i name="e_0_energy">    -49.84132077 </i>
   </energy>
  </scstep>
  <scstep>
   <time name="dav">   20.29   20.40</time>
   <time name="total">  122.18  122.55</time>
   <energy>
    <i name="e_fr_energy">    -49.84124317 </i>
    <i name="e_wo_entrp">    -49.84124317 </i>
    <i name="e_0_energy">    -49.84124317 </i>
   </energy>
  </scstep>
  <scstep>
   <time name="dav">   17.11   17.19</time>
   <time name="total">  118.67  119.10</time>
   <energy>
    <i name="e_fr_energy">    -49.84127242 </i>
    <i name="e_wo_entrp">    -49.84127242 </i>
    <i name="e_0_energy">    -49.84127242 </i>
   </energy>
  </scstep>
  <scstep>
   <time name="dav">   17.81   17.84</time>
   <time name="total">  118.65  118.80</time>
   <energy>
    <i name="alphaZ">     15.92198659 </i>
    <i name="ewald">   1303.48371471 </i>
    <i name="hartreedc">  -2485.01769195 </i>
    <i name="XCdc">   -170.52881798 </i>
    <i name="pawpsdc">   1746.13900517 </i>
    <i name="pawaedc">  -1467.60361539 </i>
    <i name="eentropy">     -0.00000000 </i>
    <i name="bandstr">   -325.96405001 </i>
    <i name="atom">   1333.72818728 </i>
    <i name="e_fr_energy">    -49.84128157 </i>
    <i name="e_wo_entrp">    -49.84128157 </i>
    <i name="e_0_energy">    -49.84128157 </i>
   </energy>
  </scstep>
  <structure>
   <crystal>
    <varray name="basis" >
     <v>       6.01920000       0.00000000       0.00000000 </v>
     <v>       0.00000000      10.14000000       0.00000000 </v>
     <v>       0.00000000       0.00000000      15.00000000 </v>
    </varray>
    <i name="volume">    915.52032000 </i>
    <varray name="rec_basis" >
     <v>       0.16613503       0.00000000       0.00000000 </v>
     <v>       0.00000000       0.09861933       0.00000000 </v>
     <v>       0.00000000       0.00000000       0.06666667 </v>
    </varray>
   </crystal>
   <varray name="positions" >
    <v>       0.44560326       0.88177913       0.22515792 </v>
    <v>       0.94504481       0.88278376       0.27594511 </v>
    <v>       0.44460571       0.62059801       0.22850567 </v>
    <v>       0.94434636       0.62179915       0.28079290 </v>
    <v>       0.44496338       0.38216661       0.27838616 </v>
    <v>       0.94566218       0.38420841       0.22785001 </v>
    <v>       0.44491968       0.12162449       0.27090370 </v>
    <v>       0.94554703       0.12119015       0.22530783 </v>
    <v>       0.19549974       0.00097848       0.24936264 </v>
    <v>       0.69514275       0.00139758       0.24988576 </v>
    <v>       0.19494776       0.50297533       0.25316876 </v>
    <v>       0.69465859       0.50285375       0.25351473 </v>
    <v>       0.53702900       0.42654705       0.47490502 </v>
    <v>       0.74753662       0.34907600       0.47368873 </v>
    <v>       0.43526399       0.33191562       0.54026507 </v>
   </varray>
  </structure>
  <varray name="forces" >
   <v>      -0.00318913       0.03798765       0.07472849 </v>
   <v>       0.01069415       0.13465798      -0.01896817 </v>
   <v>       0.01481448       0.07784728      -0.12074846 </v>
   <v>       0.04470096      -0.14036347      -0.16409948 </v>
   <v>      -0.07684085      -0.06389535       0.05931437 </v>
   <v>      -0.01366379       0.07987159      -0.06124544 </v>
   <v>      -0.00547442       0.00516491       0.05195101 </v>
   <v>      -0.01263317      -0.13881523       0.00527284 </v>
   <v>      -0.10658315       0.03191058      -0.04143807 </v>
   <v>       0.09646967       0.03215963      -0.04635952 </v>
   <v>      -0.07611687      -0.03670388       0.10300619 </v>
   <v>       0.11534603      -0.01479242       0.10352728 </v>
   <v>      -0.01832129       0.00267392      -0.01853227 </v>
   <v>       0.00208684      -0.01706186       0.03226911 </v>
   <v>       0.02871053       0.00935865       0.04132213 </v>
  </varray>
  <varray name="stress" >
   <v>       9.03659839       0.23124343       0.12242277 </v>
   <v>       0.23124192      -9.97910401      -0.09337094 </v>
   <v>       0.12242161      -0.09336827      -0.85568369 </v>
  </varray>
  <energy>
   <i name="e_fr_energy">    -49.84128157 </i>
   <i name="e_wo_entrp">    -49.84128157 </i>
   <i name="e_0_energy">     -0.00000000 </i>
  </energy>
  <time name="totalsc">  831.21  834.20</time>
 </calculation>
 <calculation>
  <scstep>
   <time name="dav">   17.15   17.15</time>
   <time name="total">  120.05  120.05</time>
   <energy>
    <i name="alphaZ">     15.92198659 </i>
    <i name="ewald">   1301.50788221 </i>
    <i name="hartreedc">  -2483.08249109 </i>
    <i name="XCdc">   -170.53566842 </i>
    <i name="pawpsdc">   1746.09479400 </i>
    <i name="pawaedc">  -1467.55949322 </i>
    <i name="eentropy">     -0.00000000 </i>
    <i name="bandstr">   -325.92002554 </i>
    <i name="atom">   1333.72818728 </i>
    <i name="e_fr_energy">    -49.84482819 </i>
    <i name="e_wo_entrp">    -49.84482819 </i>
    <i name="e_0_energy">    -49.84482819 </i>
   </energy>
  </scstep>
  <scstep>
   <time name="dav">   22.42   22.42</time>
   <time name="total">  127.97  127.98</time>
   <energy>
    <i name="e_fr_energy">    -49.84522089 </i>
    <i name="e_wo_entrp">    -49.84522089 </i>
    <i name="e_0_energy">    -49.84522089 </i>
   </energy>
  </scstep>
  <scstep>
   <time name="dav">   18.89   18.92</time>
   <time name="total">  123.03  123.06</time>
   <energy>
    <i name="e_fr_energy">    -49.84514723 </i>
    <i name="e_wo_entrp">    -49.84514723 </i>
    <i name="e_0_energy">    -49.84514723 </i>
   </energy>
  </scstep>
  <scstep>
   <time name="dav">   17.55   17.63</time>
   <time name="total">  121.78  121.91</time>
   <energy>
    <i name="e_fr_energy">    -49.84515828 </i>
    <i name="e_wo_entrp">    -49.84515828 </i>
    <i name="e_0_energy">    -49.84515828 </i>
   </energy>
  </scstep>
  <scstep>
   <time name="dav">   19.06   19.08</time>
   <time name="total">  122.02  122.14</time>
   <energy>
    <i name="alphaZ">     15.92198659 </i>
    <i name="ewald">   1301.50788221 </i>
    <i name="hartreedc">  -2483.19266600 </i>
    <i name="XCdc">   -170.53448222 </i>
    <i name="pawpsdc">   1746.04422526 </i>
    <i name="pawaedc">  -1467.50859918 </i>
    <i name="eentropy">     -0.00000000 </i>
    <i name="bandstr">   -325.81169527 </i>
    <i name="atom">   1333.72818728 </i>
    <i name="e_fr_energy">    -49.84516134 </i>
    <i name="e_wo_entrp">    -49.84516134 </i>
    <i name="e_0_energy">    -49.84516134 </i>
   </energy>
  </scstep>
  <structure>
   <crystal>
    <varray name="basis" >
     <v>       6.01920000       0.00000000       0.00000000 </v>
     <v>       0.00000000      10.14000000       0.00000000 </v>
     <v>       0.00000000       0.00000000      15.00000000 </v>
    </varray>
    <i name="volume">    915.52032000 </i>
    <varray name="rec_basis" >
     <v>       0.16613503       0.00000000       0.00000000 </v>
     <v>       0.00000000       0.09861933       0.00000000 </v>
     <v>       0.00000000       0.00000000       0.06666667 </v>
    </varray>
   </crystal>
   <varray name="positions" >
    <v>       0.44559896       0.88199450       0.22500300 </v>
    <v>       0.94506417       0.88323413       0.27631673 </v>
    <v>       0.44464235       0.62083525       0.22805517 </v>
    <v>       0.94447905       0.62142309       0.28073239 </v>
    <v>       0.44457363       0.38207354       0.27863752 </v>
    <v>       0.94567454       0.38438727       0.22732795 </v>
    <v>       0.44490676       0.12152430       0.27118566 </v>
    <v>       0.94549391       0.12068620       0.22497909 </v>
    <v>       0.19514584       0.00105254       0.24929957 </v>
    <v>       0.69545996       0.00147274       0.24980201 </v>
    <v>       0.19470878       0.50287403       0.25312565 </v>
    <v>       0.69497335       0.50291814       0.25346784 </v>
    <v>       0.53690921       0.42658766       0.47515117 </v>
    <v>       0.74746707       0.34895606       0.47398583 </v>
    <v>       0.43567328       0.33187404       0.54057042 </v>
   </varray>
  </structure>
  <varray name="forces" >
   <v>      -0.00542076       0.03028768       0.06855744 </v>
   <v>       0.01026208       0.02447131      -0.00989618 </v>
   <v>       0.01351171      -0.00024308      -0.08969726 </v>
   <v>       0.04085791      -0.05353575      -0.13183857 </v>
   <v>      -0.03797946      -0.01074634       0.03946409 </v>
   <v>      -0.02641346       0.02010163      -0.06168504 </v>
   <v>      -0.00753034       0.01639476       0.04560375 </v>
   <v>      -0.00912469      -0.01849591      -0.02028139 </v>
   <v>      -0.01169434       0.02194699      -0.03120161 </v>
   <v>       0.00131285       0.01924633      -0.03405796 </v>
   <v>       0.01166972      -0.01737379       0.08242352 </v>
   <v>       0.00545011      -0.03236857       0.08909254 </v>
   <v>       0.00777144      -0.00966382      -0.01426625 </v>
   <v>      -0.01202038      -0.00092141       0.02617380 </v>
   <v>       0.01934762       0.01089996       0.04160912 </v>
  </varray>
  <varray name="stress" >
   <v>       8.97239570       0.22041752       0.14046664 </v>
   <v>       0.22041600      -9.97571444      -0.02747407 </v>
   <v>       0.14046535      -0.02747153      -0.88422144 </v>
  </varray>
  <energy>
   <i name="e_fr_energy">    -49.84516134 </i>
   <i name="e_wo_entrp">    -49.84516134 </i>
   <i name="e_0_energy">     -0.00000000 </i>
  </energy>
  <time name="totalsc">  847.47  849.81</time>
 </calculation>
 <calculation>
  <scstep>
   <time name="dav">   16.23   16.25</time>
   <time name="total">  116.46  116.63</time>
   <energy>
    <i name="alphaZ">     15.92198659 </i>
    <i name="ewald">   1300.16167331 </i>
    <i name="hartreedc">  -2481.87148449 </i>
    <i name="XCdc">   -170.53939269 </i>
    <i name="pawpsdc">   1746.03379230 </i>
    <i name="pawaedc">  -1467.49811786 </i>
    <i name="eentropy">     -0.00000000 </i>
    <i name="bandstr">   -325.78264339 </i>
    <i name="atom">   1333.72818728 </i>
    <i name="e_fr_energy">    -49.84599894 </i>
    <i name="e_wo_entrp">    -49.84599894 </i>
    <i name="e_0_energy">    -49.84599894 </i>
   </energy>
  </scstep>
  <scstep>
   <time name="dav">   21.61   21.76</time>
   <time name="total">  127.03  127.26</time>
   <energy>
    <i name="e_fr_energy">    -49.84619353 </i>
    <i name="e_wo_entrp">    -49.84619353 </i>
    <i name="e_0_energy">    -49.84619353 </i>
   </energy>
  </scstep>
  <scstep>
   <time name="dav">   19.14   19.18</time>
   <time name="total">  122.36  122.52</time>
   <energy>
    <i name="e_fr_energy">    -49.84615934 </i>
    <i name="e_wo_entrp">    -49.84615934 </i>
    <i name="e_0_energy">    -49.84615934 </i>
   </energy>
  </scstep>
  <scstep>
   <time name="dav">   18.05   18.07</time>
   <time name="total">  120.61  120.69</time>
   <energy>
    <i name="e_fr_energy">    -49.84616833 </i>
    <i name="e_wo_entrp">    -49.84616833 </i>
    <i name="e_0_energy">    -49.84616833 </i>
   </energy>
  </scstep>
  <scstep>
   <time name="dav">   17.46   17.48</time>
   <time name="total">  121.20  121.29</time>
   <energy>
    <i name="alphaZ">     15.92198659 </i>
    <i name="ewald">   1300.16167331 </i>
    <i name="hartreedc">  -2481.95482675 </i>
    <i name="XCdc">   -170.53832463 </i>
    <i name="pawpsdc">   1746.01768050 </i>
    <i name="pawaedc">  -1467.48183941 </i>
    <i name="eentropy">     -0.00000000 </i>
    <i name="bandstr">   -325.70070534 </i>
    <i name="atom">   1333.72818728 </i>
    <i name="e_fr_energy">    -49.84616845 </i>
    <i name="e_wo_entrp">    -49.84616845 </i>
    <i name="e_0_energy">    -49.84616845 </i>
   </energy>
  </scstep>
  <structure>
   <crystal>
    <varray name="basis" >
     <v>       6.01920000       0.00000000       0.00000000 </v>
     <v>       0.00000000      10.14000000       0.00000000 </v>
     <v>       0.00000000       0.00000000      15.00000000 </v>
    </varray>
    <i name="volume">    915.52032000 </i>
    <varray name="rec_basis" >
     <v>       0.16613503       0.00000000       0.00000000 </v>
     <v>       0.00000000       0.09861933       0.00000000 </v>
     <v>       0.00000000       0.00000000       0.06666667 </v>
    </varray>
   </crystal>
   <varray name="positions" >
    <v>       0.44559604       0.88214085       0.22489774 </v>
    <v>       0.94507732       0.88354016       0.27656924 </v>
    <v>       0.44466725       0.62099645       0.22774906 </v>
    <v>       0.94456922       0.62116756       0.28069128 </v>
    <v>       0.44430880       0.38201030       0.27880831 </v>
    <v>       0.94568294       0.38450880       0.22697321 </v>
    <v>       0.44489798       0.12145623       0.27137725 </v>
    <v>       0.94545782       0.12034377       0.22475571 </v>
    <v>       0.19490536       0.00110287       0.24925672 </v>
    <v>       0.69567549       0.00152381       0.24974510 </v>
    <v>       0.19454640       0.50280520       0.25309636 </v>
    <v>       0.69518723       0.50296190       0.25343598 </v>
    <v>       0.53682782       0.42661526       0.47531842 </v>
    <v>       0.74741981       0.34887456       0.47418771 </v>
    <v>       0.43595138       0.33184578       0.54077790 </v>
   </varray>
  </structure>
  <varray name="forces" >
   <v>      -0.00702450       0.02530388       0.06429914 </v>
   <v>       0.00983719      -0.04871970      -0.00403610 </v>
   <v>       0.01261596      -0.05175580      -0.06872136 </v>
   <v>       0.03824318       0.00498436      -0.10974431 </v>
   <v>      -0.01235493       0.02423500       0.02624304 </v>
   <v>      -0.03496584      -0.01993199      -0.06198537 </v>
   <v>      -0.00896268       0.02409744       0.04102761 </v>
   <v>      -0.00671976       0.06206600      -0.03801194 </v>
   <v>       0.05179252       0.01559272      -0.02463954 </v>
   <v>      -0.06124252       0.01087593      -0.02564203 </v>
   <v>       0.06902965      -0.00549838       0.06967631 </v>
   <v>      -0.06654280      -0.04539911       0.08083472 </v>
   <v>       0.02468340      -0.01781059      -0.01317902 </v>
   <v>      -0.02144201       0.00999123       0.02206658 </v>
   <v>       0.01305314       0.01196900       0.04181228 </v>
  </varray>
  <varray name="stress" >
   <v>       8.93402076       0.21648982       0.15152099 </v>
   <v>       0.21648822      -9.95705610       0.01726878 </v>
   <v>       0.15151981       0.01727131      -0.89491003 </v>
  </varray>
  <energy>
   <i name="e_fr_energy">    -49.84616845 </i>
   <i name="e_wo_entrp">    -49.84616845 </i>
   <i name="e_0_energy">     -0.00000000 </i>
  </energy>
  <time name="totalsc">  841.73  894.88</time>
 </calculation>
 <calculation>
  <scstep>
   <time name="dav">   16.64   16.70</time>
   <time name="total">  121.96  122.21</time>
   <energy>
    <i name="alphaZ">     15.92198659 </i>
    <i name="ewald">   1299.86538370 </i>
    <i name="hartreedc">  -2481.67511602 </i>
    <i name="XCdc">   -170.53945702 </i>
    <i name="pawpsdc">   1746.00854687 </i>
    <i name="pawaedc">  -1467.47266046 </i>
    <i name="eentropy">     -0.00000000 </i>
    <i name="bandstr">   -325.68307808 </i>
    <i name="atom">   1333.72818728 </i>
    <i name="e_fr_energy">    -49.84620713 </i>
    <i name="e_wo_entrp">    -49.84620713 </i>
    <i name="e_0_energy">    -49.84620713 </i>
   </energy>
  </scstep>
  <scstep>
   <time name="dav">   21.31   21.38</time>
   <time name="total">  127.29  127.57</time>
   <energy>
    <i name="e_fr_energy">    -49.84622216 </i>
    <i name="e_wo_entrp">    -49.84622216 </i>
    <i name="e_0_energy">    -49.84622216 </i>
   </energy>
  </scstep>
  <scstep>
   <time name="dav">   14.87   14.89</time>
   <time name="total">  120.78  120.99</time>
   <energy>
    <i name="alphaZ">     15.92198659 </i>
    <i name="ewald">   1299.86538370 </i>
    <i name="hartreedc">  -2481.69203657 </i>
    <i name="XCdc">   -170.53918934 </i>
    <i name="pawpsdc">   1746.01106255 </i>
    <i name="pawaedc">  -1467.47517772 </i>
    <i name="eentropy">     -0.00000000 </i>
    <i name="bandstr">   -325.66643686 </i>
    <i name="atom">   1333.72818728 </i>
    <i name="e_fr_energy">    -49.84622037 </i>
    <i name="e_wo_entrp">    -49.84622037 </i>
    <i name="e_0_energy">    -49.84622037 </i>
   </energy>
  </scstep>
  <structure>
   <crystal>
    <varray name="basis" >
     <v>       6.01920000       0.00000000       0.00000000 </v>
     <v>       0.00000000      10.14000000       0.00000000 </v>
     <v>       0.00000000       0.00000000      15.00000000 </v>
    </varray>
    <i name="volume">    915.52032000 </i>
    <varray name="rec_basis" >
     <v>       0.16613503       0.00000000       0.00000000 </v>
     <v>       0.00000000       0.09861933       0.00000000 </v>
     <v>       0.00000000       0.00000000       0.06666667 </v>
    </varray>
   </crystal>
   <varray name="positions" >
    <v>       0.44559540       0.88217302       0.22487460 </v>
    <v>       0.94508022       0.88360743       0.27662475 </v>
    <v>       0.44467272       0.62103188       0.22768178 </v>
    <v>       0.94458904       0.62111139       0.28068225 </v>
    <v>       0.44425059       0.38199640       0.27884585 </v>
    <v>       0.94568478       0.38453551       0.22689524 </v>
    <v>       0.44489606       0.12144127       0.27141937 </v>
    <v>       0.94544988       0.12026851       0.22470661 </v>
    <v>       0.19485251       0.00111393       0.24924730 </v>
    <v>       0.69572287       0.00153503       0.24973259 </v>
    <v>       0.19451071       0.50279007       0.25308993 </v>
    <v>       0.69523424       0.50297152       0.25342898 </v>
    <v>       0.53680993       0.42662133       0.47535518 </v>
    <v>       0.74740942       0.34885665       0.47423208 </v>
    <v>       0.43601251       0.33183957       0.54082350 </v>
   </varray>
  </structure>
  <varray name="forces" >
   <v>      -0.00743299       0.02508371       0.06381077 </v>
   <v>       0.00967262      -0.06241725      -0.00336144 </v>
   <v>       0.01120288      -0.06086678      -0.06480343 </v>
   <v>       0.03851996       0.01822022      -0.10418673 </v>
   <v>      -0.00849048       0.02931316       0.02444982 </v>
   <v>      -0.03534430      -0.02924291      -0.06220475 </v>
   <v>      -0.00937743       0.02460989       0.03999263 </v>
   <v>      -0.00624800       0.07672564      -0.04077173 </v>
   <v>       0.06024153       0.01535970      -0.02396429 </v>
   <v>      -0.06946094       0.01043408      -0.02542546 </v>
   <v>       0.07683614      -0.00475653       0.06615034 </v>
   <v>      -0.07595306      -0.04682843       0.07786398 </v>
   <v>       0.02762754      -0.01993282      -0.01110519 </v>
   <v>      -0.02342023       0.01219087       0.02142868 </v>
   <v>       0.01162678       0.01210744       0.04212678 </v>
  </varray>
  <varray name="stress" >
   <v>       8.92635543       0.21461216       0.15285464 </v>
   <v>       0.21461058      -9.94547893       0.02649344 </v>
   <v>       0.15285352       0.02649591      -0.88865863 </v>
  </varray>
  <energy>
   <i name="e_fr_energy">    -49.84622037 </i>
   <i name="e_wo_entrp">    -49.84622037 </i>
   <i name="e_0_energy">     -0.00000000 </i>
  </energy>
  <time name="totalsc">  605.50  696.26</time>
 </calculation>
 <calculation>
  <scstep>
   <time name="dav">   15.01   15.03</time>
   <time name="total">  112.21  112.30</time>
   <energy>
    <i name="alphaZ">     15.92198659 </i>
    <i name="ewald">   1298.94245331 </i>
    <i name="hartreedc">  -2480.83568128 </i>
    <i name="XCdc">   -170.54367299 </i>
    <i name="pawpsdc">   1746.00898586 </i>
    <i name="pawaedc">  -1467.47307016 </i>
    <i name="eentropy">     -0.00000000 </i>
    <i name="bandstr">   -325.59744199 </i>
    <i name="atom">   1333.72818728 </i>
    <i name="e_fr_energy">    -49.84825339 </i>
    <i name="e_wo_entrp">    -49.84825339 </i>
    <i name="e_0_energy">    -49.84825339 </i>
   </energy>
  </scstep>
  <scstep>
   <time name="dav">   19.64   19.74</time>
   <time name="total">  118.81  119.03</time>
   <energy>
    <i name="e_fr_energy">    -49.84835604 </i>
    <i name="e_wo_entrp">    -49.84835604 </i>
    <i name="e_0_energy">    -49.84835604 </i>
   </energy>
  </scstep>
  <scstep>
   <time name="dav">   20.58   20.61</time>
   <time name="total">  123.14  123.27</time>
   <energy>
    <i name="e_fr_energy">    -49.84833549 </i>
    <i name="e_wo_entrp">    -49.84833549 </i>
    <i name="e_0_energy">    -49.84833549 </i>
   </energy>
  </scstep>
  <scstep>
   <time name="dav">   16.61   16.69</time>
   <time name="total">  117.66  118.07</time>
   <energy>
    <i name="alphaZ">     15.92198659 </i>
    <i name="ewald">   1298.94245331 </i>
    <i name="hartreedc">  -2480.86530962 </i>
    <i name="XCdc">   -170.54496437 </i>
    <i name="pawpsdc">   1745.76258670 </i>
    <i name="pawaedc">  -1467.22642737 </i>
    <i name="eentropy">     -0.00000000 </i>
    <i name="bandstr">   -325.56685675 </i>
    <i name="atom">   1333.72818728 </i>
    <i name="e_fr_energy">    -49.84834422 </i>
    <i name="e_wo_entrp">    -49.84834422 </i>
    <i name="e_0_energy">    -49.84834422 </i>
   </energy>
  </scstep>
  <structure>
   <crystal>
    <varray name="basis" >
     <v>       6.01920000       0.00000000       0.00000000 </v>
     <v>       0.00000000      10.14000000       0.00000000 </v>
     <v>       0.00000000       0.00000000      15.00000000 </v>
    </varray>
    <i name="volume">    915.52032000 </i>
    <varray name="rec_basis" >
     <v>       0.16613503       0.00000000       0.00000000 </v>
     <v>       0.00000000       0.09861933       0.00000000 </v>
     <v>       0.00000000       0.00000000       0.06666667 </v>
    </varray>
   </crystal>
   <varray name="positions" >
    <v>       0.44555766       0.88234050       0.22492916 </v>
    <v>       0.94513544       0.88362902       0.27678340 </v>
    <v>       0.44474300       0.62096318       0.22735624 </v>
    <v>       0.94483365       0.62099639       0.28045387 </v>
    <v>       0.44403646       0.38203890       0.27900484 </v>
    <v>       0.94551994       0.38453134       0.22654292 </v>
    <v>       0.44484512       0.12146715       0.27162202 </v>
    <v>       0.94539616       0.12026404       0.22448166 </v>
    <v>       0.19498555       0.00119079       0.24917293 </v>
    <v>       0.69552908       0.00159828       0.24964620 </v>
    <v>       0.19477480       0.50273145       0.25319870 </v>
    <v>       0.69500808       0.50286616       0.25355872 </v>
    <v>       0.53688985       0.42658235       0.47544310 </v>
    <v>       0.74726564       0.34883822       0.47440556 </v>
    <v>       0.43625044       0.33185573       0.54104068 </v>
   </varray>
  </structure>
  <varray name="forces" >
   <v>      -0.00576688      -0.00493513       0.04306821 </v>
   <v>       0.00410031      -0.04562458      -0.02102764 </v>
   <v>       0.01339533      -0.05636192      -0.04781260 </v>
   <v>       0.02004947       0.02456016      -0.08280093 </v>
   <v>       0.00647818       0.01469884       0.02872825 </v>
   <v>      -0.02527505      -0.01739168      -0.04240353 </v>
   <v>      -0.00775064       0.03749916       0.03468341 </v>
   <v>      -0.00565379       0.06304400      -0.03813167 </v>
   <v>       0.01868083       0.01412644      -0.00868166 </v>
   <v>      -0.02530449       0.00721437      -0.00821162 </v>
   <v>       0.02457860      -0.00702630       0.03546754 </v>
   <v>      -0.03292162      -0.03705115       0.05522003 </v>
   <v>       0.00537190      -0.01361973      -0.00096695 </v>
   <v>      -0.00203971       0.00156243       0.01783958 </v>
   <v>       0.01205757       0.01930509       0.03502958 </v>
  </varray>
  <varray name="stress" >
   <v>       8.91678893       0.13303838       0.14378256 </v>
   <v>       0.13303690     -10.00522628       0.09213157 </v>
   <v>       0.14378138       0.09213419      -0.90327432 </v>
  </varray>
  <energy>
   <i name="e_fr_energy">    -49.84834422 </i>
   <i name="e_wo_entrp">    -49.84834422 </i>
   <i name="e_0_energy">     -0.00000000 </i>
  </energy>
  <time name="totalsc">  696.39  790.02</time>
 </calculation>
 <calculation>
  <scstep>
   <time name="dav">   17.35   17.38</time>
   <time name="total">  121.14  121.28</time>
   <energy>
    <i name="alphaZ">     15.92198659 </i>
    <i name="ewald">   1297.16591410 </i>
    <i name="hartreedc">  -2479.19840592 </i>
    <i name="XCdc">   -170.55412794 </i>
    <i name="pawpsdc">   1745.75379844 </i>
    <i name="pawaedc">  -1467.21779406 </i>
    <i name="eentropy">     -0.00000000 </i>
    <i name="bandstr">   -325.44923858 </i>
    <i name="atom">   1333.72818728 </i>
    <i name="e_fr_energy">    -49.84968010 </i>
    <i name="e_wo_entrp">    -49.84968010 </i>
    <i name="e_0_energy">    -49.84968010 </i>
   </energy>
  </scstep>
  <scstep>
   <time name="dav">   22.26   22.39</time>
   <time name="total">  128.38  128.64</time>
   <energy>
    <i name="e_fr_energy">    -49.85005648 </i>
    <i name="e_wo_entrp">    -49.85005648 </i>
    <i name="e_0_energy">    -49.85005648 </i>
   </energy>
  </scstep>
  <scstep>
   <time name="dav">   22.73   22.80</time>
   <time name="total">  126.38  126.65</time>
   <energy>
    <i name="e_fr_energy">    -49.84997967 </i>
    <i name="e_wo_entrp">    -49.84997967 </i>
    <i name="e_0_energy">    -49.84997967 </i>
   </energy>
  </scstep>
  <scstep>
   <time name="dav">   18.10   18.12</time>
   <time name="total">  120.77  120.96</time>
   <energy>
    <i name="e_fr_energy">    -49.84999906 </i>
    <i name="e_wo_entrp">    -49.84999906 </i>
    <i name="e_0_energy">    -49.84999906 </i>
   </energy>
  </scstep>
  <scstep>
   <time name="dav">   18.60   18.64</time>
   <time name="total">  122.46  122.62</time>
   <energy>
    <i name="alphaZ">     15.92198659 </i>
    <i name="ewald">   1297.16591410 </i>
    <i name="hartreedc">  -2479.26523430 </i>
    <i name="XCdc">   -170.55613709 </i>
    <i name="pawpsdc">   1745.26699942 </i>
    <i name="pawaedc">  -1466.73080938 </i>
    <i name="eentropy">     -0.00000000 </i>
    <i name="bandstr">   -325.38091484 </i>
    <i name="atom">   1333.72818728 </i>
    <i name="e_fr_energy">    -49.85000820 </i>
    <i name="e_wo_entrp">    -49.85000820 </i>
    <i name="e_0_energy">    -49.85000820 </i>
   </energy>
  </scstep>
  <structure>
   <crystal>
    <varray name="basis" >
     <v>       6.01920000       0.00000000       0.00000000 </v>
     <v>       0.00000000      10.14000000       0.00000000 </v>
     <v>       0.00000000       0.00000000      15.00000000 </v>
    </varray>
    <i name="volume">    915.52032000 </i>
    <varray name="rec_basis" >
     <v>       0.16613503       0.00000000       0.00000000 </v>
     <v>       0.00000000       0.09861933       0.00000000 </v>
     <v>       0.00000000       0.00000000       0.06666667 </v>
    </varray>
   </crystal>
   <varray name="positions" >
    <v>       0.44548605       0.88265835       0.22503270 </v>
    <v>       0.94524024       0.88367000       0.27708451 </v>
    <v>       0.44487637       0.62083280       0.22673841 </v>
    <v>       0.94529790       0.62077812       0.28002043 </v>
    <v>       0.44363006       0.38211955       0.27930659 </v>
    <v>       0.94520708       0.38452343       0.22587427 </v>
    <v>       0.44474845       0.12151627       0.27200662 </v>
    <v>       0.94529421       0.12025557       0.22405474 </v>
    <v>       0.19523806       0.00133665       0.24903178 </v>
    <v>       0.69516129       0.00171832       0.24948224 </v>
    <v>       0.19527603       0.50262018       0.25340514 </v>
    <v>       0.69457886       0.50266622       0.25380496 </v>
    <v>       0.53704152       0.42650838       0.47560996 </v>
    <v>       0.74699275       0.34880325       0.47473480 </v>
    <v>       0.43670200       0.33188639       0.54145285 </v>
   </varray>
  </structure>
  <varray name="forces" >
   <v>      -0.00326850      -0.06096240       0.00331223 </v>
   <v>      -0.00531726      -0.01292666      -0.05526812 </v>
   <v>       0.01592018      -0.04652686      -0.01536661 </v>
   <v>      -0.01318360       0.03724050      -0.04143897 </v>
   <v>       0.03313401      -0.01507344       0.03828731 </v>
   <v>      -0.00504475       0.00403797      -0.00390400 </v>
   <v>      -0.00538392       0.06193519       0.02452836 </v>
   <v>      -0.00419885       0.03551566      -0.03293048 </v>
   <v>      -0.05733606       0.01564710       0.01377069 </v>
   <v>       0.05432205       0.00549141       0.01817512 </v>
   <v>      -0.07129845      -0.01325316      -0.01830289 </v>
   <v>       0.04716252      -0.02376336       0.01784087 </v>
   <v>      -0.03743654      -0.00207294       0.01804346 </v>
   <v>       0.03884458      -0.01857828       0.01116014 </v>
   <v>       0.01308457       0.03328928       0.02209289 </v>
  </varray>
  <varray name="stress" >
   <v>       8.90289506      -0.02022141       0.11745917 </v>
   <v>      -0.02022274     -10.13179526       0.20893979 </v>
   <v>       0.11745782       0.20894244      -0.96487551 </v>
  </varray>
  <energy>
   <i name="e_fr_energy">    -49.85000820 </i>
   <i name="e_wo_entrp">    -49.85000820 </i>
   <i name="e_0_energy">     -0.00000000 </i>
  </energy>
  <time name="totalsc">  856.74  990.82</time>
 </calculation>
 <calculation>
  <scstep>
   <time name="dav">   17.58   17.59</time>
   <time name="total">  123.08  123.24</time>
   <energy>
    <i name="alphaZ">     15.92198659 </i>
    <i name="ewald">   1295.96971818 </i>
    <i name="hartreedc">  -2478.24613558 </i>
    <i name="XCdc">   -170.56856424 </i>
    <i name="pawpsdc">   1745.25565240 </i>
    <i name="pawaedc">  -1466.71941502 </i>
    <i name="eentropy">     -0.00000000 </i>
    <i name="bandstr">   -325.19255407 </i>
    <i name="atom">   1333.72818728 </i>
    <i name="e_fr_energy">    -49.85112446 </i>
    <i name="e_wo_entrp">    -49.85112446 </i>
    <i name="e_0_energy">    -49.85112446 </i>
   </energy>
  </scstep>
  <scstep>
   <time name="dav">   19.66   19.70</time>
   <time name="total">  124.24  124.47</time>
   <energy>
    <i name="e_fr_energy">    -49.85126858 </i>
    <i name="e_wo_entrp">    -49.85126858 </i>
    <i name="e_0_energy">    -49.85126858 </i>
   </energy>
  </scstep>
  <scstep>
   <time name="dav">   20.13   20.16</time>
   <time name="total">  123.34  123.58</time>
   <energy>
    <i name="e_fr_energy">    -49.85123883 </i>
    <i name="e_wo_entrp">    -49.85123883 </i>
    <i name="e_0_energy">    -49.85123883 </i>
   </energy>
  </scstep>
  <scstep>
   <time name="dav">   18.37   18.41</time>
   <time name="total">  122.23  122.48</time>
   <energy>
    <i name="e_fr_energy">    -49.85124839 </i>
    <i name="e_wo_entrp">    -49.85124839 </i>
    <i name="e_0_energy">    -49.85124839 </i>
   </energy>
  </scstep>
  <scstep>
   <time name="dav">   17.14   17.25</time>
   <time name="total">  121.05  121.44</time>
   <energy>
    <i name="alphaZ">     15.92198659 </i>
    <i name="ewald">   1295.96971818 </i>
    <i name="hartreedc">  -2478.23010891 </i>
    <i name="XCdc">   -170.57381167 </i>
    <i name="pawpsdc">   1744.30567362 </i>
    <i name="pawaedc">  -1465.76688352 </i>
    <i name="eentropy">     -0.00000000 </i>
    <i name="bandstr">   -325.20601261 </i>
    <i name="atom">   1333.72818728 </i>
    <i name="e_fr_energy">    -49.85125103 </i>
    <i name="e_wo_entrp">    -49.85125103 </i>
    <i name="e_0_energy">    -49.85125103 </i>
   </energy>
  </scstep>
  <structure>
   <crystal>
    <varray name="basis" >
     <v>       6.01920000       0.00000000       0.00000000 </v>
     <v>       0.00000000      10.14000000       0.00000000 </v>
     <v>       0.00000000       0.00000000      15.00000000 </v>
    </varray>
    <i name="volume">    915.52032000 </i>
    <varray name="rec_basis" >
     <v>       0.16613503       0.00000000       0.00000000 </v>
     <v>       0.00000000       0.09861933       0.00000000 </v>
     <v>       0.00000000       0.00000000       0.06666667 </v>
    </varray>
   </crystal>
   <varray name="positions" >
    <v>       0.44543726       0.88253784       0.22508066 </v>
    <v>       0.94524448       0.88363446       0.27705082 </v>
    <v>       0.44503261       0.62059991       0.22646399 </v>
    <v>       0.94538565       0.62084263       0.27974612 </v>
    <v>       0.44369682       0.38209054       0.27952274 </v>
    <v>       0.94505533       0.38453638       0.22561122 </v>
    <v>       0.44467613       0.12177926       0.27221738 </v>
    <v>       0.94522777       0.12039254       0.22380558 </v>
    <v>       0.19495225       0.00145352       0.24901519 </v>
    <v>       0.69538351       0.00178535       0.24946878 </v>
    <v>       0.19499136       0.50252584       0.25343430 </v>
    <v>       0.69473026       0.50249689       0.25394560 </v>
    <v>       0.53684992       0.42647226       0.47572114 </v>
    <v>       0.74714792       0.34871671       0.47488897 </v>
    <v>       0.43695960       0.33202936       0.54166752 </v>
   </varray>
  </structure>
  <varray name="forces" >
   <v>      -0.00190412      -0.00644112       0.00480822 </v>
   <v>      -0.00698195       0.00841571      -0.05963184 </v>
   <v>       0.00274470      -0.05597955       0.00211093 </v>
   <v>      -0.02082182       0.03464469      -0.02210027 </v>
   <v>       0.01577222       0.00411257       0.03366087 </v>
   <v>       0.00397089      -0.00494218       0.00508978 </v>
   <v>      -0.00041944      -0.00905131       0.00328043 </v>
   <v>      -0.00527672       0.01280619      -0.02488365 </v>
   <v>       0.00554253       0.01159713       0.01685722 </v>
   <v>      -0.01119010       0.00738325       0.02264392 </v>
   <v>      -0.01198756      -0.01213148      -0.03313953 </v>
   <v>       0.01412432      -0.00593191       0.00157984 </v>
   <v>       0.00845788      -0.00754511       0.00614180 </v>
   <v>       0.00660356       0.00347282       0.00957367 </v>
   <v>       0.00136562       0.01959031       0.03400862 </v>
  </varray>
  <varray name="stress" >
   <v>       8.75130941       0.03728441       0.09020324 </v>
   <v>       0.03728292     -10.34999135       0.18131516 </v>
   <v>       0.09020204       0.18131771      -0.95999806 </v>
  </varray>
  <energy>
   <i name="e_fr_energy">    -49.85125103 </i>
   <i name="e_wo_entrp">    -49.85125103 </i>
   <i name="e_0_energy">     -0.00000000 </i>
  </energy>
  <time name="totalsc">  836.17  952.21</time>
 </calculation>
 <calculation>
  <scstep>
   <time name="dav">   15.14   15.14</time>
   <time name="total">  119.30  119.31</time>
   <energy>
    <i name="alphaZ">     15.92198659 </i>
    <i name="ewald">   1295.28007244 </i>
    <i name="hartreedc">  -2477.65084879 </i>
    <i name="XCdc">   -170.58089739 </i>
    <i name="pawpsdc">   1744.28130636 </i>
    <i name="pawaedc">  -1465.74253400 </i>
    <i name="eentropy">     -0.00000000 </i>
    <i name="bandstr">   -325.08869344 </i>
    <i name="atom">   1333.72818728 </i>
    <i name="e_fr_energy">    -49.85142095 </i>
    <i name="e_wo_entrp">    -49.85142095 </i>
    <i name="e_0_energy">    -49.85142095 </i>
   </energy>
  </scstep>
  <scstep>
   <time name="dav">   21.53   21.62</time>
   <time name="total">  130.31  130.49</time>
   <energy>
    <i name="e_fr_energy">    -49.85147137 </i>
    <i name="e_wo_entrp">    -49.85147137 </i>
    <i name="e_0_energy">    -49.85147137 </i>
   </energy>
  </scstep>
  <scstep>
   <time name="dav">   17.61   17.61</time>
   <time name="total">  123.91  124.37</time>
   <energy>
    <i name="e_fr_energy">    -49.85146085 </i>
    <i name="e_wo_entrp">    -49.85146085 </i>
    <i name="e_0_energy">    -49.85146085 </i>
   </energy>
  </scstep>
  <scstep>
   <time name="dav">   17.54   17.55</time>
   <time name="total">  123.37  123.80</time>
   <energy>
    <i name="alphaZ">     15.92198659 </i>
    <i name="ewald">   1295.28007244 </i>
    <i name="hartreedc">  -2477.63130554 </i>
    <i name="XCdc">   -170.58442213 </i>
    <i name="pawpsdc">   1743.74785397 </i>
    <i name="pawaedc">  -1465.20754061 </i>
    <i name="eentropy">     -0.00000000 </i>
    <i name="bandstr">   -325.10629876 </i>
    <i name="atom">   1333.72818728 </i>
    <i name="e_fr_energy">    -49.85146676 </i>
    <i name="e_wo_entrp">    -49.85146676 </i>
    <i name="e_0_energy">    -49.85146676 </i>
   </energy>
  </scstep>
  <structure>
   <crystal>
    <varray name="basis" >
     <v>       6.01920000       0.00000000       0.00000000 </v>
     <v>       0.00000000      10.14000000       0.00000000 </v>
     <v>       0.00000000       0.00000000      15.00000000 </v>
    </varray>
    <i name="volume">    915.52032000 </i>
    <varray name="rec_basis" >
     <v>       0.16613503       0.00000000       0.00000000 </v>
     <v>       0.00000000       0.09861933       0.00000000 </v>
     <v>       0.00000000       0.00000000       0.06666667 </v>
    </varray>
   </crystal>
   <varray name="positions" >
    <v>       0.44540923       0.88246862       0.22510821 </v>
    <v>       0.94524691       0.88361405       0.27703146 </v>
    <v>       0.44512236       0.62046614       0.22630636 </v>
    <v>       0.94543605       0.62087969       0.27958854 </v>
    <v>       0.44373516       0.38207387       0.27964691 </v>
    <v>       0.94496817       0.38454381       0.22546012 </v>
    <v>       0.44463459       0.12193034       0.27233844 </v>
    <v>       0.94518961       0.12047122       0.22366246 </v>
    <v>       0.19478807       0.00152065       0.24900566 </v>
    <v>       0.69551115       0.00182385       0.24946105 </v>
    <v>       0.19482784       0.50247164       0.25345105 </v>
    <v>       0.69481723       0.50239962       0.25402638 </v>
    <v>       0.53673985       0.42645150       0.47578500 </v>
    <v>       0.74723705       0.34866700       0.47497753 </v>
    <v>       0.43710758       0.33211149       0.54179083 </v>
   </varray>
  </structure>
  <varray name="forces" >
   <v>      -0.00098318       0.02393339       0.00561416 </v>
   <v>      -0.00791352       0.02034489      -0.06197985 </v>
   <v>      -0.00458085      -0.06161529       0.01212993 </v>
   <v>      -0.02550643       0.03265448      -0.01127760 </v>
   <v>       0.00613349       0.01540674       0.03071372 </v>
   <v>       0.00923181      -0.00939688       0.01064615 </v>
   <v>       0.00257541      -0.04867129      -0.00847107 </v>
   <v>      -0.00576662       0.00013378      -0.02036422 </v>
   <v>       0.04126060       0.00951866       0.01865739 </v>
   <v>      -0.04878319       0.00782116       0.02557739 </v>
   <v>       0.02041635      -0.01208849      -0.04208555 </v>
   <v>      -0.00259677       0.00453023      -0.00809013 </v>
   <v>       0.03330781      -0.01024008      -0.00057815 </v>
   <v>      -0.01143590       0.01583694       0.00871210 </v>
   <v>      -0.00535900       0.01183176       0.04079574 </v>
  </varray>
  <varray name="stress" >
   <v>       8.66219781       0.06977786       0.07613199 </v>
   <v>       0.06977645     -10.47631313       0.16548588 </v>
   <v>       0.07613073       0.16548845      -0.95969164 </v>
  </varray>
  <energy>
   <i name="e_fr_energy">    -49.85146676 </i>
   <i name="e_wo_entrp">    -49.85146676 </i>
   <i name="e_0_energy">     -0.00000000 </i>
  </energy>
  <time name="totalsc">  725.78  820.96</time>
 </calculation>
 <calculation>
  <scstep>
   <time name="dav">   16.56   16.57</time>
   <time name="total">  119.88  119.95</time>
   <energy>
    <i name="alphaZ">     15.92198659 </i>
    <i name="ewald">   1294.76759681 </i>
    <i name="hartreedc">  -2477.12218351 </i>
    <i name="XCdc">   -170.58248173 </i>
    <i name="pawpsdc">   1743.74748179 </i>
    <i name="pawaedc">  -1465.20732057 </i>
    <i name="eentropy">     -0.00000000 </i>
    <i name="bandstr">   -325.10554123 </i>
    <i name="atom">   1333.72818728 </i>
    <i name="e_fr_energy">    -49.85227457 </i>
    <i name="e_wo_entrp">    -49.85227457 </i>
    <i name="e_0_energy">    -49.85227457 </i>
   </energy>
  </scstep>
  <scstep>
   <time name="dav">   21.62   21.65</time>
   <time name="total">  124.33  124.74</time>
   <energy>
    <i name="e_fr_energy">    -49.85237898 </i>
    <i name="e_wo_entrp">    -49.85237898 </i>
    <i name="e_0_energy">    -49.85237898 </i>
   </energy>
  </scstep>
  <scstep>
   <time name="dav">   19.90   19.93</time>
   <time name="total">  122.42  122.55</time>
   <energy>
    <i name="e_fr_energy">    -49.85236637 </i>
    <i name="e_wo_entrp">    -49.85236637 </i>
    <i name="e_0_energy">    -49.85236637 </i>
   </energy>
  </scstep>
  <scstep>
   <time name="dav">   16.08   16.11</time>
   <time name="total">  118.58  118.85</time>
   <energy>
    <i name="e_fr_energy">    -49.85237704 </i>
    <i name="e_wo_entrp">    -49.85237704 </i>
    <i name="e_0_energy">    -49.85237704 </i>
   </energy>
  </scstep>
  <scstep>
   <time name="dav">   14.49   14.56</time>
   <time name="total">  119.02  119.39</time>
   <energy>
    <i name="alphaZ">     15.92198659 </i>
    <i name="ewald">   1294.76759681 </i>
    <i name="hartreedc">  -2477.16885244 </i>
    <i name="XCdc">   -170.58326682 </i>
    <i name="pawpsdc">   1743.78356258 </i>
    <i name="pawaedc">  -1465.24381111 </i>
    <i name="eentropy">     -0.00000000 </i>
    <i name="bandstr">   -325.05778075 </i>
    <i name="atom">   1333.72818728 </i>
    <i name="e_fr_energy">    -49.85237785 </i>
    <i name="e_wo_entrp">    -49.85237785 </i>
    <i name="e_0_energy">    -49.85237785 </i>
   </energy>
  </scstep>
  <structure>
   <crystal>
    <varray name="basis" >
     <v>       6.01920000       0.00000000       0.00000000 </v>
     <v>       0.00000000      10.14000000       0.00000000 </v>
     <v>       0.00000000       0.00000000      15.00000000 </v>
    </varray>
    <i name="volume">    915.52032000 </i>
    <varray name="rec_basis" >
     <v>       0.16613503       0.00000000       0.00000000 </v>
     <v>       0.00000000       0.09861933       0.00000000 </v>
     <v>       0.00000000       0.00000000       0.06666667 </v>
    </varray>
   </crystal>
   <varray name="positions" >
    <v>       0.44536833       0.88249089       0.22515795 </v>
    <v>       0.94519118       0.88367908       0.27682389 </v>
    <v>       0.44519605       0.62003455       0.22615335 </v>
    <v>       0.94530745       0.62106783       0.27936598 </v>
    <v>       0.44382662       0.38212166       0.27988720 </v>
    <v>       0.94493204       0.38451139       0.22531055 </v>
    <v>       0.44460385       0.12189739       0.27245845 </v>
    <v>       0.94510109       0.12056618       0.22343021 </v>
    <v>       0.19489699       0.00164306       0.24904973 </v>
    <v>       0.69530266       0.00190445       0.24952786 </v>
    <v>       0.19478303       0.50235345       0.25334596 </v>
    <v>       0.69490230       0.50230288       0.25409921 </v>
    <v>       0.53685473       0.42638155       0.47585989 </v>
    <v>       0.74725920       0.34867706       0.47510967 </v>
    <v>       0.43724535       0.33226206       0.54206008 </v>
   </varray>
  </structure>
  <varray name="forces" >
   <v>      -0.00214368       0.00362326      -0.00339085 </v>
   <v>      -0.00524800       0.03206293      -0.05567263 </v>
   <v>      -0.01108671      -0.01058343       0.00640177 </v>
   <v>      -0.00776854       0.00746557      -0.00970793 </v>
   <v>      -0.00400956      -0.00867571       0.02649698 </v>
   <v>       0.01276610      -0.00571419       0.01681482 </v>
   <v>       0.00232349      -0.02517860      -0.00566558 </v>
   <v>      -0.00445353      -0.01935673      -0.00554520 </v>
   <v>       0.00110377       0.00317180       0.00849650 </v>
   <v>      -0.00929269       0.00554830       0.01493062 </v>
   <v>       0.00868158      -0.00456570      -0.03629753 </v>
   <v>       0.00280830       0.00152136      -0.00707486 </v>
   <v>       0.01572206      -0.00035521       0.00857023 </v>
   <v>       0.00219177       0.00589766       0.00819897 </v>
   <v>      -0.00159436       0.01513869       0.03344470 </v>
  </varray>
  <varray name="stress" >
   <v>       8.67823209       0.08276156       0.09593423 </v>
   <v>       0.08276024     -10.47132787       0.17119322 </v>
   <v>       0.09593295       0.17119571      -0.99627194 </v>
  </varray>
  <energy>
   <i name="e_fr_energy">    -49.85237785 </i>
   <i name="e_wo_entrp">    -49.85237785 </i>
   <i name="e_0_energy">     -0.00000000 </i>
  </energy>
  <time name="totalsc">  838.16  927.29</time>
 </calculation>
 <calculation>
  <scstep>
   <time name="dav">   15.86   15.88</time>
   <time name="total">  119.89  120.04</time>
   <energy>
    <i name="alphaZ">     15.92198659 </i>
    <i name="ewald">   1294.20707909 </i>
    <i name="hartreedc">  -2476.60214117 </i>
    <i name="XCdc">   -170.58182717 </i>
    <i name="pawpsdc">   1743.78568821 </i>
    <i name="pawaedc">  -1465.24598168 </i>
    <i name="eentropy">     -0.00000000 </i>
    <i name="bandstr">   -325.06560680 </i>
    <i name="atom">   1333.72818728 </i>
    <i name="e_fr_energy">    -49.85261565 </i>
    <i name="e_wo_entrp">    -49.85261565 </i>
    <i name="e_0_energy">    -49.85261565 </i>
   </energy>
  </scstep>
  <scstep>
   <time name="dav">   22.52   22.56</time>
   <time name="total">  125.32  125.49</time>
   <energy>
    <i name="e_fr_energy">    -49.85273751 </i>
    <i name="e_wo_entrp">    -49.85273751 </i>
    <i name="e_0_energy">    -49.85273751 </i>
   </energy>
  </scstep>
  <scstep>
   <time name="dav">   21.32   21.42</time>
   <time name="total">  128.14  128.40</time>
   <energy>
    <i name="e_fr_energy">    -49.85272249 </i>
    <i name="e_wo_entrp">    -49.85272249 </i>
    <i name="e_0_energy">    -49.85272249 </i>
   </energy>
  </scstep>
  <scstep>
   <time name="dav">   16.65   16.67</time>
   <time name="total">  119.74  119.83</time>
   <energy>
    <i name="e_fr_energy">    -49.85273310 </i>
    <i name="e_wo_entrp">    -49.85273310 </i>
    <i name="e_0_energy">    -49.85273310 </i>
   </energy>
  </scstep>
  <scstep>
   <time name="dav">   13.15   13.17</time>
   <time name="total">  116.76  116.96</time>
   <energy>
    <i name="alphaZ">     15.92198659 </i>
    <i name="ewald">   1294.20707909 </i>
    <i name="hartreedc">  -2476.64807462 </i>
    <i name="XCdc">   -170.58261046 </i>
    <i name="pawpsdc">   1743.84760134 </i>
    <i name="pawaedc">  -1465.30836482 </i>
    <i name="eentropy">     -0.00000000 </i>
    <i name="bandstr">   -325.01853868 </i>
    <i name="atom">   1333.72818728 </i>
    <i name="e_fr_energy">    -49.85273429 </i>
    <i name="e_wo_entrp">    -49.85273429 </i>
    <i name="e_0_energy">    -49.85273429 </i>
   </energy>
  </scstep>
  <structure>
   <crystal>
    <varray name="basis" >
     <v>       6.01920000       0.00000000       0.00000000 </v>
     <v>       0.00000000      10.14000000       0.00000000 </v>
     <v>       0.00000000       0.00000000      15.00000000 </v>
    </varray>
    <i name="volume">    915.52032000 </i>
    <varray name="rec_basis" >
     <v>       0.16613503       0.00000000       0.00000000 </v>
     <v>       0.00000000       0.09861933       0.00000000 </v>
     <v>       0.00000000       0.00000000       0.06666667 </v>
    </varray>
   </crystal>
   <varray name="positions" >
    <v>       0.44532406       0.88251500       0.22521178 </v>
    <v>       0.94513086       0.88374947       0.27659925 </v>
    <v>       0.44527581       0.61956749       0.22598777 </v>
    <v>       0.94516827       0.62127143       0.27912513 </v>
    <v>       0.44392560       0.38217339       0.28014725 </v>
    <v>       0.94489295       0.38447629       0.22514867 </v>
    <v>       0.44457059       0.12186173       0.27258834 </v>
    <v>       0.94500529       0.12066896       0.22317887 </v>
    <v>       0.19501486       0.00177553       0.24909742 </v>
    <v>       0.69507702       0.00199167       0.24960016 </v>
    <v>       0.19473454       0.50222553       0.25323224 </v>
    <v>       0.69499436       0.50219819       0.25417804 </v>
    <v>       0.53697905       0.42630585       0.47594093 </v>
    <v>       0.74728316       0.34868794       0.47525268 </v>
    <v>       0.43739445       0.33242501       0.54235148 </v>
   </varray>
  </structure>
  <varray name="forces" >
   <v>      -0.00348023      -0.01723450      -0.01227598 </v>
   <v>      -0.00276887       0.04389907      -0.04838644 </v>
   <v>      -0.01776174       0.04354142       0.00050495 </v>
   <v>       0.01018629      -0.01964257      -0.00791913 </v>
   <v>      -0.01523486      -0.03427668       0.02196676 </v>
   <v>       0.01620438      -0.00180457       0.02356704 </v>
   <v>       0.00224271      -0.00089169      -0.00258208 </v>
   <v>      -0.00341317      -0.04006140       0.01091328 </v>
   <v>      -0.03622598      -0.00488355       0.00001796 </v>
   <v>       0.02754592       0.00297463       0.00515631 </v>
   <v>      -0.00132289       0.00258872      -0.03108776 </v>
   <v>       0.00672956       0.00101675      -0.00897198 </v>
   <v>      -0.00173262       0.01121445       0.01585946 </v>
   <v>       0.01675665      -0.00498350       0.00780075 </v>
   <v>       0.00227483       0.01854345       0.02543684 </v>
  </varray>
  <varray name="stress" >
   <v>       8.69947367       0.09666466       0.11606439 </v>
   <v>       0.09666340     -10.44936314       0.17503243 </v>
   <v>       0.11606305       0.17503488      -1.01209101 </v>
  </varray>
  <energy>
   <i name="e_fr_energy">    -49.85273429 </i>
   <i name="e_wo_entrp">    -49.85273429 </i>
   <i name="e_0_energy">     -0.00000000 </i>
  </energy>
  <time name="totalsc">  843.08  958.23</time>
 </calculation>
 <calculation>
  <scstep>
   <time name="dav">   16.44   16.47</time>
   <time name="total">  122.35  122.52</time>
   <energy>
    <i name="alphaZ">     15.92198659 </i>
    <i name="ewald">   1293.60633377 </i>
    <i name="hartreedc">  -2476.02995405 </i>
    <i name="XCdc">   -170.58083363 </i>
    <i name="pawpsdc">   1743.84843419 </i>
    <i name="pawaedc">  -1465.30922399 </i>
    <i name="eentropy">     -0.00000000 </i>
    <i name="bandstr">   -325.03806548 </i>
    <i name="atom">   1333.72818728 </i>
    <i name="e_fr_energy">    -49.85313531 </i>
    <i name="e_wo_entrp">    -49.85313531 </i>
    <i name="e_0_energy">    -49.85313531 </i>
   </energy>
  </scstep>
  <scstep>
   <time name="dav">   21.72   21.74</time>
   <time name="total">  128.60  128.70</time>
   <energy>
    <i name="e_fr_energy">    -49.85327586 </i>
    <i name="e_wo_entrp">    -49.85327586 </i>
    <i name="e_0_energy">    -49.85327586 </i>
   </energy>
  </scstep>
  <scstep>
   <time name="dav">   17.84   17.84</time>
   <time name="total">  124.58  124.82</time>
   <energy>
    <i name="e_fr_energy">    -49.85324921 </i>
    <i name="e_wo_entrp">    -49.85324921 </i>
    <i name="e_0_energy">    -49.85324921 </i>
   </energy>
  </scstep>
  <scstep>
   <time name="dav">   11.33   11.33</time>
   <time name="total">  103.53  103.53</time>
   <energy>
    <i name="e_fr_energy">    -49.85325887 </i>
    <i name="e_wo_entrp">    -49.85325887 </i>
    <i name="e_0_energy">    -49.85325887 </i>
   </energy>
  </scstep>
  <scstep>
   <time name="dav">   10.97   10.98</time>
   <time name="total">  110.02  110.19</time>
   <energy>
    <i name="alphaZ">     15.92198659 </i>
    <i name="ewald">   1293.60633377 </i>
    <i name="hartreedc">  -2476.06433317 </i>
    <i name="XCdc">   -170.58139329 </i>
    <i name="pawpsdc">   1743.95432460 </i>
    <i name="pawaedc">  -1465.41486893 </i>
    <i name="eentropy">     -0.00000000 </i>
    <i name="bandstr">   -325.00349508 </i>
    <i name="atom">   1333.72818728 </i>
    <i name="e_fr_energy">    -49.85325823 </i>
    <i name="e_wo_entrp">    -49.85325823 </i>
    <i name="e_0_energy">    -49.85325823 </i>
   </energy>
  </scstep>
  <structure>
   <crystal>
    <varray name="basis" >
     <v>       6.01920000       0.00000000       0.00000000 </v>
     <v>       0.00000000      10.14000000       0.00000000 </v>
     <v>       0.00000000       0.00000000      15.00000000 </v>
    </varray>
    <i name="volume">    915.52032000 </i>
    <varray name="rec_basis" >
     <v>       0.16613503       0.00000000       0.00000000 </v>
     <v>       0.00000000       0.09861933       0.00000000 </v>
     <v>       0.00000000       0.00000000       0.06666667 </v>
    </varray>
   </crystal>
   <varray name="positions" >
    <v>       0.44526027       0.88244040       0.22520678 </v>
    <v>       0.94506173       0.88403596       0.27625971 </v>
    <v>       0.44517404       0.61945860       0.22586837 </v>
    <v>       0.94515822       0.62131536       0.27892015 </v>
    <v>       0.44386070       0.38202780       0.28041712 </v>
    <v>       0.94501044       0.38444094       0.22511544 </v>
    <v>       0.44456646       0.12183086       0.27267408 </v>
    <v>       0.94490438       0.12052977       0.22303434 </v>
    <v>       0.19477450       0.00184637       0.24913240 </v>
    <v>       0.69516021       0.00207145       0.24967175 </v>
    <v>       0.19468711       0.50214574       0.25303649 </v>
    <v>       0.69512245       0.50212699       0.25420328 </v>
    <v>       0.53705445       0.42631045       0.47605765 </v>
    <v>       0.74745180       0.34866924       0.47538560 </v>
    <v>       0.43752411       0.33264356       0.54265685 </v>
   </varray>
  </structure>
  <varray name="forces" >
   <v>      -0.00475279       0.00249071      -0.00815686 </v>
   <v>      -0.00120826      -0.02874610      -0.01611948 </v>
   <v>      -0.00160936       0.02670444       0.00567559 </v>
   <v>       0.01207808      -0.00967439      -0.00470721 </v>
   <v>      -0.00793448      -0.00152511       0.00162111 </v>
   <v>       0.00275343      -0.01451378       0.01770136 </v>
   <v>      -0.00521814      -0.00526785      -0.00376302 </v>
   <v>       0.00046149       0.01382824       0.00850028 </v>
   <v>       0.02777699      -0.00615096      -0.01410205 </v>
   <v>      -0.03145642      -0.00470010      -0.00951874 </v>
   <v>       0.02026179       0.00257116      -0.01834200 </v>
   <v>      -0.02832491      -0.00249957      -0.00413841 </v>
   <v>       0.00601011       0.00744238       0.01737695 </v>
   <v>       0.00569473      -0.00002320       0.00815331 </v>
   <v>       0.00546773       0.02006413       0.01981917 </v>
  </varray>
  <varray name="stress" >
   <v>       8.69260071       0.15066514       0.11879671 </v>
   <v>       0.15066382     -10.40075633       0.14024271 </v>
   <v>       0.11879554       0.14024518      -1.02910731 </v>
  </varray>
  <energy>
   <i name="e_fr_energy">    -49.85325823 </i>
   <i name="e_wo_entrp">    -49.85325823 </i>
   <i name="e_0_energy">     -0.00000000 </i>
  </energy>
  <time name="totalsc">  802.48  946.41</time>
 </calculation>
 <calculation>
  <scstep>
   <time name="dav">   16.51   16.53</time>
   <time name="total">  119.46  119.49</time>
   <energy>
    <i name="alphaZ">     15.92198659 </i>
    <i name="ewald">   1293.55169471 </i>
    <i name="hartreedc">  -2476.01315755 </i>
    <i name="XCdc">   -170.58134102 </i>
    <i name="pawpsdc">   1743.95858774 </i>
    <i name="pawaedc">  -1465.41915450 </i>
    <i name="eentropy">     -0.00000000 </i>
    <i name="bandstr">   -325.00006833 </i>
    <i name="atom">   1333.72818728 </i>
    <i name="e_fr_energy">    -49.85326508 </i>
    <i name="e_wo_entrp">    -49.85326508 </i>
    <i name="e_0_energy">    -49.85326508 </i>
   </energy>
  </scstep>
  <scstep>
   <time name="dav">   15.44   15.44</time>
   <time name="total">  117.15  117.16</time>
   <energy>
    <i name="alphaZ">     15.92198659 </i>
    <i name="ewald">   1293.55169471 </i>
    <i name="hartreedc">  -2476.01715809 </i>
    <i name="XCdc">   -170.58135003 </i>
    <i name="pawpsdc">   1743.96485268 </i>
    <i name="pawaedc">  -1465.42543150 </i>
    <i name="eentropy">     -0.00000000 </i>
    <i name="bandstr">   -324.99604915 </i>
    <i name="atom">   1333.72818728 </i>
    <i name="e_fr_energy">    -49.85326751 </i>
    <i name="e_wo_entrp">    -49.85326751 </i>
    <i name="e_0_energy">    -49.85326751 </i>
   </energy>
  </scstep>
  <structure>
   <crystal>
    <varray name="basis" >
     <v>       6.01920000       0.00000000       0.00000000 </v>
     <v>       0.00000000      10.14000000       0.00000000 </v>
     <v>       0.00000000       0.00000000      15.00000000 </v>
    </varray>
    <i name="volume">    915.52032000 </i>
    <varray name="rec_basis" >
     <v>       0.16613503       0.00000000       0.00000000 </v>
     <v>       0.00000000       0.09861933       0.00000000 </v>
     <v>       0.00000000       0.00000000       0.06666667 </v>
    </varray>
   </crystal>
   <varray name="positions" >
    <v>       0.44525449       0.88243363       0.22520632 </v>
    <v>       0.94505547       0.88406194       0.27622893 </v>
    <v>       0.44516482       0.61944873       0.22585755 </v>
    <v>       0.94515731       0.62131934       0.27890156 </v>
    <v>       0.44385481       0.38201459       0.28044159 </v>
    <v>       0.94502110       0.38443774       0.22511242 </v>
    <v>       0.44456608       0.12182806       0.27268186 </v>
    <v>       0.94489523       0.12051715       0.22302124 </v>
    <v>       0.19475271       0.00185279       0.24913557 </v>
    <v>       0.69516776       0.00207869       0.24967824 </v>
    <v>       0.19468281       0.50213851       0.25301874 </v>
    <v>       0.69513406       0.50212053       0.25420557 </v>
    <v>       0.53706128       0.42631087       0.47606823 </v>
    <v>       0.74746709       0.34866754       0.47539765 </v>
    <v>       0.43753587       0.33266338       0.54268454 </v>
   </varray>
  </structure>
  <varray name="forces" >
   <v>      -0.00484632       0.00430015      -0.00762386 </v>
   <v>      -0.00135024      -0.03392743      -0.01357184 </v>
   <v>      -0.00130861       0.02602532       0.00547415 </v>
   <v>       0.01281591      -0.00820568      -0.00456286 </v>
   <v>      -0.00818208       0.00028391       0.00007885 </v>
   <v>       0.00242066      -0.01601471       0.01696415 </v>
   <v>      -0.00566080      -0.00613521      -0.00364609 </v>
   <v>       0.00047499       0.01696742       0.00896902 </v>
   <v>       0.02949021      -0.00555406      -0.01477156 </v>
   <v>      -0.03231377      -0.00398493      -0.00930230 </v>
   <v>       0.02033074       0.00220989      -0.01866434 </v>
   <v>      -0.02871508      -0.00369587      -0.00413436 </v>
   <v>       0.00649072       0.00734609       0.01698135 </v>
   <v>       0.00472589       0.00033533       0.00827802 </v>
   <v>       0.00562777       0.02004978       0.01953168 </v>
  </varray>
  <varray name="stress" >
   <v>       8.68911700       0.15335311       0.11878681 </v>
   <v>       0.15335180     -10.39387633       0.13849521 </v>
   <v>       0.11878558       0.13849759      -1.02287002 </v>
  </varray>
  <energy>
   <i name="e_fr_energy">    -49.85326751 </i>
   <i name="e_wo_entrp">    -49.85326751 </i>
   <i name="e_0_energy">     -0.00000000 </i>
  </energy>
  <time name="totalsc">  467.39  604.98</time>
 </calculation>
 <calculation>
  <scstep>
   <time name="dav">   16.09   16.09</time>
   <time name="total">  118.70  118.70</time>
   <energy>
    <i name="alphaZ">     15.92198659 </i>
    <i name="ewald">   1292.90401172 </i>
    <i name="hartreedc">  -2475.41020395 </i>
    <i name="XCdc">   -170.58296473 </i>
    <i name="pawpsdc">   1743.96705616 </i>
    <i name="pawaedc">  -1465.42763671 </i>
    <i name="eentropy">     -0.00000000 </i>
    <i name="bandstr">   -324.95397962 </i>
    <i name="atom">   1333.72818728 </i>
    <i name="e_fr_energy">    -49.85354327 </i>
    <i name="e_wo_entrp">    -49.85354327 </i>
    <i name="e_0_energy">    -49.85354327 </i>
   </energy>
  </scstep>
  <scstep>
   <time name="dav">   21.89   21.90</time>
   <time name="total">  124.52  124.73</time>
   <energy>
    <i name="e_fr_energy">    -49.85362259 </i>
    <i name="e_wo_entrp">    -49.85362259 </i>
    <i name="e_0_energy">    -49.85362259 </i>
   </energy>
  </scstep>
  <scstep>
   <time name="dav">   19.49   19.50</time>
   <time name="total">  126.38  126.53</time>
   <energy>
    <i name="e_fr_energy">    -49.85360933 </i>
    <i name="e_wo_entrp">    -49.85360933 </i>
    <i name="e_0_energy">    -49.85360933 </i>
   </energy>
  </scstep>
  <scstep>
   <time name="dav">   15.87   15.89</time>
   <time name="total">  121.57  190.55</time>
   <energy>
    <i name="alphaZ">     15.92198659 </i>
    <i name="ewald">   1292.90401172 </i>
    <i name="hartreedc">  -2475.39988127 </i>
    <i name="XCdc">   -170.58473540 </i>
    <i name="pawpsdc">   1743.76897492 </i>
    <i name="pawaedc">  -1465.22885454 </i>
    <i name="eentropy">     -0.00000000 </i>
    <i name="bandstr">   -324.96330630 </i>
    <i name="atom">   1333.72818728 </i>
    <i name="e_fr_energy">    -49.85361700 </i>
    <i name="e_wo_entrp">    -49.85361700 </i>
    <i name="e_0_energy">    -49.85361700 </i>
   </energy>
  </scstep>
  <structure>
   <crystal>
    <varray name="basis" >
     <v>       6.01920000       0.00000000       0.00000000 </v>
     <v>       0.00000000      10.14000000       0.00000000 </v>
     <v>       0.00000000       0.00000000      15.00000000 </v>
    </varray>
    <i name="volume">    915.52032000 </i>
    <varray name="rec_basis" >
     <v>       0.16613503       0.00000000       0.00000000 </v>
     <v>       0.00000000       0.09861933       0.00000000 </v>
     <v>       0.00000000       0.00000000       0.06666667 </v>
    </varray>
   </crystal>
   <varray name="positions" >
    <v>       0.44517864       0.88242040       0.22517577 </v>
    <v>       0.94500909       0.88401788       0.27601203 </v>
    <v>       0.44510278       0.61953703       0.22581902 </v>
    <v>       0.94527003       0.62129621       0.27878399 </v>
    <v>       0.44374779       0.38194457       0.28057453 </v>
    <v>       0.94510107       0.38433309       0.22515858 </v>
    <v>       0.44451208       0.12177945       0.27271058 </v>
    <v>       0.94484999       0.12054119       0.22298324 </v>
    <v>       0.19490529       0.00185735       0.24909835 </v>
    <v>       0.69491199       0.00209619       0.24967916 </v>
    <v>       0.19484614       0.50211133       0.25285376 </v>
    <v>       0.69493340       0.50206539       0.25420275 </v>
    <v>       0.53715793       0.42635317       0.47618816 </v>
    <v>       0.74759337       0.34866018       0.47549348 </v>
    <v>       0.43765127       0.33288007       0.54290660 </v>
   </varray>
  </structure>
  <varray name="forces" >
   <v>      -0.00205567       0.00217696      -0.01041117 </v>
   <v>      -0.00121673      -0.02556549      -0.00935084 </v>
   <v>       0.01005389       0.00636629       0.00597611 </v>
   <v>      -0.00010998      -0.01939211      -0.00886152 </v>
   <v>      -0.00176818       0.01299942      -0.01171003 </v>
   <v>      -0.01098340       0.00066488       0.01592489 </v>
   <v>      -0.00701288       0.00598984      -0.00045344 </v>
   <v>       0.00032092       0.00383082       0.01674755 </v>
   <v>      -0.01572464      -0.00739617      -0.01809746 </v>
   <v>       0.01083482      -0.00804395      -0.01519169 </v>
   <v>      -0.00608274       0.00100118      -0.00729037 </v>
   <v>       0.00730378       0.00022852       0.00002117 </v>
   <v>       0.01441841       0.00678204       0.01411584 </v>
   <v>      -0.00357455       0.00344270       0.00842273 </v>
   <v>       0.00559694       0.01691507       0.02015822 </v>
  </varray>
  <varray name="stress" >
   <v>       8.65475668       0.17329679       0.11523248 </v>
   <v>       0.17329551     -10.43099191       0.16970431 </v>
   <v>       0.11523113       0.16970673      -1.03530867 </v>
  </varray>
  <energy>
   <i name="e_fr_energy">    -49.85361700 </i>
   <i name="e_wo_entrp">    -49.85361700 </i>
   <i name="e_0_energy">     -0.00000000 </i>
  </energy>
  <time name="totalsc">  726.30 1247.62</time>
 </calculation>
 <calculation>
  <scstep>
   <time name="dav">   16.01   16.04</time>
   <time name="total">  119.52  119.65</time>
   <energy>
    <i name="alphaZ">     15.92198659 </i>
    <i name="ewald">   1292.58122652 </i>
    <i name="hartreedc">  -2475.10199900 </i>
    <i name="XCdc">   -170.58546424 </i>
    <i name="pawpsdc">   1743.76968405 </i>
    <i name="pawaedc">  -1465.22965110 </i>
    <i name="eentropy">     -0.00000000 </i>
    <i name="bandstr">   -324.93762671 </i>
    <i name="atom">   1333.72818728 </i>
    <i name="e_fr_energy">    -49.85365660 </i>
    <i name="e_wo_entrp">    -49.85365660 </i>
    <i name="e_0_energy">    -49.85365660 </i>
   </energy>
  </scstep>
  <scstep>
   <time name="dav">   21.62   21.62</time>
   <time name="total">  127.54  127.61</time>
   <energy>
    <i name="e_fr_energy">    -49.85367940 </i>
    <i name="e_wo_entrp">    -49.85367940 </i>
    <i name="e_0_energy">    -49.85367940 </i>
   </energy>
  </scstep>
  <scstep>
   <time name="dav">   14.40   14.40</time>
   <time name="total">  118.19  118.19</time>
   <energy>
    <i name="alphaZ">     15.92198659 </i>
    <i name="ewald">   1292.58122652 </i>
    <i name="hartreedc">  -2475.09549488 </i>
    <i name="XCdc">   -170.58624390 </i>
    <i name="pawpsdc">   1743.69550961 </i>
    <i name="pawaedc">  -1465.15519839 </i>
    <i name="eentropy">     -0.00000000 </i>
    <i name="bandstr">   -324.94364794 </i>
    <i name="atom">   1333.72818728 </i>
    <i name="e_fr_energy">    -49.85367511 </i>
    <i name="e_wo_entrp">    -49.85367511 </i>
    <i name="e_0_energy">    -49.85367511 </i>
   </energy>
  </scstep>
  <structure>
   <crystal>
    <varray name="basis" >
     <v>       6.01920000       0.00000000       0.00000000 </v>
     <v>       0.00000000      10.14000000       0.00000000 </v>
     <v>       0.00000000       0.00000000      15.00000000 </v>
    </varray>
    <i name="volume">    915.52032000 </i>
    <varray name="rec_basis" >
     <v>       0.16613503       0.00000000       0.00000000 </v>
     <v>       0.00000000       0.09861933       0.00000000 </v>
     <v>       0.00000000       0.00000000       0.06666667 </v>
    </varray>
   </crystal>
   <varray name="positions" >
    <v>       0.44514090       0.88241381       0.22516058 </v>
    <v>       0.94498602       0.88399596       0.27590411 </v>
    <v>       0.44507191       0.61958097       0.22579986 </v>
    <v>       0.94532611       0.62128471       0.27872549 </v>
    <v>       0.44369455       0.38190974       0.28064068 </v>
    <v>       0.94514086       0.38428102       0.22518154 </v>
    <v>       0.44448522       0.12175526       0.27272486 </v>
    <v>       0.94482748       0.12055316       0.22296433 </v>
    <v>       0.19498121       0.00185962       0.24907983 </v>
    <v>       0.69478475       0.00210489       0.24967962 </v>
    <v>       0.19492740       0.50209781       0.25277168 </v>
    <v>       0.69483357       0.50203796       0.25420134 </v>
    <v>       0.53720601       0.42637421       0.47624783 </v>
    <v>       0.74765620       0.34865651       0.47554116 </v>
    <v>       0.43770869       0.33298788       0.54301708 </v>
   </varray>
  </structure>
  <varray name="forces" >
   <v>      -0.00114977       0.00279765      -0.01050621 </v>
   <v>      -0.00062147      -0.02215529      -0.00617888 </v>
   <v>       0.01335468      -0.00312934       0.00670874 </v>
   <v>      -0.00436467      -0.02254598      -0.00977366 </v>
   <v>      -0.00002203       0.01922821      -0.01663264 </v>
   <v>      -0.01506690       0.00786587       0.01558214 </v>
   <v>      -0.00787439       0.01072099       0.00168564 </v>
   <v>       0.00081528      -0.00192913       0.02134052 </v>
   <v>      -0.03199798      -0.00846093      -0.02157517 </v>
   <v>       0.02692205      -0.00916793      -0.01790011 </v>
   <v>      -0.01593030      -0.00041670      -0.00848363 </v>
   <v>       0.01989813      -0.00009072       0.00300939 </v>
   <v>       0.01803745       0.00712024       0.01250118 </v>
   <v>      -0.00757615       0.00517475       0.00919459 </v>
   <v>       0.00557605       0.01498831       0.02102809 </v>
  </varray>
  <varray name="stress" >
   <v>       8.63349704       0.17985967       0.11368026 </v>
   <v>       0.17985837     -10.46209626       0.18008762 </v>
   <v>       0.11367893       0.18008995      -1.05682992 </v>
  </varray>
  <energy>
   <i name="e_fr_energy">    -49.85367511 </i>
   <i name="e_wo_entrp">    -49.85367511 </i>
   <i name="e_0_energy">     -0.00000000 </i>
  </energy>
  <time name="totalsc">  594.05  604.10</time>
 </calculation>
 <calculation>
  <scstep>
   <time name="dav">   16.11   16.12</time>
   <time name="total">  121.30  121.31</time>
   <energy>
    <i name="alphaZ">     15.92198659 </i>
    <i name="ewald">   1292.09682415 </i>
    <i name="hartreedc">  -2474.59009423 </i>
    <i name="XCdc">   -170.58408513 </i>
    <i name="pawpsdc">   1743.65921278 </i>
    <i name="pawaedc">  -1465.11882190 </i>
    <i name="eentropy">     -0.00000000 </i>
    <i name="bandstr">   -324.96718001 </i>
    <i name="atom">   1333.72818728 </i>
    <i name="e_fr_energy">    -49.85397046 </i>
    <i name="e_wo_entrp">    -49.85397046 </i>
    <i name="e_0_energy">    -49.85397046 </i>
   </energy>
  </scstep>
  <scstep>
   <time name="dav">   20.56   20.56</time>
   <time name="total">  129.69  129.69</time>
   <energy>
    <i name="e_fr_energy">    -49.85404949 </i>
    <i name="e_wo_entrp">    -49.85404949 </i>
    <i name="e_0_energy">    -49.85404949 </i>
   </energy>
  </scstep>
  <scstep>
   <time name="dav">   18.36   18.36</time>
   <time name="total">  125.51  125.52</time>
   <energy>
    <i name="alphaZ">     15.92198659 </i>
    <i name="ewald">   1292.09682415 </i>
    <i name="hartreedc">  -2474.59800300 </i>
    <i name="XCdc">   -170.58373913 </i>
    <i name="pawpsdc">   1743.75612188 </i>
    <i name="pawaedc">  -1465.21613396 </i>
    <i name="eentropy">     -0.00000000 </i>
    <i name="bandstr">   -324.95928882 </i>
    <i name="atom">   1333.72818728 </i>
    <i name="e_fr_energy">    -49.85404500 </i>
    <i name="e_wo_entrp">    -49.85404500 </i>
    <i name="e_0_energy">    -49.85404500 </i>
   </energy>
  </scstep>
  <structure>
   <crystal>
    <varray name="basis" >
     <v>       6.01920000       0.00000000       0.00000000 </v>
     <v>       0.00000000      10.14000000       0.00000000 </v>
     <v>       0.00000000       0.00000000      15.00000000 </v>
    </varray>
    <i name="volume">    915.52032000 </i>
    <varray name="rec_basis" >
     <v>       0.16613503       0.00000000       0.00000000 </v>
     <v>       0.00000000       0.09861933       0.00000000 </v>
     <v>       0.00000000       0.00000000       0.06666667 </v>
    </varray>
   </crystal>
   <varray name="positions" >
    <v>       0.44507432       0.88241678       0.22510436 </v>
    <v>       0.94494595       0.88385946       0.27572005 </v>
    <v>       0.44512947       0.61963344       0.22579171 </v>
    <v>       0.94537746       0.62116228       0.27860552 </v>
    <v>       0.44361314       0.38194603       0.28068928 </v>
    <v>       0.94508351       0.38423818       0.22526558 </v>
    <v>       0.44438253       0.12176823       0.27275196 </v>
    <v>       0.94479952       0.12056243       0.22300259 </v>
    <v>       0.19484629       0.00182372       0.24898374 </v>
    <v>       0.69480158       0.00207553       0.24962403 </v>
    <v>       0.19492654       0.50207524       0.25261978 </v>
    <v>       0.69483719       0.50199568       0.25420867 </v>
    <v>       0.53742071       0.42643943       0.47637817 </v>
    <v>       0.74769269       0.34867499       0.47564281 </v>
    <v>       0.43783998       0.33322207       0.54325175 </v>
   </varray>
  </structure>
  <varray name="forces" >
   <v>       0.00190038       0.00839843      -0.00984893 </v>
   <v>      -0.00205878      -0.01731518      -0.00375754 </v>
   <v>       0.01317874      -0.01221357       0.00614994 </v>
   <v>      -0.00711603      -0.00600242      -0.00632558 </v>
   <v>       0.00248951       0.01838507      -0.02159449 </v>
   <v>      -0.01407482      -0.00229495       0.00845060 </v>
   <v>      -0.00459115      -0.00068329      -0.00241516 </v>
   <v>      -0.00262370      -0.00264010       0.02095005 </v>
   <v>      -0.01806772      -0.00715377      -0.01932501 </v>
   <v>       0.01284524      -0.00692821      -0.01604712 </v>
   <v>      -0.00846593       0.00065786      -0.00178210 </v>
   <v>       0.01106887       0.00220606       0.00706541 </v>
   <v>       0.00621818       0.01238330       0.01203205 </v>
   <v>       0.00127826      -0.00200584       0.00891725 </v>
   <v>       0.00801896       0.01520660       0.01753063 </v>
  </varray>
  <varray name="stress" >
   <v>       8.65781804       0.15915195       0.11360362 </v>
   <v>       0.15915072     -10.43142545       0.20451478 </v>
   <v>       0.11360221       0.20451716      -1.06656183 </v>
  </varray>
  <energy>
   <i name="e_fr_energy">    -49.85404500 </i>
   <i name="e_wo_entrp">    -49.85404500 </i>
   <i name="e_0_energy">     -0.00000000 </i>
  </energy>
  <time name="totalsc">  613.29  630.62</time>
 </calculation>
 <calculation>
  <scstep>
   <time name="dav">   16.00   16.01</time>
   <time name="total">  117.73  117.78</time>
   <energy>
    <i name="alphaZ">     15.92198659 </i>
    <i name="ewald">   1290.87195596 </i>
    <i name="hartreedc">  -2473.32021701 </i>
    <i name="XCdc">   -170.57789475 </i>
    <i name="pawpsdc">   1743.77839087 </i>
    <i name="pawaedc">  -1465.23847222 </i>
    <i name="eentropy">     -0.00000000 </i>
    <i name="bandstr">   -325.01791125 </i>
    <i name="atom">   1333.72818728 </i>
    <i name="e_fr_energy">    -49.85397452 </i>
    <i name="e_wo_entrp">    -49.85397452 </i>
    <i name="e_0_energy">    -49.85397452 </i>
   </energy>
  </scstep>
  <scstep>
   <time name="dav">   19.81   19.81</time>
   <time name="total">  121.69  121.69</time>
   <energy>
    <i name="e_fr_energy">    -49.85449112 </i>
    <i name="e_wo_entrp">    -49.85449112 </i>
    <i name="e_0_energy">    -49.85449112 </i>
   </energy>
  </scstep>
  <scstep>
   <time name="dav">   19.94   19.96</time>
   <time name="total">  121.92  122.07</time>
   <energy>
    <i name="e_fr_energy">    -49.85445907 </i>
    <i name="e_wo_entrp">    -49.85445907 </i>
    <i name="e_0_energy">    -49.85445907 </i>
   </energy>
  </scstep>
  <scstep>
   <time name="dav">   18.31   18.35</time>
   <time name="total">  120.31  120.48</time>
   <energy>
    <i name="e_fr_energy">    -49.85448814 </i>
    <i name="e_wo_entrp">    -49.85448814 </i>
    <i name="e_0_energy">    -49.85448814 </i>
   </energy>
  </scstep>
  <scstep>
   <time name="dav">   15.99   16.07</time>
   <time name="total">  116.58  116.92</time>
   <energy>
    <i name="alphaZ">     15.92198659 </i>
    <i name="ewald">   1290.87195596 </i>
    <i name="hartreedc">  -2473.31591420 </i>
    <i name="XCdc">   -170.57768225 </i>
    <i name="pawpsdc">   1744.08628454 </i>
    <i name="pawaedc">  -1465.54759555 </i>
    <i name="eentropy">     -0.00000000 </i>
    <i name="bandstr">   -325.02171102 </i>
    <i name="atom">   1333.72818728 </i>
    <i name="e_fr_energy">    -49.85448864 </i>
    <i name="e_wo_entrp">    -49.85448864 </i>
    <i name="e_0_energy">    -49.85448864 </i>
   </energy>
  </scstep>
  <structure>
   <crystal>
    <varray name="basis" >
     <v>       6.01920000       0.00000000       0.00000000 </v>
     <v>       0.00000000      10.14000000       0.00000000 </v>
     <v>       0.00000000       0.00000000      15.00000000 </v>
    </varray>
    <i name="volume">    915.52032000 </i>
    <varray name="rec_basis" >
     <v>       0.16613503       0.00000000       0.00000000 </v>
     <v>       0.00000000       0.09861933       0.00000000 </v>
     <v>       0.00000000       0.00000000       0.06666667 </v>
    </varray>
   </crystal>
   <varray name="positions" >
    <v>       0.44490694       0.88242424       0.22496301 </v>
    <v>       0.94484521       0.88351630       0.27525731 </v>
    <v>       0.44527418       0.61976535       0.22577123 </v>
    <v>       0.94550657       0.62085449       0.27830390 </v>
    <v>       0.44340849       0.38203727       0.28081149 </v>
    <v>       0.94493930       0.38413046       0.22547684 </v>
    <v>       0.44412435       0.12180084       0.27282008 </v>
    <v>       0.94472925       0.12058576       0.22309878 </v>
    <v>       0.19450710       0.00173347       0.24874215 </v>
    <v>       0.69484389       0.00200171       0.24948428 </v>
    <v>       0.19492439       0.50201850       0.25223790 </v>
    <v>       0.69484628       0.50188940       0.25422707 </v>
    <v>       0.53796048       0.42660341       0.47670585 </v>
    <v>       0.74778441       0.34872145       0.47589837 </v>
    <v>       0.43817005       0.33381086       0.54384173 </v>
   </varray>
  </structure>
  <varray name="forces" >
   <v>       0.00972713       0.02545593      -0.00866028 </v>
   <v>      -0.00651518      -0.00609554       0.00128072 </v>
   <v>       0.01124954      -0.03484804       0.00293535 </v>
   <v>      -0.01131755       0.03915887       0.00163691 </v>
   <v>       0.00622699       0.01539994      -0.03553481 </v>
   <v>      -0.01080051      -0.03286659      -0.01190774 </v>
   <v>       0.00386590      -0.03607230      -0.01526247 </v>
   <v>      -0.01291996      -0.00418485       0.01907061 </v>
   <v>       0.02687854      -0.00270431      -0.01003113 </v>
   <v>      -0.02937084       0.00127374      -0.00829924 </v>
   <v>       0.01577563       0.00071535       0.01629865 </v>
   <v>      -0.01481119       0.00645841       0.01536592 </v>
   <v>      -0.02856635       0.03028297       0.01331583 </v>
   <v>       0.02530973      -0.02122404       0.00887632 </v>
   <v>       0.01526811       0.01925048       0.01091536 </v>
  </varray>
  <varray name="stress" >
   <v>       8.73356481       0.11131527       0.11654051 </v>
   <v>       0.11131421     -10.36710725       0.25846289 </v>
   <v>       0.11653896       0.25846529      -1.09277534 </v>
  </varray>
  <energy>
   <i name="e_fr_energy">    -49.85448864 </i>
   <i name="e_wo_entrp">    -49.85448864 </i>
   <i name="e_0_energy">     -0.00000000 </i>
  </energy>
  <time name="totalsc">  830.69  863.46</time>
 </calculation>
 <calculation>
  <scstep>
   <time name="dav">   16.66   16.66</time>
   <time name="total">  122.70  122.70</time>
   <energy>
    <i name="alphaZ">     15.92198659 </i>
    <i name="ewald">   1290.51770800 </i>
    <i name="hartreedc">  -2472.94772968 </i>
    <i name="XCdc">   -170.57705482 </i>
    <i name="pawpsdc">   1744.09876000 </i>
    <i name="pawaedc">  -1465.56015080 </i>
    <i name="eentropy">     -0.00000000 </i>
    <i name="bandstr">   -325.03637592 </i>
    <i name="atom">   1333.72818728 </i>
    <i name="e_fr_energy">    -49.85466936 </i>
    <i name="e_wo_entrp">    -49.85466936 </i>
    <i name="e_0_energy">    -49.85466936 </i>
   </energy>
  </scstep>
  <scstep>
   <time name="dav">   18.40   18.43</time>
   <time name="total">  121.86  121.89</time>
   <energy>
    <i name="e_fr_energy">    -49.85470958 </i>
    <i name="e_wo_entrp">    -49.85470958 </i>
    <i name="e_0_energy">    -49.85470958 </i>
   </energy>
  </scstep>
  <scstep>
   <time name="dav">   16.06   16.06</time>
   <time name="total">  118.20  118.20</time>
   <energy>
    <i name="alphaZ">     15.92198659 </i>
    <i name="ewald">   1290.51770800 </i>
    <i name="hartreedc">  -2472.94903810 </i>
    <i name="XCdc">   -170.57675523 </i>
    <i name="pawpsdc">   1744.14788099 </i>
    <i name="pawaedc">  -1465.60926370 </i>
    <i name="eentropy">     -0.00000000 </i>
    <i name="bandstr">   -325.03541399 </i>
    <i name="atom">   1333.72818728 </i>
    <i name="e_fr_energy">    -49.85470815 </i>
    <i name="e_wo_entrp">    -49.85470815 </i>
    <i name="e_0_energy">    -49.85470815 </i>
   </energy>
  </scstep>
  <structure>
   <crystal>
    <varray name="basis" >
     <v>       6.01920000       0.00000000       0.00000000 </v>
     <v>       0.00000000      10.14000000       0.00000000 </v>
     <v>       0.00000000       0.00000000      15.00000000 </v>
    </varray>
    <i name="volume">    915.52032000 </i>
    <varray name="rec_basis" >
     <v>       0.16613503       0.00000000       0.00000000 </v>
     <v>       0.00000000       0.09861933       0.00000000 </v>
     <v>       0.00000000       0.00000000       0.06666667 </v>
    </varray>
   </crystal>
   <varray name="positions" >
    <v>       0.44488804       0.88246247       0.22491894 </v>
    <v>       0.94480409       0.88342089       0.27514163 </v>
    <v>       0.44533779       0.61974892       0.22576889 </v>
    <v>       0.94551197       0.62083264       0.27822928 </v>
    <v>       0.44337176       0.38208230       0.28080807 </v>
    <v>       0.94487689       0.38405632       0.22551872 </v>
    <v>       0.44406842       0.12175758       0.27282257 </v>
    <v>       0.94468042       0.12058568       0.22314149 </v>
    <v>       0.19448605       0.00170681       0.24867143 </v>
    <v>       0.69478394       0.00198488       0.24944097 </v>
    <v>       0.19496178       0.50200519       0.25215714 </v>
    <v>       0.69481295       0.50187176       0.25424655 </v>
    <v>       0.53802815       0.42668808       0.47680149 </v>
    <v>       0.74786846       0.34870288       0.47597150 </v>
    <v>       0.43829016       0.33398710       0.54400132 </v>
   </varray>
  </structure>
  <varray name="forces" >
   <v>       0.00873678       0.01511143      -0.01023484 </v>
   <v>      -0.00541887       0.00184725       0.00162523 </v>
   <v>       0.00727047      -0.02813344       0.00087378 </v>
   <v>      -0.00983992       0.03703279       0.00167616 </v>
   <v>       0.00599613       0.00504774      -0.03371582 </v>
   <v>      -0.00712375      -0.02603726      -0.01015856 </v>
   <v>       0.00362455      -0.02756200      -0.01383274 </v>
   <v>      -0.01189095      -0.00703559       0.01896209 </v>
   <v>       0.01857336      -0.00414690      -0.01176102 </v>
   <v>      -0.02055545      -0.00028014      -0.00942465 </v>
   <v>       0.00477284      -0.00033288       0.01266937 </v>
   <v>      -0.00623089       0.00444511       0.01741623 </v>
   <v>      -0.01713563       0.02602771       0.01431567 </v>
   <v>       0.01474752      -0.01427328       0.00978238 </v>
   <v>       0.01447380       0.01828944       0.01180672 </v>
  </varray>
  <varray name="stress" >
   <v>       8.71957354       0.11986041       0.11701822 </v>
   <v>       0.11985922     -10.34244670       0.25694771 </v>
   <v>       0.11701684       0.25694996      -1.09154577 </v>
  </varray>
  <energy>
   <i name="e_fr_energy">    -49.85470815 </i>
   <i name="e_wo_entrp">    -49.85470815 </i>
   <i name="e_0_energy">     -0.00000000 </i>
  </energy>
  <time name="totalsc">  595.52  597.39</time>
 </calculation>
 <calculation>
  <scstep>
   <time name="dav">   17.26   17.26</time>
   <time name="total">  119.96  120.03</time>
   <energy>
    <i name="alphaZ">     15.92198659 </i>
    <i name="ewald">   1289.45191109 </i>
    <i name="hartreedc">  -2471.84420991 </i>
    <i name="XCdc">   -170.57451049 </i>
    <i name="pawpsdc">   1744.16295998 </i>
    <i name="pawaedc">  -1465.62423379 </i>
    <i name="eentropy">     -0.00000000 </i>
    <i name="bandstr">   -325.07683038 </i>
    <i name="atom">   1333.72818728 </i>
    <i name="e_fr_energy">    -49.85473962 </i>
    <i name="e_wo_entrp">    -49.85473962 </i>
    <i name="e_0_energy">    -49.85473962 </i>
   </energy>
  </scstep>
  <scstep>
   <time name="dav">   19.13   19.15</time>
   <time name="total">  127.74  127.86</time>
   <energy>
    <i name="e_fr_energy">    -49.85509396 </i>
    <i name="e_wo_entrp">    -49.85509396 </i>
    <i name="e_0_energy">    -49.85509396 </i>
   </energy>
  </scstep>
  <scstep>
   <time name="dav">   20.86   20.88</time>
   <time name="total">  126.18  126.28</time>
   <energy>
    <i name="e_fr_energy">    -49.85508183 </i>
    <i name="e_wo_entrp">    -49.85508183 </i>
    <i name="e_0_energy">    -49.85508183 </i>
   </energy>
  </scstep>
  <scstep>
   <time name="dav">   18.90   18.90</time>
   <time name="total">  124.38  124.38</time>
   <energy>
    <i name="e_fr_energy">    -49.85510113 </i>
    <i name="e_wo_entrp">    -49.85510113 </i>
    <i name="e_0_energy">    -49.85510113 </i>
   </energy>
  </scstep>
  <scstep>
   <time name="dav">   14.82   14.85</time>
   <time name="total">  119.61  119.64</time>
   <energy>
    <i name="alphaZ">     15.92198659 </i>
    <i name="ewald">   1289.45191109 </i>
    <i name="hartreedc">  -2471.82696970 </i>
    <i name="XCdc">   -170.57426041 </i>
    <i name="pawpsdc">   1744.34037785 </i>
    <i name="pawaedc">  -1465.80119446 </i>
    <i name="eentropy">     -0.00000000 </i>
    <i name="bandstr">   -325.09514053 </i>
    <i name="atom">   1333.72818728 </i>
    <i name="e_fr_energy">    -49.85510227 </i>
    <i name="e_wo_entrp">    -49.85510227 </i>
    <i name="e_0_energy">    -49.85510227 </i>
   </energy>
  </scstep>
  <structure>
   <crystal>
    <varray name="basis" >
     <v>       6.01920000       0.00000000       0.00000000 </v>
     <v>       0.00000000      10.14000000       0.00000000 </v>
     <v>       0.00000000       0.00000000      15.00000000 </v>
    </varray>
    <i name="volume">    915.52032000 </i>
    <varray name="rec_basis" >
     <v>       0.16613503       0.00000000       0.00000000 </v>
     <v>       0.00000000       0.09861933       0.00000000 </v>
     <v>       0.00000000       0.00000000       0.06666667 </v>
    </varray>
   </crystal>
   <varray name="positions" >
    <v>       0.44483136       0.88257715       0.22478673 </v>
    <v>       0.94468072       0.88313468       0.27479461 </v>
    <v>       0.44552864       0.61969964       0.22576187 </v>
    <v>       0.94552816       0.62076707       0.27800541 </v>
    <v>       0.44326157       0.38221742       0.28079781 </v>
    <v>       0.94468966       0.38383391       0.22564436 </v>
    <v>       0.44390064       0.12162779       0.27283001 </v>
    <v>       0.94453393       0.12058543       0.22326962 </v>
    <v>       0.19442290       0.00162682       0.24845927 </v>
    <v>       0.69460408       0.00193439       0.24931102 </v>
    <v>       0.19507398       0.50196525       0.25191489 </v>
    <v>       0.69471297       0.50181887       0.25430499 </v>
    <v>       0.53823114       0.42694207       0.47708841 </v>
    <v>       0.74812061       0.34864719       0.47619090 </v>
    <v>       0.43865050       0.33451581       0.54448010 </v>
   </varray>
  </structure>
  <varray name="forces" >
   <v>       0.00810330      -0.01737707      -0.01755803 </v>
   <v>      -0.00418705       0.02702219      -0.00034919 </v>
   <v>      -0.00279803      -0.00615604      -0.00944006 </v>
   <v>      -0.00345305       0.03006858      -0.00068604 </v>
   <v>       0.00446762      -0.02878984      -0.03061077 </v>
   <v>       0.00343873      -0.00861144      -0.00977166 </v>
   <v>       0.00446943      -0.00631709      -0.01383305 </v>
   <v>      -0.01098619      -0.01669194       0.01594211 </v>
   <v>      -0.00598575      -0.00393901      -0.00251610 </v>
   <v>       0.00307394      -0.00003356      -0.00083375 </v>
   <v>      -0.02813550      -0.00151976       0.02036885 </v>
   <v>       0.01909981       0.00059813       0.01829406 </v>
   <v>       0.01601635       0.00822388       0.00901027 </v>
   <v>      -0.01643162       0.00589050       0.00883091 </v>
   <v>       0.01330802       0.01763247       0.01315244 </v>
  </varray>
  <varray name="stress" >
   <v>       8.68556977       0.16469045       0.11878513 </v>
   <v>       0.16468935     -10.27871586       0.25259436 </v>
   <v>       0.11878372       0.25259659      -1.08748818 </v>
  </varray>
  <energy>
   <i name="e_fr_energy">    -49.85510227 </i>
   <i name="e_wo_entrp">    -49.85510227 </i>
   <i name="e_0_energy">     -0.00000000 </i>
  </energy>
  <time name="totalsc">  864.14  865.49</time>
 </calculation>
 <calculation>
  <scstep>
   <time name="dav">   16.43   16.43</time>
   <time name="total">  125.26  125.34</time>
   <energy>
    <i name="alphaZ">     15.92198659 </i>
    <i name="ewald">   1289.09795918 </i>
    <i name="hartreedc">  -2471.45859556 </i>
    <i name="XCdc">   -170.57359203 </i>
    <i name="pawpsdc">   1744.34825847 </i>
    <i name="pawaedc">  -1465.80904391 </i>
    <i name="eentropy">     -0.00000000 </i>
    <i name="bandstr">   -325.11026246 </i>
    <i name="atom">   1333.72818728 </i>
    <i name="e_fr_energy">    -49.85510242 </i>
    <i name="e_wo_entrp">    -49.85510242 </i>
    <i name="e_0_energy">    -49.85510242 </i>
   </energy>
  </scstep>
  <scstep>
   <time name="dav">   19.66   19.66</time>
   <time name="total">  129.28  129.27</time>
   <energy>
    <i name="e_fr_energy">    -49.85514029 </i>
    <i name="e_wo_entrp">    -49.85514029 </i>
    <i name="e_0_energy">    -49.85514029 </i>
   </energy>
  </scstep>
  <scstep>
   <time name="dav">   13.85   13.85</time>
   <time name="total">  116.81  116.81</time>
   <energy>
    <i name="alphaZ">     15.92198659 </i>
    <i name="ewald">   1289.09795918 </i>
    <i name="hartreedc">  -2471.45948609 </i>
    <i name="XCdc">   -170.57321686 </i>
    <i name="pawpsdc">   1744.40004586 </i>
    <i name="pawaedc">  -1465.86083123 </i>
    <i name="eentropy">     -0.00000000 </i>
    <i name="bandstr">   -325.10978345 </i>
    <i name="atom">   1333.72818728 </i>
    <i name="e_fr_energy">    -49.85513872 </i>
    <i name="e_wo_entrp">    -49.85513872 </i>
    <i name="e_0_energy">    -49.85513872 </i>
   </energy>
  </scstep>
  <structure>
   <crystal>
    <varray name="basis" >
     <v>       6.01920000       0.00000000       0.00000000 </v>
     <v>       0.00000000      10.14000000       0.00000000 </v>
     <v>       0.00000000       0.00000000      15.00000000 </v>
    </varray>
    <i name="volume">    915.52032000 </i>
    <varray name="rec_basis" >
     <v>       0.16613503       0.00000000       0.00000000 </v>
     <v>       0.00000000       0.09861933       0.00000000 </v>
     <v>       0.00000000       0.00000000       0.06666667 </v>
    </varray>
   </crystal>
   <varray name="positions" >
    <v>       0.44481259       0.88261513       0.22474295 </v>
    <v>       0.94463987       0.88303990       0.27467969 </v>
    <v>       0.44559184       0.61968332       0.22575954 </v>
    <v>       0.94553353       0.62074536       0.27793127 </v>
    <v>       0.44322508       0.38226216       0.28079441 </v>
    <v>       0.94462766       0.38376025       0.22568597 </v>
    <v>       0.44384508       0.12158481       0.27283247 </v>
    <v>       0.94448542       0.12058535       0.22331204 </v>
    <v>       0.19440199       0.00160033       0.24838902 </v>
    <v>       0.69454452       0.00191767       0.24926798 </v>
    <v>       0.19511114       0.50195202       0.25183466 </v>
    <v>       0.69467986       0.50180135       0.25432434 </v>
    <v>       0.53829836       0.42702618       0.47718343 </v>
    <v>       0.74820410       0.34862874       0.47626356 </v>
    <v>       0.43876983       0.33469090       0.54463865 </v>
   </varray>
  </structure>
  <varray name="forces" >
   <v>       0.00784401      -0.02690739      -0.01911504 </v>
   <v>      -0.00376255       0.03524830      -0.00022894 </v>
   <v>      -0.00616278       0.00074439      -0.01186391 </v>
   <v>      -0.00235516       0.02838017      -0.00059181 </v>
   <v>       0.00461929      -0.03919159      -0.02876016 </v>
   <v>       0.00678713      -0.00250729      -0.00871547 </v>
   <v>       0.00510472       0.00116191      -0.01312561 </v>
   <v>      -0.01049504      -0.01968152       0.01566527 </v>
   <v>      -0.01239151      -0.00505392      -0.00420568 </v>
   <v>       0.00950018      -0.00061709      -0.00082786 </v>
   <v>      -0.03675597      -0.00211165       0.01909825 </v>
   <v>       0.02586809      -0.00039175       0.01975666 </v>
   <v>       0.02625056       0.00152937       0.01048238 </v>
   <v>      -0.02653736       0.01265598       0.00919655 </v>
   <v>       0.01248639       0.01674210       0.01323538 </v>
  </varray>
  <varray name="stress" >
   <v>       8.67617961       0.17116619       0.12057882 </v>
   <v>       0.17116503     -10.25841354       0.25451080 </v>
   <v>       0.12057747       0.25451298      -1.08663659 </v>
  </varray>
  <energy>
   <i name="e_fr_energy">    -49.85513872 </i>
   <i name="e_wo_entrp">    -49.85513872 </i>
   <i name="e_0_energy">     -0.00000000 </i>
  </energy>
  <time name="totalsc">  595.74  596.69</time>
 </calculation>
 <calculation>
  <scstep>
   <time name="dav">   15.42   15.45</time>
   <time name="total">  117.41  117.50</time>
   <energy>
    <i name="alphaZ">     15.92198659 </i>
    <i name="ewald">   1288.50497351 </i>
    <i name="hartreedc">  -2470.84337065 </i>
    <i name="XCdc">   -170.57160833 </i>
    <i name="pawpsdc">   1744.41488016 </i>
    <i name="pawaedc">  -1465.87555313 </i>
    <i name="eentropy">     -0.00000000 </i>
    <i name="bandstr">   -325.13484217 </i>
    <i name="atom">   1333.72818728 </i>
    <i name="e_fr_energy">    -49.85534673 </i>
    <i name="e_wo_entrp">    -49.85534673 </i>
    <i name="e_0_energy">    -49.85534673 </i>
   </energy>
  </scstep>
  <scstep>
   <time name="dav">   18.78   18.81</time>
   <time name="total">  120.53  120.73</time>
   <energy>
    <i name="e_fr_energy">    -49.85544761 </i>
    <i name="e_wo_entrp">    -49.85544761 </i>
    <i name="e_0_energy">    -49.85544761 </i>
   </energy>
  </scstep>
  <scstep>
   <time name="dav">   19.09   19.11</time>
   <time name="total">  119.84  119.98</time>
   <energy>
    <i name="alphaZ">     15.92198659 </i>
    <i name="ewald">   1288.50497351 </i>
    <i name="hartreedc">  -2470.84041610 </i>
    <i name="XCdc">   -170.57128460 </i>
    <i name="pawpsdc">   1744.50559675 </i>
    <i name="pawaedc">  -1465.96664727 </i>
    <i name="eentropy">     -0.00000000 </i>
    <i name="bandstr">   -325.13784223 </i>
    <i name="atom">   1333.72818728 </i>
    <i name="e_fr_energy">    -49.85544606 </i>
    <i name="e_wo_entrp">    -49.85544606 </i>
    <i name="e_0_energy">    -49.85544606 </i>
   </energy>
  </scstep>
  <structure>
   <crystal>
    <varray name="basis" >
     <v>       6.01920000       0.00000000       0.00000000 </v>
     <v>       0.00000000      10.14000000       0.00000000 </v>
     <v>       0.00000000       0.00000000      15.00000000 </v>
    </varray>
    <i name="volume">    915.52032000 </i>
    <varray name="rec_basis" >
     <v>       0.16613503       0.00000000       0.00000000 </v>
     <v>       0.00000000       0.09861933       0.00000000 </v>
     <v>       0.00000000       0.00000000       0.06666667 </v>
    </varray>
   </crystal>
   <varray name="positions" >
    <v>       0.44481944       0.88260082       0.22464661 </v>
    <v>       0.94456466       0.88299370       0.27451351 </v>
    <v>       0.44565635       0.61966170       0.22573559 </v>
    <v>       0.94553107       0.62078692       0.27782330 </v>
    <v>       0.44319243       0.38222606       0.28073958 </v>
    <v>       0.94456758       0.38364757       0.22573086 </v>
    <v>       0.44378701       0.12152579       0.27281324 </v>
    <v>       0.94437004       0.12053469       0.22340045 </v>
    <v>       0.19431821       0.00154914       0.24828037 </v>
    <v>       0.69449970       0.00189196       0.24920447 </v>
    <v>       0.19500572       0.50192752       0.25175209 </v>
    <v>       0.69474401       0.50177508       0.25438656 </v>
    <v>       0.53850890       0.42715144       0.47733869 </v>
    <v>       0.74820975       0.34863464       0.47638433 </v>
    <v>       0.43899598       0.33498647       0.54489034 </v>
   </varray>
  </structure>
  <varray name="forces" >
   <v>       0.00393139      -0.02853121      -0.01775796 </v>
   <v>      -0.00151953       0.02942073       0.00318630 </v>
   <v>      -0.01039931      -0.00449715      -0.01053346 </v>
   <v>      -0.00100186       0.02103225      -0.00046654 </v>
   <v>       0.00241126      -0.03318227      -0.02700731 </v>
   <v>       0.00780238       0.00570634      -0.00595538 </v>
   <v>       0.00223280       0.00133017      -0.01502123 </v>
   <v>      -0.00560661      -0.00913982       0.00808484 </v>
   <v>      -0.00461882      -0.00408146      -0.00052337 </v>
   <v>       0.00310107      -0.00233565       0.00292795 </v>
   <v>      -0.02091834      -0.00282411       0.01831517 </v>
   <v>       0.01286057      -0.00228314       0.01735944 </v>
   <v>       0.02108995       0.00496474       0.00527718 </v>
   <v>      -0.02088896       0.00932129       0.00818082 </v>
   <v>       0.01152401       0.01509928       0.01393355 </v>
  </varray>
  <varray name="stress" >
   <v>       8.69626891       0.17323759       0.11536371 </v>
   <v>       0.17323648     -10.23077945       0.23639930 </v>
   <v>       0.11536218       0.23640145      -1.09347350 </v>
  </varray>
  <energy>
   <i name="e_fr_energy">    -49.85544606 </i>
   <i name="e_wo_entrp">    -49.85544606 </i>
   <i name="e_0_energy">     -0.00000000 </i>
  </energy>
  <time name="totalsc">  581.62  583.36</time>
 </calculation>
 <calculation>
  <scstep>
   <time name="dav">   16.66   16.71</time>
   <time name="total">  122.76  123.25</time>
   <energy>
    <i name="alphaZ">     15.92198659 </i>
    <i name="ewald">   1286.82353646 </i>
    <i name="hartreedc">  -2469.10252910 </i>
    <i name="XCdc">   -170.56678064 </i>
    <i name="pawpsdc">   1744.53650677 </i>
    <i name="pawaedc">  -1465.99763843 </i>
    <i name="eentropy">     -0.00000000 </i>
    <i name="bandstr">   -325.19834144 </i>
    <i name="atom">   1333.72818728 </i>
    <i name="e_fr_energy">    -49.85507251 </i>
    <i name="e_wo_entrp">    -49.85507251 </i>
    <i name="e_0_energy">    -49.85507251 </i>
   </energy>
  </scstep>
  <scstep>
   <time name="dav">   18.68   18.75</time>
   <time name="total">  121.68  121.82</time>
   <energy>
    <i name="e_fr_energy">    -49.85591132 </i>
    <i name="e_wo_entrp">    -49.85591132 </i>
    <i name="e_0_energy">    -49.85591132 </i>
   </energy>
  </scstep>
  <scstep>
   <time name="dav">   19.44   19.46</time>
   <time name="total">  123.17  123.27</time>
   <energy>
    <i name="e_fr_energy">    -49.85588334 </i>
    <i name="e_wo_entrp">    -49.85588334 </i>
    <i name="e_0_energy">    -49.85588334 </i>
   </energy>
  </scstep>
  <scstep>
   <time name="dav">   18.17   18.19</time>
   <time name="total">  121.71  121.80</time>
   <energy>
    <i name="e_fr_energy">    -49.85591986 </i>
    <i name="e_wo_entrp">    -49.85591986 </i>
    <i name="e_0_energy">    -49.85591986 </i>
   </energy>
  </scstep>
  <scstep>
   <time name="dav">   19.51   19.54</time>
   <time name="total">  125.05  125.16</time>
   <energy>
    <i name="alphaZ">     15.92198659 </i>
    <i name="ewald">   1286.82353646 </i>
    <i name="hartreedc">  -2469.07986204 </i>
    <i name="XCdc">   -170.56521698 </i>
    <i name="pawpsdc">   1744.86395006 </i>
    <i name="pawaedc">  -1466.32635500 </i>
    <i name="eentropy">     -0.00000000 </i>
    <i name="bandstr">   -325.22214428 </i>
    <i name="atom">   1333.72818728 </i>
    <i name="e_fr_energy">    -49.85591791 </i>
    <i name="e_wo_entrp">    -49.85591791 </i>
    <i name="e_0_energy">    -49.85591791 </i>
   </energy>
  </scstep>
  <structure>
   <crystal>
    <varray name="basis" >
     <v>       6.01920000       0.00000000       0.00000000 </v>
     <v>       0.00000000      10.14000000       0.00000000 </v>
     <v>       0.00000000       0.00000000      15.00000000 </v>
    </varray>
    <i name="volume">    915.52032000 </i>
    <varray name="rec_basis" >
     <v>       0.16613503       0.00000000       0.00000000 </v>
     <v>       0.00000000       0.09861933       0.00000000 </v>
     <v>       0.00000000       0.00000000       0.06666667 </v>
    </varray>
   </crystal>
   <varray name="positions" >
    <v>       0.44483882       0.88256036       0.22437431 </v>
    <v>       0.94435208       0.88286310       0.27404382 </v>
    <v>       0.44583869       0.61960056       0.22566789 </v>
    <v>       0.94552414       0.62090440       0.27751812 </v>
    <v>       0.44310013       0.38212402       0.28058461 </v>
    <v>       0.94439777       0.38332905       0.22585775 </v>
    <v>       0.44362288       0.12135898       0.27275889 </v>
    <v>       0.94404392       0.12039150       0.22365031 </v>
    <v>       0.19408143       0.00140446       0.24797327 </v>
    <v>       0.69437302       0.00181930       0.24902494 </v>
    <v>       0.19470777       0.50185827       0.25151870 </v>
    <v>       0.69492533       0.50170081       0.25456241 </v>
    <v>       0.53910398       0.42750549       0.47777753 </v>
    <v>       0.74822571       0.34865130       0.47672570 </v>
    <v>       0.43963521       0.33582188       0.54560174 </v>
   </varray>
  </structure>
  <varray name="forces" >
   <v>      -0.00915816      -0.03468492      -0.01553690 </v>
   <v>       0.00574881       0.01016001       0.01193304 </v>
   <v>      -0.02289495      -0.02361004      -0.00714559 </v>
   <v>       0.00272026      -0.00058279      -0.00170495 </v>
   <v>      -0.00531373      -0.01292175      -0.02386656 </v>
   <v>       0.00938417       0.02823662       0.00055978 </v>
   <v>      -0.00870730       0.00109303      -0.02173933 </v>
   <v>       0.00903606       0.02310596      -0.01459507 </v>
   <v>       0.02089127      -0.00041131       0.00944983 </v>
   <v>      -0.01948686      -0.00728638       0.01333023 </v>
   <v>       0.03150671      -0.00300645       0.01799745 </v>
   <v>      -0.02693850      -0.00760547       0.00751515 </v>
   <v>       0.00709189       0.01482778      -0.00178664 </v>
   <v>      -0.00360028      -0.00078265       0.00665695 </v>
   <v>       0.00972062       0.01346834       0.01893260 </v>
  </varray>
  <varray name="stress" >
   <v>       8.75607436       0.18252046       0.09459640 </v>
   <v>       0.18251939     -10.17472257       0.18225996 </v>
   <v>       0.09459497       0.18226210      -1.11717731 </v>
  </varray>
  <energy>
   <i name="e_fr_energy">    -49.85591791 </i>
   <i name="e_wo_entrp">    -49.85591791 </i>
   <i name="e_0_energy">     -0.00000000 </i>
  </energy>
  <time name="totalsc">  841.97  844.37</time>
 </calculation>
 <calculation>
  <scstep>
   <time name="dav">   16.71   16.72</time>
   <time name="total">  122.37  122.70</time>
   <energy>
    <i name="alphaZ">     15.92198659 </i>
    <i name="ewald">   1286.09750843 </i>
    <i name="hartreedc">  -2468.34220452 </i>
    <i name="XCdc">   -170.56571511 </i>
    <i name="pawpsdc">   1744.86946189 </i>
    <i name="pawaedc">  -1466.33176075 </i>
    <i name="eentropy">     -0.00000000 </i>
    <i name="bandstr">   -325.23361104 </i>
    <i name="atom">   1333.72818728 </i>
    <i name="e_fr_energy">    -49.85614723 </i>
    <i name="e_wo_entrp">    -49.85614723 </i>
    <i name="e_0_energy">    -49.85614723 </i>
   </energy>
  </scstep>
  <scstep>
   <time name="dav">   17.59   17.60</time>
   <time name="total">  122.16  122.22</time>
   <energy>
    <i name="e_fr_energy">    -49.85630643 </i>
    <i name="e_wo_entrp">    -49.85630643 </i>
    <i name="e_0_energy">    -49.85630643 </i>
   </energy>
  </scstep>
  <scstep>
   <time name="dav">   19.73   19.75</time>
   <time name="total">  123.31  123.45</time>
   <energy>
    <i name="alphaZ">     15.92198659 </i>
    <i name="ewald">   1286.09750843 </i>
    <i name="hartreedc">  -2468.33165806 </i>
    <i name="XCdc">   -170.56530396 </i>
    <i name="pawpsdc">   1744.89887282 </i>
    <i name="pawaedc">  -1466.36128364 </i>
    <i name="eentropy">     -0.00000000 </i>
    <i name="bandstr">   -325.24461632 </i>
    <i name="atom">   1333.72818728 </i>
    <i name="e_fr_energy">    -49.85630686 </i>
    <i name="e_wo_entrp">    -49.85630686 </i>
    <i name="e_0_energy">    -49.85630686 </i>
   </energy>
  </scstep>
  <structure>
   <crystal>
    <varray name="basis" >
     <v>       6.01920000       0.00000000       0.00000000 </v>
     <v>       0.00000000      10.14000000       0.00000000 </v>
     <v>       0.00000000       0.00000000      15.00000000 </v>
    </varray>
    <i name="volume">    915.52032000 </i>
    <varray name="rec_basis" >
     <v>       0.16613503       0.00000000       0.00000000 </v>
     <v>       0.00000000       0.09861933       0.00000000 </v>
     <v>       0.00000000       0.00000000       0.06666667 </v>
    </varray>
   </crystal>
   <varray name="positions" >
    <v>       0.44478454       0.88240478       0.22422338 </v>
    <v>       0.94430614       0.88285180       0.27388873 </v>
    <v>       0.44575644       0.61948125       0.22562145 </v>
    <v>       0.94553980       0.62094895       0.27739165 </v>
    <v>       0.44302730       0.38203135       0.28045788 </v>
    <v>       0.94439352       0.38331540       0.22590993 </v>
    <v>       0.44349839       0.12129678       0.27267812 </v>
    <v>       0.94397491       0.12042722       0.22371040 </v>
    <v>       0.19412836       0.00134504       0.24787635 </v>
    <v>       0.69419049       0.00176101       0.24898949 </v>
    <v>       0.19480217       0.50181853       0.25147442 </v>
    <v>       0.69481529       0.50164059       0.25465304 </v>
    <v>       0.53938957       0.42770644       0.47794788 </v>
    <v>       0.74820770       0.34865481       0.47688008 </v>
    <v>       0.43995623       0.33620955       0.54593720 </v>
   </varray>
  </structure>
  <varray name="forces" >
   <v>      -0.00732484      -0.01980046      -0.00842981 </v>
   <v>       0.00481631       0.00994363       0.01292985 </v>
   <v>      -0.01324961      -0.01390818      -0.00691675 </v>
   <v>      -0.00062540      -0.00822292       0.00059508 </v>
   <v>      -0.00139484      -0.01544834      -0.01416004 </v>
   <v>       0.00593922       0.02920892       0.00398436 </v>
   <v>      -0.00404636      -0.00246367      -0.02036186 </v>
   <v>       0.00752514       0.01318438      -0.01560473 </v>
   <v>       0.00159629      -0.00102200       0.00544540 </v>
   <v>      -0.00127833      -0.00603822       0.00847949 </v>
   <v>       0.00491421      -0.00318013       0.01330920 </v>
   <v>      -0.00711260      -0.00312037       0.00337129 </v>
   <v>      -0.00497411       0.00592724      -0.00076363 </v>
   <v>       0.00374677      -0.00353952       0.00511681 </v>
   <v>       0.01146816       0.01847963       0.01300534 </v>
  </varray>
  <varray name="stress" >
   <v>       8.77665514       0.18304762       0.09387590 </v>
   <v>       0.18304664     -10.16277270       0.16843174 </v>
   <v>       0.09387447       0.16843373      -1.13082882 </v>
  </varray>
  <energy>
   <i name="e_fr_energy">    -49.85630686 </i>
   <i name="e_wo_entrp">    -49.85630686 </i>
   <i name="e_0_energy">     -0.00000000 </i>
  </energy>
  <time name="totalsc">  599.26  600.77</time>
 </calculation>
 <calculation>
  <scstep>
   <time name="dav">   15.84   15.86</time>
   <time name="total">  122.86  123.05</time>
   <energy>
    <i name="alphaZ">     15.92198659 </i>
    <i name="ewald">   1285.03154373 </i>
    <i name="hartreedc">  -2467.24910686 </i>
    <i name="XCdc">   -170.56559498 </i>
    <i name="pawpsdc">   1744.90182799 </i>
    <i name="pawaedc">  -1466.36416172 </i>
    <i name="eentropy">     -0.00000000 </i>
    <i name="bandstr">   -325.26094587 </i>
    <i name="atom">   1333.72818728 </i>
    <i name="e_fr_energy">    -49.85626384 </i>
    <i name="e_wo_entrp">    -49.85626384 </i>
    <i name="e_0_energy">    -49.85626384 </i>
   </energy>
  </scstep>
  <scstep>
   <time name="dav">   19.02   19.04</time>
   <time name="total">  125.35  125.51</time>
   <energy>
    <i name="e_fr_energy">    -49.85659273 </i>
    <i name="e_wo_entrp">    -49.85659273 </i>
    <i name="e_0_energy">    -49.85659273 </i>
   </energy>
  </scstep>
  <scstep>
   <time name="dav">   20.39   20.41</time>
   <time name="total">  127.28  127.39</time>
   <energy>
    <i name="e_fr_energy">    -49.85659523 </i>
    <i name="e_wo_entrp">    -49.85659523 </i>
    <i name="e_0_energy">    -49.85659523 </i>
   </energy>
  </scstep>
  <scstep>
   <time name="dav">   16.22   16.24</time>
   <time name="total">  122.92  123.02</time>
   <energy>
    <i name="e_fr_energy">    -49.85661106 </i>
    <i name="e_wo_entrp">    -49.85661106 </i>
    <i name="e_0_energy">    -49.85661106 </i>
   </energy>
  </scstep>
  <scstep>
   <time name="dav">   13.34   13.35</time>
   <time name="total">  118.18  118.27</time>
   <energy>
    <i name="alphaZ">     15.92198659 </i>
    <i name="ewald">   1285.03154373 </i>
    <i name="hartreedc">  -2467.20340382 </i>
    <i name="XCdc">   -170.56517229 </i>
    <i name="pawpsdc">   1744.93556659 </i>
    <i name="pawaedc">  -1466.39783295 </i>
    <i name="eentropy">     -0.00000000 </i>
    <i name="bandstr">   -325.30748620 </i>
    <i name="atom">   1333.72818728 </i>
    <i name="e_fr_energy">    -49.85661107 </i>
    <i name="e_wo_entrp">    -49.85661107 </i>
    <i name="e_0_energy">    -49.85661107 </i>
   </energy>
  </scstep>
  <structure>
   <crystal>
    <varray name="basis" >
     <v>       6.01920000       0.00000000       0.00000000 </v>
     <v>       0.00000000      10.14000000       0.00000000 </v>
     <v>       0.00000000       0.00000000      15.00000000 </v>
    </varray>
    <i name="volume">    915.52032000 </i>
    <varray name="rec_basis" >
     <v>       0.16613503       0.00000000       0.00000000 </v>
     <v>       0.00000000       0.09861933       0.00000000 </v>
     <v>       0.00000000       0.00000000       0.06666667 </v>
    </varray>
   </crystal>
   <varray name="positions" >
    <v>       0.44470500       0.88217680       0.22400220 </v>
    <v>       0.94423882       0.88283525       0.27366147 </v>
    <v>       0.44563592       0.61930641       0.22555339 </v>
    <v>       0.94556274       0.62101425       0.27720632 </v>
    <v>       0.44292058       0.38189554       0.28027218 </v>
    <v>       0.94438730       0.38329539       0.22598639 </v>
    <v>       0.44331596       0.12120563       0.27255975 </v>
    <v>       0.94387378       0.12047955       0.22379846 </v>
    <v>       0.19419714       0.00125797       0.24773432 </v>
    <v>       0.69392300       0.00167558       0.24893755 </v>
    <v>       0.19494050       0.50176031       0.25140955 </v>
    <v>       0.69465405       0.50155234       0.25478584 </v>
    <v>       0.53980808       0.42800092       0.47819750 </v>
    <v>       0.74818131       0.34865994       0.47710629 </v>
    <v>       0.44042666       0.33677762       0.54642878 </v>
   </varray>
  </structure>
  <varray name="forces" >
   <v>      -0.00605223      -0.00146082      -0.00058173 </v>
   <v>       0.00355442       0.00917551       0.01253566 </v>
   <v>       0.00194669      -0.00093752      -0.00865586 </v>
   <v>      -0.00539142      -0.02297522       0.00129103 </v>
   <v>       0.00359827      -0.02067827      -0.00090455 </v>
   <v>      -0.00017574       0.03056987       0.00756065 </v>
   <v>       0.00089443      -0.00846203      -0.02009981 </v>
   <v>       0.00502793      -0.00259901      -0.01888064 </v>
   <v>      -0.02682113      -0.00081510       0.00348015 </v>
   <v>       0.02608663      -0.00251003       0.00550507 </v>
   <v>      -0.03481850      -0.00335053       0.00916204 </v>
   <v>       0.02105936       0.00430989      -0.00890715 </v>
   <v>      -0.02062471      -0.00133158       0.00717701 </v>
   <v>       0.01583194      -0.00866525       0.00341255 </v>
   <v>       0.01588405       0.02973010       0.00790558 </v>
  </varray>
  <varray name="stress" >
   <v>       8.79695164       0.19235449       0.09038787 </v>
   <v>       0.19235350     -10.18242863       0.13388515 </v>
   <v>       0.09038633       0.13388716      -1.15086756 </v>
  </varray>
  <energy>
   <i name="e_fr_energy">    -49.85661107 </i>
   <i name="e_wo_entrp">    -49.85661107 </i>
   <i name="e_0_energy">     -0.00000000 </i>
  </energy>
  <time name="totalsc">  841.71  843.39</time>
 </calculation>
 <calculation>
  <scstep>
   <time name="dav">   15.70   15.73</time>
   <time name="total">  117.82  117.92</time>
   <energy>
    <i name="alphaZ">     15.92198659 </i>
    <i name="ewald">   1284.62690916 </i>
    <i name="hartreedc">  -2466.78911199 </i>
    <i name="XCdc">   -170.56545769 </i>
    <i name="pawpsdc">   1744.93826435 </i>
    <i name="pawaedc">  -1466.40045487 </i>
    <i name="eentropy">     -0.00000000 </i>
    <i name="bandstr">   -325.31691650 </i>
    <i name="atom">   1333.72818728 </i>
    <i name="e_fr_energy">    -49.85659367 </i>
    <i name="e_wo_entrp">    -49.85659367 </i>
    <i name="e_0_energy">    -49.85659367 </i>
   </energy>
  </scstep>
  <scstep>
   <time name="dav">   19.00   19.02</time>
   <time name="total">  121.21  121.30</time>
   <energy>
    <i name="e_fr_energy">    -49.85664125 </i>
    <i name="e_wo_entrp">    -49.85664125 </i>
    <i name="e_0_energy">    -49.85664125 </i>
   </energy>
  </scstep>
  <scstep>
   <time name="dav">   16.33   16.35</time>
   <time name="total">  117.07  117.16</time>
   <energy>
    <i name="alphaZ">     15.92198659 </i>
    <i name="ewald">   1284.62690916 </i>
    <i name="hartreedc">  -2466.78058382 </i>
    <i name="XCdc">   -170.56527771 </i>
    <i name="pawpsdc">   1744.95490360 </i>
    <i name="pawaedc">  -1466.41713685 </i>
    <i name="eentropy">     -0.00000000 </i>
    <i name="bandstr">   -325.32562885 </i>
    <i name="atom">   1333.72818728 </i>
    <i name="e_fr_energy">    -49.85664058 </i>
    <i name="e_wo_entrp">    -49.85664058 </i>
    <i name="e_0_energy">    -49.85664058 </i>
   </energy>
  </scstep>
  <structure>
   <crystal>
    <varray name="basis" >
     <v>       6.01920000       0.00000000       0.00000000 </v>
     <v>       0.00000000      10.14000000       0.00000000 </v>
     <v>       0.00000000       0.00000000      15.00000000 </v>
    </varray>
    <i name="volume">    915.52032000 </i>
    <varray name="rec_basis" >
     <v>       0.16613503       0.00000000       0.00000000 </v>
     <v>       0.00000000       0.09861933       0.00000000 </v>
     <v>       0.00000000       0.00000000       0.06666667 </v>
    </varray>
   </crystal>
   <varray name="positions" >
    <v>       0.44467486       0.88209040       0.22391838 </v>
    <v>       0.94421331       0.88282897       0.27357534 </v>
    <v>       0.44559025       0.61924015       0.22552760 </v>
    <v>       0.94557143       0.62103899       0.27713608 </v>
    <v>       0.44288013       0.38184406       0.28020180 </v>
    <v>       0.94438494       0.38328780       0.22601537 </v>
    <v>       0.44324683       0.12117108       0.27251489 </v>
    <v>       0.94383546       0.12049939       0.22383184 </v>
    <v>       0.19422321       0.00122497       0.24768049 </v>
    <v>       0.69382163       0.00164320       0.24891786 </v>
    <v>       0.19499293       0.50173824       0.25138496 </v>
    <v>       0.69459295       0.50151890       0.25483617 </v>
    <v>       0.53996670       0.42811252       0.47829211 </v>
    <v>       0.74817131       0.34866189       0.47719203 </v>
    <v>       0.44060495       0.33699292       0.54661509 </v>
   </varray>
  </structure>
  <varray name="forces" >
   <v>      -0.00599854       0.00674091       0.00320287 </v>
   <v>       0.00329424       0.00827727       0.01336652 </v>
   <v>       0.00625266       0.00357940      -0.00831996 </v>
   <v>      -0.00692193      -0.02722411       0.00256763 </v>
   <v>       0.00495933      -0.02143146       0.00422182 </v>
   <v>      -0.00163870       0.03125710       0.00960410 </v>
   <v>       0.00269566      -0.01018403      -0.01945349 </v>
   <v>       0.00476809      -0.00719737      -0.01989313 </v>
   <v>      -0.03626441      -0.00154384      -0.00002777 </v>
   <v>       0.03283584      -0.00290113       0.00249276 </v>
   <v>      -0.04611769      -0.00416447       0.00625634 </v>
   <v>       0.02941217       0.00573760      -0.01043003 </v>
   <v>      -0.02336158      -0.00342276       0.00977902 </v>
   <v>       0.01950586      -0.00992839       0.00245037 </v>
   <v>       0.01657899       0.03240528       0.00418295 </v>
  </varray>
  <varray name="stress" >
   <v>       8.80310921       0.19327087       0.09091632 </v>
   <v>       0.19327002     -10.17511065       0.12509499 </v>
   <v>       0.09091479       0.12509703      -1.16321623 </v>
  </varray>
  <energy>
   <i name="e_fr_energy">    -49.85664058 </i>
   <i name="e_wo_entrp">    -49.85664058 </i>
   <i name="e_0_energy">     -0.00000000 </i>
  </energy>
  <time name="totalsc">  582.16  583.38</time>
 </calculation>
 <calculation>
  <scstep>
   <time name="dav">   15.48   15.50</time>
   <time name="total">  117.04  117.09</time>
   <energy>
    <i name="alphaZ">     15.92198659 </i>
    <i name="ewald">   1283.92771184 </i>
    <i name="hartreedc">  -2466.04027633 </i>
    <i name="XCdc">   -170.56390726 </i>
    <i name="pawpsdc">   1744.95599850 </i>
    <i name="pawaedc">  -1466.41817713 </i>
    <i name="eentropy">     -0.00000000 </i>
    <i name="bandstr">   -325.36829199 </i>
    <i name="atom">   1333.72818728 </i>
    <i name="e_fr_energy">    -49.85676849 </i>
    <i name="e_wo_entrp">    -49.85676849 </i>
    <i name="e_0_energy">    -49.85676849 </i>
   </energy>
  </scstep>
  <scstep>
   <time name="dav">   18.41   18.41</time>
   <time name="total">  119.74  119.75</time>
   <energy>
    <i name="e_fr_energy">    -49.85690983 </i>
    <i name="e_wo_entrp">    -49.85690983 </i>
    <i name="e_0_energy">    -49.85690983 </i>
   </energy>
  </scstep>
  <scstep>
   <time name="dav">   20.88   20.88</time>
   <time name="total">  121.28  121.29</time>
   <energy>
    <i name="alphaZ">     15.92198659 </i>
    <i name="ewald">   1283.92771184 </i>
    <i name="hartreedc">  -2466.04354512 </i>
    <i name="XCdc">   -170.56273790 </i>
    <i name="pawpsdc">   1745.10424875 </i>
    <i name="pawaedc">  -1466.56689343 </i>
    <i name="eentropy">     -0.00000000 </i>
    <i name="bandstr">   -325.36587050 </i>
    <i name="atom">   1333.72818728 </i>
    <i name="e_fr_energy">    -49.85691248 </i>
    <i name="e_wo_entrp">    -49.85691248 </i>
    <i name="e_0_energy">    -49.85691248 </i>
   </energy>
  </scstep>
  <structure>
   <crystal>
    <varray name="basis" >
     <v>       6.01920000       0.00000000       0.00000000 </v>
     <v>       0.00000000      10.14000000       0.00000000 </v>
     <v>       0.00000000       0.00000000      15.00000000 </v>
    </varray>
    <i name="volume">    915.52032000 </i>
    <varray name="rec_basis" >
     <v>       0.16613503       0.00000000       0.00000000 </v>
     <v>       0.00000000       0.09861933       0.00000000 </v>
     <v>       0.00000000       0.00000000       0.06666667 </v>
    </varray>
   </crystal>
   <varray name="positions" >
    <v>       0.44459441       0.88196214       0.22378142 </v>
    <v>       0.94418564       0.88284198       0.27345412 </v>
    <v>       0.44554242       0.61913723       0.22546742 </v>
    <v>       0.94555286       0.62100323       0.27702109 </v>
    <v>       0.44283499       0.38169473       0.28008977 </v>
    <v>       0.94437300       0.38336443       0.22608347 </v>
    <v>       0.44314175       0.12108289       0.27240059 </v>
    <v>       0.94379302       0.12051264       0.22385030 </v>
    <v>       0.19409265       0.00116419       0.24758850 </v>
    <v>       0.69380701       0.00157959       0.24888906 </v>
    <v>       0.19485982       0.50168861       0.25135508 </v>
    <v>       0.69463057       0.50147822       0.25490193 </v>
    <v>       0.54012482       0.42829333       0.47847264 </v>
    <v>       0.74824840       0.34863676       0.47734321 </v>
    <v>       0.44098950       0.33745352       0.54694140 </v>
   </varray>
  </structure>
  <varray name="forces" >
   <v>      -0.00289648       0.02006219       0.00973763 </v>
   <v>       0.00067742      -0.00716182       0.01677564 </v>
   <v>       0.00850591       0.00142502      -0.00342716 </v>
   <v>      -0.00775058      -0.00881177       0.01037179 </v>
   <v>       0.00493583      -0.00779977       0.00715565 </v>
   <v>      -0.00613325       0.00478560       0.00332754 </v>
   <v>       0.00590047      -0.01547677      -0.01727593 </v>
   <v>       0.00118031      -0.00271568      -0.02258637 </v>
   <v>      -0.01863484      -0.00131895      -0.00296224 </v>
   <v>       0.01782664      -0.00068795      -0.00135742 </v>
   <v>      -0.01858217      -0.00279273       0.00443855 </v>
   <v>       0.00615920       0.00502098      -0.01449292 </v>
   <v>      -0.01015748      -0.00747042      -0.00259527 </v>
   <v>       0.00896176      -0.00129485       0.00103390 </v>
   <v>       0.01000726       0.02423691       0.01185661 </v>
  </varray>
  <varray name="stress" >
   <v>       8.80707776       0.22286891       0.07551979 </v>
   <v>       0.22286794     -10.12847064       0.12208725 </v>
   <v>       0.07551834       0.12208911      -1.15357850 </v>
  </varray>
  <energy>
   <i name="e_fr_energy">    -49.85691248 </i>
   <i name="e_wo_entrp">    -49.85691248 </i>
   <i name="e_0_energy">     -0.00000000 </i>
  </energy>
  <time name="totalsc">  588.18  589.11</time>
 </calculation>
 <calculation>
  <scstep>
   <time name="dav">   16.53   16.54</time>
   <time name="total">  120.55  120.60</time>
   <energy>
    <i name="alphaZ">     15.92198659 </i>
    <i name="ewald">   1283.46933728 </i>
    <i name="hartreedc">  -2465.55513672 </i>
    <i name="XCdc">   -170.56170832 </i>
    <i name="pawpsdc">   1745.14566905 </i>
    <i name="pawaedc">  -1466.60826062 </i>
    <i name="eentropy">     -0.00000000 </i>
    <i name="bandstr">   -325.39700960 </i>
    <i name="atom">   1333.72818728 </i>
    <i name="e_fr_energy">    -49.85693505 </i>
    <i name="e_wo_entrp">    -49.85693505 </i>
    <i name="e_0_energy">    -49.85693505 </i>
   </energy>
  </scstep>
  <scstep>
   <time name="dav">   17.94   18.01</time>
   <time name="total">  122.61  122.79</time>
   <energy>
    <i name="e_fr_energy">    -49.85699226 </i>
    <i name="e_wo_entrp">    -49.85699226 </i>
    <i name="e_0_energy">    -49.85699226 </i>
   </energy>
  </scstep>
  <scstep>
   <time name="dav">   15.72   15.73</time>
   <time name="total">  122.14  122.18</time>
   <energy>
    <i name="alphaZ">     15.92198659 </i>
    <i name="ewald">   1283.46933728 </i>
    <i name="hartreedc">  -2465.55313094 </i>
    <i name="XCdc">   -170.56115542 </i>
    <i name="pawpsdc">   1745.24289060 </i>
    <i name="pawaedc">  -1466.70571629 </i>
    <i name="eentropy">     -0.00000000 </i>
    <i name="bandstr">   -325.39939502 </i>
    <i name="atom">   1333.72818728 </i>
    <i name="e_fr_energy">    -49.85699592 </i>
    <i name="e_wo_entrp">    -49.85699592 </i>
    <i name="e_0_energy">    -49.85699592 </i>
   </energy>
  </scstep>
  <structure>
   <crystal>
    <varray name="basis" >
     <v>       6.01920000       0.00000000       0.00000000 </v>
     <v>       0.00000000      10.14000000       0.00000000 </v>
     <v>       0.00000000       0.00000000      15.00000000 </v>
    </varray>
    <i name="volume">    915.52032000 </i>
    <varray name="rec_basis" >
     <v>       0.16613503       0.00000000       0.00000000 </v>
     <v>       0.00000000       0.09861933       0.00000000 </v>
     <v>       0.00000000       0.00000000       0.06666667 </v>
    </varray>
   </crystal>
   <varray name="positions" >
    <v>       0.44454169       0.88187810       0.22369166 </v>
    <v>       0.94416750       0.88285050       0.27337468 </v>
    <v>       0.44551108       0.61906978       0.22542799 </v>
    <v>       0.94554069       0.62097980       0.27694574 </v>
    <v>       0.44280541       0.38159687       0.28001636 </v>
    <v>       0.94436518       0.38341464       0.22612810 </v>
    <v>       0.44307290       0.12102510       0.27232568 </v>
    <v>       0.94376520       0.12052132       0.22386240 </v>
    <v>       0.19400710       0.00112436       0.24752821 </v>
    <v>       0.69379743       0.00153790       0.24887019 </v>
    <v>       0.19477260       0.50165610       0.25133551 </v>
    <v>       0.69465523       0.50145156       0.25494502 </v>
    <v>       0.54022844       0.42841181       0.47859094 </v>
    <v>       0.74829892       0.34862030       0.47744228 </v>
    <v>       0.44124150       0.33775534       0.54715523 </v>
   </varray>
  </structure>
  <varray name="forces" >
   <v>      -0.00107461       0.02880187       0.01370872 </v>
   <v>      -0.00148651      -0.01791954       0.01865354 </v>
   <v>       0.00977258      -0.00084465      -0.00050195 </v>
   <v>      -0.00878268       0.00321241       0.01529199 </v>
   <v>       0.00462910       0.00109020       0.00858926 </v>
   <v>      -0.00996504      -0.01338595      -0.00095251 </v>
   <v>       0.00789947      -0.01986466      -0.01649325 </v>
   <v>      -0.00182964       0.00029563      -0.02460234 </v>
   <v>      -0.00685735      -0.00036249      -0.00493247 </v>
   <v>       0.00756727       0.00021332      -0.00440674 </v>
   <v>      -0.00030247      -0.00185341       0.00312688 </v>
   <v>      -0.00845836       0.00462097      -0.01733614 </v>
   <v>       0.00111661      -0.00859174      -0.00961811 </v>
   <v>       0.00168793       0.00455663       0.00096329 </v>
   <v>       0.00608371       0.02003141       0.01850982 </v>
  </varray>
  <varray name="stress" >
   <v>       8.80753096       0.24674102       0.06654401 </v>
   <v>       0.24674001     -10.10194211       0.11889096 </v>
   <v>       0.06654252       0.11889283      -1.14075190 </v>
  </varray>
  <energy>
   <i name="e_fr_energy">    -49.85699592 </i>
   <i name="e_wo_entrp">    -49.85699592 </i>
   <i name="e_0_energy">     -0.00000000 </i>
  </energy>
  <time name="totalsc">  607.01  612.47</time>
 </calculation>
 <calculation>
  <scstep>
   <time name="dav">   15.78   15.82</time>
   <time name="total">  123.25  123.47</time>
   <energy>
    <i name="alphaZ">     15.92198659 </i>
    <i name="ewald">   1283.27529087 </i>
    <i name="hartreedc">  -2465.33860115 </i>
    <i name="XCdc">   -170.56030126 </i>
    <i name="pawpsdc">   1745.27431399 </i>
    <i name="pawaedc">  -1466.73710350 </i>
    <i name="eentropy">     -0.00000000 </i>
    <i name="bandstr">   -325.42092954 </i>
    <i name="atom">   1333.72818728 </i>
    <i name="e_fr_energy">    -49.85715673 </i>
    <i name="e_wo_entrp">    -49.85715673 </i>
    <i name="e_0_energy">    -49.85715673 </i>
   </energy>
  </scstep>
  <scstep>
   <time name="dav">   19.97   19.98</time>
   <time name="total">  124.93  125.09</time>
   <energy>
    <i name="e_fr_energy">    -49.85717217 </i>
    <i name="e_wo_entrp">    -49.85717217 </i>
    <i name="e_0_energy">    -49.85717217 </i>
   </energy>
  </scstep>
  <scstep>
   <time name="dav">   13.58   13.61</time>
   <time name="total">  114.25  114.32</time>
   <energy>
    <i name="alphaZ">     15.92198659 </i>
    <i name="ewald">   1283.27529087 </i>
    <i name="hartreedc">  -2465.33626849 </i>
    <i name="XCdc">   -170.56015624 </i>
    <i name="pawpsdc">   1745.33019067 </i>
    <i name="pawaedc">  -1466.79314650 </i>
    <i name="eentropy">     -0.00000000 </i>
    <i name="bandstr">   -325.42325621 </i>
    <i name="atom">   1333.72818728 </i>
    <i name="e_fr_energy">    -49.85717202 </i>
    <i name="e_wo_entrp">    -49.85717202 </i>
    <i name="e_0_energy">    -49.85717202 </i>
   </energy>
  </scstep>
  <structure>
   <crystal>
    <varray name="basis" >
     <v>       6.01920000       0.00000000       0.00000000 </v>
     <v>       0.00000000      10.14000000       0.00000000 </v>
     <v>       0.00000000       0.00000000      15.00000000 </v>
    </varray>
    <i name="volume">    915.52032000 </i>
    <varray name="rec_basis" >
     <v>       0.16613503       0.00000000       0.00000000 </v>
     <v>       0.00000000       0.09861933       0.00000000 </v>
     <v>       0.00000000       0.00000000       0.06666667 </v>
    </varray>
   </crystal>
   <varray name="positions" >
    <v>       0.44451228       0.88193393       0.22368163 </v>
    <v>       0.94415129       0.88279622       0.27338009 </v>
    <v>       0.44555045       0.61903693       0.22540929 </v>
    <v>       0.94548730       0.62097976       0.27694560 </v>
    <v>       0.44281748       0.38155672       0.28000241 </v>
    <v>       0.94430727       0.38339367       0.22614593 </v>
    <v>       0.44308530       0.12093491       0.27225610 </v>
    <v>       0.94374280       0.12052615       0.22381389 </v>
    <v>       0.19393145       0.00110540       0.24749049 </v>
    <v>       0.69383448       0.00151998       0.24885211 </v>
    <v>       0.19473200       0.50163557       0.25133362 </v>
    <v>       0.69462005       0.50145464       0.25492627 </v>
    <v>       0.54028080       0.42843686       0.47862268 </v>
    <v>       0.74833069       0.34862772       0.47748862 </v>
    <v>       0.44138723       0.33795504       0.54729127 </v>
   </varray>
  </structure>
  <varray name="forces" >
   <v>       0.00027724       0.01257717       0.00978234 </v>
   <v>      -0.00181590      -0.01111789       0.01572646 </v>
   <v>       0.00246251       0.00385059      -0.00002610 </v>
   <v>      -0.00520223      -0.00055236       0.01488976 </v>
   <v>       0.00124359       0.00187815       0.00718513 </v>
   <v>      -0.00777358      -0.01172027      -0.00277568 </v>
   <v>       0.00579067      -0.00525004      -0.01087833 </v>
   <v>      -0.00213953      -0.00369687      -0.02174268 </v>
   <v>      -0.00320661      -0.00050487      -0.00583355 </v>
   <v>       0.00467000      -0.00128533      -0.00494702 </v>
   <v>       0.00286643      -0.00186112       0.00387666 </v>
   <v>      -0.00738356       0.00045027      -0.01653055 </v>
   <v>       0.00332050      -0.00484386      -0.01237988 </v>
   <v>       0.00182332       0.00439749       0.00186076 </v>
   <v>       0.00506714       0.01767893       0.02179267 </v>
  </varray>
  <varray name="stress" >
   <v>       8.81504061       0.24068193       0.06639109 </v>
   <v>       0.24068086     -10.08639813       0.13328307 </v>
   <v>       0.06638956       0.13328500      -1.12800080 </v>
  </varray>
  <energy>
   <i name="e_fr_energy">    -49.85717202 </i>
   <i name="e_wo_entrp">    -49.85717202 </i>
   <i name="e_0_energy">     -0.00000000 </i>
  </energy>
  <time name="totalsc">  588.98  590.85</time>
 </calculation>
 <calculation>
  <scstep>
   <time name="dav">   15.65   15.71</time>
   <time name="total">  118.02  118.24</time>
   <energy>
    <i name="alphaZ">     15.92198659 </i>
    <i name="ewald">   1282.69260388 </i>
    <i name="hartreedc">  -2464.71176792 </i>
    <i name="XCdc">   -170.55786713 </i>
    <i name="pawpsdc">   1745.35710373 </i>
    <i name="pawaedc">  -1466.82012256 </i>
    <i name="eentropy">     -0.00000000 </i>
    <i name="bandstr">   -325.46738616 </i>
    <i name="atom">   1333.72818728 </i>
    <i name="e_fr_energy">    -49.85726228 </i>
    <i name="e_wo_entrp">    -49.85726228 </i>
    <i name="e_0_energy">    -49.85726228 </i>
   </energy>
  </scstep>
  <scstep>
   <time name="dav">   20.79   20.79</time>
   <time name="total">  123.50  123.77</time>
   <energy>
    <i name="e_fr_energy">    -49.85740092 </i>
    <i name="e_wo_entrp">    -49.85740092 </i>
    <i name="e_0_energy">    -49.85740092 </i>
   </energy>
  </scstep>
  <scstep>
   <time name="dav">   19.22   19.29</time>
   <time name="total">  122.06  122.23</time>
   <energy>
    <i name="alphaZ">     15.92198659 </i>
    <i name="ewald">   1282.69260388 </i>
    <i name="hartreedc">  -2464.71983475 </i>
    <i name="XCdc">   -170.55686762 </i>
    <i name="pawpsdc">   1745.53081164 </i>
    <i name="pawaedc">  -1466.99450856 </i>
    <i name="eentropy">     -0.00000000 </i>
    <i name="bandstr">   -325.45977534 </i>
    <i name="atom">   1333.72818728 </i>
    <i name="e_fr_energy">    -49.85739688 </i>
    <i name="e_wo_entrp">    -49.85739688 </i>
    <i name="e_0_energy">    -49.85739688 </i>
   </energy>
  </scstep>
  <structure>
   <crystal>
    <varray name="basis" >
     <v>       6.01920000       0.00000000       0.00000000 </v>
     <v>       0.00000000      10.14000000       0.00000000 </v>
     <v>       0.00000000       0.00000000      15.00000000 </v>
    </varray>
    <i name="volume">    915.52032000 </i>
    <varray name="rec_basis" >
     <v>       0.16613503       0.00000000       0.00000000 </v>
     <v>       0.00000000       0.09861933       0.00000000 </v>
     <v>       0.00000000       0.00000000       0.06666667 </v>
    </varray>
   </crystal>
   <varray name="positions" >
    <v>       0.44442407       0.88210144       0.22365153 </v>
    <v>       0.94410265       0.88263337       0.27339632 </v>
    <v>       0.44566857       0.61893839       0.22535317 </v>
    <v>       0.94532712       0.62097961       0.27694519 </v>
    <v>       0.44285369       0.38143624       0.27996054 </v>
    <v>       0.94413354       0.38333075       0.22619945 </v>
    <v>       0.44312248       0.12066433       0.27204734 </v>
    <v>       0.94367557       0.12054066       0.22366837 </v>
    <v>       0.19370452       0.00104852       0.24737732 </v>
    <v>       0.69394561       0.00146622       0.24879786 </v>
    <v>       0.19461022       0.50157399       0.25132795 </v>
    <v>       0.69451451       0.50146387       0.25487003 </v>
    <v>       0.54043788       0.42851201       0.47871791 </v>
    <v>       0.74842601       0.34864997       0.47762765 </v>
    <v>       0.44182443       0.33855411       0.54769936 </v>
   </varray>
  </structure>
  <varray name="forces" >
   <v>       0.00361348      -0.03620823      -0.00165129 </v>
   <v>      -0.00233347       0.00935309       0.00783851 </v>
   <v>      -0.02189218       0.01899537       0.00153076 </v>
   <v>       0.00672210      -0.01220165       0.01368150 </v>
   <v>      -0.00996276       0.00425550       0.00247347 </v>
   <v>       0.00031602      -0.00514389      -0.00770343 </v>
   <v>      -0.00085678       0.04018700       0.00675865 </v>
   <v>      -0.00209486      -0.01446409      -0.01335515 </v>
   <v>       0.00687306       0.00085599      -0.00510769 </v>
   <v>      -0.00150979      -0.00708389      -0.00713094 </v>
   <v>       0.01016347      -0.00063470       0.00625782 </v>
   <v>       0.00025995      -0.01191695      -0.00934741 </v>
   <v>       0.00907798       0.00277178      -0.02206550 </v>
   <v>       0.00172568       0.00389931       0.00174713 </v>
   <v>      -0.00010192       0.00733536       0.02607356 </v>
  </varray>
  <varray name="stress" >
   <v>       8.83925407       0.21458183       0.06669808 </v>
   <v>       0.21458084     -10.01982695       0.18109441 </v>
   <v>       0.06669655       0.18109618      -1.11166420 </v>
  </varray>
  <energy>
   <i name="e_fr_energy">    -49.85739688 </i>
   <i name="e_wo_entrp">    -49.85739688 </i>
   <i name="e_0_energy">     -0.00000000 </i>
  </energy>
  <time name="totalsc">  594.76  596.97</time>
 </calculation>
 <calculation>
  <scstep>
   <time name="dav">   17.54   17.56</time>
   <time name="total">  122.21  122.30</time>
   <energy>
    <i name="alphaZ">     15.92198659 </i>
    <i name="ewald">   1282.47057290 </i>
    <i name="hartreedc">  -2464.52487977 </i>
    <i name="XCdc">   -170.55841685 </i>
    <i name="pawpsdc">   1745.60341912 </i>
    <i name="pawaedc">  -1467.06737952 </i>
    <i name="eentropy">     -0.00000000 </i>
    <i name="bandstr">   -325.43103261 </i>
    <i name="atom">   1333.72818728 </i>
    <i name="e_fr_energy">    -49.85754287 </i>
    <i name="e_wo_entrp">    -49.85754287 </i>
    <i name="e_0_energy">    -49.85754287 </i>
   </energy>
  </scstep>
  <scstep>
   <time name="dav">   19.99   20.02</time>
   <time name="total">  122.75  122.88</time>
   <energy>
    <i name="e_fr_energy">    -49.85755296 </i>
    <i name="e_wo_entrp">    -49.85755296 </i>
    <i name="e_0_energy">    -49.85755296 </i>
   </energy>
  </scstep>
  <scstep>
   <time name="dav">   13.40   13.44</time>
   <time name="total">  120.08  120.23</time>
   <energy>
    <i name="alphaZ">     15.92198659 </i>
    <i name="ewald">   1282.47057290 </i>
    <i name="hartreedc">  -2464.49920161 </i>
    <i name="XCdc">   -170.55974346 </i>
    <i name="pawpsdc">   1745.45870305 </i>
    <i name="pawaedc">  -1466.92199881 </i>
    <i name="eentropy">     -0.00000000 </i>
    <i name="bandstr">   -325.45606287 </i>
    <i name="atom">   1333.72818728 </i>
    <i name="e_fr_energy">    -49.85755691 </i>
    <i name="e_wo_entrp">    -49.85755691 </i>
    <i name="e_0_energy">    -49.85755691 </i>
   </energy>
  </scstep>
  <structure>
   <crystal>
    <varray name="basis" >
     <v>       6.01920000       0.00000000       0.00000000 </v>
     <v>       0.00000000      10.14000000       0.00000000 </v>
     <v>       0.00000000       0.00000000      15.00000000 </v>
    </varray>
    <i name="volume">    915.52032000 </i>
    <varray name="rec_basis" >
     <v>       0.16613503       0.00000000       0.00000000 </v>
     <v>       0.00000000       0.09861933       0.00000000 </v>
     <v>       0.00000000       0.00000000       0.06666667 </v>
    </varray>
   </crystal>
   <varray name="positions" >
    <v>       0.44440957       0.88207673       0.22363981 </v>
    <v>       0.94407921       0.88260262       0.27341259 </v>
    <v>       0.44562709       0.61894804       0.22533794 </v>
    <v>       0.94530137       0.62095370       0.27696467 </v>
    <v>       0.44282937       0.38140784       0.27995108 </v>
    <v>       0.94408071       0.38330031       0.22620503 </v>
    <v>       0.44313097       0.12066546       0.27199219 </v>
    <v>       0.94364721       0.12051451       0.22360403 </v>
    <v>       0.19365857       0.00103267       0.24733485 </v>
    <v>       0.69397474       0.00143451       0.24877080 </v>
    <v>       0.19460868       0.50155351       0.25133516 </v>
    <v>       0.69448265       0.50144148       0.25483917 </v>
    <v>       0.54051908       0.42854123       0.47871588 </v>
    <v>       0.74846178       0.34866515       0.47767334 </v>
    <v>       0.44195987       0.33875573       0.54786347 </v>
   </varray>
  </structure>
  <varray name="forces" >
   <v>       0.00301187      -0.03434247      -0.00240815 </v>
   <v>      -0.00049279       0.01124581       0.00593928 </v>
   <v>      -0.02186991       0.01256637       0.00292024 </v>
   <v>       0.00696778      -0.01532380       0.01225271 </v>
   <v>      -0.00946772       0.00758361       0.00014837 </v>
   <v>       0.00312003      -0.00333963      -0.00996221 </v>
   <v>      -0.00235694       0.03472314       0.00668377 </v>
   <v>      -0.00149671      -0.01547558      -0.01238337 </v>
   <v>       0.01293114       0.00117289      -0.00357789 </v>
   <v>      -0.00937646      -0.00596247      -0.00632777 </v>
   <v>       0.00557024       0.00016615       0.00529610 </v>
   <v>       0.00045494      -0.01052763      -0.00737489 </v>
   <v>       0.00391100       0.00114194      -0.01562295 </v>
   <v>       0.00463079       0.00195467       0.00239442 </v>
   <v>       0.00446274       0.01441698       0.02202233 </v>
  </varray>
  <varray name="stress" >
   <v>       8.82815561       0.18876857       0.07657730 </v>
   <v>       0.18876749     -10.05703663       0.19098710 </v>
   <v>       0.07657578       0.19098899      -1.13415584 </v>
  </varray>
  <energy>
   <i name="e_fr_energy">    -49.85755691 </i>
   <i name="e_wo_entrp">    -49.85755691 </i>
   <i name="e_0_energy">     -0.00000000 </i>
  </energy>
  <time name="totalsc">  600.50  601.75</time>
 </calculation>
 <calculation>
  <scstep>
   <time name="dav">   16.98   17.00</time>
   <time name="total">  121.13  121.25</time>
   <energy>
    <i name="alphaZ">     15.92198659 </i>
    <i name="ewald">   1281.80262871 </i>
    <i name="hartreedc">  -2463.90619103 </i>
    <i name="XCdc">   -170.56578358 </i>
    <i name="pawpsdc">   1745.45266063 </i>
    <i name="pawaedc">  -1466.91597502 </i>
    <i name="eentropy">     -0.00000000 </i>
    <i name="bandstr">   -325.37525763 </i>
    <i name="atom">   1333.72818728 </i>
    <i name="e_fr_energy">    -49.85774404 </i>
    <i name="e_wo_entrp">    -49.85774404 </i>
    <i name="e_0_energy">    -49.85774404 </i>
   </energy>
  </scstep>
  <scstep>
   <time name="dav">   21.05   21.15</time>
   <time name="total">  129.02  129.39</time>
   <energy>
    <i name="e_fr_energy">    -49.85786308 </i>
    <i name="e_wo_entrp">    -49.85786308 </i>
    <i name="e_0_energy">    -49.85786308 </i>
   </energy>
  </scstep>
  <scstep>
   <time name="dav">   20.33   20.42</time>
   <time name="total">  122.89  123.40</time>
   <energy>
    <i name="alphaZ">     15.92198659 </i>
    <i name="ewald">   1281.80262871 </i>
    <i name="hartreedc">  -2463.86118706 </i>
    <i name="XCdc">   -170.56762227 </i>
    <i name="pawpsdc">   1745.09686691 </i>
    <i name="pawaedc">  -1466.55887592 </i>
    <i name="eentropy">     -0.00000000 </i>
    <i name="bandstr">   -325.41985112 </i>
    <i name="atom">   1333.72818728 </i>
    <i name="e_fr_energy">    -49.85786688 </i>
    <i name="e_wo_entrp">    -49.85786688 </i>
    <i name="e_0_energy">    -49.85786688 </i>
   </energy>
  </scstep>
  <structure>
   <crystal>
    <varray name="basis" >
     <v>       6.01920000       0.00000000       0.00000000 </v>
     <v>       0.00000000      10.14000000       0.00000000 </v>
     <v>       0.00000000       0.00000000      15.00000000 </v>
    </varray>
    <i name="volume">    915.52032000 </i>
    <varray name="rec_basis" >
     <v>       0.16613503       0.00000000       0.00000000 </v>
     <v>       0.00000000       0.09861933       0.00000000 </v>
     <v>       0.00000000       0.00000000       0.06666667 </v>
    </varray>
   </crystal>
   <varray name="positions" >
    <v>       0.44436607       0.88200260       0.22360467 </v>
    <v>       0.94400889       0.88251035       0.27346140 </v>
    <v>       0.44550266       0.61897698       0.22529223 </v>
    <v>       0.94522412       0.62087599       0.27702310 </v>
    <v>       0.44275640       0.38132264       0.27992270 </v>
    <v>       0.94392221       0.38320898       0.22622178 </v>
    <v>       0.44315644       0.12066885       0.27182672 </v>
    <v>       0.94356213       0.12043606       0.22341103 </v>
    <v>       0.19352073       0.00098511       0.24720744 </v>
    <v>       0.69406213       0.00133938       0.24868960 </v>
    <v>       0.19460406       0.50149210       0.25135677 </v>
    <v>       0.69438710       0.50137431       0.25474658 </v>
    <v>       0.54076269       0.42862888       0.47870977 </v>
    <v>       0.74856908       0.34871068       0.47781040 </v>
    <v>       0.44236616       0.33936060       0.54835581 </v>
   </varray>
  </structure>
  <varray name="forces" >
   <v>       0.00142319      -0.02454866      -0.00289789 </v>
   <v>       0.00596878       0.02092051       0.00077626 </v>
   <v>      -0.01926824      -0.00342237       0.00858865 </v>
   <v>       0.00869612      -0.02174545       0.00951947 </v>
   <v>      -0.00753378       0.01701406      -0.00478154 </v>
   <v>       0.01333867       0.00320059      -0.01469088 </v>
   <v>      -0.00645499       0.01998996       0.00907558 </v>
   <v>       0.00201572      -0.01988901      -0.00664733 </v>
   <v>       0.03240153       0.00064931      -0.00111741 </v>
   <v>      -0.03333137      -0.00345582      -0.00559844 </v>
   <v>      -0.00890176       0.00005087       0.00640369 </v>
   <v>      -0.00069837      -0.00502230      -0.00123923 </v>
   <v>      -0.01371982      -0.00819210       0.00165859 </v>
   <v>       0.01185096      -0.00337622       0.00152543 </v>
   <v>       0.01421336       0.02782661      -0.00057496 </v>
  </varray>
  <varray name="stress" >
   <v>       8.80493564       0.13200225       0.09321027 </v>
   <v>       0.13200137     -10.15468441       0.22814517 </v>
   <v>       0.09320865       0.22814712      -1.19629501 </v>
  </varray>
  <energy>
   <i name="e_fr_energy">    -49.85786688 </i>
   <i name="e_wo_entrp">    -49.85786688 </i>
   <i name="e_0_energy">     -0.00000000 </i>
  </energy>
  <time name="totalsc">  607.82  610.32</time>
 </calculation>
 <calculation>
  <scstep>
   <time name="dav">   16.96   17.00</time>
   <time name="total">  125.30  125.41</time>
   <energy>
    <i name="alphaZ">     15.92198659 </i>
    <i name="ewald">   1280.45847964 </i>
    <i name="hartreedc">  -2462.66303208 </i>
    <i name="XCdc">   -170.58023237 </i>
    <i name="pawpsdc">   1745.03086185 </i>
    <i name="pawaedc">  -1466.49267590 </i>
    <i name="eentropy">     -0.00000000 </i>
    <i name="bandstr">   -325.26101314 </i>
    <i name="atom">   1333.72818728 </i>
    <i name="e_fr_energy">    -49.85743813 </i>
    <i name="e_wo_entrp">    -49.85743813 </i>
    <i name="e_0_energy">    -49.85743813 </i>
   </energy>
  </scstep>
  <scstep>
   <time name="dav">   19.18   19.20</time>
   <time name="total">  123.64  123.75</time>
   <energy>
    <i name="e_fr_energy">    -49.85794126 </i>
    <i name="e_wo_entrp">    -49.85794126 </i>
    <i name="e_0_energy">    -49.85794126 </i>
   </energy>
  </scstep>
  <scstep>
   <time name="dav">   20.85   20.88</time>
   <time name="total">  125.52  125.67</time>
   <energy>
    <i name="e_fr_energy">    -49.85794367 </i>
    <i name="e_wo_entrp">    -49.85794367 </i>
    <i name="e_0_energy">    -49.85794367 </i>
   </energy>
  </scstep>
  <scstep>
   <time name="dav">   17.93   17.94</time>
   <time name="total">  126.34  126.48</time>
   <energy>
    <i name="e_fr_energy">    -49.85797729 </i>
    <i name="e_wo_entrp">    -49.85797729 </i>
    <i name="e_0_energy">    -49.85797729 </i>
   </energy>
  </scstep>
  <scstep>
   <time name="dav">   14.72   14.75</time>
   <time name="total">  119.97  120.07</time>
   <energy>
    <i name="alphaZ">     15.92198659 </i>
    <i name="ewald">   1280.45847964 </i>
    <i name="hartreedc">  -2462.57211158 </i>
    <i name="XCdc">   -170.58365663 </i>
    <i name="pawpsdc">   1744.20025587 </i>
    <i name="pawaedc">  -1465.65922605 </i>
    <i name="eentropy">     -0.00000000 </i>
    <i name="bandstr">   -325.35189151 </i>
    <i name="atom">   1333.72818728 </i>
    <i name="e_fr_energy">    -49.85797637 </i>
    <i name="e_wo_entrp">    -49.85797637 </i>
    <i name="e_0_energy">    -49.85797637 </i>
   </energy>
  </scstep>
  <structure>
   <crystal>
    <varray name="basis" >
     <v>       6.01920000       0.00000000       0.00000000 </v>
     <v>       0.00000000      10.14000000       0.00000000 </v>
     <v>       0.00000000       0.00000000      15.00000000 </v>
    </varray>
    <i name="volume">    915.52032000 </i>
    <varray name="rec_basis" >
     <v>       0.16613503       0.00000000       0.00000000 </v>
     <v>       0.00000000       0.09861933       0.00000000 </v>
     <v>       0.00000000       0.00000000       0.06666667 </v>
    </varray>
   </crystal>
   <varray name="positions" >
    <v>       0.44427908       0.88185433       0.22353438 </v>
    <v>       0.94386826       0.88232580       0.27355903 </v>
    <v>       0.44525380       0.61903488       0.22520080 </v>
    <v>       0.94506961       0.62072056       0.27713995 </v>
    <v>       0.44261046       0.38115224       0.27986594 </v>
    <v>       0.94360522       0.38302632       0.22625529 </v>
    <v>       0.44320738       0.12067562       0.27149578 </v>
    <v>       0.94339197       0.12027916       0.22302502 </v>
    <v>       0.19324506       0.00089000       0.24695263 </v>
    <v>       0.69423690       0.00114910       0.24852721 </v>
    <v>       0.19459482       0.50136926       0.25140001 </v>
    <v>       0.69419598       0.50123997       0.25456141 </v>
    <v>       0.54124990       0.42880418       0.47869756 </v>
    <v>       0.74878368       0.34880174       0.47808452 </v>
    <v>       0.44317875       0.34057033       0.54934048 </v>
   </varray>
  </structure>
  <varray name="forces" >
   <v>      -0.00229262      -0.00600383      -0.00471809 </v>
   <v>       0.01891148       0.03951850      -0.00984616 </v>
   <v>      -0.01413398      -0.03505088       0.01862855 </v>
   <v>       0.01053449      -0.03495093       0.00393575 </v>
   <v>      -0.00269389       0.03518253      -0.01517896 </v>
   <v>       0.03290374       0.01535115      -0.02508776 </v>
   <v>      -0.01447880      -0.01030484       0.01207805 </v>
   <v>       0.00812392      -0.02805511       0.00307217 </v>
   <v>       0.06926947      -0.00092278       0.00180045 </v>
   <v>      -0.07978549       0.00078737      -0.00616245 </v>
   <v>      -0.03729372      -0.00093232       0.00787050 </v>
   <v>      -0.00340655       0.00446961       0.00909747 </v>
   <v>      -0.05166576      -0.02777112       0.04388171 </v>
   <v>       0.02831388      -0.01382788       0.00202066 </v>
   <v>       0.03769383       0.06251053      -0.04139190 </v>
  </varray>
  <varray name="stress" >
   <v>       8.76704148      -0.00136254       0.13068396 </v>
   <v>      -0.00136329     -10.35565668       0.30599498 </v>
   <v>       0.13068219       0.30599680      -1.32182158 </v>
  </varray>
  <energy>
   <i name="e_fr_energy">    -49.85797637 </i>
   <i name="e_wo_entrp">    -49.85797637 </i>
   <i name="e_0_energy">     -0.00000000 </i>
  </energy>
  <time name="totalsc">  852.37  854.35</time>
 </calculation>
 <calculation>
  <scstep>
   <time name="dav">   14.84   14.86</time>
   <time name="total">  117.96  118.02</time>
   <energy>
    <i name="alphaZ">     15.92198659 </i>
    <i name="ewald">   1281.10020859 </i>
    <i name="hartreedc">  -2463.13940614 </i>
    <i name="XCdc">   -170.57779839 </i>
    <i name="pawpsdc">   1744.19555852 </i>
    <i name="pawaedc">  -1465.65449495 </i>
    <i name="eentropy">     -0.00000000 </i>
    <i name="bandstr">   -325.43214579 </i>
    <i name="atom">   1333.72818728 </i>
    <i name="e_fr_energy">    -49.85790428 </i>
    <i name="e_wo_entrp">    -49.85790428 </i>
    <i name="e_0_energy">    -49.85790428 </i>
   </energy>
  </scstep>
  <scstep>
   <time name="dav">   17.87   17.88</time>
   <time name="total">  119.88  119.97</time>
   <energy>
    <i name="e_fr_energy">    -49.85801229 </i>
    <i name="e_wo_entrp">    -49.85801229 </i>
    <i name="e_0_energy">    -49.85801229 </i>
   </energy>
  </scstep>
  <scstep>
   <time name="dav">   20.22   20.24</time>
   <time name="total">  126.02  126.08</time>
   <energy>
    <i name="alphaZ">     15.92198659 </i>
    <i name="ewald">   1281.10020859 </i>
    <i name="hartreedc">  -2463.18349334 </i>
    <i name="XCdc">   -170.57595263 </i>
    <i name="pawpsdc">   1744.54847640 </i>
    <i name="pawaedc">  -1466.00870288 </i>
    <i name="eentropy">     -0.00000000 </i>
    <i name="bandstr">   -325.38872685 </i>
    <i name="atom">   1333.72818728 </i>
    <i name="e_fr_energy">    -49.85801683 </i>
    <i name="e_wo_entrp">    -49.85801683 </i>
    <i name="e_0_energy">    -49.85801683 </i>
   </energy>
  </scstep>
  <structure>
   <crystal>
    <varray name="basis" >
     <v>       6.01920000       0.00000000       0.00000000 </v>
     <v>       0.00000000      10.14000000       0.00000000 </v>
     <v>       0.00000000       0.00000000      15.00000000 </v>
    </varray>
    <i name="volume">    915.52032000 </i>
    <varray name="rec_basis" >
     <v>       0.16613503       0.00000000       0.00000000 </v>
     <v>       0.00000000       0.09861933       0.00000000 </v>
     <v>       0.00000000       0.00000000       0.06666667 </v>
    </varray>
   </crystal>
   <varray name="positions" >
    <v>       0.44432052       0.88192497       0.22356787 </v>
    <v>       0.94393526       0.88241372       0.27351252 </v>
    <v>       0.44537236       0.61900730       0.22524436 </v>
    <v>       0.94514322       0.62079461       0.27708428 </v>
    <v>       0.44267998       0.38123342       0.27989298 </v>
    <v>       0.94375624       0.38311334       0.22623933 </v>
    <v>       0.44318311       0.12067240       0.27165344 </v>
    <v>       0.94347304       0.12035391       0.22320892 </v>
    <v>       0.19337639       0.00093531       0.24707403 </v>
    <v>       0.69415364       0.00123975       0.24860457 </v>
    <v>       0.19459922       0.50142778       0.25137941 </v>
    <v>       0.69428703       0.50130397       0.25464963 </v>
    <v>       0.54101779       0.42872067       0.47870338 </v>
    <v>       0.74868144       0.34875836       0.47795392 </v>
    <v>       0.44279163       0.33999400       0.54887137 </v>
   </varray>
  </structure>
  <varray name="forces" >
   <v>      -0.00074312      -0.01518820      -0.00427200 </v>
   <v>       0.01275700       0.03067932      -0.00486529 </v>
   <v>      -0.01682616      -0.01980973       0.01330420 </v>
   <v>       0.00938345      -0.02858479       0.00682417 </v>
   <v>      -0.00485148       0.02619251      -0.01008910 </v>
   <v>       0.02341262       0.00953570      -0.02049593 </v>
   <v>      -0.01092046       0.00444502       0.00966869 </v>
   <v>       0.00498535      -0.02392812      -0.00269704 </v>
   <v>       0.04931273      -0.00083693      -0.00185500 </v>
   <v>      -0.05649682      -0.00360846      -0.00754274 </v>
   <v>      -0.02386799      -0.00203099       0.00743267 </v>
   <v>      -0.00338327      -0.00192677       0.00203247 </v>
   <v>      -0.03333422      -0.01794978       0.02548359 </v>
   <v>       0.02162080      -0.00800496       0.00359083 </v>
   <v>       0.02895156       0.05101619      -0.01651949 </v>
  </varray>
  <varray name="stress" >
   <v>       8.78693672       0.05398142       0.11246907 </v>
   <v>       0.05398069     -10.27055279       0.26692237 </v>
   <v>       0.11246735       0.26692414      -1.25817045 </v>
  </varray>
  <energy>
   <i name="e_fr_energy">    -49.85801683 </i>
   <i name="e_wo_entrp">    -49.85801683 </i>
   <i name="e_0_energy">     -0.00000000 </i>
  </energy>
  <time name="totalsc">  595.30  597.37</time>
 </calculation>
 <calculation>
  <scstep>
   <time name="dav">   15.26   15.26</time>
   <time name="total">  115.90  115.90</time>
   <energy>
    <i name="alphaZ">     15.92198659 </i>
    <i name="ewald">   1280.83576569 </i>
    <i name="hartreedc">  -2462.95431685 </i>
    <i name="XCdc">   -170.57827170 </i>
    <i name="pawpsdc">   1744.62222886 </i>
    <i name="pawaedc">  -1466.08268447 </i>
    <i name="eentropy">     -0.00000000 </i>
    <i name="bandstr">   -325.35090949 </i>
    <i name="atom">   1333.72818728 </i>
    <i name="e_fr_energy">    -49.85801408 </i>
    <i name="e_wo_entrp">    -49.85801408 </i>
    <i name="e_0_energy">    -49.85801408 </i>
   </energy>
  </scstep>
  <scstep>
   <time name="dav">   18.21   18.21</time>
   <time name="total">  119.63  119.63</time>
   <energy>
    <i name="e_fr_energy">    -49.85803070 </i>
    <i name="e_wo_entrp">    -49.85803070 </i>
    <i name="e_0_energy">    -49.85803070 </i>
   </energy>
  </scstep>
  <scstep>
   <time name="dav">   13.19   13.19</time>
   <time name="total">  113.47  113.47</time>
   <energy>
    <i name="alphaZ">     15.92198659 </i>
    <i name="ewald">   1280.83576569 </i>
    <i name="hartreedc">  -2462.93052883 </i>
    <i name="XCdc">   -170.57940465 </i>
    <i name="pawpsdc">   1744.46992364 </i>
    <i name="pawaedc">  -1465.92974337 </i>
    <i name="eentropy">     -0.00000000 </i>
    <i name="bandstr">   -325.37421506 </i>
    <i name="atom">   1333.72818728 </i>
    <i name="e_fr_energy">    -49.85802869 </i>
    <i name="e_wo_entrp">    -49.85802869 </i>
    <i name="e_0_energy">    -49.85802869 </i>
   </energy>
  </scstep>
  <structure>
   <crystal>
    <varray name="basis" >
     <v>       6.01920000       0.00000000       0.00000000 </v>
     <v>       0.00000000      10.14000000       0.00000000 </v>
     <v>       0.00000000       0.00000000      15.00000000 </v>
    </varray>
    <i name="volume">    915.52032000 </i>
    <varray name="rec_basis" >
     <v>       0.16613503       0.00000000       0.00000000 </v>
     <v>       0.00000000       0.09861933       0.00000000 </v>
     <v>       0.00000000       0.00000000       0.06666667 </v>
    </varray>
   </crystal>
   <varray name="positions" >
    <v>       0.44430343       0.88189583       0.22355405 </v>
    <v>       0.94390762       0.88237745       0.27353171 </v>
    <v>       0.44532345       0.61901868       0.22522639 </v>
    <v>       0.94511285       0.62076406       0.27710725 </v>
    <v>       0.44265130       0.38119993       0.27988182 </v>
    <v>       0.94369393       0.38307744       0.22624591 </v>
    <v>       0.44319312       0.12067373       0.27158840 </v>
    <v>       0.94343960       0.12032307       0.22313305 </v>
    <v>       0.19332221       0.00091661       0.24702394 </v>
    <v>       0.69418799       0.00120235       0.24857266 </v>
    <v>       0.19459741       0.50140364       0.25138791 </v>
    <v>       0.69424947       0.50127756       0.25461323 </v>
    <v>       0.54111355       0.42875512       0.47870098 </v>
    <v>       0.74872362       0.34877626       0.47800780 </v>
    <v>       0.44295134       0.34023176       0.54906490 </v>
   </varray>
  </structure>
  <varray name="forces" >
   <v>      -0.00100666      -0.01115128      -0.00396358 </v>
   <v>       0.01474250       0.03466498      -0.00644020 </v>
   <v>      -0.01560944      -0.02578068       0.01605458 </v>
   <v>       0.00993226      -0.03068815       0.00625836 </v>
   <v>      -0.00411480       0.03017898      -0.01172594 </v>
   <v>       0.02692179       0.01213064      -0.02191052 </v>
   <v>      -0.01221296      -0.00075807       0.01148314 </v>
   <v>       0.00603759      -0.02591048       0.00051111 </v>
   <v>       0.05737143      -0.00080732      -0.00098036 </v>
   <v>      -0.06502480      -0.00229896      -0.00807192 </v>
   <v>      -0.02899001      -0.00130543       0.00801688 </v>
   <v>      -0.00320620       0.00064592       0.00520965 </v>
   <v>      -0.03907340      -0.02132602       0.03215783 </v>
   <v>       0.02335852      -0.01017067       0.00235887 </v>
   <v>       0.03087421       0.05257655      -0.02895790 </v>
  </varray>
  <varray name="stress" >
   <v>       8.77366637       0.04088773       0.11736124 </v>
   <v>       0.04088695     -10.30305996       0.28321580 </v>
   <v>       0.11735942       0.28321765      -1.29007227 </v>
  </varray>
  <energy>
   <i name="e_fr_energy">    -49.85802869 </i>
   <i name="e_wo_entrp">    -49.85802869 </i>
   <i name="e_0_energy">     -0.00000000 </i>
  </energy>
  <time name="totalsc">  572.97  573.96</time>
 </calculation>
 <calculation>
  <scstep>
   <time name="dav">   15.58   15.64</time>
   <time name="total">  117.51  117.66</time>
   <energy>
    <i name="alphaZ">     15.92198659 </i>
    <i name="ewald">   1280.69693723 </i>
    <i name="hartreedc">  -2462.79182033 </i>
    <i name="XCdc">   -170.57995912 </i>
    <i name="pawpsdc">   1744.43580726 </i>
    <i name="pawaedc">  -1465.89552889 </i>
    <i name="eentropy">     -0.00000000 </i>
    <i name="bandstr">   -325.37372899 </i>
    <i name="atom">   1333.72818728 </i>
    <i name="e_fr_energy">    -49.85811898 </i>
    <i name="e_wo_entrp">    -49.85811898 </i>
    <i name="e_0_energy">    -49.85811898 </i>
   </energy>
  </scstep>
  <scstep>
   <time name="dav">   18.23   18.30</time>
   <time name="total">  119.09  119.25</time>
   <energy>
    <i name="alphaZ">     15.92198659 </i>
    <i name="ewald">   1280.69693723 </i>
    <i name="hartreedc">  -2462.79383821 </i>
    <i name="XCdc">   -170.57978106 </i>
    <i name="pawpsdc">   1744.43473874 </i>
    <i name="pawaedc">  -1465.89449611 </i>
    <i name="eentropy">     -0.00000000 </i>
    <i name="bandstr">   -325.37185802 </i>
    <i name="atom">   1333.72818728 </i>
    <i name="e_fr_energy">    -49.85812356 </i>
    <i name="e_wo_entrp">    -49.85812356 </i>
    <i name="e_0_energy">    -49.85812356 </i>
   </energy>
  </scstep>
  <structure>
   <crystal>
    <varray name="basis" >
     <v>       6.01920000       0.00000000       0.00000000 </v>
     <v>       0.00000000      10.14000000       0.00000000 </v>
     <v>       0.00000000       0.00000000      15.00000000 </v>
    </varray>
    <i name="volume">    915.52032000 </i>
    <varray name="rec_basis" >
     <v>       0.16613503       0.00000000       0.00000000 </v>
     <v>       0.00000000       0.09861933       0.00000000 </v>
     <v>       0.00000000       0.00000000       0.06666667 </v>
    </varray>
   </crystal>
   <varray name="positions" >
    <v>       0.44429280       0.88187423       0.22354491 </v>
    <v>       0.94390207       0.88237105       0.27354099 </v>
    <v>       0.44528401       0.61901440       0.22522055 </v>
    <v>       0.94510231       0.62073340       0.27712234 </v>
    <v>       0.44263175       0.38119325       0.27987201 </v>
    <v>       0.94367696       0.38306175       0.22624348 </v>
    <v>       0.44319025       0.12067418       0.27155397 </v>
    <v>       0.94342450       0.12029427       0.22308923 </v>
    <v>       0.19333158       0.00090544       0.24699464 </v>
    <v>       0.69416169       0.00117971       0.24855186 </v>
    <v>       0.19457575       0.50138910       0.25139512 </v>
    <v>       0.69422542       0.50126253       0.25459362 </v>
    <v>       0.54114128       0.42876609       0.47870876 </v>
    <v>       0.74876466       0.34878234       0.47803970 </v>
    <v>       0.44306584       0.34039175       0.54916881 </v>
   </varray>
  </structure>
  <varray name="forces" >
   <v>      -0.00166624      -0.01054864      -0.00446517 </v>
   <v>       0.01550856       0.03443272      -0.00745076 </v>
   <v>      -0.01451018      -0.02742408       0.01636678 </v>
   <v>       0.00871776      -0.02871760       0.00552181 </v>
   <v>      -0.00376097       0.02935954      -0.01235946 </v>
   <v>       0.02706023       0.01136723      -0.02323269 </v>
   <v>      -0.01281401      -0.00254909       0.01199218 </v>
   <v>       0.00638286      -0.02567787       0.00152079 </v>
   <v>       0.05492480      -0.00049553       0.00150152 </v>
   <v>      -0.06254726      -0.00048556      -0.00665786 </v>
   <v>      -0.02841611      -0.00086663       0.00724359 </v>
   <v>      -0.00249227       0.00216193       0.00717057 </v>
   <v>      -0.03816476      -0.02086038       0.03058725 </v>
   <v>       0.02182624      -0.01000208       0.00182339 </v>
   <v>       0.02995136       0.05030604      -0.02956194 </v>
  </varray>
  <varray name="stress" >
   <v>       8.77221838       0.03774659       0.11756605 </v>
   <v>       0.03774591     -10.30422683       0.28319135 </v>
   <v>       0.11756434       0.28319329      -1.28678079 </v>
  </varray>
  <energy>
   <i name="e_fr_energy">    -49.85812356 </i>
   <i name="e_wo_entrp">    -49.85812356 </i>
   <i name="e_0_energy">     -0.00000000 </i>
  </energy>
  <time name="totalsc">  461.87  463.45</time>
 </calculation>
 <calculation>
  <scstep>
   <time name="dav">   15.61   15.71</time>
   <time name="total">  120.07  120.59</time>
   <energy>
    <i name="alphaZ">     15.92198659 </i>
    <i name="ewald">   1280.27949990 </i>
    <i name="hartreedc">  -2462.38615971 </i>
    <i name="XCdc">   -170.58108098 </i>
    <i name="pawpsdc">   1744.42764129 </i>
    <i name="pawaedc">  -1465.88739469 </i>
    <i name="eentropy">     -0.00000000 </i>
    <i name="bandstr">   -325.36100514 </i>
    <i name="atom">   1333.72818728 </i>
    <i name="e_fr_energy">    -49.85832546 </i>
    <i name="e_wo_entrp">    -49.85832546 </i>
    <i name="e_0_energy">    -49.85832546 </i>
   </energy>
  </scstep>
  <scstep>
   <time name="dav">   20.97   21.03</time>
   <time name="total">  123.73  123.85</time>
   <energy>
    <i name="e_fr_energy">    -49.85837378 </i>
    <i name="e_wo_entrp">    -49.85837378 </i>
    <i name="e_0_energy">    -49.85837378 </i>
   </energy>
  </scstep>
  <scstep>
   <time name="dav">   16.76   16.76</time>
   <time name="total">  120.67  120.73</time>
   <energy>
    <i name="alphaZ">     15.92198659 </i>
    <i name="ewald">   1280.27949990 </i>
    <i name="hartreedc">  -2462.37454357 </i>
    <i name="XCdc">   -170.58125658 </i>
    <i name="pawpsdc">   1744.37495097 </i>
    <i name="pawaedc">  -1465.83457652 </i>
    <i name="eentropy">     -0.00000000 </i>
    <i name="bandstr">   -325.37262863 </i>
    <i name="atom">   1333.72818728 </i>
    <i name="e_fr_energy">    -49.85838056 </i>
    <i name="e_wo_entrp">    -49.85838056 </i>
    <i name="e_0_energy">    -49.85838056 </i>
   </energy>
  </scstep>
  <structure>
   <crystal>
    <varray name="basis" >
     <v>       6.01920000       0.00000000       0.00000000 </v>
     <v>       0.00000000      10.14000000       0.00000000 </v>
     <v>       0.00000000       0.00000000      15.00000000 </v>
    </varray>
    <i name="volume">    915.52032000 </i>
    <varray name="rec_basis" >
     <v>       0.16613503       0.00000000       0.00000000 </v>
     <v>       0.00000000       0.09861933       0.00000000 </v>
     <v>       0.00000000       0.00000000       0.06666667 </v>
    </varray>
   </crystal>
   <varray name="positions" >
    <v>       0.44426093       0.88180945       0.22351750 </v>
    <v>       0.94388544       0.88235185       0.27356884 </v>
    <v>       0.44516568       0.61900156       0.22520305 </v>
    <v>       0.94507068       0.62064145       0.27716763 </v>
    <v>       0.44257310       0.38117321       0.27984258 </v>
    <v>       0.94362602       0.38301467       0.22623619 </v>
    <v>       0.44318162       0.12067554       0.27145070 </v>
    <v>       0.94337922       0.12020786       0.22295775 </v>
    <v>       0.19335967       0.00087191       0.24690672 </v>
    <v>       0.69408279       0.00111178       0.24848945 </v>
    <v>       0.19451079       0.50134547       0.25141675 </v>
    <v>       0.69415327       0.50121744       0.25453480 </v>
    <v>       0.54122448       0.42879901       0.47873210 </v>
    <v>       0.74888780       0.34880059       0.47813540 </v>
    <v>       0.44340937       0.34087171       0.54948055 </v>
   </varray>
  </structure>
  <varray name="forces" >
   <v>      -0.00260148      -0.00990781      -0.00598325 </v>
   <v>       0.01663459       0.03529405      -0.01007402 </v>
   <v>      -0.01121679      -0.03100691       0.01739180 </v>
   <v>       0.00451385      -0.02254799       0.00500643 </v>
   <v>      -0.00198141       0.02687892      -0.01400545 </v>
   <v>       0.02603668       0.00853038      -0.02648417 </v>
   <v>      -0.01340014      -0.00563609       0.01360338 </v>
   <v>       0.00640210      -0.02625411       0.00401258 </v>
   <v>       0.04428770      -0.00102304       0.00295226 </v>
   <v>      -0.05262444       0.00229032      -0.00568248 </v>
   <v>      -0.02868500      -0.00158768       0.00708621 </v>
   <v>      -0.00238224       0.00419760       0.00968963 </v>
   <v>      -0.03020879      -0.01769552       0.02793480 </v>
   <v>       0.01710997      -0.00751530       0.00206382 </v>
   <v>       0.02811541       0.04598319      -0.02751155 </v>
  </varray>
  <varray name="stress" >
   <v>       8.75778682       0.03434112       0.11722525 </v>
   <v>       0.03434030     -10.31390603       0.28762653 </v>
   <v>       0.11722354       0.28762828      -1.28765451 </v>
  </varray>
  <energy>
   <i name="e_fr_energy">    -49.85838056 </i>
   <i name="e_wo_entrp">    -49.85838056 </i>
   <i name="e_0_energy">     -0.00000000 </i>
  </energy>
  <time name="totalsc">  595.45  597.08</time>
 </calculation>
 <calculation>
  <scstep>
   <time name="dav">   16.54   16.55</time>
   <time name="total">  120.13  120.42</time>
   <energy>
    <i name="alphaZ">     15.92198659 </i>
    <i name="ewald">   1279.44033740 </i>
    <i name="hartreedc">  -2461.55676708 </i>
    <i name="XCdc">   -170.58412950 </i>
    <i name="pawpsdc">   1744.36974582 </i>
    <i name="pawaedc">  -1465.82937611 </i>
    <i name="eentropy">     -0.00000000 </i>
    <i name="bandstr">   -325.34852556 </i>
    <i name="atom">   1333.72818728 </i>
    <i name="e_fr_energy">    -49.85854115 </i>
    <i name="e_wo_entrp">    -49.85854115 </i>
    <i name="e_0_energy">    -49.85854115 </i>
   </energy>
  </scstep>
  <scstep>
   <time name="dav">   21.18   21.20</time>
   <time name="total">  126.64  126.73</time>
   <energy>
    <i name="e_fr_energy">    -49.85875524 </i>
    <i name="e_wo_entrp">    -49.85875524 </i>
    <i name="e_0_energy">    -49.85875524 </i>
   </energy>
  </scstep>
  <scstep>
   <time name="dav">   20.93   20.95</time>
   <time name="total">  123.87  123.94</time>
   <energy>
    <i name="e_fr_energy">    -49.85876562 </i>
    <i name="e_wo_entrp">    -49.85876562 </i>
    <i name="e_0_energy">    -49.85876562 </i>
   </energy>
  </scstep>
  <scstep>
   <time name="dav">   15.35   15.36</time>
   <time name="total">  118.73  118.80</time>
   <energy>
    <i name="e_fr_energy">    -49.85878065 </i>
    <i name="e_wo_entrp">    -49.85878065 </i>
    <i name="e_0_energy">    -49.85878065 </i>
   </energy>
  </scstep>
  <scstep>
   <time name="dav">   14.95   14.95</time>
   <time name="total">  118.70  119.13</time>
   <energy>
    <i name="alphaZ">     15.92198659 </i>
    <i name="ewald">   1279.44033740 </i>
    <i name="hartreedc">  -2461.54011231 </i>
    <i name="XCdc">   -170.58429900 </i>
    <i name="pawpsdc">   1744.26164956 </i>
    <i name="pawaedc">  -1465.72106548 </i>
    <i name="eentropy">     -0.00000000 </i>
    <i name="bandstr">   -325.36546433 </i>
    <i name="atom">   1333.72818728 </i>
    <i name="e_fr_energy">    -49.85878028 </i>
    <i name="e_wo_entrp">    -49.85878028 </i>
    <i name="e_0_energy">    -49.85878028 </i>
   </energy>
  </scstep>
  <structure>
   <crystal>
    <varray name="basis" >
     <v>       6.01920000       0.00000000       0.00000000 </v>
     <v>       0.00000000      10.14000000       0.00000000 </v>
     <v>       0.00000000       0.00000000      15.00000000 </v>
    </varray>
    <i name="volume">    915.52032000 </i>
    <varray name="rec_basis" >
     <v>       0.16613503       0.00000000       0.00000000 </v>
     <v>       0.00000000       0.09861933       0.00000000 </v>
     <v>       0.00000000       0.00000000       0.06666667 </v>
    </varray>
   </crystal>
   <varray name="positions" >
    <v>       0.44419717       0.88167988       0.22346268 </v>
    <v>       0.94385217       0.88231346       0.27362455 </v>
    <v>       0.44492903       0.61897587       0.22516803 </v>
    <v>       0.94500743       0.62045754       0.27725821 </v>
    <v>       0.44245581       0.38113313       0.27978372 </v>
    <v>       0.94352415       0.38292053       0.22622160 </v>
    <v>       0.44316437       0.12067825       0.27124415 </v>
    <v>       0.94328866       0.12003503       0.22269478 </v>
    <v>       0.19341587       0.00080486       0.24673087 </v>
    <v>       0.69392499       0.00097591       0.24836465 </v>
    <v>       0.19438087       0.50125820       0.25146002 </v>
    <v>       0.69400897       0.50112725       0.25441715 </v>
    <v>       0.54139089       0.42886485       0.47877878 </v>
    <v>       0.74913408       0.34883709       0.47832679 </v>
    <v>       0.44409642       0.34183164       0.55010402 </v>
   </varray>
  </structure>
  <varray name="forces" >
   <v>      -0.00494915      -0.00852232      -0.00911378 </v>
   <v>       0.01906452       0.03688859      -0.01526688 </v>
   <v>      -0.00473597      -0.03852358       0.01952991 </v>
   <v>      -0.00416473      -0.00991249       0.00396382 </v>
   <v>       0.00134342       0.02170194      -0.01730623 </v>
   <v>       0.02428637       0.00317229      -0.03320826 </v>
   <v>      -0.01504633      -0.01198210       0.01634898 </v>
   <v>       0.00678879      -0.02710555       0.00890637 </v>
   <v>       0.02423995      -0.00200198       0.00576632 </v>
   <v>      -0.03310679       0.00764344      -0.00505829 </v>
   <v>      -0.02845276      -0.00306484       0.00702880 </v>
   <v>      -0.00158158       0.00848659       0.01497703 </v>
   <v>      -0.01725542      -0.01409241       0.02300239 </v>
   <v>       0.00776141      -0.00248970       0.00304285 </v>
   <v>       0.02580827       0.03980211      -0.02261303 </v>
  </varray>
  <varray name="stress" >
   <v>       8.73010175       0.02735494       0.11686868 </v>
   <v>       0.02735416     -10.33340106       0.29683547 </v>
   <v>       0.11686690       0.29683727      -1.28780096 </v>
  </varray>
  <energy>
   <i name="e_fr_energy">    -49.85878028 </i>
   <i name="e_wo_entrp">    -49.85878028 </i>
   <i name="e_0_energy">     -0.00000000 </i>
  </energy>
  <time name="totalsc">  846.93  854.26</time>
 </calculation>
 <calculation>
  <scstep>
   <time name="dav">   16.89   16.94</time>
   <time name="total">  120.44  120.89</time>
   <energy>
    <i name="alphaZ">     15.92198659 </i>
    <i name="ewald">   1277.74483639 </i>
    <i name="hartreedc">  -2459.89309139 </i>
    <i name="XCdc">   -170.59066304 </i>
    <i name="pawpsdc">   1744.26454084 </i>
    <i name="pawaedc">  -1465.72395063 </i>
    <i name="eentropy">     -0.00000000 </i>
    <i name="bandstr">   -325.31002353 </i>
    <i name="atom">   1333.72818728 </i>
    <i name="e_fr_energy">    -49.85817749 </i>
    <i name="e_wo_entrp">    -49.85817749 </i>
    <i name="e_0_energy">    -49.85817749 </i>
   </energy>
  </scstep>
  <scstep>
   <time name="dav">   20.88   20.90</time>
   <time name="total">  127.61  127.81</time>
   <energy>
    <i name="e_fr_energy">    -49.85905059 </i>
    <i name="e_wo_entrp">    -49.85905059 </i>
    <i name="e_0_energy">    -49.85905059 </i>
   </energy>
  </scstep>
  <scstep>
   <time name="dav">   17.94   17.96</time>
   <time name="total">  122.13  122.20</time>
   <energy>
    <i name="e_fr_energy">    -49.85904190 </i>
    <i name="e_wo_entrp">    -49.85904190 </i>
    <i name="e_0_energy">    -49.85904190 </i>
   </energy>
  </scstep>
  <scstep>
   <time name="dav">   18.01   18.02</time>
   <time name="total">  121.29  121.44</time>
   <energy>
    <i name="e_fr_energy">    -49.85909243 </i>
    <i name="e_wo_entrp">    -49.85909243 </i>
    <i name="e_0_energy">    -49.85909243 </i>
   </energy>
  </scstep>
  <scstep>
   <time name="dav">   19.80   19.81</time>
   <time name="total">  121.82  121.91</time>
   <energy>
    <i name="alphaZ">     15.92198659 </i>
    <i name="ewald">   1277.74483639 </i>
    <i name="hartreedc">  -2459.85391210 </i>
    <i name="XCdc">   -170.59118505 </i>
    <i name="pawpsdc">   1744.01167532 </i>
    <i name="pawaedc">  -1465.47042738 </i>
    <i name="eentropy">     -0.00000000 </i>
    <i name="bandstr">   -325.35025144 </i>
    <i name="atom">   1333.72818728 </i>
    <i name="e_fr_energy">    -49.85909039 </i>
    <i name="e_wo_entrp">    -49.85909039 </i>
    <i name="e_0_energy">    -49.85909039 </i>
   </energy>
  </scstep>
  <structure>
   <crystal>
    <varray name="basis" >
     <v>       6.01920000       0.00000000       0.00000000 </v>
     <v>       0.00000000      10.14000000       0.00000000 </v>
     <v>       0.00000000       0.00000000      15.00000000 </v>
    </varray>
    <i name="volume">    915.52032000 </i>
    <varray name="rec_basis" >
     <v>       0.16613503       0.00000000       0.00000000 </v>
     <v>       0.00000000       0.09861933       0.00000000 </v>
     <v>       0.00000000       0.00000000       0.06666667 </v>
    </varray>
   </crystal>
   <varray name="positions" >
    <v>       0.44406967       0.88142075       0.22335303 </v>
    <v>       0.94378564       0.88223667       0.27373596 </v>
    <v>       0.44445573       0.61892451       0.22509800 </v>
    <v>       0.94488092       0.62008971       0.27743936 </v>
    <v>       0.44222122       0.38105296       0.27966600 </v>
    <v>       0.94332040       0.38273224       0.22619243 </v>
    <v>       0.44312985       0.12068367       0.27083106 </v>
    <v>       0.94310755       0.11968939       0.22216886 </v>
    <v>       0.19352827       0.00067075       0.24637919 </v>
    <v>       0.69360939       0.00070417       0.24811503 </v>
    <v>       0.19412102       0.50108368       0.25154655 </v>
    <v>       0.69372037       0.50094688       0.25418184 </v>
    <v>       0.54172370       0.42899653       0.47887213 </v>
    <v>       0.74962663       0.34891008       0.47870958 </v>
    <v>       0.44547052       0.34375149       0.55135097 </v>
   </varray>
  </structure>
  <varray name="forces" >
   <v>      -0.00947446      -0.00435632      -0.01434499 </v>
   <v>       0.02406521       0.04047219      -0.02500161 </v>
   <v>       0.00709861      -0.05310118       0.02481197 </v>
   <v>      -0.01925944       0.01604901       0.00235478 </v>
   <v>       0.00675507       0.01241537      -0.02328008 </v>
   <v>       0.02239597      -0.00636782      -0.04566318 </v>
   <v>      -0.01834586      -0.02410563       0.02301156 </v>
   <v>       0.00789297      -0.02768103       0.01960805 </v>
   <v>      -0.01476146      -0.00419591       0.00868049 </v>
   <v>       0.00426749       0.01563951      -0.00461478 </v>
   <v>      -0.02930997      -0.00709034       0.00769446 </v>
   <v>      -0.00024382       0.01494393       0.02354040 </v>
   <v>       0.00804854      -0.00851784       0.01740431 </v>
   <v>      -0.01114276       0.00807086       0.00492612 </v>
   <v>       0.02201391       0.02782519      -0.01912751 </v>
  </varray>
  <varray name="stress" >
   <v>       8.67110656       0.01274156       0.11863130 </v>
   <v>       0.01274068     -10.37690500       0.31730629 </v>
   <v>       0.11862947       0.31730787      -1.29761843 </v>
  </varray>
  <energy>
   <i name="e_fr_energy">    -49.85909039 </i>
   <i name="e_wo_entrp">    -49.85909039 </i>
   <i name="e_0_energy">     -0.00000000 </i>
  </energy>
  <time name="totalsc">  844.63  846.61</time>
 </calculation>
 <calculation>
  <scstep>
   <time name="dav">   15.16   15.19</time>
   <time name="total">  121.71  122.23</time>
   <energy>
    <i name="alphaZ">     15.92198659 </i>
    <i name="ewald">   1277.60809925 </i>
    <i name="hartreedc">  -2459.65414248 </i>
    <i name="XCdc">   -170.58699638 </i>
    <i name="pawpsdc">   1744.01257387 </i>
    <i name="pawaedc">  -1465.47130942 </i>
    <i name="eentropy">     -0.00000000 </i>
    <i name="bandstr">   -325.41778300 </i>
    <i name="atom">   1333.72818728 </i>
    <i name="e_fr_energy">    -49.85938428 </i>
    <i name="e_wo_entrp">    -49.85938428 </i>
    <i name="e_0_energy">    -49.85938428 </i>
   </energy>
  </scstep>
  <scstep>
   <time name="dav">   21.37   21.49</time>
   <time name="total">  127.11  127.51</time>
   <energy>
    <i name="e_fr_energy">    -49.85942365 </i>
    <i name="e_wo_entrp">    -49.85942365 </i>
    <i name="e_0_energy">    -49.85942365 </i>
   </energy>
  </scstep>
  <scstep>
   <time name="dav">   16.40   16.40</time>
   <time name="total">  123.17  123.33</time>
   <energy>
    <i name="alphaZ">     15.92198659 </i>
    <i name="ewald">   1277.60809925 </i>
    <i name="hartreedc">  -2459.68774641 </i>
    <i name="XCdc">   -170.58495064 </i>
    <i name="pawpsdc">   1744.31665219 </i>
    <i name="pawaedc">  -1465.77673937 </i>
    <i name="eentropy">     -0.00000000 </i>
    <i name="bandstr">   -325.38491363 </i>
    <i name="atom">   1333.72818728 </i>
    <i name="e_fr_energy">    -49.85942474 </i>
    <i name="e_wo_entrp">    -49.85942474 </i>
    <i name="e_0_energy">    -49.85942474 </i>
   </energy>
  </scstep>
  <structure>
   <crystal>
    <varray name="basis" >
     <v>       6.01920000       0.00000000       0.00000000 </v>
     <v>       0.00000000      10.14000000       0.00000000 </v>
     <v>       0.00000000       0.00000000      15.00000000 </v>
    </varray>
    <i name="volume">    915.52032000 </i>
    <varray name="rec_basis" >
     <v>       0.16613503       0.00000000       0.00000000 </v>
     <v>       0.00000000       0.09861933       0.00000000 </v>
     <v>       0.00000000       0.00000000       0.06666667 </v>
    </varray>
   </crystal>
   <varray name="positions" >
    <v>       0.44401451       0.88137025       0.22331443 </v>
    <v>       0.94386406       0.88231331       0.27371649 </v>
    <v>       0.44440716       0.61879991       0.22512372 </v>
    <v>       0.94478975       0.62006679       0.27747148 </v>
    <v>       0.44220911       0.38106753       0.27961288 </v>
    <v>       0.94337096       0.38268851       0.22612011 </v>
    <v>       0.44305661       0.12063165       0.27079990 </v>
    <v>       0.94310809       0.11957405       0.22211483 </v>
    <v>       0.19349148       0.00064035       0.24633648 </v>
    <v>       0.69357528       0.00069553       0.24806875 </v>
    <v>       0.19397165       0.50104055       0.25157164 </v>
    <v>       0.69367386       0.50095116       0.25417957 </v>
    <v>       0.54180604       0.42899866       0.47891269 </v>
    <v>       0.74966330       0.34893932       0.47877738 </v>
    <v>       0.44576902       0.34411592       0.55151966 </v>
   </varray>
  </structure>
  <varray name="forces" >
   <v>      -0.00505770      -0.00695915      -0.01338687 </v>
   <v>       0.01397810       0.01976244      -0.01978762 </v>
   <v>       0.00326526      -0.03451052       0.02008818 </v>
   <v>      -0.01815491       0.02065858       0.00206967 </v>
   <v>       0.00492846      -0.00088643      -0.01901854 </v>
   <v>       0.01140435      -0.00557222      -0.04157973 </v>
   <v>      -0.01429596      -0.01651418       0.02279577 </v>
   <v>       0.00437435      -0.00860398       0.01444837 </v>
   <v>      -0.00588495      -0.00408276       0.00786444 </v>
   <v>       0.00074105       0.01025400      -0.00539957 </v>
   <v>      -0.01864814      -0.00489437       0.00719642 </v>
   <v>       0.00552974       0.00560087       0.02333260 </v>
   <v>       0.00963414       0.00912324       0.00307134 </v>
   <v>      -0.00585377       0.00364898       0.00486040 </v>
   <v>       0.01403997       0.01297549      -0.00655486 </v>
  </varray>
  <varray name="stress" >
   <v>       8.71518006       0.03984900       0.10940332 </v>
   <v>       0.03984813     -10.28536972       0.25682434 </v>
   <v>       0.10940166       0.25682587      -1.25349276 </v>
  </varray>
  <energy>
   <i name="e_fr_energy">    -49.85942474 </i>
   <i name="e_wo_entrp">    -49.85942474 </i>
   <i name="e_0_energy">     -0.00000000 </i>
  </energy>
  <time name="totalsc">  601.59  603.93</time>
 </calculation>
 <calculation>
  <scstep>
   <time name="dav">   15.70   15.72</time>
   <time name="total">  121.34  121.48</time>
   <energy>
    <i name="alphaZ">     15.92198659 </i>
    <i name="ewald">   1277.36654975 </i>
    <i name="hartreedc">  -2459.33960483 </i>
    <i name="XCdc">   -170.57717520 </i>
    <i name="pawpsdc">   1744.40798814 </i>
    <i name="pawaedc">  -1465.86843898 </i>
    <i name="eentropy">     -0.00000000 </i>
    <i name="bandstr">   -325.49906892 </i>
    <i name="atom">   1333.72818728 </i>
    <i name="e_fr_energy">    -49.85957617 </i>
    <i name="e_wo_entrp">    -49.85957617 </i>
    <i name="e_0_energy">    -49.85957617 </i>
   </energy>
  </scstep>
  <scstep>
   <time name="dav">   20.16   20.18</time>
   <time name="total">  124.26  124.35</time>
   <energy>
    <i name="e_fr_energy">    -49.85968808 </i>
    <i name="e_wo_entrp">    -49.85968808 </i>
    <i name="e_0_energy">    -49.85968808 </i>
   </energy>
  </scstep>
  <scstep>
   <time name="dav">   19.82   19.84</time>
   <time name="total">  124.48  124.56</time>
   <energy>
    <i name="alphaZ">     15.92198659 </i>
    <i name="ewald">   1277.36654975 </i>
    <i name="hartreedc">  -2459.39264629 </i>
    <i name="XCdc">   -170.57371372 </i>
    <i name="pawpsdc">   1744.93683279 </i>
    <i name="pawaedc">  -1466.39962299 </i>
    <i name="eentropy">     -0.00000000 </i>
    <i name="bandstr">   -325.44726133 </i>
    <i name="atom">   1333.72818728 </i>
    <i name="e_fr_energy">    -49.85968793 </i>
    <i name="e_wo_entrp">    -49.85968793 </i>
    <i name="e_0_energy">    -49.85968793 </i>
   </energy>
  </scstep>
  <structure>
   <crystal>
    <varray name="basis" >
     <v>       6.01920000       0.00000000       0.00000000 </v>
     <v>       0.00000000      10.14000000       0.00000000 </v>
     <v>       0.00000000       0.00000000      15.00000000 </v>
    </varray>
    <i name="volume">    915.52032000 </i>
    <varray name="rec_basis" >
     <v>       0.16613503       0.00000000       0.00000000 </v>
     <v>       0.00000000       0.09861933       0.00000000 </v>
     <v>       0.00000000       0.00000000       0.06666667 </v>
    </varray>
   </crystal>
   <varray name="positions" >
    <v>       0.44391729       0.88128123       0.22324639 </v>
    <v>       0.94400227       0.88244840       0.27368218 </v>
    <v>       0.44432157       0.61858030       0.22516907 </v>
    <v>       0.94462908       0.62002639       0.27752809 </v>
    <v>       0.44218777       0.38109320       0.27951925 </v>
    <v>       0.94346008       0.38261145       0.22599263 </v>
    <v>       0.44292750       0.12053997       0.27074498 </v>
    <v>       0.94310905       0.11937075       0.22201959 </v>
    <v>       0.19342664       0.00058678       0.24626122 </v>
    <v>       0.69351517       0.00068031       0.24798716 </v>
    <v>       0.19370837       0.50096452       0.25161585 </v>
    <v>       0.69359189       0.50095869       0.25417555 </v>
    <v>       0.54195116       0.42900240       0.47898418 </v>
    <v>       0.74972791       0.34899086       0.47889687 </v>
    <v>       0.44629513       0.34475824       0.55181699 </v>
   </varray>
  </structure>
  <varray name="forces" >
   <v>       0.00312186      -0.01233996      -0.01189184 </v>
   <v>      -0.00533417      -0.01696101      -0.01037633 </v>
   <v>      -0.00662275      -0.00183921       0.01141313 </v>
   <v>      -0.01499017       0.02889579       0.00100581 </v>
   <v>      -0.00015896      -0.02444657      -0.01115620 </v>
   <v>      -0.00762379      -0.00417507      -0.03464093 </v>
   <v>      -0.00682282      -0.00319402       0.02244628 </v>
   <v>      -0.00275668       0.02603286       0.00527238 </v>
   <v>       0.01084453      -0.00347952       0.00845208 </v>
   <v>      -0.00578630       0.00134186      -0.00461137 </v>
   <v>       0.00293062      -0.00167955       0.00495005 </v>
   <v>       0.01683021      -0.01321853       0.01980684 </v>
   <v>       0.01246589       0.04002185      -0.02425668 </v>
   <v>       0.00374930      -0.00391673       0.00518435 </v>
   <v>       0.00015320      -0.01104221       0.01840242 </v>
  </varray>
  <varray name="stress" >
   <v>       8.78707614       0.08740717       0.09669740 </v>
   <v>       0.08740617     -10.13867804       0.14712360 </v>
   <v>       0.09669577       0.14712509      -1.19386555 </v>
  </varray>
  <energy>
   <i name="e_fr_energy">    -49.85968793 </i>
   <i name="e_wo_entrp">    -49.85968793 </i>
   <i name="e_0_energy">     -0.00000000 </i>
  </energy>
  <time name="totalsc">  604.78  606.14</time>
 </calculation>
 <calculation>
  <scstep>
   <time name="dav">   15.47   15.48</time>
   <time name="total">  120.89  121.03</time>
   <energy>
    <i name="alphaZ">     15.92198659 </i>
    <i name="ewald">   1277.13682694 </i>
    <i name="hartreedc">  -2459.22427109 </i>
    <i name="XCdc">   -170.57832149 </i>
    <i name="pawpsdc">   1745.08308104 </i>
    <i name="pawaedc">  -1466.54643609 </i>
    <i name="eentropy">     -0.00000000 </i>
    <i name="bandstr">   -325.38097222 </i>
    <i name="atom">   1333.72818728 </i>
    <i name="e_fr_energy">    -49.85991902 </i>
    <i name="e_wo_entrp">    -49.85991902 </i>
    <i name="e_0_energy">    -49.85991902 </i>
   </energy>
  </scstep>
  <scstep>
   <time name="dav">   19.72   19.81</time>
   <time name="total">  121.93  122.18</time>
   <energy>
    <i name="e_fr_energy">    -49.85994399 </i>
    <i name="e_wo_entrp">    -49.85994399 </i>
    <i name="e_0_energy">    -49.85994399 </i>
   </energy>
  </scstep>
  <scstep>
   <time name="dav">   14.09   14.11</time>
   <time name="total">  114.76  114.90</time>
   <energy>
    <i name="alphaZ">     15.92198659 </i>
    <i name="ewald">   1277.13682694 </i>
    <i name="hartreedc">  -2459.19348733 </i>
    <i name="XCdc">   -170.57981190 </i>
    <i name="pawpsdc">   1744.82550352 </i>
    <i name="pawaedc">  -1466.28761186 </i>
    <i name="eentropy">     -0.00000000 </i>
    <i name="bandstr">   -325.41153909 </i>
    <i name="atom">   1333.72818728 </i>
    <i name="e_fr_energy">    -49.85994584 </i>
    <i name="e_wo_entrp">    -49.85994584 </i>
    <i name="e_0_energy">    -49.85994584 </i>
   </energy>
  </scstep>
  <structure>
   <crystal>
    <varray name="basis" >
     <v>       6.01920000       0.00000000       0.00000000 </v>
     <v>       0.00000000      10.14000000       0.00000000 </v>
     <v>       0.00000000       0.00000000      15.00000000 </v>
    </varray>
    <i name="volume">    915.52032000 </i>
    <varray name="rec_basis" >
     <v>       0.16613503       0.00000000       0.00000000 </v>
     <v>       0.00000000       0.09861933       0.00000000 </v>
     <v>       0.00000000       0.00000000       0.06666667 </v>
    </varray>
   </crystal>
   <varray name="positions" >
    <v>       0.44389862       0.88121324       0.22319856 </v>
    <v>       0.94402433       0.88244570       0.27364928 </v>
    <v>       0.44425829       0.61849743       0.22520794 </v>
    <v>       0.94449751       0.62009788       0.27755007 </v>
    <v>       0.44217945       0.38102972       0.27946386 </v>
    <v>       0.94345339       0.38257189       0.22587822 </v>
    <v>       0.44284789       0.12049817       0.27077064 </v>
    <v>       0.94309561       0.11937632       0.22199659 </v>
    <v>       0.19345798       0.00055757       0.24625163 </v>
    <v>       0.69346506       0.00067892       0.24794915 </v>
    <v>       0.19363020       0.50093274       0.25164136 </v>
    <v>       0.69364711       0.50092213       0.25421386 </v>
    <v>       0.54206462       0.42912246       0.47896074 </v>
    <v>       0.74976943       0.34899740       0.47894940 </v>
    <v>       0.44648136       0.34495191       0.55195871 </v>
   </varray>
  </structure>
  <varray name="forces" >
   <v>       0.00533803      -0.00666071      -0.00954388 </v>
   <v>      -0.01047776      -0.01278831      -0.01002460 </v>
   <v>      -0.00561152       0.00229638       0.00887933 </v>
   <v>      -0.00652911       0.01099070      -0.00207351 </v>
   <v>      -0.00175215      -0.02201887      -0.00685988 </v>
   <v>      -0.00762244       0.00820282      -0.02514987 </v>
   <v>      -0.00182512      -0.00501846       0.01864341 </v>
   <v>      -0.00301787       0.02012688       0.00299049 </v>
   <v>       0.00245320      -0.00409759       0.00606949 </v>
   <v>      -0.00093129      -0.00139300      -0.00435372 </v>
   <v>       0.00351032      -0.00079298       0.00265151 </v>
   <v>       0.00745933      -0.01593969       0.01702683 </v>
   <v>       0.01165916       0.02294555      -0.00711305 </v>
   <v>       0.00124727       0.00056199       0.00350491 </v>
   <v>       0.00609994       0.00358529       0.00535253 </v>
  </varray>
  <varray name="stress" >
   <v>       8.74718385       0.11242939       0.11059097 </v>
   <v>       0.11242850     -10.20888474       0.14636647 </v>
   <v>       0.11058933       0.14636784      -1.23571964 </v>
  </varray>
  <energy>
   <i name="e_fr_energy">    -49.85994584 </i>
   <i name="e_wo_entrp">    -49.85994584 </i>
   <i name="e_0_energy">     -0.00000000 </i>
  </energy>
  <time name="totalsc">  582.73  584.16</time>
 </calculation>
 <calculation>
  <scstep>
   <time name="dav">   15.27   15.32</time>
   <time name="total">  116.96  117.02</time>
   <energy>
    <i name="alphaZ">     15.92198659 </i>
    <i name="ewald">   1276.65140827 </i>
    <i name="hartreedc">  -2458.81984968 </i>
    <i name="XCdc">   -170.59084786 </i>
    <i name="pawpsdc">   1744.75001795 </i>
    <i name="pawaedc">  -1466.21179001 </i>
    <i name="eentropy">     -0.00000000 </i>
    <i name="bandstr">   -325.28912032 </i>
    <i name="atom">   1333.72818728 </i>
    <i name="e_fr_energy">    -49.86000778 </i>
    <i name="e_wo_entrp">    -49.86000778 </i>
    <i name="e_0_energy">    -49.86000778 </i>
   </energy>
  </scstep>
  <scstep>
   <time name="dav">   19.60   19.61</time>
   <time name="total">  123.59  123.64</time>
   <energy>
    <i name="e_fr_energy">    -49.86012080 </i>
    <i name="e_wo_entrp">    -49.86012080 </i>
    <i name="e_0_energy">    -49.86012080 </i>
   </energy>
  </scstep>
  <scstep>
   <time name="dav">   20.37   20.37</time>
   <time name="total">  120.87  121.00</time>
   <energy>
    <i name="alphaZ">     15.92198659 </i>
    <i name="ewald">   1276.65140827 </i>
    <i name="hartreedc">  -2458.77393281 </i>
    <i name="XCdc">   -170.59241527 </i>
    <i name="pawpsdc">   1744.26920803 </i>
    <i name="pawaedc">  -1465.72892015 </i>
    <i name="eentropy">     -0.00000000 </i>
    <i name="bandstr">   -325.33564227 </i>
    <i name="atom">   1333.72818728 </i>
    <i name="e_fr_energy">    -49.86012034 </i>
    <i name="e_wo_entrp">    -49.86012034 </i>
    <i name="e_0_energy">    -49.86012034 </i>
   </energy>
  </scstep>
  <structure>
   <crystal>
    <varray name="basis" >
     <v>       6.01920000       0.00000000       0.00000000 </v>
     <v>       0.00000000      10.14000000       0.00000000 </v>
     <v>       0.00000000       0.00000000      15.00000000 </v>
    </varray>
    <i name="volume">    915.52032000 </i>
    <varray name="rec_basis" >
     <v>       0.16613503       0.00000000       0.00000000 </v>
     <v>       0.00000000       0.09861933       0.00000000 </v>
     <v>       0.00000000       0.00000000       0.06666667 </v>
    </varray>
   </crystal>
   <varray name="positions" >
    <v>       0.44385931       0.88107009       0.22309785 </v>
    <v>       0.94407078       0.88244002       0.27358000 </v>
    <v>       0.44412508       0.61832295       0.22528978 </v>
    <v>       0.94422053       0.62024838       0.27759633 </v>
    <v>       0.44216193       0.38089608       0.27934726 </v>
    <v>       0.94343931       0.38248862       0.22563735 </v>
    <v>       0.44268028       0.12041017       0.27082465 </v>
    <v>       0.94306732       0.11938804       0.22194816 </v>
    <v>       0.19352397       0.00049607       0.24623146 </v>
    <v>       0.69335956       0.00067601       0.24786913 </v>
    <v>       0.19346564       0.50086582       0.25169508 </v>
    <v>       0.69376336       0.50084516       0.25429451 </v>
    <v>       0.54230350       0.42937522       0.47891137 </v>
    <v>       0.74985684       0.34901119       0.47905998 </v>
    <v>       0.44687345       0.34535966       0.55225709 </v>
   </varray>
  </structure>
  <varray name="forces" >
   <v>       0.01063141       0.00515130      -0.00395635 </v>
   <v>      -0.02050474      -0.00323926      -0.00865929 </v>
   <v>      -0.00059150       0.01106910       0.00394984 </v>
   <v>       0.01244126      -0.02557048      -0.00845994 </v>
   <v>      -0.00425674      -0.01702910       0.00265008 </v>
   <v>      -0.00567214       0.03320536      -0.00524563 </v>
   <v>       0.00953824      -0.00840375       0.01215982 </v>
   <v>      -0.00260554       0.00633520      -0.00022208 </v>
   <v>      -0.01676588      -0.00408375       0.00457327 </v>
   <v>       0.01204058      -0.00642679      -0.00253735 </v>
   <v>       0.00444354       0.00242932      -0.00162513 </v>
   <v>      -0.01628399      -0.01838524       0.00769425 </v>
   <v>       0.00478032      -0.01455630       0.02727839 </v>
   <v>      -0.00473005       0.00927029      -0.00093502 </v>
   <v>       0.01753522       0.03023410      -0.02666485 </v>
  </varray>
  <varray name="stress" >
   <v>       8.68471790       0.16915485       0.13850702 </v>
   <v>       0.16915393     -10.35063851       0.16031060 </v>
   <v>       0.13850524       0.16031195      -1.32694641 </v>
  </varray>
  <energy>
   <i name="e_fr_energy">    -49.86012034 </i>
   <i name="e_wo_entrp">    -49.86012034 </i>
   <i name="e_0_energy">     -0.00000000 </i>
  </energy>
  <time name="totalsc">  594.19  595.42</time>
 </calculation>
 <calculation>
  <scstep>
   <time name="dav">   15.71   15.75</time>
   <time name="total">  119.73  119.92</time>
   <energy>
    <i name="alphaZ">     15.92198659 </i>
    <i name="ewald">   1276.40920509 </i>
    <i name="hartreedc">  -2458.52161300 </i>
    <i name="XCdc">   -170.59352278 </i>
    <i name="pawpsdc">   1744.08628418 </i>
    <i name="pawaedc">  -1465.54510600 </i>
    <i name="eentropy">     -0.00000000 </i>
    <i name="bandstr">   -325.34570661 </i>
    <i name="atom">   1333.72818728 </i>
    <i name="e_fr_energy">    -49.86028524 </i>
    <i name="e_wo_entrp">    -49.86028524 </i>
    <i name="e_0_energy">    -49.86028524 </i>
   </energy>
  </scstep>
  <scstep>
   <time name="dav">   22.05   22.08</time>
   <time name="total">  126.14  126.29</time>
   <energy>
    <i name="e_fr_energy">    -49.86031772 </i>
    <i name="e_wo_entrp">    -49.86031772 </i>
    <i name="e_0_energy">    -49.86031772 </i>
   </energy>
  </scstep>
  <scstep>
   <time name="dav">   16.07   16.10</time>
   <time name="total">  121.71  121.88</time>
   <energy>
    <i name="alphaZ">     15.92198659 </i>
    <i name="ewald">   1276.40920509 </i>
    <i name="hartreedc">  -2458.52514013 </i>
    <i name="XCdc">   -170.59265467 </i>
    <i name="pawpsdc">   1744.09643448 </i>
    <i name="pawaedc">  -1465.55570100 </i>
    <i name="eentropy">     -0.00000000 </i>
    <i name="bandstr">   -325.34263716 </i>
    <i name="atom">   1333.72818728 </i>
    <i name="e_fr_energy">    -49.86031952 </i>
    <i name="e_wo_entrp">    -49.86031952 </i>
    <i name="e_0_energy">    -49.86031952 </i>
   </energy>
  </scstep>
  <structure>
   <crystal>
    <varray name="basis" >
     <v>       6.01920000       0.00000000       0.00000000 </v>
     <v>       0.00000000      10.14000000       0.00000000 </v>
     <v>       0.00000000       0.00000000      15.00000000 </v>
    </varray>
    <i name="volume">    915.52032000 </i>
    <varray name="rec_basis" >
     <v>       0.16613503       0.00000000       0.00000000 </v>
     <v>       0.00000000       0.09861933       0.00000000 </v>
     <v>       0.00000000       0.00000000       0.06666667 </v>
    </varray>
   </crystal>
   <varray name="positions" >
    <v>       0.44389614       0.88100935       0.22303469 </v>
    <v>       0.94398386       0.88242644       0.27352352 </v>
    <v>       0.44404976       0.61826445       0.22534273 </v>
    <v>       0.94413864       0.62024687       0.27760281 </v>
    <v>       0.44212919       0.38076852       0.27928998 </v>
    <v>       0.94340070       0.38255127       0.22549551 </v>
    <v>       0.44264171       0.12033529       0.27088055 </v>
    <v>       0.94303777       0.11941494       0.22192148 </v>
    <v>       0.19346806       0.00044955       0.24623057 </v>
    <v>       0.69336828       0.00065358       0.24782026 </v>
    <v>       0.19340088       0.50083750       0.25172058 </v>
    <v>       0.69373728       0.50074387       0.25435503 </v>
    <v>       0.54245887       0.42946477       0.47894448 </v>
    <v>       0.74987829       0.34904872       0.47911776 </v>
    <v>       0.44718143       0.34567837       0.55236006 </v>
   </varray>
  </structure>
  <varray name="forces" >
   <v>       0.00561477       0.01170674      -0.00100301 </v>
   <v>      -0.01741520      -0.00532096      -0.00667079 </v>
   <v>       0.00412684       0.00881712       0.00278353 </v>
   <v>       0.01270672      -0.03118568      -0.00728733 </v>
   <v>      -0.00772351      -0.00951067       0.00641058 </v>
   <v>      -0.00454296       0.02666368       0.00133392 </v>
   <v>       0.00906089      -0.01346087       0.00712722 </v>
   <v>      -0.00007881       0.00244571      -0.00275974 </v>
   <v>      -0.01092946      -0.00267773       0.00360935 </v>
   <v>       0.00501310      -0.00421990      -0.00159016 </v>
   <v>       0.00847981       0.00214389      -0.00545189 </v>
   <v>      -0.02265899      -0.01095701       0.00170593 </v>
   <v>       0.00465545      -0.00416383       0.01816545 </v>
   <v>       0.00176693       0.00630138      -0.00167043 </v>
   <v>       0.01192443       0.02341811      -0.01470263 </v>
  </varray>
  <varray name="stress" >
   <v>       8.69969832       0.19411883       0.12096911 </v>
   <v>       0.19411799     -10.35737143       0.14369183 </v>
   <v>       0.12096735       0.14369320      -1.28693513 </v>
  </varray>
  <energy>
   <i name="e_fr_energy">    -49.86031952 </i>
   <i name="e_wo_entrp">    -49.86031952 </i>
   <i name="e_0_energy">     -0.00000000 </i>
  </energy>
  <time name="totalsc">  598.69  600.34</time>
 </calculation>
 <calculation>
  <scstep>
   <time name="dav">   15.89   15.91</time>
   <time name="total">  117.39  117.49</time>
   <energy>
    <i name="alphaZ">     15.92198659 </i>
    <i name="ewald">   1275.93746468 </i>
    <i name="hartreedc">  -2458.05949015 </i>
    <i name="XCdc">   -170.59401546 </i>
    <i name="pawpsdc">   1744.09198240 </i>
    <i name="pawaedc">  -1465.55139093 </i>
    <i name="eentropy">     -0.00000000 </i>
    <i name="bandstr">   -325.33504784 </i>
    <i name="atom">   1333.72818728 </i>
    <i name="e_fr_energy">    -49.86032342 </i>
    <i name="e_wo_entrp">    -49.86032342 </i>
    <i name="e_0_energy">    -49.86032342 </i>
   </energy>
  </scstep>
  <scstep>
   <time name="dav">   20.82   20.82</time>
   <time name="total">  122.78  122.92</time>
   <energy>
    <i name="e_fr_energy">    -49.86045440 </i>
    <i name="e_wo_entrp">    -49.86045440 </i>
    <i name="e_0_energy">    -49.86045440 </i>
   </energy>
  </scstep>
  <scstep>
   <time name="dav">   18.60   18.60</time>
   <time name="total">  119.57  119.56</time>
   <energy>
    <i name="alphaZ">     15.92198659 </i>
    <i name="ewald">   1275.93746468 </i>
    <i name="hartreedc">  -2458.05936393 </i>
    <i name="XCdc">   -170.59318211 </i>
    <i name="pawpsdc">   1744.09672972 </i>
    <i name="pawaedc">  -1465.55692614 </i>
    <i name="eentropy">     -0.00000000 </i>
    <i name="bandstr">   -325.33534929 </i>
    <i name="atom">   1333.72818728 </i>
    <i name="e_fr_energy">    -49.86045319 </i>
    <i name="e_wo_entrp">    -49.86045319 </i>
    <i name="e_0_energy">    -49.86045319 </i>
   </energy>
  </scstep>
  <structure>
   <crystal>
    <varray name="basis" >
     <v>       6.01920000       0.00000000       0.00000000 </v>
     <v>       0.00000000      10.14000000       0.00000000 </v>
     <v>       0.00000000       0.00000000      15.00000000 </v>
    </varray>
    <i name="volume">    915.52032000 </i>
    <varray name="rec_basis" >
     <v>       0.16613503       0.00000000       0.00000000 </v>
     <v>       0.00000000       0.09861933       0.00000000 </v>
     <v>       0.00000000       0.00000000       0.06666667 </v>
    </varray>
   </crystal>
   <varray name="positions" >
    <v>       0.44396739       0.88089182       0.22291248 </v>
    <v>       0.94381570       0.88240016       0.27341426 </v>
    <v>       0.44390405       0.61815127       0.22544516 </v>
    <v>       0.94398022       0.62024394       0.27761535 </v>
    <v>       0.44206585       0.38052174       0.27917916 </v>
    <v>       0.94332599       0.38267250       0.22522109 </v>
    <v>       0.44256710       0.12019043       0.27098869 </v>
    <v>       0.94298060       0.11946697       0.22186984 </v>
    <v>       0.19335988       0.00035954       0.24622885 </v>
    <v>       0.69338514       0.00061020       0.24772572 </v>
    <v>       0.19327559       0.50078269       0.25176992 </v>
    <v>       0.69368681       0.50054791       0.25447210 </v>
    <v>       0.54275948       0.42963802       0.47900854 </v>
    <v>       0.74991979       0.34912133       0.47922955 </v>
    <v>       0.44777728       0.34629497       0.55255928 </v>
   </varray>
  </structure>
  <varray name="forces" >
   <v>      -0.00439746       0.02532018       0.00543478 </v>
   <v>      -0.00958915      -0.00932997      -0.00203361 </v>
   <v>       0.01455329       0.00603136       0.00094869 </v>
   <v>       0.01240696      -0.04099659      -0.00437191 </v>
   <v>      -0.01389907       0.00467825       0.01344017 </v>
   <v>      -0.00245453       0.01409849       0.01508544 </v>
   <v>       0.00842711      -0.02348860      -0.00187567 </v>
   <v>       0.00541453      -0.00479042      -0.00665020 </v>
   <v>      -0.00001498      -0.00180185       0.00190451 </v>
   <v>      -0.00842376       0.00100552      -0.00074601 </v>
   <v>       0.01768235       0.00105691      -0.01160277 </v>
   <v>      -0.03488387       0.00603948      -0.00986296 </v>
   <v>       0.00272592       0.01635318      -0.00355953 </v>
   <v>       0.01404955      -0.00018507      -0.00353485 </v>
   <v>      -0.00159689       0.00600914       0.00742394 </v>
  </varray>
  <varray name="stress" >
   <v>       8.71602218       0.23699643       0.08910784 </v>
   <v>       0.23699551     -10.37000804       0.11347066 </v>
   <v>       0.08910609       0.11347180      -1.24674433 </v>
  </varray>
  <energy>
   <i name="e_fr_energy">    -49.86045319 </i>
   <i name="e_wo_entrp">    -49.86045319 </i>
   <i name="e_0_energy">     -0.00000000 </i>
  </energy>
  <time name="totalsc">  583.96  585.13</time>
 </calculation>
 <calculation>
  <scstep>
   <time name="dav">   16.43   16.45</time>
   <time name="total">  121.51  121.61</time>
   <energy>
    <i name="alphaZ">     15.92198659 </i>
    <i name="ewald">   1275.92150063 </i>
    <i name="hartreedc">  -2457.99095936 </i>
    <i name="XCdc">   -170.59079478 </i>
    <i name="pawpsdc">   1744.09228731 </i>
    <i name="pawaedc">  -1465.55282408 </i>
    <i name="eentropy">     -0.00000000 </i>
    <i name="bandstr">   -325.39000796 </i>
    <i name="atom">   1333.72818728 </i>
    <i name="e_fr_energy">    -49.86062436 </i>
    <i name="e_wo_entrp">    -49.86062436 </i>
    <i name="e_0_energy">    -49.86062436 </i>
   </energy>
  </scstep>
  <scstep>
   <time name="dav">   19.74   19.76</time>
   <time name="total">  123.17  123.31</time>
   <energy>
    <i name="e_fr_energy">    -49.86067457 </i>
    <i name="e_wo_entrp">    -49.86067457 </i>
    <i name="e_0_energy">    -49.86067457 </i>
   </energy>
  </scstep>
  <scstep>
   <time name="dav">   15.17   15.18</time>
   <time name="total">  117.81  117.89</time>
   <energy>
    <i name="alphaZ">     15.92198659 </i>
    <i name="ewald">   1275.92150063 </i>
    <i name="hartreedc">  -2458.02088054 </i>
    <i name="XCdc">   -170.58840715 </i>
    <i name="pawpsdc">   1744.30927935 </i>
    <i name="pawaedc">  -1465.77038064 </i>
    <i name="eentropy">     -0.00000000 </i>
    <i name="bandstr">   -325.36195962 </i>
    <i name="atom">   1333.72818728 </i>
    <i name="e_fr_energy">    -49.86067410 </i>
    <i name="e_wo_entrp">    -49.86067410 </i>
    <i name="e_0_energy">    -49.86067410 </i>
   </energy>
  </scstep>
  <structure>
   <crystal>
    <varray name="basis" >
     <v>       6.01920000       0.00000000       0.00000000 </v>
     <v>       0.00000000      10.14000000       0.00000000 </v>
     <v>       0.00000000       0.00000000      15.00000000 </v>
    </varray>
    <i name="volume">    915.52032000 </i>
    <varray name="rec_basis" >
     <v>       0.16613503       0.00000000       0.00000000 </v>
     <v>       0.00000000       0.09861933       0.00000000 </v>
     <v>       0.00000000       0.00000000       0.06666667 </v>
    </varray>
   </crystal>
   <varray name="positions" >
    <v>       0.44396574       0.88095349       0.22287467 </v>
    <v>       0.94366825       0.88234650       0.27335950 </v>
    <v>       0.44394958       0.61812808       0.22549359 </v>
    <v>       0.94400382       0.62005819       0.27760763 </v>
    <v>       0.44193235       0.38043307       0.27917077 </v>
    <v>       0.94327417       0.38278982       0.22514497 </v>
    <v>       0.44259779       0.12002034       0.27103106 </v>
    <v>       0.94299622       0.11946855       0.22182666 </v>
    <v>       0.19331167       0.00031142       0.24623388 </v>
    <v>       0.69332879       0.00059543       0.24768142 </v>
    <v>       0.19335390       0.50076308       0.25175656 </v>
    <v>       0.69339999       0.50048796       0.25449416 </v>
    <v>       0.54291379       0.42978862       0.47902619 </v>
    <v>       0.75004472       0.34915278       0.47926850 </v>
    <v>       0.44803009       0.34659615       0.55267044 </v>
   </varray>
  </structure>
  <varray name="forces" >
   <v>      -0.00937851       0.00475419       0.00132121 </v>
   <v>      -0.00299690      -0.01444588      -0.00083735 </v>
   <v>       0.00873801       0.01797273      -0.00351620 </v>
   <v>       0.00253267      -0.01755736       0.00100611 </v>
   <v>      -0.01229277      -0.00395138       0.01528051 </v>
   <v>      -0.00600906      -0.00670460       0.01347472 </v>
   <v>       0.00074653      -0.00031067       0.00092450 </v>
   <v>       0.00479758      -0.00333282      -0.00544204 </v>
   <v>      -0.00729912      -0.00314411       0.00095335 </v>
   <v>       0.00507937       0.00192739      -0.00189836 </v>
   <v>       0.00026320      -0.00220642      -0.01319860 </v>
   <v>      -0.00003189       0.00405515      -0.01081877 </v>
   <v>       0.01123457       0.01013101      -0.00225455 </v>
   <v>       0.00686697       0.00576638      -0.00420762 </v>
   <v>      -0.00225066       0.00704639       0.00921308 </v>
  </varray>
  <varray name="stress" >
   <v>       8.71990777       0.21911732       0.08683113 </v>
   <v>       0.21911633     -10.30996713       0.14538761 </v>
   <v>       0.08682940       0.14538880      -1.22910568 </v>
  </varray>
  <energy>
   <i name="e_fr_energy">    -49.86067410 </i>
   <i name="e_wo_entrp">    -49.86067410 </i>
   <i name="e_0_energy">     -0.00000000 </i>
  </energy>
  <time name="totalsc">  592.25  594.05</time>
 </calculation>
 <calculation>
  <scstep>
   <time name="dav">   17.00   17.04</time>
   <time name="total">  119.64  119.86</time>
   <energy>
    <i name="alphaZ">     15.92198659 </i>
    <i name="ewald">   1275.91300092 </i>
    <i name="hartreedc">  -2457.98366160 </i>
    <i name="XCdc">   -170.58712337 </i>
    <i name="pawpsdc">   1744.36865644 </i>
    <i name="pawaedc">  -1465.82969870 </i>
    <i name="eentropy">     -0.00000000 </i>
    <i name="bandstr">   -325.39204131 </i>
    <i name="atom">   1333.72818728 </i>
    <i name="e_fr_energy">    -49.86069375 </i>
    <i name="e_wo_entrp">    -49.86069375 </i>
    <i name="e_0_energy">    -49.86069375 </i>
   </energy>
  </scstep>
  <scstep>
   <time name="dav">   20.03   20.05</time>
   <time name="total">  122.73  122.91</time>
   <energy>
    <i name="e_fr_energy">    -49.86070797 </i>
    <i name="e_wo_entrp">    -49.86070797 </i>
    <i name="e_0_energy">    -49.86070797 </i>
   </energy>
  </scstep>
  <scstep>
   <time name="dav">   14.42   14.43</time>
   <time name="total">  117.53  117.62</time>
   <energy>
    <i name="alphaZ">     15.92198659 </i>
    <i name="ewald">   1275.91300092 </i>
    <i name="hartreedc">  -2457.99118009 </i>
    <i name="XCdc">   -170.58635812 </i>
    <i name="pawpsdc">   1744.48312139 </i>
    <i name="pawaedc">  -1465.94432372 </i>
    <i name="eentropy">     -0.00000000 </i>
    <i name="bandstr">   -325.38514344 </i>
    <i name="atom">   1333.72818728 </i>
    <i name="e_fr_energy">    -49.86070920 </i>
    <i name="e_wo_entrp">    -49.86070920 </i>
    <i name="e_0_energy">    -49.86070920 </i>
   </energy>
  </scstep>
  <structure>
   <crystal>
    <varray name="basis" >
     <v>       6.01920000       0.00000000       0.00000000 </v>
     <v>       0.00000000      10.14000000       0.00000000 </v>
     <v>       0.00000000       0.00000000      15.00000000 </v>
    </varray>
    <i name="volume">    915.52032000 </i>
    <varray name="rec_basis" >
     <v>       0.16613503       0.00000000       0.00000000 </v>
     <v>       0.00000000       0.09861933       0.00000000 </v>
     <v>       0.00000000       0.00000000       0.06666667 </v>
    </varray>
   </crystal>
   <varray name="positions" >
    <v>       0.44396487       0.88098596       0.22285477 </v>
    <v>       0.94359062       0.88231825       0.27333066 </v>
    <v>       0.44397354       0.61811587       0.22551909 </v>
    <v>       0.94401625       0.61996039       0.27760356 </v>
    <v>       0.44186205       0.38038638       0.27916635 </v>
    <v>       0.94324689       0.38285160       0.22510489 </v>
    <v>       0.44261395       0.11993079       0.27105337 </v>
    <v>       0.94300445       0.11946938       0.22180392 </v>
    <v>       0.19328628       0.00028608       0.24623653 </v>
    <v>       0.69329912       0.00058766       0.24765810 </v>
    <v>       0.19339514       0.50075276       0.25174953 </v>
    <v>       0.69324896       0.50045639       0.25450577 </v>
    <v>       0.54299504       0.42986792       0.47903549 </v>
    <v>       0.75011051       0.34916934       0.47928901 </v>
    <v>       0.44816320       0.34675473       0.55272896 </v>
   </varray>
  </structure>
  <varray name="forces" >
   <v>      -0.01215358      -0.00653542      -0.00092953 </v>
   <v>       0.00057793      -0.01673038      -0.00041898 </v>
   <v>       0.00521341       0.02504683      -0.00609404 </v>
   <v>      -0.00289242      -0.00526699       0.00378456 </v>
   <v>      -0.01151981      -0.00868679       0.01632560 </v>
   <v>      -0.00821790      -0.01739496       0.01287133 </v>
   <v>      -0.00357894       0.01225913       0.00269893 </v>
   <v>       0.00452717      -0.00298228      -0.00467957 </v>
   <v>      -0.01139754      -0.00355031       0.00064982 </v>
   <v>       0.01194698       0.00202638      -0.00277028 </v>
   <v>      -0.00785262      -0.00423771      -0.01404323 </v>
   <v>       0.01912781       0.00229022      -0.01106311 </v>
   <v>       0.01558053       0.00604553      -0.00208785 </v>
   <v>       0.00277248       0.00937563      -0.00451557 </v>
   <v>      -0.00213351       0.00834110       0.01027191 </v>
  </varray>
  <varray name="stress" >
   <v>       8.72424573       0.21046060       0.08916127 </v>
   <v>       0.21045972     -10.26787877       0.16391924 </v>
   <v>       0.08915948       0.16392037      -1.21735783 </v>
  </varray>
  <energy>
   <i name="e_fr_energy">    -49.86070920 </i>
   <i name="e_wo_entrp">    -49.86070920 </i>
   <i name="e_0_energy">     -0.00000000 </i>
  </energy>
  <time name="totalsc">  591.02  593.22</time>
 </calculation>
 <calculation>
  <scstep>
   <time name="dav">   15.32   15.35</time>
   <time name="total">  117.01  117.16</time>
   <energy>
    <i name="alphaZ">     15.92198659 </i>
    <i name="ewald">   1275.68258120 </i>
    <i name="hartreedc">  -2457.80252647 </i>
    <i name="XCdc">   -170.58940141 </i>
    <i name="pawpsdc">   1744.52928248 </i>
    <i name="pawaedc">  -1465.99044943 </i>
    <i name="eentropy">     -0.00000000 </i>
    <i name="bandstr">   -325.34047918 </i>
    <i name="atom">   1333.72818728 </i>
    <i name="e_fr_energy">    -49.86081894 </i>
    <i name="e_wo_entrp">    -49.86081894 </i>
    <i name="e_0_energy">    -49.86081894 </i>
   </energy>
  </scstep>
  <scstep>
   <time name="dav">   20.62   20.64</time>
   <time name="total">  127.42  127.53</time>
   <energy>
    <i name="e_fr_energy">    -49.86085711 </i>
    <i name="e_wo_entrp">    -49.86085711 </i>
    <i name="e_0_energy">    -49.86085711 </i>
   </energy>
  </scstep>
  <scstep>
   <time name="dav">   16.03   16.03</time>
   <time name="total">  118.04  118.13</time>
   <energy>
    <i name="alphaZ">     15.92198659 </i>
    <i name="ewald">   1275.68258120 </i>
    <i name="hartreedc">  -2457.78048979 </i>
    <i name="XCdc">   -170.59040792 </i>
    <i name="pawpsdc">   1744.36024794 </i>
    <i name="pawaedc">  -1465.82077330 </i>
    <i name="eentropy">     -0.00000000 </i>
    <i name="bandstr">   -325.36218757 </i>
    <i name="atom">   1333.72818728 </i>
    <i name="e_fr_energy">    -49.86085557 </i>
    <i name="e_wo_entrp">    -49.86085557 </i>
    <i name="e_0_energy">    -49.86085557 </i>
   </energy>
  </scstep>
  <structure>
   <crystal>
    <varray name="basis" >
     <v>       6.01920000       0.00000000       0.00000000 </v>
     <v>       0.00000000      10.14000000       0.00000000 </v>
     <v>       0.00000000       0.00000000      15.00000000 </v>
    </varray>
    <i name="volume">    915.52032000 </i>
    <varray name="rec_basis" >
     <v>       0.16613503       0.00000000       0.00000000 </v>
     <v>       0.00000000       0.09861933       0.00000000 </v>
     <v>       0.00000000       0.00000000       0.06666667 </v>
    </varray>
   </crystal>
   <varray name="positions" >
    <v>       0.44386204       0.88099147       0.22282835 </v>
    <v>       0.94350459       0.88220198       0.27329550 </v>
    <v>       0.44404527       0.61822614       0.22552845 </v>
    <v>       0.94400656       0.61981972       0.27761152 </v>
    <v>       0.44168327       0.38028854       0.27921606 </v>
    <v>       0.94314611       0.38283740       0.22510124 </v>
    <v>       0.44260289       0.11988693       0.27108856 </v>
    <v>       0.94305200       0.11945552       0.22176158 </v>
    <v>       0.19316109       0.00023876       0.24624181 </v>
    <v>       0.69336447       0.00058863       0.24762148 </v>
    <v>       0.19337762       0.50071960       0.25169409 </v>
    <v>       0.69323243       0.50043083       0.25448217 </v>
    <v>       0.54322067       0.42999080       0.47903935 </v>
    <v>       0.75021073       0.34923535       0.47929783 </v>
    <v>       0.44830113       0.34698182       0.55283200 </v>
   </varray>
  </structure>
  <varray name="forces" >
   <v>      -0.00620799      -0.00015159       0.00016547 </v>
   <v>       0.00157888      -0.00951198       0.00018202 </v>
   <v>      -0.00139402       0.00088684      -0.00270729 </v>
   <v>      -0.00244269       0.00809416       0.00524437 </v>
   <v>      -0.00205201       0.01059014       0.00959896 </v>
   <v>      -0.00405795      -0.02292294       0.00804799 </v>
   <v>      -0.00550170       0.00648223       0.00177049 </v>
   <v>       0.00082659      -0.00502742      -0.00159657 </v>
   <v>       0.00144277      -0.00330727       0.00087677 </v>
   <v>      -0.00185989      -0.00204658      -0.00378057 </v>
   <v>      -0.00151410      -0.00293186      -0.01370644 </v>
   <v>       0.00586955      -0.00223516      -0.00743124 </v>
   <v>       0.00564298       0.00231539       0.00563377 </v>
   <v>       0.00686019       0.00562630      -0.00383907 </v>
   <v>       0.00280938       0.01413977       0.00154136 </v>
  </varray>
  <varray name="stress" >
   <v>       8.70715823       0.15207754       0.10226792 </v>
   <v>       0.15207677     -10.32206563       0.21600277 </v>
   <v>       0.10226606       0.21600405      -1.25815283 </v>
  </varray>
  <energy>
   <i name="e_fr_energy">    -49.86085557 </i>
   <i name="e_wo_entrp">    -49.86085557 </i>
   <i name="e_0_energy">     -0.00000000 </i>
  </energy>
  <time name="totalsc">  605.11  611.95</time>
 </calculation>
 <calculation>
  <scstep>
   <time name="dav">   15.70   15.75</time>
   <time name="total">  121.91  122.26</time>
   <energy>
    <i name="alphaZ">     15.92198659 </i>
    <i name="ewald">   1275.53566404 </i>
    <i name="hartreedc">  -2457.65179551 </i>
    <i name="XCdc">   -170.59285968 </i>
    <i name="pawpsdc">   1744.29400894 </i>
    <i name="pawaedc">  -1465.75434736 </i>
    <i name="eentropy">     -0.00000000 </i>
    <i name="bandstr">   -325.34171319 </i>
    <i name="atom">   1333.72818728 </i>
    <i name="e_fr_energy">    -49.86086890 </i>
    <i name="e_wo_entrp">    -49.86086890 </i>
    <i name="e_0_energy">    -49.86086890 </i>
   </energy>
  </scstep>
  <scstep>
   <time name="dav">   20.54   20.55</time>
   <time name="total">  127.42  127.62</time>
   <energy>
    <i name="e_fr_energy">    -49.86088324 </i>
    <i name="e_wo_entrp">    -49.86088324 </i>
    <i name="e_0_energy">    -49.86088324 </i>
   </energy>
  </scstep>
  <scstep>
   <time name="dav">   12.66   12.67</time>
   <time name="total">  115.29  115.34</time>
   <energy>
    <i name="alphaZ">     15.92198659 </i>
    <i name="ewald">   1275.53566404 </i>
    <i name="hartreedc">  -2457.64612095 </i>
    <i name="XCdc">   -170.59299916 </i>
    <i name="pawpsdc">   1744.19757629 </i>
    <i name="pawaedc">  -1465.65761933 </i>
    <i name="eentropy">     -0.00000000 </i>
    <i name="bandstr">   -325.34755855 </i>
    <i name="atom">   1333.72818728 </i>
    <i name="e_fr_energy">    -49.86088379 </i>
    <i name="e_wo_entrp">    -49.86088379 </i>
    <i name="e_0_energy">    -49.86088379 </i>
   </energy>
  </scstep>
  <structure>
   <crystal>
    <varray name="basis" >
     <v>       6.01920000       0.00000000       0.00000000 </v>
     <v>       0.00000000      10.14000000       0.00000000 </v>
     <v>       0.00000000       0.00000000      15.00000000 </v>
    </varray>
    <i name="volume">    915.52032000 </i>
    <varray name="rec_basis" >
     <v>       0.16613503       0.00000000       0.00000000 </v>
     <v>       0.00000000       0.09861933       0.00000000 </v>
     <v>       0.00000000       0.00000000       0.06666667 </v>
    </varray>
   </crystal>
   <varray name="positions" >
    <v>       0.44379651       0.88099497       0.22281151 </v>
    <v>       0.94344978       0.88212790       0.27327310 </v>
    <v>       0.44409098       0.61829640       0.22553441 </v>
    <v>       0.94400039       0.61973009       0.27761660 </v>
    <v>       0.44156935       0.38022619       0.27924773 </v>
    <v>       0.94308189       0.38282835       0.22509892 </v>
    <v>       0.44259584       0.11985899       0.27111098 </v>
    <v>       0.94308230       0.11944669       0.22173460 </v>
    <v>       0.19308132       0.00020862       0.24624518 </v>
    <v>       0.69340612       0.00058926       0.24759815 </v>
    <v>       0.19336645       0.50069847       0.25165877 </v>
    <v>       0.69322190       0.50041455       0.25446713 </v>
    <v>       0.54336443       0.43006909       0.47904181 </v>
    <v>       0.75027459       0.34927740       0.47930346 </v>
    <v>       0.44838902       0.34712652       0.55289765 </v>
   </varray>
  </structure>
  <varray name="forces" >
   <v>      -0.00174332       0.00425360       0.00079855 </v>
   <v>       0.00146752      -0.00543632       0.00034828 </v>
   <v>      -0.00577283      -0.01561203      -0.00041923 </v>
   <v>      -0.00147783       0.01642099       0.00613657 </v>
   <v>       0.00395969       0.02360353       0.00464200 </v>
   <v>      -0.00108284      -0.02720934       0.00472152 </v>
   <v>      -0.00635759       0.00163986       0.00072086 </v>
   <v>      -0.00184692      -0.00620119       0.00000923 </v>
   <v>       0.01160399      -0.00308396       0.00099694 </v>
   <v>      -0.01348738      -0.00521403      -0.00438021 </v>
   <v>       0.00528243      -0.00136207      -0.01199523 </v>
   <v>      -0.00645372      -0.00596145      -0.00401112 </v>
   <v>      -0.00077953       0.00224894       0.00996762 </v>
   <v>       0.01007620       0.00317033      -0.00363236 </v>
   <v>       0.00661213       0.01874314      -0.00390344 </v>
  </varray>
  <varray name="stress" >
   <v>       8.69721140       0.11302045       0.11129738 </v>
   <v>       0.11301966     -10.35233979       0.25007626 </v>
   <v>       0.11129557       0.25007752      -1.27069996 </v>
  </varray>
  <energy>
   <i name="e_fr_energy">    -49.86088379 </i>
   <i name="e_wo_entrp">    -49.86088379 </i>
   <i name="e_0_energy">     -0.00000000 </i>
  </energy>
  <time name="totalsc">  595.39  597.34</time>
 </calculation>
 <calculation>
  <scstep>
   <time name="dav">   15.49   15.51</time>
   <time name="total">  120.45  120.53</time>
   <energy>
    <i name="alphaZ">     15.92198659 </i>
    <i name="ewald">   1275.23694118 </i>
    <i name="hartreedc">  -2457.37303899 </i>
    <i name="XCdc">   -170.59547629 </i>
    <i name="pawpsdc">   1744.15262343 </i>
    <i name="pawaedc">  -1465.61253241 </i>
    <i name="eentropy">     -0.00000000 </i>
    <i name="bandstr">   -325.31966873 </i>
    <i name="atom">   1333.72818728 </i>
    <i name="e_fr_energy">    -49.86097793 </i>
    <i name="e_wo_entrp">    -49.86097793 </i>
    <i name="e_0_energy">    -49.86097793 </i>
   </energy>
  </scstep>
  <scstep>
   <time name="dav">   19.08   19.10</time>
   <time name="total">  124.62  124.78</time>
   <energy>
    <i name="e_fr_energy">    -49.86101873 </i>
    <i name="e_wo_entrp">    -49.86101873 </i>
    <i name="e_0_energy">    -49.86101873 </i>
   </energy>
  </scstep>
  <scstep>
   <time name="dav">   14.71   14.73</time>
   <time name="total">  122.18  122.38</time>
   <energy>
    <i name="alphaZ">     15.92198659 </i>
    <i name="ewald">   1275.23694118 </i>
    <i name="hartreedc">  -2457.36563928 </i>
    <i name="XCdc">   -170.59576111 </i>
    <i name="pawpsdc">   1744.04326176 </i>
    <i name="pawaedc">  -1465.50304197 </i>
    <i name="eentropy">     -0.00000000 </i>
    <i name="bandstr">   -325.32695137 </i>
    <i name="atom">   1333.72818728 </i>
    <i name="e_fr_energy">    -49.86101691 </i>
    <i name="e_wo_entrp">    -49.86101691 </i>
    <i name="e_0_energy">    -49.86101691 </i>
   </energy>
  </scstep>
  <structure>
   <crystal>
    <varray name="basis" >
     <v>       6.01920000       0.00000000       0.00000000 </v>
     <v>       0.00000000      10.14000000       0.00000000 </v>
     <v>       0.00000000       0.00000000      15.00000000 </v>
    </varray>
    <i name="volume">    915.52032000 </i>
    <varray name="rec_basis" >
     <v>       0.16613503       0.00000000       0.00000000 </v>
     <v>       0.00000000       0.09861933       0.00000000 </v>
     <v>       0.00000000       0.00000000       0.06666667 </v>
    </varray>
   </crystal>
   <varray name="positions" >
    <v>       0.44368774       0.88102285       0.22279053 </v>
    <v>       0.94338532       0.88199352       0.27324259 </v>
    <v>       0.44410347       0.61831204       0.22554135 </v>
    <v>       0.94397823       0.61969132       0.27764613 </v>
    <v>       0.44144364       0.38026481       0.27930957 </v>
    <v>       0.94298097       0.38266904       0.22511281 </v>
    <v>       0.44252818       0.11982817       0.27114541 </v>
    <v>       0.94310854       0.11940078       0.22169635 </v>
    <v>       0.19307337       0.00014924       0.24625358 </v>
    <v>       0.69334289       0.00056207       0.24754911 </v>
    <v>       0.19339852       0.50066116       0.25156500 </v>
    <v>       0.69314843       0.50035935       0.25443120 </v>
    <v>       0.54356134       0.43019228       0.47908157 </v>
    <v>       0.75045657       0.34935414       0.47929822 </v>
    <v>       0.44857368       0.34743272       0.55297659 </v>
   </varray>
  </structure>
  <varray name="forces" >
   <v>       0.00486768      -0.00365098      -0.00077372 </v>
   <v>      -0.00008165       0.01161672      -0.00100977 </v>
   <v>      -0.00730802      -0.01778545      -0.00428195 </v>
   <v>      -0.00066981       0.00147580      -0.00131558 </v>
   <v>       0.00847456       0.01678168       0.00149790 </v>
   <v>       0.00422200      -0.00685076       0.00496555 </v>
   <v>      -0.00349123       0.00417284       0.00137346 </v>
   <v>      -0.00576751      -0.01564355       0.00449631 </v>
   <v>       0.00024190      -0.00194752       0.00122540 </v>
   <v>      -0.00634707      -0.00638689      -0.00392047 </v>
   <v>      -0.01235257       0.00013959      -0.00743924 </v>
   <v>       0.00303272      -0.00535704       0.00147503 </v>
   <v>       0.00506830       0.00858945       0.00279555 </v>
   <v>       0.00562698       0.00362669      -0.00196760 </v>
   <v>       0.00448371       0.01121942       0.00287913 </v>
  </varray>
  <varray name="stress" >
   <v>       8.67411210       0.10138225       0.10826192 </v>
   <v>       0.10138149     -10.39178919       0.23753428 </v>
   <v>       0.10826017       0.23753550      -1.26325793 </v>
  </varray>
  <energy>
   <i name="e_fr_energy">    -49.86101691 </i>
   <i name="e_wo_entrp">    -49.86101691 </i>
   <i name="e_0_energy">     -0.00000000 </i>
  </energy>
  <time name="totalsc">  600.04  602.08</time>
 </calculation>
 <calculation>
  <scstep>
   <time name="dav">   14.03   14.04</time>
   <time name="total">  120.11  120.29</time>
   <energy>
    <i name="alphaZ">     15.92198659 </i>
    <i name="ewald">   1275.00907180 </i>
    <i name="hartreedc">  -2457.15779450 </i>
    <i name="XCdc">   -170.59766551 </i>
    <i name="pawpsdc">   1743.99909482 </i>
    <i name="pawaedc">  -1465.45887949 </i>
    <i name="eentropy">     -0.00000000 </i>
    <i name="bandstr">   -325.30502795 </i>
    <i name="atom">   1333.72818728 </i>
    <i name="e_fr_energy">    -49.86102695 </i>
    <i name="e_wo_entrp">    -49.86102695 </i>
    <i name="e_0_energy">    -49.86102695 </i>
   </energy>
  </scstep>
  <scstep>
   <time name="dav">   19.82   19.87</time>
   <time name="total">  123.62  123.70</time>
   <energy>
    <i name="e_fr_energy">    -49.86105001 </i>
    <i name="e_wo_entrp">    -49.86105001 </i>
    <i name="e_0_energy">    -49.86105001 </i>
   </energy>
  </scstep>
  <scstep>
   <time name="dav">   14.88   14.88</time>
   <time name="total">  117.18  117.18</time>
   <energy>
    <i name="alphaZ">     15.92198659 </i>
    <i name="ewald">   1275.00907180 </i>
    <i name="hartreedc">  -2457.15342386 </i>
    <i name="XCdc">   -170.59783819 </i>
    <i name="pawpsdc">   1743.91019646 </i>
    <i name="pawaedc">  -1465.36986875 </i>
    <i name="eentropy">     -0.00000000 </i>
    <i name="bandstr">   -325.30936149 </i>
    <i name="atom">   1333.72818728 </i>
    <i name="e_fr_energy">    -49.86105015 </i>
    <i name="e_wo_entrp">    -49.86105015 </i>
    <i name="e_0_energy">    -49.86105015 </i>
   </energy>
  </scstep>
  <structure>
   <crystal>
    <varray name="basis" >
     <v>       6.01920000       0.00000000       0.00000000 </v>
     <v>       0.00000000      10.14000000       0.00000000 </v>
     <v>       0.00000000       0.00000000      15.00000000 </v>
    </varray>
    <i name="volume">    915.52032000 </i>
    <varray name="rec_basis" >
     <v>       0.16613503       0.00000000       0.00000000 </v>
     <v>       0.00000000       0.09861933       0.00000000 </v>
     <v>       0.00000000       0.00000000       0.06666667 </v>
    </varray>
   </crystal>
   <varray name="positions" >
    <v>       0.44360490       0.88104408       0.22277455 </v>
    <v>       0.94333623       0.88189119       0.27321935 </v>
    <v>       0.44411298       0.61832395       0.22554663 </v>
    <v>       0.94396135       0.61966180       0.27766862 </v>
    <v>       0.44134790       0.38029421       0.27935665 </v>
    <v>       0.94290410       0.38254771       0.22512338 </v>
    <v>       0.44247665       0.11980469       0.27117163 </v>
    <v>       0.94312853       0.11936582       0.22166722 </v>
    <v>       0.19306733       0.00010402       0.24625998 </v>
    <v>       0.69329473       0.00054137       0.24751177 </v>
    <v>       0.19342294       0.50063275       0.25149359 </v>
    <v>       0.69309248       0.50031731       0.25440384 </v>
    <v>       0.54371129       0.43028610       0.47911185 </v>
    <v>       0.75059516       0.34941258       0.47929423 </v>
    <v>       0.44871430       0.34766591       0.55303670 </v>
   </varray>
  </structure>
  <varray name="forces" >
   <v>       0.01016587      -0.01048024      -0.00232435 </v>
   <v>      -0.00144297       0.02499996      -0.00230177 </v>
   <v>      -0.00839373      -0.01904169      -0.00744777 </v>
   <v>      -0.00000659      -0.01062150      -0.00726019 </v>
   <v>       0.01184022       0.01127266      -0.00111754 </v>
   <v>       0.00843762       0.00903152       0.00526738 </v>
   <v>      -0.00100092       0.00637927       0.00190074 </v>
   <v>      -0.00887621      -0.02333414       0.00771477 </v>
   <v>      -0.01008329      -0.00148248       0.00164052 </v>
   <v>       0.00044307      -0.00728099      -0.00339120 </v>
   <v>      -0.02786268       0.00118728      -0.00331534 </v>
   <v>       0.01159076      -0.00501276       0.00619591 </v>
   <v>       0.00935867       0.01366666      -0.00338481 </v>
   <v>       0.00260044       0.00441714      -0.00089680 </v>
   <v>       0.00322976       0.00629930       0.00872045 </v>
  </varray>
  <varray name="stress" >
   <v>       8.65230210       0.09519779       0.10494905 </v>
   <v>       0.09519692     -10.42381135       0.22476924 </v>
   <v>       0.10494738       0.22477035      -1.25646312 </v>
  </varray>
  <energy>
   <i name="e_fr_energy">    -49.86105015 </i>
   <i name="e_wo_entrp">    -49.86105015 </i>
   <i name="e_0_energy">     -0.00000000 </i>
  </energy>
  <time name="totalsc">  593.46  594.95</time>
 </calculation>
 <calculation>
  <scstep>
   <time name="dav">   15.16   15.16</time>
   <time name="total">  121.11  121.22</time>
   <energy>
    <i name="alphaZ">     15.92198659 </i>
    <i name="ewald">   1274.92147247 </i>
    <i name="hartreedc">  -2457.04633386 </i>
    <i name="XCdc">   -170.59756224 </i>
    <i name="pawpsdc">   1743.87336979 </i>
    <i name="pawaedc">  -1465.33304301 </i>
    <i name="eentropy">     -0.00000000 </i>
    <i name="bandstr">   -325.32920833 </i>
    <i name="atom">   1333.72818728 </i>
    <i name="e_fr_energy">    -49.86113130 </i>
    <i name="e_wo_entrp">    -49.86113130 </i>
    <i name="e_0_energy">    -49.86113130 </i>
   </energy>
  </scstep>
  <scstep>
   <time name="dav">   21.19   21.19</time>
   <time name="total">  126.80  126.81</time>
   <energy>
    <i name="e_fr_energy">    -49.86116611 </i>
    <i name="e_wo_entrp">    -49.86116611 </i>
    <i name="e_0_energy">    -49.86116611 </i>
   </energy>
  </scstep>
  <scstep>
   <time name="dav">   15.38   15.38</time>
   <time name="total">  122.30  122.30</time>
   <energy>
    <i name="alphaZ">     15.92198659 </i>
    <i name="ewald">   1274.92147247 </i>
    <i name="hartreedc">  -2457.06053427 </i>
    <i name="XCdc">   -170.59645594 </i>
    <i name="pawpsdc">   1743.94887391 </i>
    <i name="pawaedc">  -1465.40880067 </i>
    <i name="eentropy">     -0.00000000 </i>
    <i name="bandstr">   -325.31589442 </i>
    <i name="atom">   1333.72818728 </i>
    <i name="e_fr_energy">    -49.86116503 </i>
    <i name="e_wo_entrp">    -49.86116503 </i>
    <i name="e_0_energy">    -49.86116503 </i>
   </energy>
  </scstep>
  <structure>
   <crystal>
    <varray name="basis" >
     <v>       6.01920000       0.00000000       0.00000000 </v>
     <v>       0.00000000      10.14000000       0.00000000 </v>
     <v>       0.00000000       0.00000000      15.00000000 </v>
    </varray>
    <i name="volume">    915.52032000 </i>
    <varray name="rec_basis" >
     <v>       0.16613503       0.00000000       0.00000000 </v>
     <v>       0.00000000       0.09861933       0.00000000 </v>
     <v>       0.00000000       0.00000000       0.06666667 </v>
    </varray>
   </crystal>
   <varray name="positions" >
    <v>       0.44357953       0.88103148       0.22275437 </v>
    <v>       0.94328175       0.88187189       0.27319229 </v>
    <v>       0.44407773       0.61827562       0.22553589 </v>
    <v>       0.94394521       0.61960032       0.27767470 </v>
    <v>       0.44131905       0.38035762       0.27939923 </v>
    <v>       0.94287531       0.38246023       0.22514464 </v>
    <v>       0.44242219       0.11980229       0.27120069 </v>
    <v>       0.94310072       0.11925930       0.22165578 </v>
    <v>       0.19300830       0.00005622       0.24626957 </v>
    <v>       0.69325111       0.00049878       0.24746893 </v>
    <v>       0.19329909       0.50060935       0.25141840 </v>
    <v>       0.69310029       0.50026147       0.25439085 </v>
    <v>       0.54390383       0.43041849       0.47913358 </v>
    <v>       0.75074117       0.34948221       0.47928852 </v>
    <v>       0.44886558       0.34790822       0.55311256 </v>
   </varray>
  </structure>
  <varray name="forces" >
   <v>       0.00851695      -0.01371157      -0.00213772 </v>
   <v>      -0.00228946       0.01609947       0.00142008 </v>
   <v>      -0.00749053      -0.01464192      -0.01043455 </v>
   <v>      -0.00301661      -0.00536588      -0.00914449 </v>
   <v>       0.00842928       0.00145906      -0.00203857 </v>
   <v>       0.00697861       0.00797386       0.00239128 </v>
   <v>      -0.00000183       0.00377337       0.00041700 </v>
   <v>      -0.00976673      -0.01195711       0.00600458 </v>
   <v>      -0.00410804       0.00008467       0.00139227 </v>
   <v>      -0.00319179      -0.00522365      -0.00163088 </v>
   <v>      -0.01600783      -0.00029292       0.00139746 </v>
   <v>       0.00684486      -0.00205421       0.00929261 </v>
   <v>       0.01076128       0.01296351      -0.00475004 </v>
   <v>      -0.00013453       0.00490983      -0.00020080 </v>
   <v>       0.00447638       0.00598350       0.00802178 </v>
  </varray>
  <varray name="stress" >
   <v>       8.65130854       0.11219271       0.10049722 </v>
   <v>       0.11219196     -10.39379456       0.20387232 </v>
   <v>       0.10049546       0.20387348      -1.24539888 </v>
  </varray>
  <energy>
   <i name="e_fr_energy">    -49.86116503 </i>
   <i name="e_wo_entrp">    -49.86116503 </i>
   <i name="e_0_energy">     -0.00000000 </i>
  </energy>
  <time name="totalsc">  602.53  603.83</time>
 </calculation>
 <calculation>
  <scstep>
   <time name="dav">   16.53   16.55</time>
   <time name="total">  123.19  123.29</time>
   <energy>
    <i name="alphaZ">     15.92198659 </i>
    <i name="ewald">   1274.74422410 </i>
    <i name="hartreedc">  -2456.84999147 </i>
    <i name="XCdc">   -170.59548781 </i>
    <i name="pawpsdc">   1743.97434964 </i>
    <i name="pawaedc">  -1465.43426886 </i>
    <i name="eentropy">     -0.00000000 </i>
    <i name="bandstr">   -325.35010920 </i>
    <i name="atom">   1333.72818728 </i>
    <i name="e_fr_energy">    -49.86110973 </i>
    <i name="e_wo_entrp">    -49.86110973 </i>
    <i name="e_0_energy">    -49.86110973 </i>
   </energy>
  </scstep>
  <scstep>
   <time name="dav">   16.32   16.36</time>
   <time name="total">  121.87  121.98</time>
   <energy>
    <i name="e_fr_energy">    -49.86125464 </i>
    <i name="e_wo_entrp">    -49.86125464 </i>
    <i name="e_0_energy">    -49.86125464 </i>
   </energy>
  </scstep>
  <scstep>
   <time name="dav">   18.76   18.76</time>
   <time name="total">  120.96  121.24</time>
   <energy>
    <i name="alphaZ">     15.92198659 </i>
    <i name="ewald">   1274.74422410 </i>
    <i name="hartreedc">  -2456.86598798 </i>
    <i name="XCdc">   -170.59392522 </i>
    <i name="pawpsdc">   1744.10954521 </i>
    <i name="pawaedc">  -1465.56981796 </i>
    <i name="eentropy">     -0.00000000 </i>
    <i name="bandstr">   -325.33546158 </i>
    <i name="atom">   1333.72818728 </i>
    <i name="e_fr_energy">    -49.86124956 </i>
    <i name="e_wo_entrp">    -49.86124956 </i>
    <i name="e_0_energy">    -49.86124956 </i>
   </energy>
  </scstep>
  <structure>
   <crystal>
    <varray name="basis" >
     <v>       6.01920000       0.00000000       0.00000000 </v>
     <v>       0.00000000      10.14000000       0.00000000 </v>
     <v>       0.00000000       0.00000000      15.00000000 </v>
    </varray>
    <i name="volume">    915.52032000 </i>
    <varray name="rec_basis" >
     <v>       0.16613503       0.00000000       0.00000000 </v>
     <v>       0.00000000       0.09861933       0.00000000 </v>
     <v>       0.00000000       0.00000000       0.06666667 </v>
    </varray>
   </crystal>
   <varray name="positions" >
    <v>       0.44352850       0.88100615       0.22271380 </v>
    <v>       0.94317220       0.88183309       0.27313787 </v>
    <v>       0.44400684       0.61817842       0.22551428 </v>
    <v>       0.94391275       0.61947669       0.27768692 </v>
    <v>       0.44126104       0.38048514       0.27948485 </v>
    <v>       0.94281739       0.38228429       0.22518739 </v>
    <v>       0.44231265       0.11979746       0.27125913 </v>
    <v>       0.94304480       0.11904506       0.22163275 </v>
    <v>       0.19288959      -0.00003992       0.24628885 </v>
    <v>       0.69316339       0.00041313       0.24738279 </v>
    <v>       0.19305003       0.50056230       0.25126720 </v>
    <v>       0.69311601       0.50014918       0.25436474 </v>
    <v>       0.54429106       0.43068474       0.47917728 </v>
    <v>       0.75103481       0.34962224       0.47927703 </v>
    <v>       0.44916981       0.34839553       0.55326512 </v>
   </varray>
  </structure>
  <varray name="forces" >
   <v>       0.00418465      -0.01950145      -0.00151603 </v>
   <v>      -0.00279547      -0.00262426       0.00931436 </v>
   <v>      -0.00552676      -0.00605507      -0.01620187 </v>
   <v>      -0.00963903       0.00697900      -0.01252029 </v>
   <v>       0.00124728      -0.01771624      -0.00408980 </v>
   <v>       0.00382150       0.00430859      -0.00375029 </v>
   <v>       0.00142701      -0.00172041      -0.00281280 </v>
   <v>      -0.01093487       0.01119358       0.00243528 </v>
   <v>       0.01248367       0.00272567       0.00129465 </v>
   <v>      -0.01354736       0.00123826       0.00140954 </v>
   <v>       0.01335130      -0.00377169       0.01056926 </v>
   <v>      -0.00464481       0.00461495       0.01462208 </v>
   <v>       0.00948764       0.00992183      -0.00539989 </v>
   <v>      -0.00596345       0.00551525       0.00116955 </v>
   <v>       0.00704871       0.00489198       0.00547625 </v>
  </varray>
  <varray name="stress" >
   <v>       8.65390275       0.14320287       0.09647387 </v>
   <v>       0.14320207     -10.34049409       0.16787737 </v>
   <v>       0.09647217       0.16787850      -1.23873670 </v>
  </varray>
  <energy>
   <i name="e_fr_energy">    -49.86124956 </i>
   <i name="e_wo_entrp">    -49.86124956 </i>
   <i name="e_0_energy">     -0.00000000 </i>
  </energy>
  <time name="totalsc">  595.31  597.59</time>
 </calculation>
 <calculation>
  <scstep>
   <time name="dav">   18.55   18.62</time>
   <time name="total">  122.33  122.68</time>
   <energy>
    <i name="alphaZ">     15.92198659 </i>
    <i name="ewald">   1274.59448757 </i>
    <i name="hartreedc">  -2456.73960613 </i>
    <i name="XCdc">   -170.59600300 </i>
    <i name="pawpsdc">   1744.15651610 </i>
    <i name="pawaedc">  -1465.61677383 </i>
    <i name="eentropy">     -0.00000000 </i>
    <i name="bandstr">   -325.31011592 </i>
    <i name="atom">   1333.72818728 </i>
    <i name="e_fr_energy">    -49.86132134 </i>
    <i name="e_wo_entrp">    -49.86132134 </i>
    <i name="e_0_energy">    -49.86132134 </i>
   </energy>
  </scstep>
  <scstep>
   <time name="dav">   19.94   20.01</time>
   <time name="total">  124.98  125.32</time>
   <energy>
    <i name="e_fr_energy">    -49.86137080 </i>
    <i name="e_wo_entrp">    -49.86137080 </i>
    <i name="e_0_energy">    -49.86137080 </i>
   </energy>
  </scstep>
  <scstep>
   <time name="dav">   16.14   16.19</time>
   <time name="total">  122.56  122.83</time>
   <energy>
    <i name="alphaZ">     15.92198659 </i>
    <i name="ewald">   1274.59448757 </i>
    <i name="hartreedc">  -2456.72790715 </i>
    <i name="XCdc">   -170.59628289 </i>
    <i name="pawpsdc">   1744.05966800 </i>
    <i name="pawaedc">  -1465.51951432 </i>
    <i name="eentropy">     -0.00000000 </i>
    <i name="bandstr">   -325.32199664 </i>
    <i name="atom">   1333.72818728 </i>
    <i name="e_fr_energy">    -49.86137155 </i>
    <i name="e_wo_entrp">    -49.86137155 </i>
    <i name="e_0_energy">    -49.86137155 </i>
   </energy>
  </scstep>
  <structure>
   <crystal>
    <varray name="basis" >
     <v>       6.01920000       0.00000000       0.00000000 </v>
     <v>       0.00000000      10.14000000       0.00000000 </v>
     <v>       0.00000000       0.00000000      15.00000000 </v>
    </varray>
    <i name="volume">    915.52032000 </i>
    <varray name="rec_basis" >
     <v>       0.16613503       0.00000000       0.00000000 </v>
     <v>       0.00000000       0.09861933       0.00000000 </v>
     <v>       0.00000000       0.00000000       0.06666667 </v>
    </varray>
   </crystal>
   <varray name="positions" >
    <v>       0.44353377       0.88090766       0.22268884 </v>
    <v>       0.94309628       0.88180199       0.27313812 </v>
    <v>       0.44393017       0.61810281       0.22545524 </v>
    <v>       0.94382500       0.61944505       0.27765588 </v>
    <v>       0.44124104       0.38047153       0.27951585 </v>
    <v>       0.94281650       0.38221455       0.22519780 </v>
    <v>       0.44226801       0.11978746       0.27128022 </v>
    <v>       0.94293564       0.11898629       0.22162838 </v>
    <v>       0.19292221      -0.00007640       0.24630241 </v>
    <v>       0.69301884       0.00037541       0.24734356 </v>
    <v>       0.19302336       0.50052200       0.25122240 </v>
    <v>       0.69308953       0.50011287       0.25439503 </v>
    <v>       0.54455650       0.43086255       0.47918326 </v>
    <v>       0.75113865       0.34971706       0.47927472 </v>
    <v>       0.44937536       0.34866266       0.55335829 </v>
   </varray>
  </structure>
  <varray name="forces" >
   <v>      -0.00199583      -0.01111229      -0.00087680 </v>
   <v>      -0.00087622      -0.00013278       0.00782485 </v>
   <v>      -0.00111276      -0.00513377      -0.01529387 </v>
   <v>      -0.00598688       0.00691485      -0.01218482 </v>
   <v>      -0.00014180      -0.01798306      -0.00409871 </v>
   <v>       0.00026645       0.00641763      -0.00378615 </v>
   <v>       0.00000188      -0.00745805      -0.00452244 </v>
   <v>      -0.00546374       0.01002094       0.00212561 </v>
   <v>       0.00048819      -0.00008009       0.00085706 </v>
   <v>      -0.00208880      -0.00051071       0.00301830 </v>
   <v>       0.01102002      -0.00543457       0.01221449 </v>
   <v>      -0.00560183       0.00258220       0.01290156 </v>
   <v>       0.00038508       0.00790397       0.00221593 </v>
   <v>      -0.00047458       0.00241401       0.00090966 </v>
   <v>       0.01158081       0.01159173      -0.00130469 </v>
  </varray>
  <varray name="stress" >
   <v>       8.64874648       0.17617962       0.10213232 </v>
   <v>       0.17617892     -10.36794797       0.16901395 </v>
   <v>       0.10213051       0.16901513      -1.26850639 </v>
  </varray>
  <energy>
   <i name="e_fr_energy">    -49.86137155 </i>
   <i name="e_wo_entrp">    -49.86137155 </i>
   <i name="e_0_energy">     -0.00000000 </i>
  </energy>
  <time name="totalsc">  602.43  604.67</time>
 </calculation>
 <calculation>
  <scstep>
   <time name="dav">   16.78   16.82</time>
   <time name="total">  124.86  125.14</time>
   <energy>
    <i name="alphaZ">     15.92198659 </i>
    <i name="ewald">   1274.20645637 </i>
    <i name="hartreedc">  -2456.39048371 </i>
    <i name="XCdc">   -170.60248091 </i>
    <i name="pawpsdc">   1744.02674075 </i>
    <i name="pawaedc">  -1465.48650415 </i>
    <i name="eentropy">     -0.00000000 </i>
    <i name="bandstr">   -325.26500073 </i>
    <i name="atom">   1333.72818728 </i>
    <i name="e_fr_energy">    -49.86109849 </i>
    <i name="e_wo_entrp">    -49.86109849 </i>
    <i name="e_0_energy">    -49.86109849 </i>
   </energy>
  </scstep>
  <scstep>
   <time name="dav">   19.71   19.73</time>
   <time name="total">  126.48  126.64</time>
   <energy>
    <i name="e_fr_energy">    -49.86144874 </i>
    <i name="e_wo_entrp">    -49.86144874 </i>
    <i name="e_0_energy">    -49.86144874 </i>
   </energy>
  </scstep>
  <scstep>
   <time name="dav">   21.07   21.10</time>
   <time name="total">  131.49  131.66</time>
   <energy>
    <i name="e_fr_energy">    -49.86144625 </i>
    <i name="e_wo_entrp">    -49.86144625 </i>
    <i name="e_0_energy">    -49.86144625 </i>
   </energy>
  </scstep>
  <scstep>
   <time name="dav">   17.54   17.58</time>
   <time name="total">  128.05  128.28</time>
   <energy>
    <i name="e_fr_energy">    -49.86146258 </i>
    <i name="e_wo_entrp">    -49.86146258 </i>
    <i name="e_0_energy">    -49.86146258 </i>
   </energy>
  </scstep>
  <scstep>
   <time name="dav">   14.01   14.07</time>
   <time name="total">  118.78  119.25</time>
   <energy>
    <i name="alphaZ">     15.92198659 </i>
    <i name="ewald">   1274.20645637 </i>
    <i name="hartreedc">  -2456.36901236 </i>
    <i name="XCdc">   -170.60202343 </i>
    <i name="pawpsdc">   1743.71786068 </i>
    <i name="pawaedc">  -1465.17660166 </i>
    <i name="eentropy">     -0.00000000 </i>
    <i name="bandstr">   -325.28831547 </i>
    <i name="atom">   1333.72818728 </i>
    <i name="e_fr_energy">    -49.86146199 </i>
    <i name="e_wo_entrp">    -49.86146199 </i>
    <i name="e_0_energy">    -49.86146199 </i>
   </energy>
  </scstep>
  <structure>
   <crystal>
    <varray name="basis" >
     <v>       6.01920000       0.00000000       0.00000000 </v>
     <v>       0.00000000      10.14000000       0.00000000 </v>
     <v>       0.00000000       0.00000000      15.00000000 </v>
    </varray>
    <i name="volume">    915.52032000 </i>
    <varray name="rec_basis" >
     <v>       0.16613503       0.00000000       0.00000000 </v>
     <v>       0.00000000       0.09861933       0.00000000 </v>
     <v>       0.00000000       0.00000000       0.06666667 </v>
    </varray>
   </crystal>
   <varray name="positions" >
    <v>       0.44354738       0.88065328       0.22262438 </v>
    <v>       0.94290020       0.88172169       0.27313877 </v>
    <v>       0.44373218       0.61790754       0.22530277 </v>
    <v>       0.94359839       0.61936335       0.27757570 </v>
    <v>       0.44118939       0.38043638       0.27959592 </v>
    <v>       0.94281420       0.38203444       0.22522466 </v>
    <v>       0.44215272       0.11976164       0.27133470 </v>
    <v>       0.94265370       0.11883451       0.22161710 </v>
    <v>       0.19300645      -0.00017060       0.24633744 </v>
    <v>       0.69264554       0.00027798       0.24724225 </v>
    <v>       0.19295451       0.50041793       0.25110669 </v>
    <v>       0.69302115       0.50001909       0.25447325 </v>
    <v>       0.54524202       0.43132178       0.47919870 </v>
    <v>       0.75140683       0.34996195       0.47926875 </v>
    <v>       0.44990620       0.34935254       0.55359891 </v>
   </varray>
  </structure>
  <varray name="forces" >
   <v>      -0.02012912       0.00918465       0.00070795 </v>
   <v>       0.00639468       0.00894420       0.00360412 </v>
   <v>       0.01058371      -0.00245538      -0.01315582 </v>
   <v>       0.00573815       0.00575768      -0.01158640 </v>
   <v>      -0.00263767      -0.02090588      -0.00290120 </v>
   <v>      -0.00842978       0.01233798      -0.00343698 </v>
   <v>      -0.00559781      -0.02093156      -0.00837223 </v>
   <v>       0.01080270       0.00281461       0.00257636 </v>
   <v>      -0.03566601      -0.00480067      -0.00101836 </v>
   <v>       0.03539579      -0.00316898       0.01022516 </v>
   <v>       0.00038867      -0.00541605       0.01720101 </v>
   <v>      -0.00582452      -0.00194876       0.00289340 </v>
   <v>      -0.02895741       0.00047260       0.02248987 </v>
   <v>       0.01417685      -0.00733482       0.00051398 </v>
   <v>       0.02376176       0.02745038      -0.01974087 </v>
  </varray>
  <varray name="stress" >
   <v>       8.63048126       0.25613294       0.12528985 </v>
   <v>       0.25613227     -10.44779775       0.17477183 </v>
   <v>       0.12528799       0.17477319      -1.31942199 </v>
  </varray>
  <energy>
   <i name="e_fr_energy">    -49.86146199 </i>
   <i name="e_wo_entrp">    -49.86146199 </i>
   <i name="e_0_energy">     -0.00000000 </i>
  </energy>
  <time name="totalsc">  858.55  861.19</time>
 </calculation>
 <calculation>
  <scstep>
   <time name="dav">   15.61   15.64</time>
   <time name="total">  116.26  116.68</time>
   <energy>
    <i name="alphaZ">     15.92198659 </i>
    <i name="ewald">   1274.31659606 </i>
    <i name="hartreedc">  -2456.46111678 </i>
    <i name="XCdc">   -170.60023347 </i>
    <i name="pawpsdc">   1743.70307397 </i>
    <i name="pawaedc">  -1465.16171474 </i>
    <i name="eentropy">     -0.00000000 </i>
    <i name="bandstr">   -325.30821871 </i>
    <i name="atom">   1333.72818728 </i>
    <i name="e_fr_energy">    -49.86143980 </i>
    <i name="e_wo_entrp">    -49.86143980 </i>
    <i name="e_0_energy">    -49.86143980 </i>
   </energy>
  </scstep>
  <scstep>
   <time name="dav">   18.45   18.55</time>
   <time name="total">  119.94  120.26</time>
   <energy>
    <i name="e_fr_energy">    -49.86146637 </i>
    <i name="e_wo_entrp">    -49.86146637 </i>
    <i name="e_0_energy">    -49.86146637 </i>
   </energy>
  </scstep>
  <scstep>
   <time name="dav">   11.84   11.86</time>
   <time name="total">  112.09  112.20</time>
   <energy>
    <i name="alphaZ">     15.92198659 </i>
    <i name="ewald">   1274.31659606 </i>
    <i name="hartreedc">  -2456.46307442 </i>
    <i name="XCdc">   -170.60031385 </i>
    <i name="pawpsdc">   1743.76482607 </i>
    <i name="pawaedc">  -1465.22365229 </i>
    <i name="eentropy">     -0.00000000 </i>
    <i name="bandstr">   -325.30602153 </i>
    <i name="atom">   1333.72818728 </i>
    <i name="e_fr_energy">    -49.86146608 </i>
    <i name="e_wo_entrp">    -49.86146608 </i>
    <i name="e_0_energy">    -49.86146608 </i>
   </energy>
  </scstep>
  <structure>
   <crystal>
    <varray name="basis" >
     <v>       6.01920000       0.00000000       0.00000000 </v>
     <v>       0.00000000      10.14000000       0.00000000 </v>
     <v>       0.00000000       0.00000000      15.00000000 </v>
    </varray>
    <i name="volume">    915.52032000 </i>
    <varray name="rec_basis" >
     <v>       0.16613503       0.00000000       0.00000000 </v>
     <v>       0.00000000       0.09861933       0.00000000 </v>
     <v>       0.00000000       0.00000000       0.06666667 </v>
    </varray>
   </crystal>
   <varray name="positions" >
    <v>       0.44354352       0.88072535       0.22264265 </v>
    <v>       0.94295576       0.88174444       0.27313858 </v>
    <v>       0.44378828       0.61796287       0.22534597 </v>
    <v>       0.94366260       0.61938650       0.27759842 </v>
    <v>       0.44120402       0.38044634       0.27957323 </v>
    <v>       0.94281485       0.38208547       0.22521705 </v>
    <v>       0.44218539       0.11976896       0.27131926 </v>
    <v>       0.94273359       0.11887751       0.22162029 </v>
    <v>       0.19298258      -0.00014391       0.24632752 </v>
    <v>       0.69275132       0.00030558       0.24727096 </v>
    <v>       0.19297402       0.50044742       0.25113947 </v>
    <v>       0.69304052       0.50004566       0.25445109 </v>
    <v>       0.54504778       0.43119166       0.47919433 </v>
    <v>       0.75133085       0.34989256       0.47927044 </v>
    <v>       0.44975579       0.34915707       0.55353074 </v>
   </varray>
  </structure>
  <varray name="forces" >
   <v>      -0.01484352       0.00290192      -0.00018746 </v>
   <v>       0.00393371       0.00636726       0.00450593 </v>
   <v>       0.00748552      -0.00355780      -0.01415887 </v>
   <v>       0.00241555       0.00557302      -0.01220238 </v>
   <v>      -0.00185033      -0.02020324      -0.00345557 </v>
   <v>      -0.00619782       0.01052783      -0.00360882 </v>
   <v>      -0.00363979      -0.01714022      -0.00727592 </v>
   <v>       0.00585543       0.00452575       0.00215004 </v>
   <v>      -0.02585039      -0.00428843      -0.00031097 </v>
   <v>       0.02399250      -0.00261031       0.00814459 </v>
   <v>       0.00345421      -0.00541122       0.01620185 </v>
   <v>      -0.00605971      -0.00085291       0.00523242 </v>
   <v>      -0.02165128       0.00230799       0.01784973 </v>
   <v>       0.01105903      -0.00350222       0.00036429 </v>
   <v>       0.02189689       0.02536257      -0.01324885 </v>
  </varray>
  <varray name="stress" >
   <v>       8.63689935       0.23991517       0.11851455 </v>
   <v>       0.23991431     -10.42861019       0.17381263 </v>
   <v>       0.11851262       0.17381382      -1.29747097 </v>
  </varray>
  <energy>
   <i name="e_fr_energy">    -49.86146608 </i>
   <i name="e_wo_entrp">    -49.86146608 </i>
   <i name="e_0_energy">     -0.00000000 </i>
  </energy>
  <time name="totalsc">  574.62  577.04</time>
 </calculation>
 <calculation>
  <scstep>
   <time name="dav">   16.85   16.86</time>
   <time name="total">  119.85  119.93</time>
   <energy>
    <i name="alphaZ">     15.92198659 </i>
    <i name="ewald">   1274.18465561 </i>
    <i name="hartreedc">  -2456.33871793 </i>
    <i name="XCdc">   -170.60143869 </i>
    <i name="pawpsdc">   1743.79364323 </i>
    <i name="pawaedc">  -1465.25255483 </i>
    <i name="eentropy">     -0.00000000 </i>
    <i name="bandstr">   -325.29729858 </i>
    <i name="atom">   1333.72818728 </i>
    <i name="e_fr_energy">    -49.86153731 </i>
    <i name="e_wo_entrp">    -49.86153731 </i>
    <i name="e_0_energy">    -49.86153731 </i>
   </energy>
  </scstep>
  <scstep>
   <time name="dav">   20.53   20.61</time>
   <time name="total">  127.84  128.06</time>
   <energy>
    <i name="e_fr_energy">    -49.86155868 </i>
    <i name="e_wo_entrp">    -49.86155868 </i>
    <i name="e_0_energy">    -49.86155868 </i>
   </energy>
  </scstep>
  <scstep>
   <time name="dav">   11.25   11.26</time>
   <time name="total">  117.72  117.80</time>
   <energy>
    <i name="alphaZ">     15.92198659 </i>
    <i name="ewald">   1274.18465561 </i>
    <i name="hartreedc">  -2456.33847563 </i>
    <i name="XCdc">   -170.60126812 </i>
    <i name="pawpsdc">   1743.77365417 </i>
    <i name="pawaedc">  -1465.23264812 </i>
    <i name="eentropy">     -0.00000000 </i>
    <i name="bandstr">   -325.29765034 </i>
    <i name="atom">   1333.72818728 </i>
    <i name="e_fr_energy">    -49.86155855 </i>
    <i name="e_wo_entrp">    -49.86155855 </i>
    <i name="e_0_energy">    -49.86155855 </i>
   </energy>
  </scstep>
  <structure>
   <crystal>
    <varray name="basis" >
     <v>       6.01920000       0.00000000       0.00000000 </v>
     <v>       0.00000000      10.14000000       0.00000000 </v>
     <v>       0.00000000       0.00000000      15.00000000 </v>
    </varray>
    <i name="volume">    915.52032000 </i>
    <varray name="rec_basis" >
     <v>       0.16613503       0.00000000       0.00000000 </v>
     <v>       0.00000000       0.09861933       0.00000000 </v>
     <v>       0.00000000       0.00000000       0.06666667 </v>
    </varray>
   </crystal>
   <varray name="positions" >
    <v>       0.44350587       0.88066475       0.22262587 </v>
    <v>       0.94291627       0.88173428       0.27314376 </v>
    <v>       0.44375815       0.61790683       0.22529103 </v>
    <v>       0.94361105       0.61937467       0.27756423 </v>
    <v>       0.44118562       0.38040406       0.27958997 </v>
    <v>       0.94279708       0.38205651       0.22521994 </v>
    <v>       0.44214566       0.11973411       0.27132517 </v>
    <v>       0.94267736       0.11884595       0.22161979 </v>
    <v>       0.19293256      -0.00017518       0.24633617 </v>
    <v>       0.69272189       0.00027625       0.24725398 </v>
    <v>       0.19296590       0.50041177       0.25112776 </v>
    <v>       0.69300615       0.50002015       0.25447701 </v>
    <v>       0.54516395       0.43131349       0.47921816 </v>
    <v>       0.75143044       0.34994974       0.47926931 </v>
    <v>       0.44995294       0.34937613       0.55357784 </v>
   </varray>
  </structure>
  <varray name="forces" >
   <v>      -0.01482177       0.00914155       0.00066401 </v>
   <v>       0.00353826       0.00375940       0.00446934 </v>
   <v>       0.00797118      -0.00369403      -0.01133846 </v>
   <v>       0.00481601       0.00561166      -0.01007682 </v>
   <v>      -0.00235020      -0.01668988      -0.00320699 </v>
   <v>      -0.00705164       0.01123364      -0.00298264 </v>
   <v>      -0.00337337      -0.01907732      -0.00729197 </v>
   <v>       0.00723193       0.00687685       0.00159163 </v>
   <v>      -0.02086593      -0.00519470      -0.00011528 </v>
   <v>       0.01935578      -0.00495163       0.00732409 </v>
   <v>       0.00057688      -0.00577351       0.01382998 </v>
   <v>      -0.00448159      -0.00281598       0.00419451 </v>
   <v>      -0.01280543       0.00407688       0.01048692 </v>
   <v>       0.00541735      -0.00084416       0.00067330 </v>
   <v>       0.01684255       0.01834123      -0.00822160 </v>
  </varray>
  <varray name="stress" >
   <v>       8.62622062       0.25563360       0.11201333 </v>
   <v>       0.25563294     -10.43364897       0.15735980 </v>
   <v>       0.11201153       0.15736112      -1.29393529 </v>
  </varray>
  <energy>
   <i name="e_fr_energy">    -49.86155855 </i>
   <i name="e_wo_entrp">    -49.86155855 </i>
   <i name="e_0_energy">     -0.00000000 </i>
  </energy>
  <time name="totalsc">  596.90  598.45</time>
 </calculation>
 <calculation>
  <scstep>
   <time name="dav">   16.81   16.88</time>
   <time name="total">  124.21  124.52</time>
   <energy>
    <i name="alphaZ">     15.92198659 </i>
    <i name="ewald">   1273.78779278 </i>
    <i name="hartreedc">  -2455.96050253 </i>
    <i name="XCdc">   -170.60459210 </i>
    <i name="pawpsdc">   1743.76596313 </i>
    <i name="pawaedc">  -1465.22499380 </i>
    <i name="eentropy">     -0.00000000 </i>
    <i name="bandstr">   -325.27538626 </i>
    <i name="atom">   1333.72818728 </i>
    <i name="e_fr_energy">    -49.86154491 </i>
    <i name="e_wo_entrp">    -49.86154491 </i>
    <i name="e_0_energy">    -49.86154491 </i>
   </energy>
  </scstep>
  <scstep>
   <time name="dav">   21.49   21.61</time>
   <time name="total">  125.01  125.52</time>
   <energy>
    <i name="e_fr_energy">    -49.86172791 </i>
    <i name="e_wo_entrp">    -49.86172791 </i>
    <i name="e_0_energy">    -49.86172791 </i>
   </energy>
  </scstep>
  <scstep>
   <time name="dav">   19.32   19.35</time>
   <time name="total">  123.00  123.31</time>
   <energy>
    <i name="alphaZ">     15.92198659 </i>
    <i name="ewald">   1273.78779278 </i>
    <i name="hartreedc">  -2455.96438470 </i>
    <i name="XCdc">   -170.60368888 </i>
    <i name="pawpsdc">   1743.69626364 </i>
    <i name="pawaedc">  -1465.15541106 </i>
    <i name="eentropy">     -0.00000000 </i>
    <i name="bandstr">   -325.27247975 </i>
    <i name="atom">   1333.72818728 </i>
    <i name="e_fr_energy">    -49.86173410 </i>
    <i name="e_wo_entrp">    -49.86173410 </i>
    <i name="e_0_energy">    -49.86173410 </i>
   </energy>
  </scstep>
  <structure>
   <crystal>
    <varray name="basis" >
     <v>       6.01920000       0.00000000       0.00000000 </v>
     <v>       0.00000000      10.14000000       0.00000000 </v>
     <v>       0.00000000       0.00000000      15.00000000 </v>
    </varray>
    <i name="volume">    915.52032000 </i>
    <varray name="rec_basis" >
     <v>       0.16613503       0.00000000       0.00000000 </v>
     <v>       0.00000000       0.09861933       0.00000000 </v>
     <v>       0.00000000       0.00000000       0.06666667 </v>
    </varray>
   </crystal>
   <varray name="positions" >
    <v>       0.44339290       0.88048293       0.22257555 </v>
    <v>       0.94279780       0.88170380       0.27315930 </v>
    <v>       0.44366775       0.61773870       0.22512621 </v>
    <v>       0.94345641       0.61933919       0.27746168 </v>
    <v>       0.44113040       0.38027720       0.27964017 </v>
    <v>       0.94274375       0.38196961       0.22522861 </v>
    <v>       0.44202649       0.11962957       0.27134289 </v>
    <v>       0.94250867       0.11875126       0.22161826 </v>
    <v>       0.19278249      -0.00026899       0.24636215 </v>
    <v>       0.69263361       0.00018823       0.24720304 </v>
    <v>       0.19294153       0.50030480       0.25109262 </v>
    <v>       0.69290302       0.49994363       0.25455480 </v>
    <v>       0.54551244       0.43167898       0.47928964 </v>
    <v>       0.75172921       0.35012128       0.47926592 </v>
    <v>       0.45054438       0.35003330       0.55371916 </v>
   </varray>
  </structure>
  <varray name="forces" >
   <v>      -0.01571399       0.02549826       0.00240038 </v>
   <v>       0.00329899      -0.00406745       0.00364732 </v>
   <v>       0.01003724      -0.00546088      -0.00342388 </v>
   <v>       0.01332477       0.00323135      -0.00481683 </v>
   <v>      -0.00352866      -0.00745652      -0.00331691 </v>
   <v>      -0.00999562       0.01238966      -0.00165565 </v>
   <v>      -0.00247407      -0.02645220      -0.00772468 </v>
   <v>       0.01276670       0.01167101      -0.00004307 </v>
   <v>      -0.00852227      -0.00574896      -0.00117026 </v>
   <v>       0.00449806      -0.00793553       0.00915249 </v>
   <v>      -0.00963588      -0.00400555       0.01180611 </v>
   <v>      -0.00184838      -0.00659629      -0.00387932 </v>
   <v>       0.00986043       0.00440961      -0.01138087 </v>
   <v>      -0.00841482       0.00766640       0.00108470 </v>
   <v>       0.00634749       0.00285710       0.00932047 </v>
  </varray>
  <varray name="stress" >
   <v>       8.58512445       0.32710278       0.09378714 </v>
   <v>       0.32710203     -10.46401678       0.11069430 </v>
   <v>       0.09378531       0.11069541      -1.27098288 </v>
  </varray>
  <energy>
   <i name="e_fr_energy">    -49.86173410 </i>
   <i name="e_wo_entrp">    -49.86173410 </i>
   <i name="e_0_energy">     -0.00000000 </i>
  </energy>
  <time name="totalsc">  608.18  614.61</time>
 </calculation>
 <calculation>
  <scstep>
   <time name="dav">   15.47   15.54</time>
   <time name="total">  119.69  120.08</time>
   <energy>
    <i name="alphaZ">     15.92198659 </i>
    <i name="ewald">   1273.63225406 </i>
    <i name="hartreedc">  -2455.81729833 </i>
    <i name="XCdc">   -170.60480880 </i>
    <i name="pawpsdc">   1743.66499391 </i>
    <i name="pawaedc">  -1465.12410711 </i>
    <i name="eentropy">     -0.00000000 </i>
    <i name="bandstr">   -325.26295653 </i>
    <i name="atom">   1333.72818728 </i>
    <i name="e_fr_energy">    -49.86174892 </i>
    <i name="e_wo_entrp">    -49.86174892 </i>
    <i name="e_0_energy">    -49.86174892 </i>
   </energy>
  </scstep>
  <scstep>
   <time name="dav">   20.55   20.56</time>
   <time name="total">  122.93  123.26</time>
   <energy>
    <i name="e_fr_energy">    -49.86177386 </i>
    <i name="e_wo_entrp">    -49.86177386 </i>
    <i name="e_0_energy">    -49.86177386 </i>
   </energy>
  </scstep>
  <scstep>
   <time name="dav">   14.29   14.30</time>
   <time name="total">  118.41  118.58</time>
   <energy>
    <i name="alphaZ">     15.92198659 </i>
    <i name="ewald">   1273.63225406 </i>
    <i name="hartreedc">  -2455.81915179 </i>
    <i name="XCdc">   -170.60441779 </i>
    <i name="pawpsdc">   1743.62447309 </i>
    <i name="pawaedc">  -1465.08348584 </i>
    <i name="eentropy">     -0.00000000 </i>
    <i name="bandstr">   -325.26162221 </i>
    <i name="atom">   1333.72818728 </i>
    <i name="e_fr_energy">    -49.86177659 </i>
    <i name="e_wo_entrp">    -49.86177659 </i>
    <i name="e_0_energy">    -49.86177659 </i>
   </energy>
  </scstep>
  <structure>
   <crystal>
    <varray name="basis" >
     <v>       6.01920000       0.00000000       0.00000000 </v>
     <v>       0.00000000      10.14000000       0.00000000 </v>
     <v>       0.00000000       0.00000000      15.00000000 </v>
    </varray>
    <i name="volume">    915.52032000 </i>
    <varray name="rec_basis" >
     <v>       0.16613503       0.00000000       0.00000000 </v>
     <v>       0.00000000       0.09861933       0.00000000 </v>
     <v>       0.00000000       0.00000000       0.06666667 </v>
    </varray>
   </crystal>
   <varray name="positions" >
    <v>       0.44334874       0.88041187       0.22255588 </v>
    <v>       0.94275150       0.88169188       0.27316538 </v>
    <v>       0.44363242       0.61767298       0.22506178 </v>
    <v>       0.94339597       0.61932532       0.27742160 </v>
    <v>       0.44110881       0.38022762       0.27965979 </v>
    <v>       0.94272291       0.38193565       0.22523200 </v>
    <v>       0.44197991       0.11958871       0.27134982 </v>
    <v>       0.94244274       0.11871425       0.22161767 </v>
    <v>       0.19272384      -0.00030566       0.24637230 </v>
    <v>       0.69259911       0.00015383       0.24718313 </v>
    <v>       0.19293201       0.50026300       0.25107888 </v>
    <v>       0.69286271       0.49991372       0.25458520 </v>
    <v>       0.54564866       0.43182183       0.47931758 </v>
    <v>       0.75184599       0.35018832       0.47926460 </v>
    <v>       0.45077555       0.35029016       0.55377439 </v>
   </varray>
  </structure>
  <varray name="forces" >
   <v>      -0.01665776       0.03156444       0.00265320 </v>
   <v>       0.00268445      -0.00765305       0.00289310 </v>
   <v>       0.01059150      -0.00651798      -0.00092865 </v>
   <v>       0.01630935       0.00171192      -0.00329863 </v>
   <v>      -0.00437314      -0.00410391      -0.00349262 </v>
   <v>      -0.01166761       0.01242626      -0.00131048 </v>
   <v>      -0.00271537      -0.02977667      -0.00819319 </v>
   <v>       0.01452307       0.01317087      -0.00108683 </v>
   <v>      -0.00352086      -0.00611592      -0.00210171 </v>
   <v>      -0.00060605      -0.00928881       0.00973299 </v>
   <v>      -0.01338365      -0.00369552       0.01067529 </v>
   <v>      -0.00044395      -0.00862153      -0.00744896 </v>
   <v>       0.01865758       0.00545048      -0.01695788 </v>
   <v>      -0.01310791       0.01208336       0.00113510 </v>
   <v>       0.00371037      -0.00063394       0.01772926 </v>
  </varray>
  <varray name="stress" >
   <v>       8.56765806       0.36480798       0.08791462 </v>
   <v>       0.36480723     -10.48422568       0.08822421 </v>
   <v>       0.08791295       0.08822537      -1.25482368 </v>
  </varray>
  <energy>
   <i name="e_fr_energy">    -49.86177659 </i>
   <i name="e_wo_entrp">    -49.86177659 </i>
   <i name="e_0_energy">     -0.00000000 </i>
  </energy>
  <time name="totalsc">  592.67  594.59</time>
 </calculation>
 <calculation>
  <scstep>
   <time name="dav">   16.37   16.46</time>
   <time name="total">  118.42  118.86</time>
   <energy>
    <i name="alphaZ">     15.92198659 </i>
    <i name="ewald">   1273.59227754 </i>
    <i name="hartreedc">  -2455.76069264 </i>
    <i name="XCdc">   -170.60438513 </i>
    <i name="pawpsdc">   1743.60843631 </i>
    <i name="pawaedc">  -1465.06742042 </i>
    <i name="eentropy">     -0.00000000 </i>
    <i name="bandstr">   -325.28026989 </i>
    <i name="atom">   1333.72818728 </i>
    <i name="e_fr_energy">    -49.86188036 </i>
    <i name="e_wo_entrp">    -49.86188036 </i>
    <i name="e_0_energy">    -49.86188036 </i>
   </energy>
  </scstep>
  <scstep>
   <time name="dav">   20.86   20.87</time>
   <time name="total">  126.29  126.50</time>
   <energy>
    <i name="e_fr_energy">    -49.86194442 </i>
    <i name="e_wo_entrp">    -49.86194442 </i>
    <i name="e_0_energy">    -49.86194442 </i>
   </energy>
  </scstep>
  <scstep>
   <time name="dav">   16.63   16.71</time>
   <time name="total">  119.84  120.06</time>
   <energy>
    <i name="alphaZ">     15.92198659 </i>
    <i name="ewald">   1273.59227754 </i>
    <i name="hartreedc">  -2455.77340628 </i>
    <i name="XCdc">   -170.60314044 </i>
    <i name="pawpsdc">   1743.68166052 </i>
    <i name="pawaedc">  -1465.14095194 </i>
    <i name="eentropy">     -0.00000000 </i>
    <i name="bandstr">   -325.26855750 </i>
    <i name="atom">   1333.72818728 </i>
    <i name="e_fr_energy">    -49.86194422 </i>
    <i name="e_wo_entrp">    -49.86194422 </i>
    <i name="e_0_energy">    -49.86194422 </i>
   </energy>
  </scstep>
  <structure>
   <crystal>
    <varray name="basis" >
     <v>       6.01920000       0.00000000       0.00000000 </v>
     <v>       0.00000000      10.14000000       0.00000000 </v>
     <v>       0.00000000       0.00000000      15.00000000 </v>
    </varray>
    <i name="volume">    915.52032000 </i>
    <varray name="rec_basis" >
     <v>       0.16613503       0.00000000       0.00000000 </v>
     <v>       0.00000000       0.09861933       0.00000000 </v>
     <v>       0.00000000       0.00000000       0.06666667 </v>
    </varray>
   </crystal>
   <varray name="positions" >
    <v>       0.44320776       0.88041663       0.22253623 </v>
    <v>       0.94270616       0.88165359       0.27317902 </v>
    <v>       0.44364127       0.61756958       0.22497781 </v>
    <v>       0.94340192       0.61931282       0.27736380 </v>
    <v>       0.44105907       0.38015206       0.27967766 </v>
    <v>       0.94263701       0.38192990       0.22523364 </v>
    <v>       0.44190676       0.11944675       0.27134192 </v>
    <v>       0.94243261       0.11870686       0.22161469 </v>
    <v>       0.19263120      -0.00037084       0.24638094 </v>
    <v>       0.69255207       0.00008196       0.24717764 </v>
    <v>       0.19285180       0.50019857       0.25108317 </v>
    <v>       0.69280910       0.49984958       0.25460873 </v>
    <v>       0.54591710       0.43202029       0.47931857 </v>
    <v>       0.75192810       0.35031022       0.47926523 </v>
    <v>       0.45108895       0.35061550       0.55388094 </v>
   </varray>
  </structure>
  <varray name="forces" >
   <v>      -0.01035896       0.01616878      -0.00090522 </v>
   <v>      -0.00032814      -0.00925796       0.00095299 </v>
   <v>       0.00562704      -0.00261445       0.00274072 </v>
   <v>       0.01284262       0.00068536       0.00062115 </v>
   <v>      -0.00629303      -0.00388642      -0.00343901 </v>
   <v>      -0.00989807       0.00567475      -0.00197786 </v>
   <v>      -0.00020441      -0.01480641      -0.00326582 </v>
   <v>       0.00938007       0.00889677       0.00015663 </v>
   <v>      -0.00411516      -0.00254663      -0.00236955 </v>
   <v>       0.00009272      -0.00680980       0.00928301 </v>
   <v>      -0.00583351      -0.00248194       0.00857471 </v>
   <v>       0.00047784      -0.00666166      -0.00958950 </v>
   <v>       0.00875659       0.00788174      -0.01473868 </v>
   <v>      -0.00533146       0.00720640       0.00065264 </v>
   <v>       0.00518586       0.00255148       0.01330381 </v>
  </varray>
  <varray name="stress" >
   <v>       8.59040811       0.33519862       0.08314431 </v>
   <v>       0.33519783     -10.45435234       0.10946612 </v>
   <v>       0.08314255       0.10946736      -1.25442319 </v>
  </varray>
  <energy>
   <i name="e_fr_energy">    -49.86194422 </i>
   <i name="e_wo_entrp">    -49.86194422 </i>
   <i name="e_0_energy">     -0.00000000 </i>
  </energy>
  <time name="totalsc">  593.35  595.47</time>
 </calculation>
 <calculation>
  <scstep>
   <time name="dav">   16.33   16.37</time>
   <time name="total">  122.30  122.48</time>
   <energy>
    <i name="alphaZ">     15.92198659 </i>
    <i name="ewald">   1273.49882375 </i>
    <i name="hartreedc">  -2455.63940252 </i>
    <i name="XCdc">   -170.60299037 </i>
    <i name="pawpsdc">   1743.71003021 </i>
    <i name="pawaedc">  -1465.16934311 </i>
    <i name="eentropy">     -0.00000000 </i>
    <i name="bandstr">   -325.30905708 </i>
    <i name="atom">   1333.72818728 </i>
    <i name="e_fr_energy">    -49.86176524 </i>
    <i name="e_wo_entrp">    -49.86176524 </i>
    <i name="e_0_energy">    -49.86176524 </i>
   </energy>
  </scstep>
  <scstep>
   <time name="dav">   20.32   20.33</time>
   <time name="total">  123.92  123.98</time>
   <energy>
    <i name="e_fr_energy">    -49.86210493 </i>
    <i name="e_wo_entrp">    -49.86210493 </i>
    <i name="e_0_energy">    -49.86210493 </i>
   </energy>
  </scstep>
  <scstep>
   <time name="dav">   20.28   20.31</time>
   <time name="total">  123.69  123.83</time>
   <energy>
    <i name="e_fr_energy">    -49.86210480 </i>
    <i name="e_wo_entrp">    -49.86210480 </i>
    <i name="e_0_energy">    -49.86210480 </i>
   </energy>
  </scstep>
  <scstep>
   <time name="dav">   17.72   17.76</time>
   <time name="total">  122.33  122.53</time>
   <energy>
    <i name="e_fr_energy">    -49.86212220 </i>
    <i name="e_wo_entrp">    -49.86212220 </i>
    <i name="e_0_energy">    -49.86212220 </i>
   </energy>
  </scstep>
  <scstep>
   <time name="dav">   15.03   15.04</time>
   <time name="total">  119.90  120.02</time>
   <energy>
    <i name="alphaZ">     15.92198659 </i>
    <i name="ewald">   1273.49882375 </i>
    <i name="hartreedc">  -2455.65923337 </i>
    <i name="XCdc">   -170.59979557 </i>
    <i name="pawpsdc">   1743.91589782 </i>
    <i name="pawaedc">  -1465.37565957 </i>
    <i name="eentropy">     -0.00000000 </i>
    <i name="bandstr">   -325.29232898 </i>
    <i name="atom">   1333.72818728 </i>
    <i name="e_fr_energy">    -49.86212206 </i>
    <i name="e_wo_entrp">    -49.86212206 </i>
    <i name="e_0_energy">    -49.86212206 </i>
   </energy>
  </scstep>
  <structure>
   <crystal>
    <varray name="basis" >
     <v>       6.01920000       0.00000000       0.00000000 </v>
     <v>       0.00000000      10.14000000       0.00000000 </v>
     <v>       0.00000000       0.00000000      15.00000000 </v>
    </varray>
    <i name="volume">    915.52032000 </i>
    <varray name="rec_basis" >
     <v>       0.16613503       0.00000000       0.00000000 </v>
     <v>       0.00000000       0.09861933       0.00000000 </v>
     <v>       0.00000000       0.00000000       0.06666667 </v>
    </varray>
   </crystal>
   <varray name="positions" >
    <v>       0.44288310       0.88042760       0.22249099 </v>
    <v>       0.94260175       0.88156543       0.27321044 </v>
    <v>       0.44366166       0.61733145       0.22478443 </v>
    <v>       0.94341561       0.61928403       0.27723069 </v>
    <v>       0.44094453       0.37997806       0.27971882 </v>
    <v>       0.94243920       0.38191665       0.22523743 </v>
    <v>       0.44173829       0.11911984       0.27132373 </v>
    <v>       0.94240928       0.11868985       0.22160783 </v>
    <v>       0.19241788      -0.00052094       0.24640085 </v>
    <v>       0.69244374      -0.00008355       0.24716497 </v>
    <v>       0.19266710       0.50005022       0.25109305 </v>
    <v>       0.69268563       0.49970188       0.25466291 </v>
    <v>       0.54653527       0.43247731       0.47932084 </v>
    <v>       0.75211718       0.35059095       0.47926668 </v>
    <v>       0.45181065       0.35136471       0.55412633 </v>
   </varray>
  </structure>
  <varray name="forces" >
   <v>       0.00499480      -0.02162461      -0.00997645 </v>
   <v>      -0.00976251      -0.01500489      -0.00366306 </v>
   <v>      -0.00750026       0.00345301       0.01121145 </v>
   <v>       0.00393810      -0.00291882       0.00901990 </v>
   <v>      -0.01229108      -0.00358835      -0.00335942 </v>
   <v>      -0.00646825      -0.01156013      -0.00419828 </v>
   <v>       0.00642693       0.01905328       0.00769011 </v>
   <v>      -0.00511333      -0.00177092       0.00231603 </v>
   <v>      -0.00567571       0.00741614      -0.00348941 </v>
   <v>       0.00505263       0.00299885       0.00728422 </v>
   <v>       0.01672038       0.00261923       0.00197551 </v>
   <v>       0.00269481       0.00353911      -0.01554134 </v>
   <v>      -0.01864155       0.00900521      -0.00218660 </v>
   <v>       0.01438708      -0.00436595      -0.00079920 </v>
   <v>       0.01123795       0.01274883       0.00371653 </v>
  </varray>
  <varray name="stress" >
   <v>       8.63444692       0.25005641       0.08375745 </v>
   <v>       0.25005567     -10.40939399       0.17647717 </v>
   <v>       0.08375560       0.17647849      -1.28367786 </v>
  </varray>
  <energy>
   <i name="e_fr_energy">    -49.86212206 </i>
   <i name="e_wo_entrp">    -49.86212206 </i>
   <i name="e_0_energy">     -0.00000000 </i>
  </energy>
  <time name="totalsc">  839.62  841.78</time>
 </calculation>
 <calculation>
  <scstep>
   <time name="dav">   16.35   16.38</time>
   <time name="total">  117.15  117.32</time>
   <energy>
    <i name="alphaZ">     15.92198659 </i>
    <i name="ewald">   1273.29872385 </i>
    <i name="hartreedc">  -2455.49186376 </i>
    <i name="XCdc">   -170.60422330 </i>
    <i name="pawpsdc">   1743.91369098 </i>
    <i name="pawaedc">  -1465.37337904 </i>
    <i name="eentropy">     -0.00000000 </i>
    <i name="bandstr">   -325.25525193 </i>
    <i name="atom">   1333.72818728 </i>
    <i name="e_fr_energy">    -49.86212932 </i>
    <i name="e_wo_entrp">    -49.86212932 </i>
    <i name="e_0_energy">    -49.86212932 </i>
   </energy>
  </scstep>
  <scstep>
   <time name="dav">   19.20   19.30</time>
   <time name="total">  119.75  120.02</time>
   <energy>
    <i name="e_fr_energy">    -49.86222489 </i>
    <i name="e_wo_entrp">    -49.86222489 </i>
    <i name="e_0_energy">    -49.86222489 </i>
   </energy>
  </scstep>
  <scstep>
   <time name="dav">   17.94   18.08</time>
   <time name="total">  116.56  117.17</time>
   <energy>
    <i name="alphaZ">     15.92198659 </i>
    <i name="ewald">   1273.29872385 </i>
    <i name="hartreedc">  -2455.48216192 </i>
    <i name="XCdc">   -170.60389553 </i>
    <i name="pawpsdc">   1743.77366767 </i>
    <i name="pawaedc">  -1465.23293502 </i>
    <i name="eentropy">     -0.00000000 </i>
    <i name="bandstr">   -325.26580057 </i>
    <i name="atom">   1333.72818728 </i>
    <i name="e_fr_energy">    -49.86222765 </i>
    <i name="e_wo_entrp">    -49.86222765 </i>
    <i name="e_0_energy">    -49.86222765 </i>
   </energy>
  </scstep>
  <structure>
   <crystal>
    <varray name="basis" >
     <v>       6.01920000       0.00000000       0.00000000 </v>
     <v>       0.00000000      10.14000000       0.00000000 </v>
     <v>       0.00000000       0.00000000      15.00000000 </v>
    </varray>
    <i name="volume">    915.52032000 </i>
    <varray name="rec_basis" >
     <v>       0.16613503       0.00000000       0.00000000 </v>
     <v>       0.00000000       0.09861933       0.00000000 </v>
     <v>       0.00000000       0.00000000       0.06666667 </v>
    </varray>
   </crystal>
   <varray name="positions" >
    <v>       0.44273396       0.88035582       0.22244171 </v>
    <v>       0.94248484       0.88146268       0.27321889 </v>
    <v>       0.44362745       0.61721228       0.22470484 </v>
    <v>       0.94344706       0.61925762       0.27717908 </v>
    <v>       0.44080668       0.37986898       0.27973339 </v>
    <v>       0.94229065       0.38186771       0.22522930 </v>
    <v>       0.44168416       0.11900775       0.27133240 </v>
    <v>       0.94236537       0.11867408       0.22160968 </v>
    <v>       0.19226556      -0.00057720       0.24640336 </v>
    <v>       0.69241451      -0.00016423       0.24717570 </v>
    <v>       0.19266642       0.49997766       0.25110332 </v>
    <v>       0.69263374       0.49963300       0.25465504 </v>
    <v>       0.54676386       0.43276231       0.47931677 </v>
    <v>       0.75230893       0.35073037       0.47926553 </v>
    <v>       0.45227765       0.35182466       0.55427098 </v>
   </varray>
  </structure>
  <varray name="forces" >
   <v>       0.00875275      -0.01792572      -0.00850701 </v>
   <v>      -0.00624111      -0.00607182      -0.00650251 </v>
   <v>      -0.00639041       0.00683638       0.01375707 </v>
   <v>      -0.00025322      -0.00871398       0.01114558 </v>
   <v>      -0.00481720       0.00211229      -0.00334559 </v>
   <v>       0.00121283      -0.00961390      -0.00320482 </v>
   <v>       0.00526251       0.01992106       0.00960440 </v>
   <v>      -0.00824660      -0.00848949       0.00400017 </v>
   <v>       0.00266758       0.00372737      -0.00238729 </v>
   <v>      -0.00539441       0.00061706       0.00563511 </v>
   <v>       0.00567748      -0.00095961      -0.00126534 </v>
   <v>       0.00165917       0.00342340      -0.01516487 </v>
   <v>      -0.00737579      -0.00156364      -0.00297626 </v>
   <v>       0.00462582       0.00354378      -0.00195780 </v>
   <v>       0.00886060       0.01315682       0.00116917 </v>
  </varray>
  <varray name="stress" >
   <v>       8.60525707       0.22067940       0.07811482 </v>
   <v>       0.22067870     -10.44511305       0.18303856 </v>
   <v>       0.07811284       0.18303990      -1.29764494 </v>
  </varray>
  <energy>
   <i name="e_fr_energy">    -49.86222765 </i>
   <i name="e_wo_entrp">    -49.86222765 </i>
   <i name="e_0_energy">     -0.00000000 </i>
  </energy>
  <time name="totalsc">  575.03  577.49</time>
 </calculation>
 <calculation>
  <scstep>
   <time name="dav">   15.04   15.13</time>
   <time name="total">  118.36  118.65</time>
   <energy>
    <i name="alphaZ">     15.92198659 </i>
    <i name="ewald">   1273.13540925 </i>
    <i name="hartreedc">  -2455.34322489 </i>
    <i name="XCdc">   -170.60750159 </i>
    <i name="pawpsdc">   1743.72020803 </i>
    <i name="pawaedc">  -1465.17920196 </i>
    <i name="eentropy">     -0.00000000 </i>
    <i name="bandstr">   -325.23808147 </i>
    <i name="atom">   1333.72818728 </i>
    <i name="e_fr_energy">    -49.86221876 </i>
    <i name="e_wo_entrp">    -49.86221876 </i>
    <i name="e_0_energy">    -49.86221876 </i>
   </energy>
  </scstep>
  <scstep>
   <time name="dav">   20.31   20.35</time>
   <time name="total">  123.98  124.23</time>
   <energy>
    <i name="e_fr_energy">    -49.86227822 </i>
    <i name="e_wo_entrp">    -49.86227822 </i>
    <i name="e_0_energy">    -49.86227822 </i>
   </energy>
  </scstep>
  <scstep>
   <time name="dav">   16.93   16.95</time>
   <time name="total">  121.11  121.23</time>
   <energy>
    <i name="alphaZ">     15.92198659 </i>
    <i name="ewald">   1273.13540925 </i>
    <i name="hartreedc">  -2455.33489122 </i>
    <i name="XCdc">   -170.60715650 </i>
    <i name="pawpsdc">   1743.59252839 </i>
    <i name="pawaedc">  -1465.05103300 </i>
    <i name="eentropy">     -0.00000000 </i>
    <i name="bandstr">   -325.24731300 </i>
    <i name="atom">   1333.72818728 </i>
    <i name="e_fr_energy">    -49.86228220 </i>
    <i name="e_wo_entrp">    -49.86228220 </i>
    <i name="e_0_energy">    -49.86228220 </i>
   </energy>
  </scstep>
  <structure>
   <crystal>
    <varray name="basis" >
     <v>       6.01920000       0.00000000       0.00000000 </v>
     <v>       0.00000000      10.14000000       0.00000000 </v>
     <v>       0.00000000       0.00000000      15.00000000 </v>
    </varray>
    <i name="volume">    915.52032000 </i>
    <varray name="rec_basis" >
     <v>       0.16613503       0.00000000       0.00000000 </v>
     <v>       0.00000000       0.09861933       0.00000000 </v>
     <v>       0.00000000       0.00000000       0.06666667 </v>
    </varray>
   </crystal>
   <varray name="positions" >
    <v>       0.44261257       0.88029739       0.22240160 </v>
    <v>       0.94238968       0.88137905       0.27322576 </v>
    <v>       0.44359960       0.61711527       0.22464006 </v>
    <v>       0.94347267       0.61923611       0.27713707 </v>
    <v>       0.44069448       0.37978018       0.27974525 </v>
    <v>       0.94216973       0.38182788       0.22522269 </v>
    <v>       0.44164010       0.11891652       0.27133945 </v>
    <v>       0.94232964       0.11866123       0.22161118 </v>
    <v>       0.19214158      -0.00062299       0.24640540 </v>
    <v>       0.69239072      -0.00022990       0.24718443 </v>
    <v>       0.19266587       0.49991859       0.25111168 </v>
    <v>       0.69259150       0.49957692       0.25464863 </v>
    <v>       0.54694994       0.43299430       0.47931346 </v>
    <v>       0.75246501       0.35084387       0.47926460 </v>
    <v>       0.45265780       0.35219907       0.55438874 </v>
   </varray>
  </structure>
  <varray name="forces" >
   <v>       0.01143180      -0.01571741      -0.00761418 </v>
   <v>      -0.00444034       0.00009422      -0.00886619 </v>
   <v>      -0.00590247       0.00846985       0.01573074 </v>
   <v>      -0.00418110      -0.01452084       0.01256997 </v>
   <v>       0.00088908       0.00594418      -0.00341536 </v>
   <v>       0.00690732      -0.00903273      -0.00263684 </v>
   <v>       0.00414683       0.01971720       0.01096311 </v>
   <v>      -0.01186433      -0.01456655       0.00504527 </v>
   <v>       0.01005179       0.00133979      -0.00217567 </v>
   <v>      -0.01296042       0.00029763       0.00380445 </v>
   <v>      -0.00261535      -0.00273443      -0.00419708 </v>
   <v>       0.00073754       0.00476246      -0.01499102 </v>
   <v>       0.00225154      -0.00953400      -0.00129043 </v>
   <v>      -0.00284358       0.01004913      -0.00297602 </v>
   <v>       0.00839168       0.01543149       0.00004923 </v>
  </varray>
  <varray name="stress" >
   <v>       8.57989088       0.19390696       0.07268069 </v>
   <v>       0.19390629     -10.48231540       0.18415300 </v>
   <v>       0.07267896       0.18415433      -1.30316128 </v>
  </varray>
  <energy>
   <i name="e_fr_energy">    -49.86228220 </i>
   <i name="e_wo_entrp">    -49.86228220 </i>
   <i name="e_0_energy">     -0.00000000 </i>
  </energy>
  <time name="totalsc">  598.75  600.69</time>
 </calculation>
 <calculation>
  <scstep>
   <time name="dav">   15.73   15.79</time>
   <time name="total">  121.85  122.08</time>
   <energy>
    <i name="alphaZ">     15.92198659 </i>
    <i name="ewald">   1273.06716997 </i>
    <i name="hartreedc">  -2455.27333119 </i>
    <i name="XCdc">   -170.60825288 </i>
    <i name="pawpsdc">   1743.54333658 </i>
    <i name="pawaedc">  -1465.00156909 </i>
    <i name="eentropy">     -0.00000000 </i>
    <i name="bandstr">   -325.23993012 </i>
    <i name="atom">   1333.72818728 </i>
    <i name="e_fr_energy">    -49.86240286 </i>
    <i name="e_wo_entrp">    -49.86240286 </i>
    <i name="e_0_energy">    -49.86240286 </i>
   </energy>
  </scstep>
  <scstep>
   <time name="dav">   20.39   20.39</time>
   <time name="total">  126.30  126.45</time>
   <energy>
    <i name="e_fr_energy">    -49.86243006 </i>
    <i name="e_wo_entrp">    -49.86243006 </i>
    <i name="e_0_energy">    -49.86243006 </i>
   </energy>
  </scstep>
  <scstep>
   <time name="dav">   14.18   14.18</time>
   <time name="total">  118.88  118.88</time>
   <energy>
    <i name="alphaZ">     15.92198659 </i>
    <i name="ewald">   1273.06716997 </i>
    <i name="hartreedc">  -2455.26845860 </i>
    <i name="XCdc">   -170.60792616 </i>
    <i name="pawpsdc">   1743.50671999 </i>
    <i name="pawaedc">  -1464.96510534 </i>
    <i name="eentropy">     -0.00000000 </i>
    <i name="bandstr">   -325.24500350 </i>
    <i name="atom">   1333.72818728 </i>
    <i name="e_fr_energy">    -49.86242977 </i>
    <i name="e_wo_entrp">    -49.86242977 </i>
    <i name="e_0_energy">    -49.86242977 </i>
   </energy>
  </scstep>
  <structure>
   <crystal>
    <varray name="basis" >
     <v>       6.01920000       0.00000000       0.00000000 </v>
     <v>       0.00000000      10.14000000       0.00000000 </v>
     <v>       0.00000000       0.00000000      15.00000000 </v>
    </varray>
    <i name="volume">    915.52032000 </i>
    <varray name="rec_basis" >
     <v>       0.16613503       0.00000000       0.00000000 </v>
     <v>       0.00000000       0.09861933       0.00000000 </v>
     <v>       0.00000000       0.00000000       0.06666667 </v>
    </varray>
   </crystal>
   <varray name="positions" >
    <v>       0.44261611       0.88019450       0.22235459 </v>
    <v>       0.94229795       0.88132635       0.27320504 </v>
    <v>       0.44354030       0.61708914       0.22464344 </v>
    <v>       0.94345944       0.61916168       0.27714597 </v>
    <v>       0.44062951       0.37974870       0.27974311 </v>
    <v>       0.94214167       0.38176478       0.22521103 </v>
    <v>       0.44164137       0.11894113       0.27137495 </v>
    <v>       0.94222329       0.11859211       0.22162641 </v>
    <v>       0.19213374      -0.00064646       0.24640054 </v>
    <v>       0.69228422      -0.00027035       0.24720074 </v>
    <v>       0.19264708       0.49986965       0.25110511 </v>
    <v>       0.69256988       0.49956126       0.25460214 </v>
    <v>       0.54708395       0.43310167       0.47930771 </v>
    <v>       0.75254405       0.35095799       0.47925559 </v>
    <v>       0.45295831       0.35250135       0.55446363 </v>
   </varray>
  </structure>
  <varray name="forces" >
   <v>       0.00508047       0.00078997      -0.00202547 </v>
   <v>       0.00089050       0.00140184      -0.00697174 </v>
   <v>      -0.00371989       0.00485220       0.01383715 </v>
   <v>      -0.00516673      -0.01085447       0.01094883 </v>
   <v>       0.00616907       0.00929877      -0.00397127 </v>
   <v>       0.00550823      -0.00718187      -0.00253614 </v>
   <v>      -0.00120062       0.00481227       0.00722139 </v>
   <v>      -0.00748129      -0.01277161       0.00393673 </v>
   <v>       0.00851636      -0.00192505      -0.00249108 </v>
   <v>      -0.00926891      -0.00245121       0.00317978 </v>
   <v>      -0.00491212      -0.00385529      -0.00411365 </v>
   <v>      -0.00263741       0.00072569      -0.01444433 </v>
   <v>       0.00111691       0.00007377      -0.00716501 </v>
   <v>       0.00189635       0.00692075      -0.00264107 </v>
   <v>       0.00520909       0.01016423       0.00723587 </v>
  </varray>
  <varray name="stress" >
   <v>       8.58525125       0.18638574       0.07010335 </v>
   <v>       0.18638504     -10.50255998       0.15952269 </v>
   <v>       0.07010149       0.15952397      -1.28747787 </v>
  </varray>
  <energy>
   <i name="e_fr_energy">    -49.86242977 </i>
   <i name="e_wo_entrp">    -49.86242977 </i>
   <i name="e_0_energy">     -0.00000000 </i>
  </energy>
  <time name="totalsc">  591.66  593.13</time>
 </calculation>
 <calculation>
  <scstep>
   <time name="dav">   15.37   15.37</time>
   <time name="total">  117.40  117.60</time>
   <energy>
    <i name="alphaZ">     15.92198659 </i>
    <i name="ewald">   1272.90303570 </i>
    <i name="hartreedc">  -2455.12884359 </i>
    <i name="XCdc">   -170.61050844 </i>
    <i name="pawpsdc">   1743.49582555 </i>
    <i name="pawaedc">  -1464.95435023 </i>
    <i name="eentropy">     -0.00000000 </i>
    <i name="bandstr">   -325.21773071 </i>
    <i name="atom">   1333.72818728 </i>
    <i name="e_fr_energy">    -49.86239785 </i>
    <i name="e_wo_entrp">    -49.86239785 </i>
    <i name="e_0_energy">    -49.86239785 </i>
   </energy>
  </scstep>
  <scstep>
   <time name="dav">   20.20   20.28</time>
   <time name="total">  122.83  122.95</time>
   <energy>
    <i name="e_fr_energy">    -49.86255853 </i>
    <i name="e_wo_entrp">    -49.86255853 </i>
    <i name="e_0_energy">    -49.86255853 </i>
   </energy>
  </scstep>
  <scstep>
   <time name="dav">   19.89   19.93</time>
   <time name="total">  120.98  121.29</time>
   <energy>
    <i name="alphaZ">     15.92198659 </i>
    <i name="ewald">   1272.90303570 </i>
    <i name="hartreedc">  -2455.11771132 </i>
    <i name="XCdc">   -170.60983460 </i>
    <i name="pawpsdc">   1743.41016049 </i>
    <i name="pawaedc">  -1464.86915122 </i>
    <i name="eentropy">     -0.00000000 </i>
    <i name="bandstr">   -325.22922849 </i>
    <i name="atom">   1333.72818728 </i>
    <i name="e_fr_energy">    -49.86255556 </i>
    <i name="e_wo_entrp">    -49.86255556 </i>
    <i name="e_0_energy">    -49.86255556 </i>
   </energy>
  </scstep>
  <structure>
   <crystal>
    <varray name="basis" >
     <v>       6.01920000       0.00000000       0.00000000 </v>
     <v>       0.00000000      10.14000000       0.00000000 </v>
     <v>       0.00000000       0.00000000      15.00000000 </v>
    </varray>
    <i name="volume">    915.52032000 </i>
    <varray name="rec_basis" >
     <v>       0.16613503       0.00000000       0.00000000 </v>
     <v>       0.00000000       0.09861933       0.00000000 </v>
     <v>       0.00000000       0.00000000       0.06666667 </v>
    </varray>
   </crystal>
   <varray name="positions" >
    <v>       0.44262458       0.87994845       0.22224216 </v>
    <v>       0.94207859       0.88120032       0.27315549 </v>
    <v>       0.44339847       0.61702665       0.22465153 </v>
    <v>       0.94342780       0.61898367       0.27716724 </v>
    <v>       0.44047415       0.37967339       0.27973800 </v>
    <v>       0.94207457       0.38161388       0.22518314 </v>
    <v>       0.44164440       0.11899998       0.27145984 </v>
    <v>       0.94196895       0.11842679       0.22166284 </v>
    <v>       0.19211501      -0.00070257       0.24638892 </v>
    <v>       0.69202953      -0.00036708       0.24723975 </v>
    <v>       0.19260213       0.49975260       0.25108939 </v>
    <v>       0.69251819       0.49952380       0.25449097 </v>
    <v>       0.54740443       0.43335845       0.47929395 </v>
    <v>       0.75273307       0.35123090       0.47923404 </v>
    <v>       0.45367699       0.35322427       0.55464274 </v>
   </varray>
  </structure>
  <varray name="forces" >
   <v>      -0.01095841       0.04049339       0.01121616 </v>
   <v>       0.01548452       0.00608584      -0.00297741 </v>
   <v>       0.00145986      -0.00313874       0.00967957 </v>
   <v>      -0.00764221      -0.00172566       0.00739319 </v>
   <v>       0.01940807       0.01795344      -0.00526683 </v>
   <v>       0.00190980      -0.00233623      -0.00212244 </v>
   <v>      -0.01535997      -0.03009810      -0.00172205 </v>
   <v>       0.00512136      -0.00866889       0.00163820 </v>
   <v>       0.00285289      -0.00924049      -0.00337395 </v>
   <v>       0.00121605      -0.00795155       0.00156987 </v>
   <v>      -0.00964739      -0.00560653      -0.00224828 </v>
   <v>      -0.00970297      -0.01058683      -0.00850243 </v>
   <v>      -0.00184733       0.02211996      -0.02579362 </v>
   <v>       0.01256134      -0.00191261      -0.00209883 </v>
   <v>      -0.00485562      -0.00538699       0.02260885 </v>
  </varray>
  <varray name="stress" >
   <v>       8.59405021       0.16533323       0.06397573 </v>
   <v>       0.16533255     -10.54307241       0.10186306 </v>
   <v>       0.06397389       0.10186426      -1.25543688 </v>
  </varray>
  <energy>
   <i name="e_fr_energy">    -49.86255556 </i>
   <i name="e_wo_entrp">    -49.86255556 </i>
   <i name="e_0_energy">     -0.00000000 </i>
  </energy>
  <time name="totalsc">  590.65  593.13</time>
 </calculation>
 <calculation>
  <scstep>
   <time name="dav">   16.57   16.60</time>
   <time name="total">  122.13  122.34</time>
   <energy>
    <i name="alphaZ">     15.92198659 </i>
    <i name="ewald">   1272.93550697 </i>
    <i name="hartreedc">  -2455.15028651 </i>
    <i name="XCdc">   -170.60868008 </i>
    <i name="pawpsdc">   1743.39667686 </i>
    <i name="pawaedc">  -1464.85602915 </i>
    <i name="eentropy">     -0.00000000 </i>
    <i name="bandstr">   -325.22992391 </i>
    <i name="atom">   1333.72818728 </i>
    <i name="e_fr_energy">    -49.86256195 </i>
    <i name="e_wo_entrp">    -49.86256195 </i>
    <i name="e_0_energy">    -49.86256195 </i>
   </energy>
  </scstep>
  <scstep>
   <time name="dav">   17.73   17.75</time>
   <time name="total">  120.42  120.66</time>
   <energy>
    <i name="alphaZ">     15.92198659 </i>
    <i name="ewald">   1272.93550697 </i>
    <i name="hartreedc">  -2455.15225753 </i>
    <i name="XCdc">   -170.60871808 </i>
    <i name="pawpsdc">   1743.39810691 </i>
    <i name="pawaedc">  -1464.85729334 </i>
    <i name="eentropy">     -0.00000000 </i>
    <i name="bandstr">   -325.22808651 </i>
    <i name="atom">   1333.72818728 </i>
    <i name="e_fr_energy">    -49.86256770 </i>
    <i name="e_wo_entrp">    -49.86256770 </i>
    <i name="e_0_energy">    -49.86256770 </i>
   </energy>
  </scstep>
  <structure>
   <crystal>
    <varray name="basis" >
     <v>       6.01920000       0.00000000       0.00000000 </v>
     <v>       0.00000000      10.14000000       0.00000000 </v>
     <v>       0.00000000       0.00000000      15.00000000 </v>
    </varray>
    <i name="volume">    915.52032000 </i>
    <varray name="rec_basis" >
     <v>       0.16613503       0.00000000       0.00000000 </v>
     <v>       0.00000000       0.09861933       0.00000000 </v>
     <v>       0.00000000       0.00000000       0.06666667 </v>
    </varray>
   </crystal>
   <varray name="positions" >
    <v>       0.44262291       0.87999697       0.22226433 </v>
    <v>       0.94212185       0.88122517       0.27316526 </v>
    <v>       0.44342644       0.61703897       0.22464993 </v>
    <v>       0.94343403       0.61901877       0.27716305 </v>
    <v>       0.44050479       0.37968824       0.27973901 </v>
    <v>       0.94208780       0.38164364       0.22518864 </v>
    <v>       0.44164381       0.11898838       0.27144310 </v>
    <v>       0.94201910       0.11845939       0.22165566 </v>
    <v>       0.19211871      -0.00069151       0.24639121 </v>
    <v>       0.69207976      -0.00034800       0.24723205 </v>
    <v>       0.19261100       0.49977568       0.25109249 </v>
    <v>       0.69252838       0.49953119       0.25451289 </v>
    <v>       0.54734123       0.43330781       0.47929666 </v>
    <v>       0.75269580       0.35117708       0.47923829 </v>
    <v>       0.45353527       0.35308172       0.55460742 </v>
   </varray>
  </structure>
  <varray name="forces" >
   <v>      -0.00956634       0.03212440       0.00799097 </v>
   <v>       0.01388114       0.00558996      -0.00459215 </v>
   <v>       0.00059426      -0.00135822       0.00983721 </v>
   <v>      -0.00763791      -0.00415869       0.00782439 </v>
   <v>       0.01797996       0.01495749      -0.00499964 </v>
   <v>       0.00166800      -0.00455304      -0.00261249 </v>
   <v>      -0.01398715      -0.02397806      -0.00021228 </v>
   <v>       0.00312390      -0.01112847       0.00194424 </v>
   <v>       0.00347073      -0.00825151      -0.00337852 </v>
   <v>      -0.00209092      -0.00681550       0.00071411 </v>
   <v>      -0.00946524      -0.00507362      -0.00264253 </v>
   <v>      -0.00885840      -0.00910976      -0.00874665 </v>
   <v>      -0.00229589       0.01831255      -0.02112035 </v>
   <v>       0.01259152       0.00143689      -0.00269564 </v>
   <v>       0.00059234       0.00200556       0.02268935 </v>
  </varray>
  <varray name="stress" >
   <v>       8.58102159       0.15967856       0.07161959 </v>
   <v>       0.15967778     -10.55615282       0.11243099 </v>
   <v>       0.07161792       0.11243222      -1.26528823 </v>
  </varray>
  <energy>
   <i name="e_fr_energy">    -49.86256770 </i>
   <i name="e_wo_entrp">    -49.86256770 </i>
   <i name="e_0_energy">     -0.00000000 </i>
  </energy>
  <time name="totalsc">  474.21  475.87</time>
 </calculation>
 <calculation>
  <scstep>
   <time name="dav">   16.56   16.60</time>
   <time name="total">  123.55  123.90</time>
   <energy>
    <i name="alphaZ">     15.92198659 </i>
    <i name="ewald">   1272.91914646 </i>
    <i name="hartreedc">  -2455.13895829 </i>
    <i name="XCdc">   -170.60896983 </i>
    <i name="pawpsdc">   1743.39427819 </i>
    <i name="pawaedc">  -1464.85334895 </i>
    <i name="eentropy">     -0.00000000 </i>
    <i name="bandstr">   -325.22488870 </i>
    <i name="atom">   1333.72818728 </i>
    <i name="e_fr_energy">    -49.86256725 </i>
    <i name="e_wo_entrp">    -49.86256725 </i>
    <i name="e_0_energy">    -49.86256725 </i>
   </energy>
  </scstep>
  <scstep>
   <time name="dav">   14.83   14.85</time>
   <time name="total">  116.83  116.95</time>
   <energy>
    <i name="alphaZ">     15.92198659 </i>
    <i name="ewald">   1272.91914646 </i>
    <i name="hartreedc">  -2455.13873531 </i>
    <i name="XCdc">   -170.60890569 </i>
    <i name="pawpsdc">   1743.38947243 </i>
    <i name="pawaedc">  -1464.84853346 </i>
    <i name="eentropy">     -0.00000000 </i>
    <i name="bandstr">   -325.22518837 </i>
    <i name="atom">   1333.72818728 </i>
    <i name="e_fr_energy">    -49.86257007 </i>
    <i name="e_wo_entrp">    -49.86257007 </i>
    <i name="e_0_energy">    -49.86257007 </i>
   </energy>
  </scstep>
  <structure>
   <crystal>
    <varray name="basis" >
     <v>       6.01920000       0.00000000       0.00000000 </v>
     <v>       0.00000000      10.14000000       0.00000000 </v>
     <v>       0.00000000       0.00000000      15.00000000 </v>
    </varray>
    <i name="volume">    915.52032000 </i>
    <varray name="rec_basis" >
     <v>       0.16613503       0.00000000       0.00000000 </v>
     <v>       0.00000000       0.09861933       0.00000000 </v>
     <v>       0.00000000       0.00000000       0.06666667 </v>
    </varray>
   </crystal>
   <varray name="positions" >
    <v>       0.44262375       0.87997251       0.22225315 </v>
    <v>       0.94210004       0.88121264       0.27316033 </v>
    <v>       0.44341234       0.61703276       0.22465074 </v>
    <v>       0.94343089       0.61900108       0.27716516 </v>
    <v>       0.44048935       0.37968075       0.27973850 </v>
    <v>       0.94208113       0.38162864       0.22518587 </v>
    <v>       0.44164411       0.11899423       0.27145154 </v>
    <v>       0.94199382       0.11844296       0.22165928 </v>
    <v>       0.19211684      -0.00069708       0.24639006 </v>
    <v>       0.69205444      -0.00035762       0.24723593 </v>
    <v>       0.19260653       0.49976404       0.25109093 </v>
    <v>       0.69252325       0.49952746       0.25450184 </v>
    <v>       0.54737309       0.43333333       0.47929529 </v>
    <v>       0.75271459       0.35120421       0.47923615 </v>
    <v>       0.45360671       0.35315357       0.55462523 </v>
   </varray>
  </structure>
  <varray name="forces" >
   <v>      -0.01053630       0.03611581       0.00940560 </v>
   <v>       0.01423223       0.00559767      -0.00396929 </v>
   <v>       0.00051587      -0.00242704       0.00949693 </v>
   <v>      -0.00788428      -0.00313725       0.00744299 </v>
   <v>       0.01855854       0.01582529      -0.00521171 </v>
   <v>       0.00148403      -0.00392116      -0.00249781 </v>
   <v>      -0.01486829      -0.02731887      -0.00108362 </v>
   <v>       0.00343979      -0.01020527       0.00162342 </v>
   <v>       0.00392408      -0.00925239      -0.00374458 </v>
   <v>       0.00145519      -0.00631743       0.00050417 </v>
   <v>      -0.00931670      -0.00413473      -0.00276181 </v>
   <v>      -0.00888960      -0.00980003      -0.00748738 </v>
   <v>      -0.00316612       0.01981444      -0.02256635 </v>
   <v>       0.01262565      -0.00007552      -0.00251623 </v>
   <v>      -0.00157409      -0.00076353       0.02336567 </v>
  </varray>
  <varray name="stress" >
   <v>       8.58634691       0.15884242       0.06877262 </v>
   <v>       0.15884163     -10.55859228       0.10598464 </v>
   <v>       0.06877080       0.10598596      -1.26839860 </v>
  </varray>
  <energy>
   <i name="e_fr_energy">    -49.86257007 </i>
   <i name="e_wo_entrp">    -49.86257007 </i>
   <i name="e_0_energy">     -0.00000000 </i>
  </energy>
  <time name="totalsc">  472.94  475.03</time>
 </calculation>
 <calculation>
  <scstep>
   <time name="dav">   16.60   16.60</time>
   <time name="total">  123.57  123.62</time>
   <energy>
    <i name="alphaZ">     15.92198659 </i>
    <i name="ewald">   1272.96160171 </i>
    <i name="hartreedc">  -2455.17545452 </i>
    <i name="XCdc">   -170.60953675 </i>
    <i name="pawpsdc">   1743.38824457 </i>
    <i name="pawaedc">  -1464.84730191 </i>
    <i name="eentropy">     -0.00000000 </i>
    <i name="bandstr">   -325.23036436 </i>
    <i name="atom">   1333.72818728 </i>
    <i name="e_fr_energy">    -49.86263737 </i>
    <i name="e_wo_entrp">    -49.86263737 </i>
    <i name="e_0_energy">    -49.86263737 </i>
   </energy>
  </scstep>
  <scstep>
   <time name="dav">   22.02   22.03</time>
   <time name="total">  123.49  123.50</time>
   <energy>
    <i name="e_fr_energy">    -49.86265235 </i>
    <i name="e_wo_entrp">    -49.86265235 </i>
    <i name="e_0_energy">    -49.86265235 </i>
   </energy>
  </scstep>
  <scstep>
   <time name="dav">   11.66   11.66</time>
   <time name="total">  113.82  113.82</time>
   <energy>
    <i name="alphaZ">     15.92198659 </i>
    <i name="ewald">   1272.96160171 </i>
    <i name="hartreedc">  -2455.17701401 </i>
    <i name="XCdc">   -170.60891185 </i>
    <i name="pawpsdc">   1743.40565271 </i>
    <i name="pawaedc">  -1464.86476952 </i>
    <i name="eentropy">     -0.00000000 </i>
    <i name="bandstr">   -325.22938569 </i>
    <i name="atom">   1333.72818728 </i>
    <i name="e_fr_energy">    -49.86265278 </i>
    <i name="e_wo_entrp">    -49.86265278 </i>
    <i name="e_0_energy">    -49.86265278 </i>
   </energy>
  </scstep>
  <structure>
   <crystal>
    <varray name="basis" >
     <v>       6.01920000       0.00000000       0.00000000 </v>
     <v>       0.00000000      10.14000000       0.00000000 </v>
     <v>       0.00000000       0.00000000      15.00000000 </v>
    </varray>
    <i name="volume">    915.52032000 </i>
    <varray name="rec_basis" >
     <v>       0.16613503       0.00000000       0.00000000 </v>
     <v>       0.00000000       0.09861933       0.00000000 </v>
     <v>       0.00000000       0.00000000       0.06666667 </v>
    </varray>
   </crystal>
   <varray name="positions" >
    <v>       0.44260109       0.87995591       0.22223129 </v>
    <v>       0.94207367       0.88118598       0.27314298 </v>
    <v>       0.44337470       0.61701222       0.22466199 </v>
    <v>       0.94340353       0.61894789       0.27717807 </v>
    <v>       0.44049077       0.37968239       0.27973215 </v>
    <v>       0.94206626       0.38158177       0.22517585 </v>
    <v>       0.44160969       0.11897191       0.27147377 </v>
    <v>       0.94193229       0.11838330       0.22167080 </v>
    <v>       0.19212101      -0.00072548       0.24638331 </v>
    <v>       0.69198811      -0.00039301       0.24724710 </v>
    <v>       0.19257213       0.49972615       0.25108400 </v>
    <v>       0.69248801       0.49950341       0.25446425 </v>
    <v>       0.54745339       0.43343158       0.47927006 </v>
    <v>       0.75279631       0.35127888       0.47922785 </v>
    <v>       0.45379990       0.35335059       0.55469653 </v>
   </varray>
  </structure>
  <varray name="forces" >
   <v>      -0.01131765       0.03432265       0.01066156 </v>
   <v>       0.01483011       0.00269901      -0.00172383 </v>
   <v>       0.00009967      -0.00047483       0.00715211 </v>
   <v>      -0.00806294      -0.00048158       0.00595891 </v>
   <v>       0.01712785       0.01132390      -0.00480889 </v>
   <v>       0.00036842      -0.00333036      -0.00228818 </v>
   <v>      -0.01489441      -0.02649549      -0.00136127 </v>
   <v>       0.00562194      -0.00596170       0.00067492 </v>
   <v>      -0.00231727      -0.00947980      -0.00374521 </v>
   <v>       0.00483389      -0.00743876       0.00116833 </v>
   <v>      -0.00861550      -0.00490366      -0.00153908 </v>
   <v>      -0.00683371      -0.01084841      -0.00701273 </v>
   <v>      -0.00023123       0.01872604      -0.01986138 </v>
   <v>       0.01048056       0.00136868      -0.00264279 </v>
   <v>      -0.00108973       0.00097431       0.01936754 </v>
  </varray>
  <varray name="stress" >
   <v>       8.58898714       0.16721320       0.07047748 </v>
   <v>       0.16721250     -10.54135492       0.10198293 </v>
   <v>       0.07047565       0.10198418      -1.26463029 </v>
  </varray>
  <energy>
   <i name="e_fr_energy">    -49.86265278 </i>
   <i name="e_wo_entrp">    -49.86265278 </i>
   <i name="e_0_energy">     -0.00000000 </i>
  </energy>
  <time name="totalsc">  599.74  605.43</time>
 </calculation>
 <calculation>
  <scstep>
   <time name="dav">   14.89   14.89</time>
   <time name="total">  119.46  119.49</time>
   <energy>
    <i name="alphaZ">     15.92198659 </i>
    <i name="ewald">   1273.08790230 </i>
    <i name="hartreedc">  -2455.28956765 </i>
    <i name="XCdc">   -170.61050434 </i>
    <i name="pawpsdc">   1743.41313624 </i>
    <i name="pawaedc">  -1464.87218957 </i>
    <i name="eentropy">     -0.00000000 </i>
    <i name="bandstr">   -325.24164139 </i>
    <i name="atom">   1333.72818728 </i>
    <i name="e_fr_energy">    -49.86269053 </i>
    <i name="e_wo_entrp">    -49.86269053 </i>
    <i name="e_0_energy">    -49.86269053 </i>
   </energy>
  </scstep>
  <scstep>
   <time name="dav">   19.16   19.16</time>
   <time name="total">  121.17  121.17</time>
   <energy>
    <i name="e_fr_energy">    -49.86283001 </i>
    <i name="e_wo_entrp">    -49.86283001 </i>
    <i name="e_0_energy">    -49.86283001 </i>
   </energy>
  </scstep>
  <scstep>
   <time name="dav">   19.31   19.31</time>
   <time name="total">  123.96  123.96</time>
   <energy>
    <i name="alphaZ">     15.92198659 </i>
    <i name="ewald">   1273.08790230 </i>
    <i name="hartreedc">  -2455.29253285 </i>
    <i name="XCdc">   -170.60866503 </i>
    <i name="pawpsdc">   1743.45250959 </i>
    <i name="pawaedc">  -1464.91154632 </i>
    <i name="eentropy">     -0.00000000 </i>
    <i name="bandstr">   -325.24067187 </i>
    <i name="atom">   1333.72818728 </i>
    <i name="e_fr_energy">    -49.86283031 </i>
    <i name="e_wo_entrp">    -49.86283031 </i>
    <i name="e_0_energy">    -49.86283031 </i>
   </energy>
  </scstep>
  <structure>
   <crystal>
    <varray name="basis" >
     <v>       6.01920000       0.00000000       0.00000000 </v>
     <v>       0.00000000      10.14000000       0.00000000 </v>
     <v>       0.00000000       0.00000000      15.00000000 </v>
    </varray>
    <i name="volume">    915.52032000 </i>
    <varray name="rec_basis" >
     <v>       0.16613503       0.00000000       0.00000000 </v>
     <v>       0.00000000       0.09861933       0.00000000 </v>
     <v>       0.00000000       0.00000000       0.06666667 </v>
    </varray>
   </crystal>
   <varray name="positions" >
    <v>       0.44253313       0.87990611       0.22216571 </v>
    <v>       0.94199456       0.88110601       0.27309091 </v>
    <v>       0.44326179       0.61695060       0.22469574 </v>
    <v>       0.94332145       0.61878832       0.27721680 </v>
    <v>       0.44049504       0.37968729       0.27971308 </v>
    <v>       0.94202165       0.38144117       0.22514580 </v>
    <v>       0.44150645       0.11890497       0.27154046 </v>
    <v>       0.94174768       0.11820432       0.22170538 </v>
    <v>       0.19213352      -0.00081067       0.24636307 </v>
    <v>       0.69178909      -0.00049919       0.24728060 </v>
    <v>       0.19246893       0.49961248       0.25106320 </v>
    <v>       0.69238230       0.49943125       0.25435150 </v>
    <v>       0.54769432       0.43372630       0.47919435 </v>
    <v>       0.75304148       0.35150291       0.47920295 </v>
    <v>       0.45437948       0.35394163       0.55491045 </v>
   </varray>
  </structure>
  <varray name="forces" >
   <v>      -0.01356373       0.02834978       0.01368823 </v>
   <v>       0.01654803      -0.00617046       0.00431038 </v>
   <v>      -0.00209103       0.00553345      -0.00034019 </v>
   <v>      -0.00856777       0.00711977       0.00117860 </v>
   <v>       0.01267950      -0.00299077      -0.00329754 </v>
   <v>      -0.00291571      -0.00228823      -0.00212929 </v>
   <v>      -0.01482766      -0.02364519      -0.00290370 </v>
   <v>       0.01167813       0.00625919      -0.00268805 </v>
   <v>      -0.01983805      -0.00812614      -0.00424301 </v>
   <v>       0.01941343      -0.00708122       0.00070647 </v>
   <v>      -0.00664416      -0.00365605       0.00190485 </v>
   <v>       0.00145188      -0.01223840      -0.00138253 </v>
   <v>       0.00124901       0.00578680      -0.00778925 </v>
   <v>       0.00410246       0.00577161      -0.00348929 </v>
   <v>       0.00132567       0.00737586       0.00647430 </v>
  </varray>
  <varray name="stress" >
   <v>       8.58758393       0.18083756       0.08159621 </v>
   <v>       0.18083685     -10.51165780       0.10111869 </v>
   <v>       0.08159439       0.10111990      -1.27917236 </v>
  </varray>
  <energy>
   <i name="e_fr_energy">    -49.86283031 </i>
   <i name="e_wo_entrp">    -49.86283031 </i>
   <i name="e_0_energy">     -0.00000000 </i>
  </energy>
  <time name="totalsc">  595.44  596.32</time>
 </calculation>
 <calculation>
  <scstep>
   <time name="dav">   16.19   16.27</time>
   <time name="total">  117.84  118.03</time>
   <energy>
    <i name="alphaZ">     15.92198659 </i>
    <i name="ewald">   1273.33572455 </i>
    <i name="hartreedc">  -2455.51186774 </i>
    <i name="XCdc">   -170.61196963 </i>
    <i name="pawpsdc">   1743.47124494 </i>
    <i name="pawaedc">  -1464.92999174 </i>
    <i name="eentropy">     -0.00000000 </i>
    <i name="bandstr">   -325.26559744 </i>
    <i name="atom">   1333.72818728 </i>
    <i name="e_fr_energy">    -49.86228319 </i>
    <i name="e_wo_entrp">    -49.86228319 </i>
    <i name="e_0_energy">    -49.86228319 </i>
   </energy>
  </scstep>
  <scstep>
   <time name="dav">   20.56   20.65</time>
   <time name="total">  126.04  126.18</time>
   <energy>
    <i name="e_fr_energy">    -49.86285314 </i>
    <i name="e_wo_entrp">    -49.86285314 </i>
    <i name="e_0_energy">    -49.86285314 </i>
   </energy>
  </scstep>
  <scstep>
   <time name="dav">   20.52   20.52</time>
   <time name="total">  125.84  125.84</time>
   <energy>
    <i name="e_fr_energy">    -49.86285209 </i>
    <i name="e_wo_entrp">    -49.86285209 </i>
    <i name="e_0_energy">    -49.86285209 </i>
   </energy>
  </scstep>
  <scstep>
   <time name="dav">   15.77   15.78</time>
   <time name="total">  120.35  120.40</time>
   <energy>
    <i name="e_fr_energy">    -49.86288322 </i>
    <i name="e_wo_entrp">    -49.86288322 </i>
    <i name="e_0_energy">    -49.86288322 </i>
   </energy>
  </scstep>
  <scstep>
   <time name="dav">   16.68   16.74</time>
   <time name="total">  119.02  119.20</time>
   <energy>
    <i name="alphaZ">     15.92198659 </i>
    <i name="ewald">   1273.33572455 </i>
    <i name="hartreedc">  -2455.49656564 </i>
    <i name="XCdc">   -170.60807232 </i>
    <i name="pawpsdc">   1743.54128001 </i>
    <i name="pawaedc">  -1464.99875514 </i>
    <i name="eentropy">     -0.00000000 </i>
    <i name="bandstr">   -325.28666933 </i>
    <i name="atom">   1333.72818728 </i>
    <i name="e_fr_energy">    -49.86288399 </i>
    <i name="e_wo_entrp">    -49.86288399 </i>
    <i name="e_0_energy">    -49.86288399 </i>
   </energy>
  </scstep>
  <structure>
   <crystal>
    <varray name="basis" >
     <v>       6.01920000       0.00000000       0.00000000 </v>
     <v>       0.00000000      10.14000000       0.00000000 </v>
     <v>       0.00000000       0.00000000      15.00000000 </v>
    </varray>
    <i name="volume">    915.52032000 </i>
    <varray name="rec_basis" >
     <v>       0.16613503       0.00000000       0.00000000 </v>
     <v>       0.00000000       0.09861933       0.00000000 </v>
     <v>       0.00000000       0.00000000       0.06666667 </v>
    </varray>
   </crystal>
   <varray name="positions" >
    <v>       0.44239719       0.87980650       0.22203456 </v>
    <v>       0.94183634       0.88094607       0.27298679 </v>
    <v>       0.44303596       0.61682737       0.22476324 </v>
    <v>       0.94315730       0.61846917       0.27729426 </v>
    <v>       0.44050357       0.37969709       0.27967494 </v>
    <v>       0.94193244       0.38115998       0.22508570 </v>
    <v>       0.44129997       0.11877108       0.27167385 </v>
    <v>       0.94137845       0.11784637       0.22177453 </v>
    <v>       0.19215854      -0.00098104       0.24632260 </v>
    <v>       0.69139107      -0.00071156       0.24734760 </v>
    <v>       0.19226252       0.49938513       0.25102160 </v>
    <v>       0.69217087       0.49928692       0.25412598 </v>
    <v>       0.54817618       0.43431575       0.47904293 </v>
    <v>       0.75353182       0.35195095       0.47915315 </v>
    <v>       0.45553864       0.35512370       0.55533827 </v>
   </varray>
  </structure>
  <varray name="forces" >
   <v>      -0.01972872       0.01419043       0.01828735 </v>
   <v>       0.01972606      -0.02469151       0.01513871 </v>
   <v>      -0.00865129       0.01649041      -0.01656299 </v>
   <v>      -0.01074385       0.02040405      -0.00961765 </v>
   <v>       0.00297439      -0.03308095      -0.00101180 </v>
   <v>      -0.01022607      -0.00152146      -0.00291073 </v>
   <v>      -0.01672648      -0.01868852      -0.00663991 </v>
   <v>       0.02310926       0.02898026      -0.01021585 </v>
   <v>      -0.05730694      -0.00420808      -0.00503186 </v>
   <v>       0.05000003      -0.00541092      -0.00173243 </v>
   <v>      -0.00111538       0.00137198       0.00888796 </v>
   <v>       0.01800678      -0.01407845       0.01179977 </v>
   <v>       0.00562764      -0.02425752       0.02280431 </v>
   <v>      -0.00666945       0.01714510      -0.00669384 </v>
   <v>       0.01172404       0.02735518      -0.01650105 </v>
  </varray>
  <varray name="stress" >
   <v>       8.57933252       0.19298643       0.10751384 </v>
   <v>       0.19298561     -10.46660008       0.10487965 </v>
   <v>       0.10751208       0.10488080      -1.31662161 </v>
  </varray>
  <energy>
   <i name="e_fr_energy">    -49.86288399 </i>
   <i name="e_wo_entrp">    -49.86288399 </i>
   <i name="e_0_energy">     -0.00000000 </i>
  </energy>
  <time name="totalsc">  840.94  842.47</time>
 </calculation>
 <calculation>
  <scstep>
   <time name="dav">   15.79   15.87</time>
   <time name="total">  122.99  123.28</time>
   <energy>
    <i name="alphaZ">     15.92198659 </i>
    <i name="ewald">   1273.20112653 </i>
    <i name="hartreedc">  -2455.37384967 </i>
    <i name="XCdc">   -170.60605365 </i>
    <i name="pawpsdc">   1743.53946410 </i>
    <i name="pawaedc">  -1464.99688298 </i>
    <i name="eentropy">     -0.00000000 </i>
    <i name="bandstr">   -325.27671882 </i>
    <i name="atom">   1333.72818728 </i>
    <i name="e_fr_energy">    -49.86274061 </i>
    <i name="e_wo_entrp">    -49.86274061 </i>
    <i name="e_0_energy">    -49.86274061 </i>
   </energy>
  </scstep>
  <scstep>
   <time name="dav">   19.09   19.12</time>
   <time name="total">  125.21  125.43</time>
   <energy>
    <i name="e_fr_energy">    -49.86290789 </i>
    <i name="e_wo_entrp">    -49.86290789 </i>
    <i name="e_0_energy">    -49.86290789 </i>
   </energy>
  </scstep>
  <scstep>
   <time name="dav">   19.11   19.18</time>
   <time name="total">  124.00  124.44</time>
   <energy>
    <i name="alphaZ">     15.92198659 </i>
    <i name="ewald">   1273.20112653 </i>
    <i name="hartreedc">  -2455.36895946 </i>
    <i name="XCdc">   -170.60796204 </i>
    <i name="pawpsdc">   1743.50105839 </i>
    <i name="pawaedc">  -1464.95847194 </i>
    <i name="eentropy">     -0.00000000 </i>
    <i name="bandstr">   -325.27987133 </i>
    <i name="atom">   1333.72818728 </i>
    <i name="e_fr_energy">    -49.86290598 </i>
    <i name="e_wo_entrp">    -49.86290598 </i>
    <i name="e_0_energy">    -49.86290598 </i>
   </energy>
  </scstep>
  <structure>
   <crystal>
    <varray name="basis" >
     <v>       6.01920000       0.00000000       0.00000000 </v>
     <v>       0.00000000      10.14000000       0.00000000 </v>
     <v>       0.00000000       0.00000000      15.00000000 </v>
    </varray>
    <i name="volume">    915.52032000 </i>
    <varray name="rec_basis" >
     <v>       0.16613503       0.00000000       0.00000000 </v>
     <v>       0.00000000       0.09861933       0.00000000 </v>
     <v>       0.00000000       0.00000000       0.06666667 </v>
    </varray>
   </crystal>
   <varray name="positions" >
    <v>       0.44247145       0.87986092       0.22210621 </v>
    <v>       0.94192278       0.88103344       0.27304367 </v>
    <v>       0.44315933       0.61689469       0.22472637 </v>
    <v>       0.94324697       0.61864352       0.27725194 </v>
    <v>       0.44049891       0.37969174       0.27969577 </v>
    <v>       0.94198117       0.38131360       0.22511854 </v>
    <v>       0.44141277       0.11884422       0.27160098 </v>
    <v>       0.94158016       0.11804192       0.22173675 </v>
    <v>       0.19214487      -0.00088797       0.24634471 </v>
    <v>       0.69160851      -0.00059554       0.24731100 </v>
    <v>       0.19237528       0.49950933       0.25104432 </v>
    <v>       0.69228637       0.49936577       0.25424918 </v>
    <v>       0.54791294       0.43399373       0.47912565 </v>
    <v>       0.75326394       0.35170619       0.47918036 </v>
    <v>       0.45490539       0.35447793       0.55510455 </v>
   </varray>
  </structure>
  <varray name="forces" >
   <v>      -0.01675396       0.02102184       0.01520254 </v>
   <v>       0.01801531      -0.01458777       0.00854665 </v>
   <v>      -0.00591354       0.01013859      -0.00824156 </v>
   <v>      -0.01000749       0.01239182      -0.00418556 </v>
   <v>       0.00822940      -0.01724226      -0.00225519 </v>
   <v>      -0.00660033      -0.00228665      -0.00284090 </v>
   <v>      -0.01613891      -0.02165853      -0.00474008 </v>
   <v>       0.01650449       0.01586461      -0.00635908 </v>
   <v>      -0.03708086      -0.00704216      -0.00502785 </v>
   <v>       0.03246868      -0.00790393      -0.00127689 </v>
   <v>      -0.00488964      -0.00250185       0.00500769 </v>
   <v>       0.00825186      -0.01359349       0.00454895 </v>
   <v>       0.00234305      -0.00892748       0.00756791 </v>
   <v>       0.00122329       0.01384150      -0.00563634 </v>
   <v>       0.01034865       0.02248576      -0.00031026 </v>
  </varray>
  <varray name="stress" >
   <v>       8.58113218       0.17647497       0.09577846 </v>
   <v>       0.17647417     -10.50567676       0.10466607 </v>
   <v>       0.09577675       0.10466730      -1.29739204 </v>
  </varray>
  <energy>
   <i name="e_fr_energy">    -49.86290598 </i>
   <i name="e_wo_entrp">    -49.86290598 </i>
   <i name="e_0_energy">     -0.00000000 </i>
  </energy>
  <time name="totalsc">  604.73  607.04</time>
 </calculation>
 <calculation>
  <scstep>
   <time name="dav">   15.69   15.77</time>
   <time name="total">  116.88  117.39</time>
   <energy>
    <i name="alphaZ">     15.92198659 </i>
    <i name="ewald">   1273.26866262 </i>
    <i name="hartreedc">  -2455.43010099 </i>
    <i name="XCdc">   -170.60931247 </i>
    <i name="pawpsdc">   1743.48487046 </i>
    <i name="pawaedc">  -1464.94262068 </i>
    <i name="eentropy">     -0.00000000 </i>
    <i name="bandstr">   -325.28454602 </i>
    <i name="atom">   1333.72818728 </i>
    <i name="e_fr_energy">    -49.86287320 </i>
    <i name="e_wo_entrp">    -49.86287320 </i>
    <i name="e_0_energy">    -49.86287320 </i>
   </energy>
  </scstep>
  <scstep>
   <time name="dav">   18.53   18.62</time>
   <time name="total">  120.52  120.78</time>
   <energy>
    <i name="e_fr_energy">    -49.86291856 </i>
    <i name="e_wo_entrp">    -49.86291856 </i>
    <i name="e_0_energy">    -49.86291856 </i>
   </energy>
  </scstep>
  <scstep>
   <time name="dav">   13.43   13.47</time>
   <time name="total">  113.92  114.29</time>
   <energy>
    <i name="alphaZ">     15.92198659 </i>
    <i name="ewald">   1273.26866262 </i>
    <i name="hartreedc">  -2455.43701093 </i>
    <i name="XCdc">   -170.60821633 </i>
    <i name="pawpsdc">   1743.52182418 </i>
    <i name="pawaedc">  -1464.97985083 </i>
    <i name="eentropy">     -0.00000000 </i>
    <i name="bandstr">   -325.27849750 </i>
    <i name="atom">   1333.72818728 </i>
    <i name="e_fr_energy">    -49.86291491 </i>
    <i name="e_wo_entrp">    -49.86291491 </i>
    <i name="e_0_energy">    -49.86291491 </i>
   </energy>
  </scstep>
  <structure>
   <crystal>
    <varray name="basis" >
     <v>       6.01920000       0.00000000       0.00000000 </v>
     <v>       0.00000000      10.14000000       0.00000000 </v>
     <v>       0.00000000       0.00000000      15.00000000 </v>
    </varray>
    <i name="volume">    915.52032000 </i>
    <varray name="rec_basis" >
     <v>       0.16613503       0.00000000       0.00000000 </v>
     <v>       0.00000000       0.09861933       0.00000000 </v>
     <v>       0.00000000       0.00000000       0.06666667 </v>
    </varray>
   </crystal>
   <varray name="positions" >
    <v>       0.44243432       0.87983371       0.22207038 </v>
    <v>       0.94187956       0.88098976       0.27301523 </v>
    <v>       0.44309765       0.61686103       0.22474480 </v>
    <v>       0.94320214       0.61855635       0.27727310 </v>
    <v>       0.44050124       0.37969441       0.27968535 </v>
    <v>       0.94195681       0.38123679       0.22510212 </v>
    <v>       0.44135637       0.11880765       0.27163741 </v>
    <v>       0.94147931       0.11794415       0.22175564 </v>
    <v>       0.19215171      -0.00093450       0.24633365 </v>
    <v>       0.69149979      -0.00065355       0.24732930 </v>
    <v>       0.19231890       0.49944723       0.25103296 </v>
    <v>       0.69222862       0.49932634       0.25418758 </v>
    <v>       0.54804456       0.43415474       0.47908429 </v>
    <v>       0.75339788       0.35182857       0.47916676 </v>
    <v>       0.45522201       0.35480082       0.55522141 </v>
   </varray>
  </structure>
  <varray name="forces" >
   <v>      -0.01739555       0.01944807       0.01780644 </v>
   <v>       0.01864804      -0.01886912       0.01262864 </v>
   <v>      -0.00592821       0.01402142      -0.01185682 </v>
   <v>      -0.00995631       0.01782094      -0.00624058 </v>
   <v>       0.00591191      -0.02384356      -0.00151917 </v>
   <v>      -0.00799650      -0.00035776      -0.00224276 </v>
   <v>      -0.01548064      -0.01955595      -0.00513485 </v>
   <v>       0.01993655       0.02393446      -0.00777440 </v>
   <v>      -0.04565923      -0.00803038      -0.00517851 </v>
   <v>       0.03960515      -0.00840082       0.00009576 </v>
   <v>      -0.00327865      -0.00323297       0.00660169 </v>
   <v>       0.01143422      -0.01529502       0.00428471 </v>
   <v>       0.00572231      -0.01402821       0.01341194 </v>
   <v>      -0.00373084       0.01477364      -0.00541719 </v>
   <v>       0.00816776       0.02161525      -0.00946488 </v>
  </varray>
  <varray name="stress" >
   <v>       8.58496556       0.19329822       0.09632697 </v>
   <v>       0.19329746     -10.47472106       0.10082748 </v>
   <v>       0.09632518       0.10082871      -1.29511915 </v>
  </varray>
  <energy>
   <i name="e_fr_energy">    -49.86291491 </i>
   <i name="e_wo_entrp">    -49.86291491 </i>
   <i name="e_0_energy">     -0.00000000 </i>
  </energy>
  <time name="totalsc">  576.98  579.30</time>
 </calculation>
 <calculation>
  <scstep>
   <time name="dav">   15.21   15.24</time>
   <time name="total">  118.49  118.92</time>
   <energy>
    <i name="alphaZ">     15.92198659 </i>
    <i name="ewald">   1273.28866785 </i>
    <i name="hartreedc">  -2455.45484546 </i>
    <i name="XCdc">   -170.60853843 </i>
    <i name="pawpsdc">   1743.53889426 </i>
    <i name="pawaedc">  -1464.99686801 </i>
    <i name="eentropy">     -0.00000000 </i>
    <i name="bandstr">   -325.28047426 </i>
    <i name="atom">   1333.72818728 </i>
    <i name="e_fr_energy">    -49.86299018 </i>
    <i name="e_wo_entrp">    -49.86299018 </i>
    <i name="e_0_energy">    -49.86299018 </i>
   </energy>
  </scstep>
  <scstep>
   <time name="dav">   21.05   21.10</time>
   <time name="total">  123.91  124.23</time>
   <energy>
    <i name="e_fr_energy">    -49.86301626 </i>
    <i name="e_wo_entrp">    -49.86301626 </i>
    <i name="e_0_energy">    -49.86301626 </i>
   </energy>
  </scstep>
  <scstep>
   <time name="dav">   12.98   13.02</time>
   <time name="total">  116.77  116.98</time>
   <energy>
    <i name="alphaZ">     15.92198659 </i>
    <i name="ewald">   1273.28866785 </i>
    <i name="hartreedc">  -2455.45158653 </i>
    <i name="XCdc">   -170.60795799 </i>
    <i name="pawpsdc">   1743.54240461 </i>
    <i name="pawaedc">  -1465.00039431 </i>
    <i name="eentropy">     -0.00000000 </i>
    <i name="bandstr">   -325.28432471 </i>
    <i name="atom">   1333.72818728 </i>
    <i name="e_fr_energy">    -49.86301721 </i>
    <i name="e_wo_entrp">    -49.86301721 </i>
    <i name="e_0_energy">    -49.86301721 </i>
   </energy>
  </scstep>
  <structure>
   <crystal>
    <varray name="basis" >
     <v>       6.01920000       0.00000000       0.00000000 </v>
     <v>       0.00000000      10.14000000       0.00000000 </v>
     <v>       0.00000000       0.00000000      15.00000000 </v>
    </varray>
    <i name="volume">    915.52032000 </i>
    <varray name="rec_basis" >
     <v>       0.16613503       0.00000000       0.00000000 </v>
     <v>       0.00000000       0.09861933       0.00000000 </v>
     <v>       0.00000000       0.00000000       0.06666667 </v>
    </varray>
   </crystal>
   <varray name="positions" >
    <v>       0.44237092       0.87983261       0.22205390 </v>
    <v>       0.94187840       0.88093246       0.27300101 </v>
    <v>       0.44303522       0.61684854       0.22475127 </v>
    <v>       0.94314621       0.61850352       0.27728604 </v>
    <v>       0.44051422       0.37967021       0.27967554 </v>
    <v>       0.94192158       0.38117244       0.22508677 </v>
    <v>       0.44128050       0.11875553       0.27166390 </v>
    <v>       0.94143256       0.11788927       0.22176554 </v>
    <v>       0.19207214      -0.00098215       0.24632057 </v>
    <v>       0.69148323      -0.00071116       0.24734461 </v>
    <v>       0.19226584       0.49939195       0.25102845 </v>
    <v>       0.69220189       0.49927656       0.25413950 </v>
    <v>       0.54816484       0.43427325       0.47905991 </v>
    <v>       0.75350243       0.35194684       0.47915137 </v>
    <v>       0.45550089       0.35509361       0.55531162 </v>
   </varray>
  </structure>
  <varray name="forces" >
   <v>      -0.01582345       0.01424246       0.01758302 </v>
   <v>       0.01543384      -0.02099006       0.01400998 </v>
   <v>      -0.00679101       0.01141305      -0.01320850 </v>
   <v>      -0.00880954       0.01579221      -0.00849299 </v>
   <v>       0.00229989      -0.02630015      -0.00198692 </v>
   <v>      -0.00734254       0.00085221      -0.00242547 </v>
   <v>      -0.01322046      -0.01890265      -0.00589921 </v>
   <v>       0.01835736       0.02564331      -0.00877250 </v>
   <v>      -0.04112157      -0.00480927      -0.00476690 </v>
   <v>       0.03546379      -0.00560081      -0.00052959 </v>
   <v>      -0.00041645      -0.00059711       0.00791726 </v>
   <v>       0.01053964      -0.01241052       0.00751815 </v>
   <v>       0.00589103      -0.01322798       0.01455939 </v>
   <v>      -0.00272582       0.01366051      -0.00545981 </v>
   <v>       0.00826528       0.02123479      -0.01004591 </v>
  </varray>
  <varray name="stress" >
   <v>       8.58609090       0.19366287       0.09736323 </v>
   <v>       0.19366212     -10.47236247       0.10203043 </v>
   <v>       0.09736131       0.10203154      -1.30108422 </v>
  </varray>
  <energy>
   <i name="e_fr_energy">    -49.86301721 </i>
   <i name="e_wo_entrp">    -49.86301721 </i>
   <i name="e_0_energy">     -0.00000000 </i>
  </energy>
  <time name="totalsc">  588.30  590.37</time>
 </calculation>
 <calculation>
  <scstep>
   <time name="dav">   16.54   16.57</time>
   <time name="total">  119.99  120.19</time>
   <energy>
    <i name="alphaZ">     15.92198659 </i>
    <i name="ewald">   1273.34684709 </i>
    <i name="hartreedc">  -2455.49808019 </i>
    <i name="XCdc">   -170.60963300 </i>
    <i name="pawpsdc">   1743.54783646 </i>
    <i name="pawaedc">  -1465.00580465 </i>
    <i name="eentropy">     -0.00000000 </i>
    <i name="bandstr">   -325.29431589 </i>
    <i name="atom">   1333.72818728 </i>
    <i name="e_fr_energy">    -49.86297630 </i>
    <i name="e_wo_entrp">    -49.86297630 </i>
    <i name="e_0_energy">    -49.86297630 </i>
   </energy>
  </scstep>
  <scstep>
   <time name="dav">   21.05   21.09</time>
   <time name="total">  126.45  126.62</time>
   <energy>
    <i name="e_fr_energy">    -49.86323754 </i>
    <i name="e_wo_entrp">    -49.86323754 </i>
    <i name="e_0_energy">    -49.86323754 </i>
   </energy>
  </scstep>
  <scstep>
   <time name="dav">   20.66   20.70</time>
   <time name="total">  122.54  122.71</time>
   <energy>
    <i name="alphaZ">     15.92198659 </i>
    <i name="ewald">   1273.34684709 </i>
    <i name="hartreedc">  -2455.50165635 </i>
    <i name="XCdc">   -170.60735765 </i>
    <i name="pawpsdc">   1743.59805326 </i>
    <i name="pawaedc">  -1465.05652617 </i>
    <i name="eentropy">     -0.00000000 </i>
    <i name="bandstr">   -325.29276794 </i>
    <i name="atom">   1333.72818728 </i>
    <i name="e_fr_energy">    -49.86323389 </i>
    <i name="e_wo_entrp">    -49.86323389 </i>
    <i name="e_0_energy">    -49.86323389 </i>
   </energy>
  </scstep>
  <structure>
   <crystal>
    <varray name="basis" >
     <v>       6.01920000       0.00000000       0.00000000 </v>
     <v>       0.00000000      10.14000000       0.00000000 </v>
     <v>       0.00000000       0.00000000      15.00000000 </v>
    </varray>
    <i name="volume">    915.52032000 </i>
    <varray name="rec_basis" >
     <v>       0.16613503       0.00000000       0.00000000 </v>
     <v>       0.00000000       0.09861933       0.00000000 </v>
     <v>       0.00000000       0.00000000       0.06666667 </v>
    </varray>
   </crystal>
   <varray name="positions" >
    <v>       0.44218073       0.87982933       0.22200444 </v>
    <v>       0.94187491       0.88076059       0.27295835 </v>
    <v>       0.44284793       0.61681109       0.22477067 </v>
    <v>       0.94297843       0.61834503       0.27732486 </v>
    <v>       0.44055316       0.37959761       0.27964610 </v>
    <v>       0.94181592       0.38097939       0.22504072 </v>
    <v>       0.44105290       0.11859915       0.27174337 </v>
    <v>       0.94129233       0.11772463       0.22179524 </v>
    <v>       0.19183342      -0.00112510       0.24628131 </v>
    <v>       0.69143353      -0.00088399       0.24739054 </v>
    <v>       0.19210665       0.49922608       0.25101491 </v>
    <v>       0.69212169       0.49912723       0.25399527 </v>
    <v>       0.54852566       0.43462878       0.47898675 </v>
    <v>       0.75381608       0.35230167       0.47910522 </v>
    <v>       0.45633752       0.35597201       0.55558224 </v>
   </varray>
  </structure>
  <varray name="forces" >
   <v>      -0.00852182       0.00131496       0.01842409 </v>
   <v>       0.00506537      -0.02701170       0.01925174 </v>
   <v>      -0.00674742       0.00382975      -0.01626396 </v>
   <v>      -0.00419988       0.01131023      -0.01442984 </v>
   <v>      -0.00794619      -0.03153093      -0.00334767 </v>
   <v>      -0.00406242       0.00660287      -0.00212499 </v>
   <v>      -0.00393355      -0.01661699      -0.00742494 </v>
   <v>       0.01340159       0.03321613      -0.01133839 </v>
   <v>      -0.02320192       0.00201502      -0.00325744 </v>
   <v>       0.01995971       0.00125384      -0.00019355 </v>
   <v>       0.00744178       0.00310672       0.01235933 </v>
   <v>       0.00440625      -0.00377079       0.01293192 </v>
   <v>       0.00279949      -0.01088075       0.01262325 </v>
   <v>      -0.00022862       0.00993809      -0.00474074 </v>
   <v>       0.00576763       0.01722355      -0.01246881 </v>
  </varray>
  <varray name="stress" >
   <v>       8.59459389       0.20464671       0.08978451 </v>
   <v>       0.20464593     -10.45455382       0.09985451 </v>
   <v>       0.08978266       0.09985566      -1.29849778 </v>
  </varray>
  <energy>
   <i name="e_fr_energy">    -49.86323389 </i>
   <i name="e_wo_entrp">    -49.86323389 </i>
   <i name="e_0_energy">     -0.00000000 </i>
  </energy>
  <time name="totalsc">  596.52  598.10</time>
 </calculation>
 <calculation>
  <scstep>
   <time name="dav">   16.33   16.38</time>
   <time name="total">  121.84  121.88</time>
   <energy>
    <i name="alphaZ">     15.92198659 </i>
    <i name="ewald">   1273.37232783 </i>
    <i name="hartreedc">  -2455.52226132 </i>
    <i name="XCdc">   -170.60773447 </i>
    <i name="pawpsdc">   1743.61345918 </i>
    <i name="pawaedc">  -1465.07187852 </i>
    <i name="eentropy">     -0.00000000 </i>
    <i name="bandstr">   -325.29734597 </i>
    <i name="atom">   1333.72818728 </i>
    <i name="e_fr_energy">    -49.86325940 </i>
    <i name="e_wo_entrp">    -49.86325940 </i>
    <i name="e_0_energy">    -49.86325940 </i>
   </energy>
  </scstep>
  <scstep>
   <time name="dav">   20.79   20.79</time>
   <time name="total">  124.75  124.91</time>
   <energy>
    <i name="e_fr_energy">    -49.86330899 </i>
    <i name="e_wo_entrp">    -49.86330899 </i>
    <i name="e_0_energy">    -49.86330899 </i>
   </energy>
  </scstep>
  <scstep>
   <time name="dav">   13.82   13.82</time>
   <time name="total">  114.63  114.63</time>
   <energy>
    <i name="alphaZ">     15.92198659 </i>
    <i name="ewald">   1273.37232783 </i>
    <i name="hartreedc">  -2455.51945795 </i>
    <i name="XCdc">   -170.60675739 </i>
    <i name="pawpsdc">   1743.61690426 </i>
    <i name="pawaedc">  -1465.07528340 </i>
    <i name="eentropy">     -0.00000000 </i>
    <i name="bandstr">   -325.30122095 </i>
    <i name="atom">   1333.72818728 </i>
    <i name="e_fr_energy">    -49.86331373 </i>
    <i name="e_wo_entrp">    -49.86331373 </i>
    <i name="e_0_energy">    -49.86331373 </i>
   </energy>
  </scstep>
  <structure>
   <crystal>
    <varray name="basis" >
     <v>       6.01920000       0.00000000       0.00000000 </v>
     <v>       0.00000000      10.14000000       0.00000000 </v>
     <v>       0.00000000       0.00000000      15.00000000 </v>
    </varray>
    <i name="volume">    915.52032000 </i>
    <varray name="rec_basis" >
     <v>       0.16613503       0.00000000       0.00000000 </v>
     <v>       0.00000000       0.09861933       0.00000000 </v>
     <v>       0.00000000       0.00000000       0.06666667 </v>
    </varray>
   </crystal>
   <varray name="positions" >
    <v>       0.44209446       0.87982784       0.22198200 </v>
    <v>       0.94187333       0.88068263       0.27293901 </v>
    <v>       0.44276298       0.61679410       0.22477947 </v>
    <v>       0.94290234       0.61827315       0.27734247 </v>
    <v>       0.44057082       0.37956468       0.27963275 </v>
    <v>       0.94176799       0.38089183       0.22501984 </v>
    <v>       0.44094966       0.11852822       0.27177941 </v>
    <v>       0.94122873       0.11764996       0.22180871 </v>
    <v>       0.19172515      -0.00118994       0.24626350 </v>
    <v>       0.69141099      -0.00096238       0.24741137 </v>
    <v>       0.19203444       0.49915085       0.25100877 </v>
    <v>       0.69208531       0.49905950       0.25392985 </v>
    <v>       0.54868931       0.43479003       0.47895356 </v>
    <v>       0.75395835       0.35246261       0.47908429 </v>
    <v>       0.45671699       0.35637042       0.55570499 </v>
   </varray>
  </structure>
  <varray name="forces" >
   <v>      -0.00552550      -0.00500549       0.01863194 </v>
   <v>       0.00001449      -0.03036873       0.02156272 </v>
   <v>      -0.00786482      -0.00040807      -0.01777159 </v>
   <v>      -0.00249589       0.00870603      -0.01734945 </v>
   <v>      -0.01293663      -0.03381675      -0.00426123 </v>
   <v>      -0.00256500       0.00883340      -0.00228990 </v>
   <v>      -0.00007192      -0.01593286      -0.00821631 </v>
   <v>       0.01038387       0.03664105      -0.01263576 </v>
   <v>      -0.01616543       0.00341090      -0.00323499 </v>
   <v>       0.01268845       0.00254171      -0.00033330 </v>
   <v>       0.01094245       0.00476566       0.01393088 </v>
   <v>       0.00225678      -0.00137420       0.01452581 </v>
   <v>       0.00164114      -0.00744246       0.01361091 </v>
   <v>       0.00229991       0.00986081      -0.00472664 </v>
   <v>       0.00739810       0.01958899      -0.01144309 </v>
  </varray>
  <varray name="stress" >
   <v>       8.59486505       0.20177986       0.08895370 </v>
   <v>       0.20177905     -10.45914549       0.09571770 </v>
   <v>       0.08895186       0.09571888      -1.30170386 </v>
  </varray>
  <energy>
   <i name="e_fr_energy">    -49.86331373 </i>
   <i name="e_wo_entrp">    -49.86331373 </i>
   <i name="e_0_energy">     -0.00000000 </i>
  </energy>
  <time name="totalsc">  593.35  595.20</time>
 </calculation>
 <calculation>
  <scstep>
   <time name="dav">   14.93   14.93</time>
   <time name="total">  119.29  119.32</time>
   <energy>
    <i name="alphaZ">     15.92198659 </i>
    <i name="ewald">   1273.42159136 </i>
    <i name="hartreedc">  -2455.55754163 </i>
    <i name="XCdc">   -170.60828516 </i>
    <i name="pawpsdc">   1743.62048240 </i>
    <i name="pawaedc">  -1465.07880373 </i>
    <i name="eentropy">     -0.00000000 </i>
    <i name="bandstr">   -325.31077685 </i>
    <i name="atom">   1333.72818728 </i>
    <i name="e_fr_energy">    -49.86315974 </i>
    <i name="e_wo_entrp">    -49.86315974 </i>
    <i name="e_0_energy">    -49.86315974 </i>
   </energy>
  </scstep>
  <scstep>
   <time name="dav">   19.68   19.80</time>
   <time name="total">  122.07  122.48</time>
   <energy>
    <i name="e_fr_energy">    -49.86337521 </i>
    <i name="e_wo_entrp">    -49.86337521 </i>
    <i name="e_0_energy">    -49.86337521 </i>
   </energy>
  </scstep>
  <scstep>
   <time name="dav">   20.08   20.12</time>
   <time name="total">  125.84  126.17</time>
   <energy>
    <i name="alphaZ">     15.92198659 </i>
    <i name="ewald">   1273.42159136 </i>
    <i name="hartreedc">  -2455.55863428 </i>
    <i name="XCdc">   -170.60637355 </i>
    <i name="pawpsdc">   1743.65885670 </i>
    <i name="pawaedc">  -1465.11757201 </i>
    <i name="eentropy">     -0.00000000 </i>
    <i name="bandstr">   -325.31141579 </i>
    <i name="atom">   1333.72818728 </i>
    <i name="e_fr_energy">    -49.86337369 </i>
    <i name="e_wo_entrp">    -49.86337369 </i>
    <i name="e_0_energy">    -49.86337369 </i>
   </energy>
  </scstep>
  <structure>
   <crystal>
    <varray name="basis" >
     <v>       6.01920000       0.00000000       0.00000000 </v>
     <v>       0.00000000      10.14000000       0.00000000 </v>
     <v>       0.00000000       0.00000000      15.00000000 </v>
    </varray>
    <i name="volume">    915.52032000 </i>
    <varray name="rec_basis" >
     <v>       0.16613503       0.00000000       0.00000000 </v>
     <v>       0.00000000       0.09861933       0.00000000 </v>
     <v>       0.00000000       0.00000000       0.06666667 </v>
    </varray>
   </crystal>
   <varray name="positions" >
    <v>       0.44192193       0.87982486       0.22193714 </v>
    <v>       0.94187017       0.88052672       0.27290031 </v>
    <v>       0.44259308       0.61676012       0.22479708 </v>
    <v>       0.94275014       0.61812938       0.27737769 </v>
    <v>       0.44060615       0.37949882       0.27960605 </v>
    <v>       0.94167214       0.38071671       0.22497806 </v>
    <v>       0.44074320       0.11838636       0.27185150 </v>
    <v>       0.94110152       0.11750061       0.22183566 </v>
    <v>       0.19150861      -0.00131961       0.24622789 </v>
    <v>       0.69136590      -0.00111916       0.24745303 </v>
    <v>       0.19189003       0.49900039       0.25099648 </v>
    <v>       0.69201256       0.49892403       0.25379901 </v>
    <v>       0.54901663       0.43511254       0.47888720 </v>
    <v>       0.75424287       0.35278448       0.47904242 </v>
    <v>       0.45747594       0.35716724       0.55595049 </v>
   </varray>
  </structure>
  <varray name="forces" >
   <v>       0.00091211      -0.01700096       0.01913414 </v>
   <v>      -0.00961854      -0.03592963       0.02615169 </v>
   <v>      -0.00794814      -0.00743024      -0.02075134 </v>
   <v>       0.00160478       0.00433225      -0.02282864 </v>
   <v>      -0.02223944      -0.03884173      -0.00555006 </v>
   <v>       0.00044232       0.01393247      -0.00212783 </v>
   <v>       0.00822547      -0.01400315      -0.00979944 </v>
   <v>       0.00560189       0.04329196      -0.01510331 </v>
   <v>      -0.00067704       0.00996049      -0.00162409 </v>
   <v>      -0.00191433       0.00854956      -0.00002216 </v>
   <v>       0.01847787       0.00850509       0.01748122 </v>
   <v>      -0.00378908       0.00664501       0.01979390 </v>
   <v>      -0.00017245      -0.00599911       0.01347864 </v>
   <v>       0.00476916       0.00679412      -0.00430887 </v>
   <v>       0.00632541       0.01719389      -0.01392385 </v>
  </varray>
  <varray name="stress" >
   <v>       8.60460864       0.21305722       0.08440406 </v>
   <v>       0.21305640     -10.43816497       0.09338284 </v>
   <v>       0.08440211       0.09338398      -1.29560263 </v>
  </varray>
  <energy>
   <i name="e_fr_energy">    -49.86337369 </i>
   <i name="e_wo_entrp">    -49.86337369 </i>
   <i name="e_0_energy">     -0.00000000 </i>
  </energy>
  <time name="totalsc">  598.26  600.15</time>
 </calculation>
 <calculation>
  <scstep>
   <time name="dav">   16.51   16.52</time>
   <time name="total">  118.53  118.54</time>
   <energy>
    <i name="alphaZ">     15.92198659 </i>
    <i name="ewald">   1273.30027668 </i>
    <i name="hartreedc">  -2455.46821921 </i>
    <i name="XCdc">   -170.60873198 </i>
    <i name="pawpsdc">   1743.67245541 </i>
    <i name="pawaedc">  -1465.13110052 </i>
    <i name="eentropy">     -0.00000000 </i>
    <i name="bandstr">   -325.27843672 </i>
    <i name="atom">   1333.72818728 </i>
    <i name="e_fr_energy">    -49.86358247 </i>
    <i name="e_wo_entrp">    -49.86358247 </i>
    <i name="e_0_energy">    -49.86358247 </i>
   </energy>
  </scstep>
  <scstep>
   <time name="dav">   21.23   21.23</time>
   <time name="total">  127.01  127.04</time>
   <energy>
    <i name="e_fr_energy">    -49.86363745 </i>
    <i name="e_wo_entrp">    -49.86363745 </i>
    <i name="e_0_energy">    -49.86363745 </i>
   </energy>
  </scstep>
  <scstep>
   <time name="dav">   17.28   17.28</time>
   <time name="total">  122.24  122.26</time>
   <energy>
    <i name="alphaZ">     15.92198659 </i>
    <i name="ewald">   1273.30027668 </i>
    <i name="hartreedc">  -2455.44678391 </i>
    <i name="XCdc">   -170.60897377 </i>
    <i name="pawpsdc">   1743.52513971 </i>
    <i name="pawaedc">  -1464.98361622 </i>
    <i name="eentropy">     -0.00000000 </i>
    <i name="bandstr">   -325.29986072 </i>
    <i name="atom">   1333.72818728 </i>
    <i name="e_fr_energy">    -49.86364435 </i>
    <i name="e_wo_entrp">    -49.86364435 </i>
    <i name="e_0_energy">    -49.86364435 </i>
   </energy>
  </scstep>
  <structure>
   <crystal>
    <varray name="basis" >
     <v>       6.01920000       0.00000000       0.00000000 </v>
     <v>       0.00000000      10.14000000       0.00000000 </v>
     <v>       0.00000000       0.00000000      15.00000000 </v>
    </varray>
    <i name="volume">    915.52032000 </i>
    <varray name="rec_basis" >
     <v>       0.16613503       0.00000000       0.00000000 </v>
     <v>       0.00000000       0.09861933       0.00000000 </v>
     <v>       0.00000000       0.00000000       0.06666667 </v>
    </varray>
   </crystal>
   <varray name="positions" >
    <v>       0.44183148       0.87977769       0.22194719 </v>
    <v>       0.94182504       0.88034502       0.27292646 </v>
    <v>       0.44246410       0.61672160       0.22476915 </v>
    <v>       0.94267396       0.61806218       0.27735566 </v>
    <v>       0.44052516       0.37935869       0.27958136 </v>
    <v>       0.94162159       0.38065805       0.22495132 </v>
    <v>       0.44066715       0.11827110       0.27187326 </v>
    <v>       0.94105707       0.11753471       0.22182308 </v>
    <v>       0.19138686      -0.00136401       0.24620543 </v>
    <v>       0.69133256      -0.00118219       0.24747583 </v>
    <v>       0.19189426       0.49894070       0.25102140 </v>
    <v>       0.69195559       0.49886758       0.25376314 </v>
    <v>       0.54919525       0.43527324       0.47887523 </v>
    <v>       0.75442034       0.35297910       0.47901167 </v>
    <v>       0.45792046       0.35765004       0.55605983 </v>
   </varray>
  </structure>
  <varray name="forces" >
   <v>       0.00235134      -0.01643380       0.01660413 </v>
   <v>      -0.01167214      -0.01088761       0.01902898 </v>
   <v>      -0.00249141      -0.01426017      -0.01756094 </v>
   <v>       0.00315269      -0.00250716      -0.02227774 </v>
   <v>      -0.01778326      -0.02678245      -0.00726235 </v>
   <v>       0.00189371       0.02056451      -0.00114547 </v>
   <v>       0.00899085      -0.01217979      -0.00960718 </v>
   <v>       0.00112890       0.02232752      -0.01046471 </v>
   <v>      -0.00065462       0.00471812       0.00040804 </v>
   <v>       0.00145025       0.00575509       0.00048383 </v>
   <v>       0.00864811       0.00547434       0.01530401 </v>
   <v>      -0.00805578       0.00411801       0.01923702 </v>
   <v>       0.00180626       0.00512559       0.00176443 </v>
   <v>       0.00800439       0.00509358      -0.00341869 </v>
   <v>       0.00323069       0.00987423      -0.00109339 </v>
  </varray>
  <varray name="stress" >
   <v>       8.59160227       0.20286410       0.07822826 </v>
   <v>       0.20286330     -10.48591761       0.10945311 </v>
   <v>       0.07822639       0.10945421      -1.27831613 </v>
  </varray>
  <energy>
   <i name="e_fr_energy">    -49.86364435 </i>
   <i name="e_wo_entrp">    -49.86364435 </i>
   <i name="e_0_energy">     -0.00000000 </i>
  </energy>
  <time name="totalsc">  593.86  594.93</time>
 </calculation>
 <calculation>
  <scstep>
   <time name="dav">   16.47   16.51</time>
   <time name="total">  121.36  121.67</time>
   <energy>
    <i name="alphaZ">     15.92198659 </i>
    <i name="ewald">   1272.99752286 </i>
    <i name="hartreedc">  -2455.22281099 </i>
    <i name="XCdc">   -170.61568537 </i>
    <i name="pawpsdc">   1743.49536713 </i>
    <i name="pawaedc">  -1464.95392763 </i>
    <i name="eentropy">     -0.00000000 </i>
    <i name="bandstr">   -325.21411653 </i>
    <i name="atom">   1333.72818728 </i>
    <i name="e_fr_energy">    -49.86347665 </i>
    <i name="e_wo_entrp">    -49.86347665 </i>
    <i name="e_0_energy">    -49.86347665 </i>
   </energy>
  </scstep>
  <scstep>
   <time name="dav">   20.29   20.29</time>
   <time name="total">  124.62  124.64</time>
   <energy>
    <i name="e_fr_energy">    -49.86384200 </i>
    <i name="e_wo_entrp">    -49.86384200 </i>
    <i name="e_0_energy">    -49.86384200 </i>
   </energy>
  </scstep>
  <scstep>
   <time name="dav">   19.56   19.66</time>
   <time name="total">  124.95  125.51</time>
   <energy>
    <i name="e_fr_energy">    -49.86385289 </i>
    <i name="e_wo_entrp">    -49.86385289 </i>
    <i name="e_0_energy">    -49.86385289 </i>
   </energy>
  </scstep>
  <scstep>
   <time name="dav">   17.35   17.38</time>
   <time name="total">  123.02  123.43</time>
   <energy>
    <i name="e_fr_energy">    -49.86387733 </i>
    <i name="e_wo_entrp">    -49.86387733 </i>
    <i name="e_0_energy">    -49.86387733 </i>
   </energy>
  </scstep>
  <scstep>
   <time name="dav">   14.20   14.27</time>
   <time name="total">  118.67  119.15</time>
   <energy>
    <i name="alphaZ">     15.92198659 </i>
    <i name="ewald">   1272.99752286 </i>
    <i name="hartreedc">  -2455.19910371 </i>
    <i name="XCdc">   -170.61448148 </i>
    <i name="pawpsdc">   1743.10223689 </i>
    <i name="pawaedc">  -1464.56113904 </i>
    <i name="eentropy">     -0.00000000 </i>
    <i name="bandstr">   -325.23908641 </i>
    <i name="atom">   1333.72818728 </i>
    <i name="e_fr_energy">    -49.86387701 </i>
    <i name="e_wo_entrp">    -49.86387701 </i>
    <i name="e_0_energy">    -49.86387701 </i>
   </energy>
  </scstep>
  <structure>
   <crystal>
    <varray name="basis" >
     <v>       6.01920000       0.00000000       0.00000000 </v>
     <v>       0.00000000      10.14000000       0.00000000 </v>
     <v>       0.00000000       0.00000000      15.00000000 </v>
    </varray>
    <i name="volume">    915.52032000 </i>
    <varray name="rec_basis" >
     <v>       0.16613503       0.00000000       0.00000000 </v>
     <v>       0.00000000       0.09861933       0.00000000 </v>
     <v>       0.00000000       0.00000000       0.06666667 </v>
    </varray>
   </crystal>
   <varray name="positions" >
    <v>       0.44160711       0.87966067       0.22197213 </v>
    <v>       0.94171308       0.87989430       0.27299131 </v>
    <v>       0.44214414       0.61662603       0.22469987 </v>
    <v>       0.94248499       0.61789549       0.27730100 </v>
    <v>       0.44032426       0.37901107       0.27952012 </v>
    <v>       0.94149622       0.38051252       0.22488496 </v>
    <v>       0.44047849       0.11798518       0.27192726 </v>
    <v>       0.94094682       0.11761930       0.22179188 </v>
    <v>       0.19108486      -0.00147414       0.24614971 </v>
    <v>       0.69124983      -0.00133855       0.24753238 </v>
    <v>       0.19190474       0.49879263       0.25108322 </v>
    <v>       0.69181426       0.49872755       0.25367415 </v>
    <v>       0.54963835       0.43567188       0.47884554 </v>
    <v>       0.75486057       0.35346187       0.47893539 </v>
    <v>       0.45902314       0.35884767       0.55633107 </v>
   </varray>
  </structure>
  <varray name="forces" >
   <v>       0.00592398      -0.01422193       0.01136939 </v>
   <v>      -0.01577930       0.05276190       0.00141370 </v>
   <v>       0.01318945      -0.02984876      -0.00946581 </v>
   <v>       0.00699644      -0.01921933      -0.02020434 </v>
   <v>      -0.00484747       0.00117131      -0.01089022 </v>
   <v>       0.00511924       0.03631671       0.00184722 </v>
   <v>       0.01124447      -0.00858526      -0.00865993 </v>
   <v>      -0.00911199      -0.03117931       0.00166850 </v>
   <v>      -0.00032341      -0.00539413       0.00592640 </v>
   <v>       0.00963925       0.00050160       0.00099430 </v>
   <v>      -0.01624296      -0.00031788       0.00935437 </v>
   <v>      -0.01876891      -0.00248833       0.01681573 </v>
   <v>       0.00433512       0.03300108      -0.02926248 </v>
   <v>       0.01526399      -0.00094193      -0.00041698 </v>
   <v>      -0.00663790      -0.01155574       0.02951015 </v>
  </varray>
  <varray name="stress" >
   <v>       8.55009105       0.18067947       0.06106833 </v>
   <v>       0.18067848     -10.62459216       0.14727980 </v>
   <v>       0.06106659       0.14728098      -1.24646607 </v>
  </varray>
  <energy>
   <i name="e_fr_energy">    -49.86387701 </i>
   <i name="e_wo_entrp">    -49.86387701 </i>
   <i name="e_0_energy">     -0.00000000 </i>
  </energy>
  <time name="totalsc">  848.22  855.09</time>
 </calculation>
 <calculation>
  <scstep>
   <time name="dav">   15.74   15.75</time>
   <time name="total">  117.91  117.93</time>
   <energy>
    <i name="alphaZ">     15.92198659 </i>
    <i name="ewald">   1273.08691647 </i>
    <i name="hartreedc">  -2455.28683055 </i>
    <i name="XCdc">   -170.61652385 </i>
    <i name="pawpsdc">   1743.09260684 </i>
    <i name="pawaedc">  -1464.55138430 </i>
    <i name="eentropy">     -0.00000000 </i>
    <i name="bandstr">   -325.23894577 </i>
    <i name="atom">   1333.72818728 </i>
    <i name="e_fr_energy">    -49.86398729 </i>
    <i name="e_wo_entrp">    -49.86398729 </i>
    <i name="e_0_energy">    -49.86398729 </i>
   </energy>
  </scstep>
  <scstep>
   <time name="dav">   18.27   18.28</time>
   <time name="total">  120.39  120.42</time>
   <energy>
    <i name="e_fr_energy">    -49.86407406 </i>
    <i name="e_wo_entrp">    -49.86407406 </i>
    <i name="e_0_energy">    -49.86407406 </i>
   </energy>
  </scstep>
  <scstep>
   <time name="dav">   18.08   18.11</time>
   <time name="total">  119.32  119.41</time>
   <energy>
    <i name="alphaZ">     15.92198659 </i>
    <i name="ewald">   1273.08691647 </i>
    <i name="hartreedc">  -2455.28504178 </i>
    <i name="XCdc">   -170.61550719 </i>
    <i name="pawpsdc">   1743.09170509 </i>
    <i name="pawaedc">  -1464.55044502 </i>
    <i name="eentropy">     -0.00000000 </i>
    <i name="bandstr">   -325.24187728 </i>
    <i name="atom">   1333.72818728 </i>
    <i name="e_fr_energy">    -49.86407583 </i>
    <i name="e_wo_entrp">    -49.86407583 </i>
    <i name="e_0_energy">    -49.86407583 </i>
   </energy>
  </scstep>
  <structure>
   <crystal>
    <varray name="basis" >
     <v>       6.01920000       0.00000000       0.00000000 </v>
     <v>       0.00000000      10.14000000       0.00000000 </v>
     <v>       0.00000000       0.00000000      15.00000000 </v>
    </varray>
    <i name="volume">    915.52032000 </i>
    <varray name="rec_basis" >
     <v>       0.16613503       0.00000000       0.00000000 </v>
     <v>       0.00000000       0.09861933       0.00000000 </v>
     <v>       0.00000000       0.00000000       0.06666667 </v>
    </varray>
   </crystal>
   <varray name="positions" >
    <v>       0.44153400       0.87958327       0.22199804 </v>
    <v>       0.94161278       0.87981360       0.27302020 </v>
    <v>       0.44205604       0.61652595       0.22465813 </v>
    <v>       0.94243026       0.61778733       0.27725066 </v>
    <v>       0.44022422       0.37886891       0.27947978 </v>
    <v>       0.94146153       0.38052545       0.22485990 </v>
    <v>       0.44043836       0.11784895       0.27193787 </v>
    <v>       0.94086994       0.11759143       0.22178119 </v>
    <v>       0.19095820      -0.00153083       0.24613465 </v>
    <v>       0.69124827      -0.00140254       0.24755725 </v>
    <v>       0.19185377       0.49873043       0.25112171 </v>
    <v>       0.69169158       0.49866430       0.25366014 </v>
    <v>       0.54983733       0.43590434       0.47879320 </v>
    <v>       0.75509559       0.35366068       0.47890311 </v>
    <v>       0.45945898       0.35932222       0.55648418 </v>
   </varray>
  </structure>
  <varray name="forces" >
   <v>       0.00597448      -0.01357584       0.00879423 </v>
   <v>      -0.01131520       0.05457534      -0.00101056 </v>
   <v>       0.01412583      -0.02546618      -0.00600330 </v>
   <v>       0.00432843      -0.00710040      -0.01397859 </v>
   <v>      -0.00202491       0.00738082      -0.00983260 </v>
   <v>       0.00212797       0.02541069       0.00073927 </v>
   <v>       0.00900105      -0.00137267      -0.00764658 </v>
   <v>      -0.00712414      -0.03176591       0.00257787 </v>
   <v>       0.00516997      -0.01079788       0.00717911 </v>
   <v>       0.00014609      -0.00368412       0.00177483 </v>
   <v>      -0.01507997      -0.00524568       0.00629524 </v>
   <v>      -0.01682262      -0.00809954       0.01338343 </v>
   <v>       0.00729292       0.02496761      -0.02284674 </v>
   <v>       0.00871263       0.00291144      -0.00007456 </v>
   <v>      -0.00451254      -0.00813769       0.02064895 </v>
  </varray>
  <varray name="stress" >
   <v>       8.54803553       0.17597304       0.06922934 </v>
   <v>       0.17597214     -10.60629407       0.17905118 </v>
   <v>       0.06922761       0.17905222      -1.26259596 </v>
  </varray>
  <energy>
   <i name="e_fr_energy">    -49.86407583 </i>
   <i name="e_wo_entrp">    -49.86407583 </i>
   <i name="e_0_energy">     -0.00000000 </i>
  </energy>
  <time name="totalsc">  586.04  587.69</time>
 </calculation>
 <calculation>
  <scstep>
   <time name="dav">   16.39   16.43</time>
   <time name="total">  118.83  118.97</time>
   <energy>
    <i name="alphaZ">     15.92198659 </i>
    <i name="ewald">   1273.28521818 </i>
    <i name="hartreedc">  -2455.48033674 </i>
    <i name="XCdc">   -170.61999997 </i>
    <i name="pawpsdc">   1743.09523114 </i>
    <i name="pawaedc">  -1464.55372226 </i>
    <i name="eentropy">     -0.00000000 </i>
    <i name="bandstr">   -325.24042749 </i>
    <i name="atom">   1333.72818728 </i>
    <i name="e_fr_energy">    -49.86386326 </i>
    <i name="e_wo_entrp">    -49.86386326 </i>
    <i name="e_0_energy">    -49.86386326 </i>
   </energy>
  </scstep>
  <scstep>
   <time name="dav">   20.34   20.35</time>
   <time name="total">  127.18  127.59</time>
   <energy>
    <i name="e_fr_energy">    -49.86429645 </i>
    <i name="e_wo_entrp">    -49.86429645 </i>
    <i name="e_0_energy">    -49.86429645 </i>
   </energy>
  </scstep>
  <scstep>
   <time name="dav">   18.65   18.75</time>
   <time name="total">  125.04  125.38</time>
   <energy>
    <i name="e_fr_energy">    -49.86430670 </i>
    <i name="e_wo_entrp">    -49.86430670 </i>
    <i name="e_0_energy">    -49.86430670 </i>
   </energy>
  </scstep>
  <scstep>
   <time name="dav">   15.63   15.71</time>
   <time name="total">  121.96  122.20</time>
   <energy>
    <i name="e_fr_energy">    -49.86433181 </i>
    <i name="e_wo_entrp">    -49.86433181 </i>
    <i name="e_0_energy">    -49.86433181 </i>
   </energy>
  </scstep>
  <scstep>
   <time name="dav">   15.49   15.57</time>
   <time name="total">  120.46  120.82</time>
   <energy>
    <i name="alphaZ">     15.92198659 </i>
    <i name="ewald">   1273.28521818 </i>
    <i name="hartreedc">  -2455.46006136 </i>
    <i name="XCdc">   -170.61716037 </i>
    <i name="pawpsdc">   1743.04560345 </i>
    <i name="pawaedc">  -1464.50275399 </i>
    <i name="eentropy">     -0.00000000 </i>
    <i name="bandstr">   -325.26535147 </i>
    <i name="atom">   1333.72818728 </i>
    <i name="e_fr_energy">    -49.86433169 </i>
    <i name="e_wo_entrp">    -49.86433169 </i>
    <i name="e_0_energy">    -49.86433169 </i>
   </energy>
  </scstep>
  <structure>
   <crystal>
    <varray name="basis" >
     <v>       6.01920000       0.00000000       0.00000000 </v>
     <v>       0.00000000      10.14000000       0.00000000 </v>
     <v>       0.00000000       0.00000000      15.00000000 </v>
    </varray>
    <i name="volume">    915.52032000 </i>
    <varray name="rec_basis" >
     <v>       0.16613503       0.00000000       0.00000000 </v>
     <v>       0.00000000       0.09861933       0.00000000 </v>
     <v>       0.00000000       0.00000000       0.06666667 </v>
    </varray>
   </crystal>
   <varray name="positions" >
    <v>       0.44136978       0.87940939       0.22205624 </v>
    <v>       0.94138749       0.87963231       0.27308511 </v>
    <v>       0.44185814       0.61630113       0.22456437 </v>
    <v>       0.94230731       0.61754437       0.27713758 </v>
    <v>       0.43999951       0.37854958       0.27938915 </v>
    <v>       0.94138361       0.38055449       0.22480361 </v>
    <v>       0.44034821       0.11754293       0.27196171 </v>
    <v>       0.94069726       0.11752882       0.22175717 </v>
    <v>       0.19067369      -0.00165818       0.24610081 </v>
    <v>       0.69124477      -0.00154628       0.24761311 </v>
    <v>       0.19173928       0.49859071       0.25120816 </v>
    <v>       0.69141598       0.49852221       0.25362866 </v>
    <v>       0.55028432       0.43642652       0.47867562 </v>
    <v>       0.75562352       0.35410727       0.47883060 </v>
    <v>       0.46043800       0.36038822       0.55682810 </v>
   </varray>
  </structure>
  <varray name="forces" >
   <v>       0.00424754      -0.01319388       0.00318767 </v>
   <v>      -0.00245426       0.05625334      -0.00687736 </v>
   <v>       0.01481302      -0.01801695       0.00113255 </v>
   <v>      -0.00556386       0.01750604      -0.00035068 </v>
   <v>       0.00453890       0.01701452      -0.00630486 </v>
   <v>      -0.00787341      -0.00287234      -0.00270820 </v>
   <v>       0.00160057       0.00979306      -0.00637101 </v>
   <v>      -0.00498609      -0.03685345       0.00463390 </v>
   <v>       0.02407572      -0.01589203       0.01191279 </v>
   <v>      -0.02245717      -0.00715579       0.00024612 </v>
   <v>      -0.01254120      -0.01023518      -0.00455176 </v>
   <v>      -0.00734913      -0.01568155       0.00790752 </v>
   <v>       0.01214792       0.00130071      -0.00543439 </v>
   <v>      -0.00357281       0.01235544      -0.00008969 </v>
   <v>       0.00537425       0.00567807       0.00366741 </v>
  </varray>
  <varray name="stress" >
   <v>       8.52424542       0.13946565       0.09129944 </v>
   <v>       0.13946470     -10.59574028       0.24605331 </v>
   <v>       0.09129769       0.24605447      -1.29697189 </v>
  </varray>
  <energy>
   <i name="e_fr_energy">    -49.86433169 </i>
   <i name="e_wo_entrp">    -49.86433169 </i>
   <i name="e_0_energy">     -0.00000000 </i>
  </energy>
  <time name="totalsc">  850.60  853.25</time>
 </calculation>
 <calculation>
  <scstep>
   <time name="dav">   15.52   15.52</time>
   <time name="total">  116.90  117.14</time>
   <energy>
    <i name="alphaZ">     15.92198659 </i>
    <i name="ewald">   1273.34799186 </i>
    <i name="hartreedc">  -2455.51982853 </i>
    <i name="XCdc">   -170.61865601 </i>
    <i name="pawpsdc">   1743.04167732 </i>
    <i name="pawaedc">  -1464.49873291 </i>
    <i name="eentropy">     -0.00000000 </i>
    <i name="bandstr">   -325.26693076 </i>
    <i name="atom">   1333.72818728 </i>
    <i name="e_fr_energy">    -49.86430515 </i>
    <i name="e_wo_entrp">    -49.86430515 </i>
    <i name="e_0_energy">    -49.86430515 </i>
   </energy>
  </scstep>
  <scstep>
   <time name="dav">   19.95   19.95</time>
   <time name="total">  128.20  128.21</time>
   <energy>
    <i name="e_fr_energy">    -49.86434987 </i>
    <i name="e_wo_entrp">    -49.86434987 </i>
    <i name="e_0_energy">    -49.86434987 </i>
   </energy>
  </scstep>
  <scstep>
   <time name="dav">   15.17   15.17</time>
   <time name="total">  122.16  122.17</time>
   <energy>
    <i name="alphaZ">     15.92198659 </i>
    <i name="ewald">   1273.34799186 </i>
    <i name="hartreedc">  -2455.51882331 </i>
    <i name="XCdc">   -170.61779390 </i>
    <i name="pawpsdc">   1743.04408671 </i>
    <i name="pawaedc">  -1464.50114483 </i>
    <i name="eentropy">     -0.00000000 </i>
    <i name="bandstr">   -325.26884136 </i>
    <i name="atom">   1333.72818728 </i>
    <i name="e_fr_energy">    -49.86435096 </i>
    <i name="e_wo_entrp">    -49.86435096 </i>
    <i name="e_0_energy">    -49.86435096 </i>
   </energy>
  </scstep>
  <structure>
   <crystal>
    <varray name="basis" >
     <v>       6.01920000       0.00000000       0.00000000 </v>
     <v>       0.00000000      10.14000000       0.00000000 </v>
     <v>       0.00000000       0.00000000      15.00000000 </v>
    </varray>
    <i name="volume">    915.52032000 </i>
    <varray name="rec_basis" >
     <v>       0.16613503       0.00000000       0.00000000 </v>
     <v>       0.00000000       0.09861933       0.00000000 </v>
     <v>       0.00000000       0.00000000       0.06666667 </v>
    </varray>
   </crystal>
   <varray name="positions" >
    <v>       0.44131720       0.87935371       0.22207488 </v>
    <v>       0.94131534       0.87957425       0.27310589 </v>
    <v>       0.44179476       0.61622913       0.22453434 </v>
    <v>       0.94226794       0.61746656       0.27710137 </v>
    <v>       0.43992755       0.37844732       0.27936013 </v>
    <v>       0.94135866       0.38056379       0.22478558 </v>
    <v>       0.44031935       0.11744493       0.27196934 </v>
    <v>       0.94064196       0.11750876       0.22174948 </v>
    <v>       0.19058257      -0.00169896       0.24608998 </v>
    <v>       0.69124365      -0.00159232       0.24763100 </v>
    <v>       0.19170261       0.49854597       0.25123585 </v>
    <v>       0.69132773       0.49847671       0.25361858 </v>
    <v>       0.55042746       0.43659374       0.47863797 </v>
    <v>       0.75579259       0.35425029       0.47880737 </v>
    <v>       0.46075152       0.36072960       0.55693824 </v>
   </varray>
  </structure>
  <varray name="forces" >
   <v>       0.00460676      -0.01279488       0.00140230 </v>
   <v>       0.00038071       0.05788404      -0.00869161 </v>
   <v>       0.01524678      -0.01518001       0.00361456 </v>
   <v>      -0.00730467       0.02616938       0.00412909 </v>
   <v>       0.00647786       0.02163059      -0.00561322 </v>
   <v>      -0.00997724      -0.01037193      -0.00335601 </v>
   <v>       0.00026066       0.01523631      -0.00553408 </v>
   <v>      -0.00415153      -0.03738732       0.00533387 </v>
   <v>       0.02724638      -0.02010586       0.01249156 </v>
   <v>      -0.02783699      -0.01100725       0.00185365 </v>
   <v>      -0.01292786      -0.01377371      -0.00597222 </v>
   <v>      -0.00649190      -0.02021290       0.00446393 </v>
   <v>       0.01601286      -0.00322665      -0.00130275 </v>
   <v>      -0.00812405       0.01521170      -0.00005065 </v>
   <v>       0.00658224       0.00792847      -0.00276844 </v>
  </varray>
  <varray name="stress" >
   <v>       8.51847902       0.13344784       0.09627169 </v>
   <v>       0.13344695     -10.58444237       0.26966397 </v>
   <v>       0.09626992       0.26966514      -1.30629013 </v>
  </varray>
  <energy>
   <i name="e_fr_energy">    -49.86435096 </i>
   <i name="e_wo_entrp">    -49.86435096 </i>
   <i name="e_0_energy">     -0.00000000 </i>
  </energy>
  <time name="totalsc">  599.34  600.65</time>
 </calculation>
 <calculation>
  <scstep>
   <time name="dav">   16.94   16.95</time>
   <time name="total">  125.06  125.10</time>
   <energy>
    <i name="alphaZ">     15.92198659 </i>
    <i name="ewald">   1273.60545381 </i>
    <i name="hartreedc">  -2455.71566216 </i>
    <i name="XCdc">   -170.61530249 </i>
    <i name="pawpsdc">   1743.04765312 </i>
    <i name="pawaedc">  -1464.50456397 </i>
    <i name="eentropy">     -0.00000000 </i>
    <i name="bandstr">   -325.33230361 </i>
    <i name="atom">   1333.72818728 </i>
    <i name="e_fr_energy">    -49.86455141 </i>
    <i name="e_wo_entrp">    -49.86455141 </i>
    <i name="e_0_energy">    -49.86455141 </i>
   </energy>
  </scstep>
  <scstep>
   <time name="dav">   18.28   18.28</time>
   <time name="total">  123.41  123.45</time>
   <energy>
    <i name="e_fr_energy">    -49.86464927 </i>
    <i name="e_wo_entrp">    -49.86464927 </i>
    <i name="e_0_energy">    -49.86464927 </i>
   </energy>
  </scstep>
  <scstep>
   <time name="dav">   18.27   18.33</time>
   <time name="total">  124.40  124.46</time>
   <energy>
    <i name="alphaZ">     15.92198659 </i>
    <i name="ewald">   1273.60545381 </i>
    <i name="hartreedc">  -2455.73641367 </i>
    <i name="XCdc">   -170.61286252 </i>
    <i name="pawpsdc">   1743.27191261 </i>
    <i name="pawaedc">  -1464.72959938 </i>
    <i name="eentropy">     -0.00000000 </i>
    <i name="bandstr">   -325.31331057 </i>
    <i name="atom">   1333.72818728 </i>
    <i name="e_fr_energy">    -49.86464584 </i>
    <i name="e_wo_entrp">    -49.86464584 </i>
    <i name="e_0_energy">    -49.86464584 </i>
   </energy>
  </scstep>
  <structure>
   <crystal>
    <varray name="basis" >
     <v>       6.01920000       0.00000000       0.00000000 </v>
     <v>       0.00000000      10.14000000       0.00000000 </v>
     <v>       0.00000000       0.00000000      15.00000000 </v>
    </varray>
    <i name="volume">    915.52032000 </i>
    <varray name="rec_basis" >
     <v>       0.16613503       0.00000000       0.00000000 </v>
     <v>       0.00000000       0.09861933       0.00000000 </v>
     <v>       0.00000000       0.00000000       0.06666667 </v>
    </varray>
   </crystal>
   <varray name="positions" >
    <v>       0.44127655       0.87924298       0.22210120 </v>
    <v>       0.94122734       0.87968824       0.27311291 </v>
    <v>       0.44179838       0.61609036       0.22450473 </v>
    <v>       0.94217915       0.61745373       0.27706516 </v>
    <v>       0.43987287       0.37838934       0.27931168 </v>
    <v>       0.94127337       0.38054199       0.22475577 </v>
    <v>       0.44028472       0.11737168       0.27196682 </v>
    <v>       0.94055039       0.11736330       0.22175149 </v>
    <v>       0.19061669      -0.00181464       0.24610365 </v>
    <v>       0.69109119      -0.00168524       0.24765737 </v>
    <v>       0.19158669       0.49844574       0.25125740 </v>
    <v>       0.69118232       0.49835480       0.25361572 </v>
    <v>       0.55069305       0.43679210       0.47858813 </v>
    <v>       0.75595955       0.35447782       0.47877827 </v>
    <v>       0.46117862       0.36118129       0.55706970 </v>
   </varray>
  </structure>
  <varray name="forces" >
   <v>       0.00346373      -0.01837514       0.00013582 </v>
   <v>       0.00278064       0.02586246      -0.00248638 </v>
   <v>       0.00635495      -0.00749223       0.00346174 </v>
   <v>      -0.00950037       0.02586010       0.00537216 </v>
   <v>       0.00141879       0.01083104      -0.00062722 </v>
   <v>      -0.01078952      -0.02196554      -0.00271482 </v>
   <v>      -0.00340182       0.01880283      -0.00532976 </v>
   <v>      -0.00044419      -0.02046996       0.00110713 </v>
   <v>       0.01862596      -0.00906813       0.01179248 </v>
   <v>      -0.01994934      -0.00315255      -0.00044984 </v>
   <v>      -0.01030090      -0.00503479      -0.00950207 </v>
   <v>       0.00929857      -0.01101677       0.00286209 </v>
   <v>       0.00126081      -0.00350942       0.00519624 </v>
   <v>       0.00140931       0.00772487       0.00035345 </v>
   <v>       0.00977339       0.01100323      -0.00917103 </v>
  </varray>
  <varray name="stress" >
   <v>       8.56314141       0.10088316       0.10575599 </v>
   <v>       0.10088230     -10.49909795       0.24419832 </v>
   <v>       0.10575417       0.24419958      -1.30079946 </v>
  </varray>
  <energy>
   <i name="e_fr_energy">    -49.86464584 </i>
   <i name="e_wo_entrp">    -49.86464584 </i>
   <i name="e_0_energy">     -0.00000000 </i>
  </energy>
  <time name="totalsc">  608.95  610.42</time>
 </calculation>
 <calculation>
  <scstep>
   <time name="dav">   15.20   15.29</time>
   <time name="total">  121.14  121.37</time>
   <energy>
    <i name="alphaZ">     15.92198659 </i>
    <i name="ewald">   1273.92784832 </i>
    <i name="hartreedc">  -2455.98709955 </i>
    <i name="XCdc">   -170.60949615 </i>
    <i name="pawpsdc">   1743.34779667 </i>
    <i name="pawaedc">  -1464.80553791 </i>
    <i name="eentropy">     -0.00000000 </i>
    <i name="bandstr">   -325.38835223 </i>
    <i name="atom">   1333.72818728 </i>
    <i name="e_fr_energy">    -49.86466697 </i>
    <i name="e_wo_entrp">    -49.86466697 </i>
    <i name="e_0_energy">    -49.86466697 </i>
   </energy>
  </scstep>
  <scstep>
   <time name="dav">   20.93   21.05</time>
   <time name="total">  124.36  124.80</time>
   <energy>
    <i name="e_fr_energy">    -49.86482046 </i>
    <i name="e_wo_entrp">    -49.86482046 </i>
    <i name="e_0_energy">    -49.86482046 </i>
   </energy>
  </scstep>
  <scstep>
   <time name="dav">   20.71   20.71</time>
   <time name="total">  127.94  127.97</time>
   <energy>
    <i name="alphaZ">     15.92198659 </i>
    <i name="ewald">   1273.92784832 </i>
    <i name="hartreedc">  -2456.01115935 </i>
    <i name="XCdc">   -170.60648768 </i>
    <i name="pawpsdc">   1743.63878513 </i>
    <i name="pawaedc">  -1465.09748959 </i>
    <i name="eentropy">     -0.00000000 </i>
    <i name="bandstr">   -325.36648792 </i>
    <i name="atom">   1333.72818728 </i>
    <i name="e_fr_energy">    -49.86481720 </i>
    <i name="e_wo_entrp">    -49.86481720 </i>
    <i name="e_0_energy">    -49.86481720 </i>
   </energy>
  </scstep>
  <structure>
   <crystal>
    <varray name="basis" >
     <v>       6.01920000       0.00000000       0.00000000 </v>
     <v>       0.00000000      10.14000000       0.00000000 </v>
     <v>       0.00000000       0.00000000      15.00000000 </v>
    </varray>
    <i name="volume">    915.52032000 </i>
    <varray name="rec_basis" >
     <v>       0.16613503       0.00000000       0.00000000 </v>
     <v>       0.00000000       0.09861933       0.00000000 </v>
     <v>       0.00000000       0.00000000       0.06666667 </v>
    </varray>
   </crystal>
   <varray name="positions" >
    <v>       0.44122558       0.87910417       0.22213419 </v>
    <v>       0.94111702       0.87983114       0.27312172 </v>
    <v>       0.44180293       0.61591638       0.22446761 </v>
    <v>       0.94206783       0.61743764       0.27701976 </v>
    <v>       0.43980431       0.37831665       0.27925093 </v>
    <v>       0.94116644       0.38051465       0.22471839 </v>
    <v>       0.44024131       0.11727984       0.27196366 </v>
    <v>       0.94043560       0.11718093       0.22175401 </v>
    <v>       0.19065945      -0.00195966       0.24612080 </v>
    <v>       0.69090005      -0.00180173       0.24769043 </v>
    <v>       0.19144136       0.49832009       0.25128443 </v>
    <v>       0.69100003       0.49820197       0.25361213 </v>
    <v>       0.55102600       0.43704078       0.47852564 </v>
    <v>       0.75616887       0.35476308       0.47874179 </v>
    <v>       0.46171407       0.36174757       0.55723451 </v>
   </varray>
  </structure>
  <varray name="forces" >
   <v>       0.00213875      -0.02648971      -0.00150968 </v>
   <v>       0.00533693      -0.01513104       0.00547605 </v>
   <v>      -0.00534492       0.00212100       0.00340228 </v>
   <v>      -0.01212789       0.02458890       0.00702688 </v>
   <v>      -0.00578779      -0.00229116       0.00555622 </v>
   <v>      -0.01168172      -0.03616702      -0.00148212 </v>
   <v>      -0.00785489       0.02447575      -0.00448285 </v>
   <v>       0.00426769       0.00071583      -0.00408778 </v>
   <v>       0.00673478       0.00316955       0.00985615 </v>
   <v>      -0.00921237       0.00489641      -0.00262403 </v>
   <v>      -0.00735283       0.00501627      -0.01393116 </v>
   <v>       0.02908775       0.00032803       0.00049846 </v>
   <v>      -0.01557562       0.00163115       0.01243875 </v>
   <v>       0.01378929      -0.00164960       0.00098097 </v>
   <v>       0.01358282       0.01478564      -0.01711816 </v>
  </varray>
  <varray name="stress" >
   <v>       8.61721921       0.06599418       0.11234388 </v>
   <v>       0.06599355     -10.39517316       0.20752449 </v>
   <v>       0.11234200       0.20752587      -1.30457002 </v>
  </varray>
  <energy>
   <i name="e_fr_energy">    -49.86481720 </i>
   <i name="e_wo_entrp">    -49.86481720 </i>
   <i name="e_0_energy">     -0.00000000 </i>
  </energy>
  <time name="totalsc">  607.86  609.37</time>
 </calculation>
 <calculation>
  <scstep>
   <time name="dav">   16.80   16.96</time>
   <time name="total">  124.23  124.68</time>
   <energy>
    <i name="alphaZ">     15.92198659 </i>
    <i name="ewald">   1273.75945729 </i>
    <i name="hartreedc">  -2455.89165880 </i>
    <i name="XCdc">   -170.60964544 </i>
    <i name="pawpsdc">   1743.73775090 </i>
    <i name="pawaedc">  -1465.19650777 </i>
    <i name="eentropy">     -0.00000000 </i>
    <i name="bandstr">   -325.31456994 </i>
    <i name="atom">   1333.72818728 </i>
    <i name="e_fr_energy">    -49.86499988 </i>
    <i name="e_wo_entrp">    -49.86499988 </i>
    <i name="e_0_energy">    -49.86499988 </i>
   </energy>
  </scstep>
  <scstep>
   <time name="dav">   23.21   23.26</time>
   <time name="total">  128.51  128.87</time>
   <energy>
    <i name="e_fr_energy">    -49.86504175 </i>
    <i name="e_wo_entrp">    -49.86504175 </i>
    <i name="e_0_energy">    -49.86504175 </i>
   </energy>
  </scstep>
  <scstep>
   <time name="dav">   15.36   15.39</time>
   <time name="total">  128.20  128.39</time>
   <energy>
    <i name="alphaZ">     15.92198659 </i>
    <i name="ewald">   1273.75945729 </i>
    <i name="hartreedc">  -2455.85535448 </i>
    <i name="XCdc">   -170.61090666 </i>
    <i name="pawpsdc">   1743.51052201 </i>
    <i name="pawaedc">  -1464.96865549 </i>
    <i name="eentropy">     -0.00000000 </i>
    <i name="bandstr">   -325.35027987 </i>
    <i name="atom">   1333.72818728 </i>
    <i name="e_fr_energy">    -49.86504333 </i>
    <i name="e_wo_entrp">    -49.86504333 </i>
    <i name="e_0_energy">    -49.86504333 </i>
   </energy>
  </scstep>
  <structure>
   <crystal>
    <varray name="basis" >
     <v>       6.01920000       0.00000000       0.00000000 </v>
     <v>       0.00000000      10.14000000       0.00000000 </v>
     <v>       0.00000000       0.00000000      15.00000000 </v>
    </varray>
    <i name="volume">    915.52032000 </i>
    <varray name="rec_basis" >
     <v>       0.16613503       0.00000000       0.00000000 </v>
     <v>       0.00000000       0.09861933       0.00000000 </v>
     <v>       0.00000000       0.00000000       0.06666667 </v>
    </varray>
   </crystal>
   <varray name="positions" >
    <v>       0.44121362       0.87892533       0.22214722 </v>
    <v>       0.94109592       0.87984442       0.27314120 </v>
    <v>       0.44176901       0.61583454       0.22445759 </v>
    <v>       0.94192769       0.61752835       0.27701531 </v>
    <v>       0.43972942       0.37826965       0.27923451 </v>
    <v>       0.94103160       0.38035474       0.22469494 </v>
    <v>       0.44016545       0.11733074       0.27194981 </v>
    <v>       0.94040493       0.11708908       0.22174419 </v>
    <v>       0.19072738      -0.00202223       0.24615655 </v>
    <v>       0.69073823      -0.00184252       0.24770046 </v>
    <v>       0.19131595       0.49827502       0.25126053 </v>
    <v>       0.69110275       0.49812389       0.25361162 </v>
    <v>       0.55109327       0.43717654       0.47852706 </v>
    <v>       0.75637120       0.35490462       0.47872551 </v>
    <v>       0.46208443       0.36210133       0.55727351 </v>
   </varray>
  </structure>
  <varray name="forces" >
   <v>       0.00094773      -0.00722122       0.00305428 </v>
   <v>       0.00167764      -0.01451538       0.00638062 </v>
   <v>      -0.00526387      -0.00664021       0.00367571 </v>
   <v>      -0.00347711      -0.00041596       0.00104461 </v>
   <v>      -0.00571938       0.00655736       0.00513826 </v>
   <v>      -0.00226007      -0.01634507       0.00353844 </v>
   <v>      -0.00611589       0.00710660      -0.00719350 </v>
   <v>       0.00306933      -0.00281922      -0.00436184 </v>
   <v>      -0.00410851       0.00363943       0.00739666 </v>
   <v>       0.00484792       0.00424705      -0.00402803 </v>
   <v>      -0.00430850       0.00655401      -0.01402156 </v>
   <v>       0.00719185       0.00325283       0.00016410 </v>
   <v>       0.00231719       0.00628332      -0.00290016 </v>
   <v>       0.00459876       0.00576157       0.00100232 </v>
   <v>       0.00660292       0.00455489       0.00111012 </v>
  </varray>
  <varray name="stress" >
   <v>       8.57123733       0.09528651       0.09694299 </v>
   <v>       0.09528560     -10.47461604       0.14198607 </v>
   <v>       0.09694124       0.14198740      -1.28562999 </v>
  </varray>
  <energy>
   <i name="e_fr_energy">    -49.86504333 </i>
   <i name="e_wo_entrp">    -49.86504333 </i>
   <i name="e_0_energy">     -0.00000000 </i>
  </energy>
  <time name="totalsc">  616.72  619.01</time>
 </calculation>
 <calculation>
  <scstep>
   <time name="dav">   13.64   13.65</time>
   <time name="total">  122.51  122.53</time>
   <energy>
    <i name="alphaZ">     15.92198659 </i>
    <i name="ewald">   1273.65072511 </i>
    <i name="hartreedc">  -2455.77711770 </i>
    <i name="XCdc">   -170.61323388 </i>
    <i name="pawpsdc">   1743.46212665 </i>
    <i name="pawaedc">  -1464.92029096 </i>
    <i name="eentropy">     -0.00000000 </i>
    <i name="bandstr">   -325.31745106 </i>
    <i name="atom">   1333.72818728 </i>
    <i name="e_fr_energy">    -49.86506797 </i>
    <i name="e_wo_entrp">    -49.86506797 </i>
    <i name="e_0_energy">    -49.86506797 </i>
   </energy>
  </scstep>
  <scstep>
   <time name="dav">   18.99   19.00</time>
   <time name="total">  122.33  122.38</time>
   <energy>
    <i name="e_fr_energy">    -49.86508617 </i>
    <i name="e_wo_entrp">    -49.86508617 </i>
    <i name="e_0_energy">    -49.86508617 </i>
   </energy>
  </scstep>
  <scstep>
   <time name="dav">   14.02   14.02</time>
   <time name="total">  115.72  115.79</time>
   <energy>
    <i name="alphaZ">     15.92198659 </i>
    <i name="ewald">   1273.65072511 </i>
    <i name="hartreedc">  -2455.76819576 </i>
    <i name="XCdc">   -170.61334389 </i>
    <i name="pawpsdc">   1743.33332055 </i>
    <i name="pawaedc">  -1464.79129453 </i>
    <i name="eentropy">     -0.00000000 </i>
    <i name="bandstr">   -325.32647257 </i>
    <i name="atom">   1333.72818728 </i>
    <i name="e_fr_energy">    -49.86508721 </i>
    <i name="e_wo_entrp">    -49.86508721 </i>
    <i name="e_0_energy">    -49.86508721 </i>
   </energy>
  </scstep>
  <structure>
   <crystal>
    <varray name="basis" >
     <v>       6.01920000       0.00000000       0.00000000 </v>
     <v>       0.00000000      10.14000000       0.00000000 </v>
     <v>       0.00000000       0.00000000      15.00000000 </v>
    </varray>
    <i name="volume">    915.52032000 </i>
    <varray name="rec_basis" >
     <v>       0.16613503       0.00000000       0.00000000 </v>
     <v>       0.00000000       0.09861933       0.00000000 </v>
     <v>       0.00000000       0.00000000       0.06666667 </v>
    </varray>
   </crystal>
   <varray name="positions" >
    <v>       0.44120590       0.87880986       0.22215564 </v>
    <v>       0.94108230       0.87985299       0.27315379 </v>
    <v>       0.44174711       0.61578170       0.22445112 </v>
    <v>       0.94183720       0.61758692       0.27701243 </v>
    <v>       0.43968106       0.37823931       0.27922390 </v>
    <v>       0.94094454       0.38025149       0.22467979 </v>
    <v>       0.44011647       0.11736360       0.27194087 </v>
    <v>       0.94038513       0.11702977       0.22173785 </v>
    <v>       0.19077124      -0.00206263       0.24617963 </v>
    <v>       0.69063375      -0.00186886       0.24770693 </v>
    <v>       0.19123498       0.49824592       0.25124509 </v>
    <v>       0.69116908       0.49807348       0.25361129 </v>
    <v>       0.55113670       0.43726420       0.47852797 </v>
    <v>       0.75650185       0.35499602       0.47871500 </v>
    <v>       0.46232357       0.36232974       0.55729869 </v>
   </varray>
  </structure>
  <varray name="forces" >
   <v>       0.00036858       0.00579918       0.00626953 </v>
   <v>      -0.00061221      -0.01377321       0.00710788 </v>
   <v>      -0.00427583      -0.01194659       0.00389586 </v>
   <v>       0.00284020      -0.01592539      -0.00254416 </v>
   <v>      -0.00520387       0.01283325       0.00486527 </v>
   <v>       0.00465496      -0.00347936       0.00678427 </v>
   <v>      -0.00457867      -0.00405670      -0.00888495 </v>
   <v>       0.00254961      -0.00437228      -0.00452705 </v>
   <v>      -0.01117094       0.00359571       0.00588538 </v>
   <v>       0.01223270       0.00302436      -0.00457232 </v>
   <v>      -0.00361092       0.00648244      -0.01434544 </v>
   <v>      -0.00758631       0.00435761      -0.00017882 </v>
   <v>       0.01443562       0.00915243      -0.01432207 </v>
   <v>      -0.00180304       0.01092484       0.00117929 </v>
   <v>       0.00176012      -0.00261631       0.01338734 </v>
  </varray>
  <varray name="stress" >
   <v>       8.54156294       0.12049820       0.08437843 </v>
   <v>       0.12049723     -10.53420837       0.09888984 </v>
   <v>       0.08437665       0.09889112      -1.27121530 </v>
  </varray>
  <energy>
   <i name="e_fr_energy">    -49.86508721 </i>
   <i name="e_wo_entrp">    -49.86508721 </i>
   <i name="e_0_energy">     -0.00000000 </i>
  </energy>
  <time name="totalsc">  587.33  588.33</time>
 </calculation>
 <calculation>
  <scstep>
   <time name="dav">   15.63   15.64</time>
   <time name="total">  117.56  117.63</time>
   <energy>
    <i name="alphaZ">     15.92198659 </i>
    <i name="ewald">   1273.72956574 </i>
    <i name="hartreedc">  -2455.85081844 </i>
    <i name="XCdc">   -170.61473396 </i>
    <i name="pawpsdc">   1743.28213069 </i>
    <i name="pawaedc">  -1464.74008362 </i>
    <i name="eentropy">     -0.00000000 </i>
    <i name="bandstr">   -325.32139565 </i>
    <i name="atom">   1333.72818728 </i>
    <i name="e_fr_energy">    -49.86516136 </i>
    <i name="e_wo_entrp">    -49.86516136 </i>
    <i name="e_0_energy">    -49.86516136 </i>
   </energy>
  </scstep>
  <scstep>
   <time name="dav">   20.61   20.66</time>
   <time name="total">  122.27  122.43</time>
   <energy>
    <i name="e_fr_energy">    -49.86519177 </i>
    <i name="e_wo_entrp">    -49.86519177 </i>
    <i name="e_0_energy">    -49.86519177 </i>
   </energy>
  </scstep>
  <scstep>
   <time name="dav">   13.65   13.65</time>
   <time name="total">  115.71  115.72</time>
   <energy>
    <i name="alphaZ">     15.92198659 </i>
    <i name="ewald">   1273.72956574 </i>
    <i name="hartreedc">  -2455.85009708 </i>
    <i name="XCdc">   -170.61409382 </i>
    <i name="pawpsdc">   1743.24937826 </i>
    <i name="pawaedc">  -1464.70720506 </i>
    <i name="eentropy">     -0.00000000 </i>
    <i name="bandstr">   -325.32291321 </i>
    <i name="atom">   1333.72818728 </i>
    <i name="e_fr_energy">    -49.86519129 </i>
    <i name="e_wo_entrp">    -49.86519129 </i>
    <i name="e_0_energy">    -49.86519129 </i>
   </energy>
  </scstep>
  <structure>
   <crystal>
    <varray name="basis" >
     <v>       6.01920000       0.00000000       0.00000000 </v>
     <v>       0.00000000      10.14000000       0.00000000 </v>
     <v>       0.00000000       0.00000000      15.00000000 </v>
    </varray>
    <i name="volume">    915.52032000 </i>
    <varray name="rec_basis" >
     <v>       0.16613503       0.00000000       0.00000000 </v>
     <v>       0.00000000       0.09861933       0.00000000 </v>
     <v>       0.00000000       0.00000000       0.06666667 </v>
    </varray>
   </crystal>
   <varray name="positions" >
    <v>       0.44120132       0.87872556       0.22218298 </v>
    <v>       0.94106456       0.87979855       0.27318770 </v>
    <v>       0.44169335       0.61567670       0.22445690 </v>
    <v>       0.94177224       0.61757061       0.27700186 </v>
    <v>       0.43959483       0.37826861       0.27922870 </v>
    <v>       0.94089677       0.38013670       0.22468614 </v>
    <v>       0.44003443       0.11737665       0.27190497 </v>
    <v>       0.94038569       0.11695303       0.22171785 </v>
    <v>       0.19072767      -0.00208500       0.24621985 </v>
    <v>       0.69062734      -0.00188035       0.24769908 </v>
    <v>       0.19112969       0.49824752       0.25118619 </v>
    <v>       0.69117451       0.49804498       0.25361043 </v>
    <v>       0.55128896       0.43738986       0.47848481 </v>
    <v>       0.75661325       0.35513332       0.47870855 </v>
    <v>       0.46256627       0.36253678       0.55736399 </v>
   </varray>
  </structure>
  <varray name="forces" >
   <v>      -0.00078446       0.01312589       0.00839684 </v>
   <v>      -0.00262248      -0.00804313       0.00627439 </v>
   <v>      -0.00228612      -0.00055458       0.00018812 </v>
   <v>       0.00427800      -0.01924975      -0.00391202 </v>
   <v>      -0.00456237       0.00593485       0.00498638 </v>
   <v>       0.00554284       0.00604453       0.00742493 </v>
   <v>      -0.00017340      -0.00857509      -0.00741731 </v>
   <v>       0.00074554      -0.00306434      -0.00318782 </v>
   <v>      -0.00645465      -0.00295228       0.00454966 </v>
   <v>       0.00729040      -0.00076794      -0.00489044 </v>
   <v>      -0.00214992       0.00023667      -0.01282219 </v>
   <v>      -0.01303205       0.00018308       0.00136867 </v>
   <v>       0.00751643       0.00704412      -0.00704800 </v>
   <v>       0.00215089       0.00789477       0.00067333 </v>
   <v>       0.00454134       0.00274321       0.00541545 </v>
  </varray>
  <varray name="stress" >
   <v>       8.54337656       0.12525165       0.09032408 </v>
   <v>       0.12525067     -10.54527624       0.08231428 </v>
   <v>       0.09032234       0.08231564      -1.28465775 </v>
  </varray>
  <energy>
   <i name="e_fr_energy">    -49.86519129 </i>
   <i name="e_wo_entrp">    -49.86519129 </i>
   <i name="e_0_energy">     -0.00000000 </i>
  </energy>
  <time name="totalsc">  586.08  587.11</time>
 </calculation>
 <calculation>
  <scstep>
   <time name="dav">   15.13   15.14</time>
   <time name="total">  120.08  120.10</time>
   <energy>
    <i name="alphaZ">     15.92198659 </i>
    <i name="ewald">   1273.84864426 </i>
    <i name="hartreedc">  -2455.97813532 </i>
    <i name="XCdc">   -170.61590296 </i>
    <i name="pawpsdc">   1743.23642992 </i>
    <i name="pawaedc">  -1464.69412790 </i>
    <i name="eentropy">     -0.00000000 </i>
    <i name="bandstr">   -325.31225616 </i>
    <i name="atom">   1333.72818728 </i>
    <i name="e_fr_energy">    -49.86517428 </i>
    <i name="e_wo_entrp">    -49.86517428 </i>
    <i name="e_0_energy">    -49.86517428 </i>
   </energy>
  </scstep>
  <scstep>
   <time name="dav">   19.16   19.17</time>
   <time name="total">  120.69  120.75</time>
   <energy>
    <i name="e_fr_energy">    -49.86524303 </i>
    <i name="e_wo_entrp">    -49.86524303 </i>
    <i name="e_0_energy">    -49.86524303 </i>
   </energy>
  </scstep>
  <scstep>
   <time name="dav">   17.60   17.61</time>
   <time name="total">  121.63  121.64</time>
   <energy>
    <i name="alphaZ">     15.92198659 </i>
    <i name="ewald">   1273.84864426 </i>
    <i name="hartreedc">  -2455.96636386 </i>
    <i name="XCdc">   -170.61549698 </i>
    <i name="pawpsdc">   1743.17058827 </i>
    <i name="pawaedc">  -1464.62799941 </i>
    <i name="eentropy">     -0.00000000 </i>
    <i name="bandstr">   -325.32478924 </i>
    <i name="atom">   1333.72818728 </i>
    <i name="e_fr_energy">    -49.86524308 </i>
    <i name="e_wo_entrp">    -49.86524308 </i>
    <i name="e_0_energy">    -49.86524308 </i>
   </energy>
  </scstep>
  <structure>
   <crystal>
    <varray name="basis" >
     <v>       6.01920000       0.00000000       0.00000000 </v>
     <v>       0.00000000      10.14000000       0.00000000 </v>
     <v>       0.00000000       0.00000000      15.00000000 </v>
    </varray>
    <i name="volume">    915.52032000 </i>
    <varray name="rec_basis" >
     <v>       0.16613503       0.00000000       0.00000000 </v>
     <v>       0.00000000       0.09861933       0.00000000 </v>
     <v>       0.00000000       0.00000000       0.06666667 </v>
    </varray>
   </crystal>
   <varray name="positions" >
    <v>       0.44119439       0.87859778       0.22222443 </v>
    <v>       0.94103766       0.87971603       0.27323912 </v>
    <v>       0.44161187       0.61551755       0.22446566 </v>
    <v>       0.94167377       0.61754588       0.27698583 </v>
    <v>       0.43946412       0.37831302       0.27923597 </v>
    <v>       0.94082435       0.37996269       0.22469576 </v>
    <v>       0.43991008       0.11739642       0.27185056 </v>
    <v>       0.94038653       0.11683671       0.22168753 </v>
    <v>       0.19066163      -0.00211890       0.24628082 </v>
    <v>       0.69061764      -0.00189777       0.24768717 </v>
    <v>       0.19097010       0.49824995       0.25109689 </v>
    <v>       0.69118275       0.49800178       0.25360912 </v>
    <v>       0.55151974       0.43758033       0.47841937 </v>
    <v>       0.75678211       0.35534144       0.47869877 </v>
    <v>       0.46293415       0.36285060       0.55746298 </v>
   </varray>
  </structure>
  <varray name="forces" >
   <v>      -0.00221798       0.02565726       0.01152138 </v>
   <v>      -0.00562084       0.00098592       0.00461060 </v>
   <v>       0.00141102       0.01872338      -0.00623305 </v>
   <v>       0.00558232      -0.02305257      -0.00614702 </v>
   <v>      -0.00309253      -0.00474667       0.00492327 </v>
   <v>       0.00581774       0.02067616       0.00782759 </v>
   <v>       0.00701419      -0.01570047      -0.00599054 </v>
   <v>      -0.00199924      -0.00009056      -0.00183516 </v>
   <v>       0.00333716      -0.01311897       0.00209434 </v>
   <v>      -0.00297959      -0.00698476      -0.00469238 </v>
   <v>      -0.00018735      -0.01096908      -0.00901756 </v>
   <v>      -0.01914792      -0.00772646       0.00334688 </v>
   <v>      -0.00581548       0.00129752       0.00823002 </v>
   <v>       0.00867484       0.00356397      -0.00053957 </v>
   <v>       0.00922368       0.01148533      -0.00809880 </v>
  </varray>
  <varray name="stress" >
   <v>       8.55163809       0.13563175       0.09972983 </v>
   <v>       0.13563095     -10.56008014       0.05884904 </v>
   <v>       0.09972788       0.05885045      -1.31447938 </v>
  </varray>
  <energy>
   <i name="e_fr_energy">    -49.86524308 </i>
   <i name="e_wo_entrp">    -49.86524308 </i>
   <i name="e_0_energy">     -0.00000000 </i>
  </energy>
  <time name="totalsc">  592.86  593.81</time>
 </calculation>
 <calculation>
  <scstep>
   <time name="dav">   16.48   16.50</time>
   <time name="total">  119.97  120.16</time>
   <energy>
    <i name="alphaZ">     15.92198659 </i>
    <i name="ewald">   1273.96895372 </i>
    <i name="hartreedc">  -2456.05638525 </i>
    <i name="XCdc">   -170.61413255 </i>
    <i name="pawpsdc">   1743.15373421 </i>
    <i name="pawaedc">  -1464.61096139 </i>
    <i name="eentropy">     -0.00000000 </i>
    <i name="bandstr">   -325.35669600 </i>
    <i name="atom">   1333.72818728 </i>
    <i name="e_fr_energy">    -49.86531339 </i>
    <i name="e_wo_entrp">    -49.86531339 </i>
    <i name="e_0_energy">    -49.86531339 </i>
   </energy>
  </scstep>
  <scstep>
   <time name="dav">   19.54   19.64</time>
   <time name="total">  123.41  123.70</time>
   <energy>
    <i name="e_fr_energy">    -49.86533348 </i>
    <i name="e_wo_entrp">    -49.86533348 </i>
    <i name="e_0_energy">    -49.86533348 </i>
   </energy>
  </scstep>
  <scstep>
   <time name="dav">   13.26   13.27</time>
   <time name="total">  118.47  118.59</time>
   <energy>
    <i name="alphaZ">     15.92198659 </i>
    <i name="ewald">   1273.96895372 </i>
    <i name="hartreedc">  -2456.06517213 </i>
    <i name="XCdc">   -170.61286759 </i>
    <i name="pawpsdc">   1743.25712409 </i>
    <i name="pawaedc">  -1464.71466235 </i>
    <i name="eentropy">     -0.00000000 </i>
    <i name="bandstr">   -325.34888338 </i>
    <i name="atom">   1333.72818728 </i>
    <i name="e_fr_energy">    -49.86533377 </i>
    <i name="e_wo_entrp">    -49.86533377 </i>
    <i name="e_0_energy">    -49.86533377 </i>
   </energy>
  </scstep>
  <structure>
   <crystal>
    <varray name="basis" >
     <v>       6.01920000       0.00000000       0.00000000 </v>
     <v>       0.00000000      10.14000000       0.00000000 </v>
     <v>       0.00000000       0.00000000      15.00000000 </v>
    </varray>
    <i name="volume">    915.52032000 </i>
    <varray name="rec_basis" >
     <v>       0.16613503       0.00000000       0.00000000 </v>
     <v>       0.00000000       0.09861933       0.00000000 </v>
     <v>       0.00000000       0.00000000       0.06666667 </v>
    </varray>
   </crystal>
   <varray name="positions" >
    <v>       0.44118163       0.87859535       0.22226486 </v>
    <v>       0.94100056       0.87967612       0.27327316 </v>
    <v>       0.44157591       0.61548197       0.22445979 </v>
    <v>       0.94164638       0.61747648       0.27696738 </v>
    <v>       0.43938424       0.37832412       0.27924789 </v>
    <v>       0.94081131       0.37992429       0.22471372 </v>
    <v>       0.43987535       0.11736794       0.27181268 </v>
    <v>       0.94037868       0.11677681       0.22166893 </v>
    <v>       0.19064158      -0.00216857       0.24631558 </v>
    <v>       0.69060031      -0.00192388       0.24767326 </v>
    <v>       0.19088746       0.49822420       0.25103609 </v>
    <v>       0.69110761       0.49796061       0.25361401 </v>
    <v>       0.55161404       0.43768123       0.47839949 </v>
    <v>       0.75690470       0.35545697       0.47869286 </v>
    <v>       0.46316111       0.36303985       0.55750030 </v>
   </varray>
  </structure>
  <varray name="forces" >
   <v>      -0.00268457       0.01804308       0.00907768 </v>
   <v>      -0.00630437       0.00040809       0.00332701 </v>
   <v>       0.00125321       0.02333060      -0.00758989 </v>
   <v>       0.00195855      -0.01555337      -0.00460361 </v>
   <v>      -0.00354754      -0.01134230       0.00322981 </v>
   <v>       0.00061358       0.01530309       0.00434000 </v>
   <v>       0.00796580      -0.01071567      -0.00280829 </v>
   <v>      -0.00195823       0.00205916      -0.00068784 </v>
   <v>       0.00273393      -0.01243944      -0.00057672 </v>
   <v>      -0.00312624      -0.00604468      -0.00366827 </v>
   <v>       0.00608757      -0.01213256      -0.00496100 </v>
   <v>      -0.01503422      -0.00779682       0.00445845 </v>
   <v>      -0.00549746       0.00019900       0.00864210 </v>
   <v>       0.00829020       0.00472549      -0.00138306 </v>
   <v>       0.00924979       0.01195633      -0.00679638 </v>
  </varray>
  <varray name="stress" >
   <v>       8.56235541       0.15388521       0.09772831 </v>
   <v>       0.15388433     -10.52791036       0.06478966 </v>
   <v>       0.09772650       0.06479101      -1.30509770 </v>
  </varray>
  <energy>
   <i name="e_fr_energy">    -49.86533377 </i>
   <i name="e_wo_entrp">    -49.86533377 </i>
   <i name="e_0_energy">     -0.00000000 </i>
  </energy>
  <time name="totalsc">  600.38  605.75</time>
 </calculation>
 <calculation>
  <scstep>
   <time name="dav">   16.26   16.36</time>
   <time name="total">  126.70  126.99</time>
   <energy>
    <i name="alphaZ">     15.92198659 </i>
    <i name="ewald">   1274.32811685 </i>
    <i name="hartreedc">  -2456.34472552 </i>
    <i name="XCdc">   -170.60912138 </i>
    <i name="pawpsdc">   1743.29243630 </i>
    <i name="pawaedc">  -1464.74997753 </i>
    <i name="eentropy">     -0.00000000 </i>
    <i name="bandstr">   -325.43216270 </i>
    <i name="atom">   1333.72818728 </i>
    <i name="e_fr_energy">    -49.86526011 </i>
    <i name="e_wo_entrp">    -49.86526011 </i>
    <i name="e_0_energy">    -49.86526011 </i>
   </energy>
  </scstep>
  <scstep>
   <time name="dav">   18.83   18.88</time>
   <time name="total">  126.76  126.94</time>
   <energy>
    <i name="e_fr_energy">    -49.86545878 </i>
    <i name="e_wo_entrp">    -49.86545878 </i>
    <i name="e_0_energy">    -49.86545878 </i>
   </energy>
  </scstep>
  <scstep>
   <time name="dav">   19.77   19.79</time>
   <time name="total">  121.80  121.96</time>
   <energy>
    <i name="alphaZ">     15.92198659 </i>
    <i name="ewald">   1274.32811685 </i>
    <i name="hartreedc">  -2456.37225135 </i>
    <i name="XCdc">   -170.60581177 </i>
    <i name="pawpsdc">   1743.59922767 </i>
    <i name="pawaedc">  -1465.05781610 </i>
    <i name="eentropy">     -0.00000000 </i>
    <i name="bandstr">   -325.40708911 </i>
    <i name="atom">   1333.72818728 </i>
    <i name="e_fr_energy">    -49.86544993 </i>
    <i name="e_wo_entrp">    -49.86544993 </i>
    <i name="e_0_energy">    -49.86544993 </i>
   </energy>
  </scstep>
  <structure>
   <crystal>
    <varray name="basis" >
     <v>       6.01920000       0.00000000       0.00000000 </v>
     <v>       0.00000000      10.14000000       0.00000000 </v>
     <v>       0.00000000       0.00000000      15.00000000 </v>
    </varray>
    <i name="volume">    915.52032000 </i>
    <varray name="rec_basis" >
     <v>       0.16613503       0.00000000       0.00000000 </v>
     <v>       0.00000000       0.09861933       0.00000000 </v>
     <v>       0.00000000       0.00000000       0.06666667 </v>
    </varray>
   </crystal>
   <varray name="positions" >
    <v>       0.44114338       0.87858806       0.22238614 </v>
    <v>       0.94088927       0.87955640       0.27337529 </v>
    <v>       0.44146804       0.61537522       0.22444217 </v>
    <v>       0.94156424       0.61726829       0.27691203 </v>
    <v>       0.43914462       0.37835743       0.27928364 </v>
    <v>       0.94077220       0.37980910       0.22476758 </v>
    <v>       0.43977118       0.11728248       0.27169905 </v>
    <v>       0.94035512       0.11659711       0.22161311 </v>
    <v>       0.19058143      -0.00231758       0.24641987 </v>
    <v>       0.69054832      -0.00200224       0.24763152 </v>
    <v>       0.19063951       0.49814697       0.25085367 </v>
    <v>       0.69088220       0.49783710       0.25362870 </v>
    <v>       0.55189693       0.43798396       0.47833985 </v>
    <v>       0.75727245       0.35580359       0.47867512 </v>
    <v>       0.46384199       0.36360761       0.55761224 </v>
   </varray>
  </structure>
  <varray name="forces" >
   <v>      -0.00390791      -0.00715676       0.00118695 </v>
   <v>      -0.00607555      -0.00128684      -0.00028701 </v>
   <v>       0.00082816       0.03694730      -0.01103309 </v>
   <v>      -0.00875768       0.00582629      -0.00018071 </v>
   <v>      -0.00354652      -0.03103572      -0.00136335 </v>
   <v>      -0.01514050       0.00077067      -0.00550674 </v>
   <v>       0.00999207       0.00650782       0.00841121 </v>
   <v>      -0.00014969       0.00921725       0.00365871 </v>
   <v>      -0.00401869      -0.00918865      -0.00177765 </v>
   <v>      -0.00061364      -0.00474192      -0.00287675 </v>
   <v>       0.02437878      -0.01102512       0.00382422 </v>
   <v>      -0.00109418      -0.00845716       0.00624034 </v>
   <v>      -0.00108359      -0.00025210       0.00717800 </v>
   <v>       0.00423385       0.00559779      -0.00302440 </v>
   <v>       0.00495508       0.00827716      -0.00444973 </v>
  </varray>
  <varray name="stress" >
   <v>       8.59923148       0.18937099       0.08946361 </v>
   <v>       0.18937022     -10.42000156       0.07979925 </v>
   <v>       0.08946177       0.07980059      -1.27609027 </v>
  </varray>
  <energy>
   <i name="e_fr_energy">    -49.86544993 </i>
   <i name="e_wo_entrp">    -49.86544993 </i>
   <i name="e_0_energy">     -0.00000000 </i>
  </energy>
  <time name="totalsc">  606.37  608.80</time>
 </calculation>
 <calculation>
  <scstep>
   <time name="dav">   15.62   15.66</time>
   <time name="total">  117.01  117.16</time>
   <energy>
    <i name="alphaZ">     15.92198659 </i>
    <i name="ewald">   1274.25333277 </i>
    <i name="hartreedc">  -2456.32817950 </i>
    <i name="XCdc">   -170.60747723 </i>
    <i name="pawpsdc">   1743.70843718 </i>
    <i name="pawaedc">  -1465.16708108 </i>
    <i name="eentropy">     -0.00000000 </i>
    <i name="bandstr">   -325.37476450 </i>
    <i name="atom">   1333.72818728 </i>
    <i name="e_fr_energy">    -49.86555847 </i>
    <i name="e_wo_entrp">    -49.86555847 </i>
    <i name="e_0_energy">    -49.86555847 </i>
   </energy>
  </scstep>
  <scstep>
   <time name="dav">   22.65   22.71</time>
   <time name="total">  124.09  124.27</time>
   <energy>
    <i name="e_fr_energy">    -49.86560118 </i>
    <i name="e_wo_entrp">    -49.86560118 </i>
    <i name="e_0_energy">    -49.86560118 </i>
   </energy>
  </scstep>
  <scstep>
   <time name="dav">   15.90   15.92</time>
   <time name="total">  117.02  117.11</time>
   <energy>
    <i name="alphaZ">     15.92198659 </i>
    <i name="ewald">   1274.25333277 </i>
    <i name="hartreedc">  -2456.30247956 </i>
    <i name="XCdc">   -170.60822610 </i>
    <i name="pawpsdc">   1743.56643255 </i>
    <i name="pawaedc">  -1465.02461191 </i>
    <i name="eentropy">     -0.00000000 </i>
    <i name="bandstr">   -325.40022235 </i>
    <i name="atom">   1333.72818728 </i>
    <i name="e_fr_energy">    -49.86560072 </i>
    <i name="e_wo_entrp">    -49.86560072 </i>
    <i name="e_0_energy">    -49.86560072 </i>
   </energy>
  </scstep>
  <structure>
   <crystal>
    <varray name="basis" >
     <v>       6.01920000       0.00000000       0.00000000 </v>
     <v>       0.00000000      10.14000000       0.00000000 </v>
     <v>       0.00000000       0.00000000      15.00000000 </v>
    </varray>
    <i name="volume">    915.52032000 </i>
    <varray name="rec_basis" >
     <v>       0.16613503       0.00000000       0.00000000 </v>
     <v>       0.00000000       0.09861933       0.00000000 </v>
     <v>       0.00000000       0.00000000       0.06666667 </v>
    </varray>
   </crystal>
   <varray name="positions" >
    <v>       0.44110062       0.87855668       0.22244269 </v>
    <v>       0.94079999       0.87949863       0.27341949 </v>
    <v>       0.44142605       0.61547367       0.22440505 </v>
    <v>       0.94147000       0.61719957       0.27688719 </v>
    <v>       0.43901561       0.37824992       0.27929576 </v>
    <v>       0.94065458       0.37976142       0.22477664 </v>
    <v>       0.43979158       0.11727048       0.27167141 </v>
    <v>       0.94034376       0.11655429       0.22159828 </v>
    <v>       0.19052830      -0.00241935       0.24646105 </v>
    <v>       0.69052136      -0.00205540       0.24760549 </v>
    <v>       0.19069202       0.49806957       0.25078354 </v>
    <v>       0.69077571       0.49774943       0.25365177 </v>
    <v>       0.55201428       0.43811623       0.47833270 </v>
    <v>       0.75746243       0.35597821       0.47865926 </v>
    <v>       0.46417459       0.36389014       0.55764968 </v>
   </varray>
  </structure>
  <varray name="forces" >
   <v>      -0.00400305      -0.00634342      -0.00162041 </v>
   <v>      -0.00533496      -0.00058777      -0.00309657 </v>
   <v>       0.00282062       0.00897502      -0.00368486 </v>
   <v>      -0.00429573       0.00110724       0.00025615 </v>
   <v>       0.00029337      -0.01578227      -0.00724228 </v>
   <v>      -0.01124226       0.00045778      -0.00792611 </v>
   <v>       0.00421615      -0.00285819       0.00919988 </v>
   <v>       0.00131274       0.00301536       0.00581908 </v>
   <v>      -0.00199073       0.00039498      -0.00145574 </v>
   <v>      -0.00063405      -0.00126023      -0.00162322 </v>
   <v>       0.00922816      -0.00200146       0.00553941 </v>
   <v>      -0.00067287      -0.00090395       0.00452043 </v>
   <v>       0.00515691       0.00485126      -0.00145274 </v>
   <v>       0.00270115       0.00754357      -0.00310803 </v>
   <v>       0.00244453       0.00339208       0.00587502 </v>
  </varray>
  <varray name="stress" >
   <v>       8.57378079       0.20454553       0.07785895 </v>
   <v>       0.20454475     -10.46444470       0.09488985 </v>
   <v>       0.07785716       0.09489126      -1.26982892 </v>
  </varray>
  <energy>
   <i name="e_fr_energy">    -49.86560072 </i>
   <i name="e_wo_entrp">    -49.86560072 </i>
   <i name="e_0_energy">     -0.00000000 </i>
  </energy>
  <time name="totalsc">  588.41  589.76</time>
 </calculation>
 <calculation>
  <scstep>
   <time name="dav">   15.81   15.83</time>
   <time name="total">  121.16  121.34</time>
   <energy>
    <i name="alphaZ">     15.92198659 </i>
    <i name="ewald">   1274.18874424 </i>
    <i name="hartreedc">  -2456.26190264 </i>
    <i name="XCdc">   -170.61000206 </i>
    <i name="pawpsdc">   1743.54247033 </i>
    <i name="pawaedc">  -1465.00068219 </i>
    <i name="eentropy">     -0.00000000 </i>
    <i name="bandstr">   -325.37441147 </i>
    <i name="atom">   1333.72818728 </i>
    <i name="e_fr_energy">    -49.86560991 </i>
    <i name="e_wo_entrp">    -49.86560991 </i>
    <i name="e_0_energy">    -49.86560991 </i>
   </energy>
  </scstep>
  <scstep>
   <time name="dav">   20.89   20.92</time>
   <time name="total">  124.30  124.42</time>
   <energy>
    <i name="e_fr_energy">    -49.86564285 </i>
    <i name="e_wo_entrp">    -49.86564285 </i>
    <i name="e_0_energy">    -49.86564285 </i>
   </energy>
  </scstep>
  <scstep>
   <time name="dav">   15.56   15.59</time>
   <time name="total">  122.40  122.57</time>
   <energy>
    <i name="alphaZ">     15.92198659 </i>
    <i name="ewald">   1274.18874424 </i>
    <i name="hartreedc">  -2456.25185995 </i>
    <i name="XCdc">   -170.61004567 </i>
    <i name="pawpsdc">   1743.43902257 </i>
    <i name="pawaedc">  -1464.89710946 </i>
    <i name="eentropy">     -0.00000000 </i>
    <i name="bandstr">   -325.38456765 </i>
    <i name="atom">   1333.72818728 </i>
    <i name="e_fr_energy">    -49.86564205 </i>
    <i name="e_wo_entrp">    -49.86564205 </i>
    <i name="e_0_energy">    -49.86564205 </i>
   </energy>
  </scstep>
  <structure>
   <crystal>
    <varray name="basis" >
     <v>       6.01920000       0.00000000       0.00000000 </v>
     <v>       0.00000000      10.14000000       0.00000000 </v>
     <v>       0.00000000       0.00000000      15.00000000 </v>
    </varray>
    <i name="volume">    915.52032000 </i>
    <varray name="rec_basis" >
     <v>       0.16613503       0.00000000       0.00000000 </v>
     <v>       0.00000000       0.09861933       0.00000000 </v>
     <v>       0.00000000       0.00000000       0.06666667 </v>
    </varray>
   </crystal>
   <varray name="positions" >
    <v>       0.44106387       0.87852971       0.22249129 </v>
    <v>       0.94072325       0.87944897       0.27345748 </v>
    <v>       0.44138995       0.61555829       0.22437315 </v>
    <v>       0.94138900       0.61714050       0.27686583 </v>
    <v>       0.43890473       0.37815752       0.27930617 </v>
    <v>       0.94055348       0.37972044       0.22478443 </v>
    <v>       0.43980912       0.11726017       0.27164765 </v>
    <v>       0.94033399       0.11651749       0.22158553 </v>
    <v>       0.19048263      -0.00250682       0.24649645 </v>
    <v>       0.69049820      -0.00210109       0.24758312 </v>
    <v>       0.19073716       0.49800304       0.25072326 </v>
    <v>       0.69068418       0.49767408       0.25367160 </v>
    <v>       0.55211514       0.43822992       0.47832655 </v>
    <v>       0.75762571       0.35612830       0.47864563 </v>
    <v>       0.46446046       0.36413298       0.55768186 </v>
   </varray>
  </structure>
  <varray name="forces" >
   <v>      -0.00390437      -0.00558438      -0.00382399 </v>
   <v>      -0.00446285       0.00025089      -0.00520041 </v>
   <v>       0.00496240      -0.01517733       0.00292287 </v>
   <v>       0.00009929      -0.00264219       0.00112420 </v>
   <v>       0.00458919      -0.00216363      -0.01189181 </v>
   <v>      -0.00681733       0.00116172      -0.00961148 </v>
   <v>      -0.00059597      -0.01000794       0.01060790 </v>
   <v>       0.00235692      -0.00125404       0.00806841 </v>
   <v>       0.00026359       0.00732315       0.00023710 </v>
   <v>      -0.00101664       0.00123385      -0.00061635 </v>
   <v>      -0.00344969       0.00386828       0.00426190 </v>
   <v>      -0.00225321       0.00489482       0.00396370 </v>
   <v>       0.01021113       0.01108147      -0.01229618 </v>
   <v>       0.00091979       0.00894779      -0.00272718 </v>
   <v>      -0.00090224      -0.00193245       0.01498132 </v>
  </varray>
  <varray name="stress" >
   <v>       8.55773382       0.21119475       0.06552904 </v>
   <v>       0.21119403     -10.50286000       0.10059367 </v>
   <v>       0.06552725       0.10059509      -1.26295077 </v>
  </varray>
  <energy>
   <i name="e_fr_energy">    -49.86564205 </i>
   <i name="e_wo_entrp">    -49.86564205 </i>
   <i name="e_0_energy">     -0.00000000 </i>
  </energy>
  <time name="totalsc">  603.30  604.77</time>
 </calculation>
 <calculation>
  <scstep>
   <time name="dav">   16.93   16.95</time>
   <time name="total">  122.00  122.10</time>
   <energy>
    <i name="alphaZ">     15.92198659 </i>
    <i name="ewald">   1274.24932191 </i>
    <i name="hartreedc">  -2456.32499804 </i>
    <i name="XCdc">   -170.61225454 </i>
    <i name="pawpsdc">   1743.40356368 </i>
    <i name="pawaedc">  -1464.86167568 </i>
    <i name="eentropy">     -0.00000000 </i>
    <i name="bandstr">   -325.36981188 </i>
    <i name="atom">   1333.72818728 </i>
    <i name="e_fr_energy">    -49.86568067 </i>
    <i name="e_wo_entrp">    -49.86568067 </i>
    <i name="e_0_energy">    -49.86568067 </i>
   </energy>
  </scstep>
  <scstep>
   <time name="dav">   18.96   19.00</time>
   <time name="total">  125.84  126.00</time>
   <energy>
    <i name="e_fr_energy">    -49.86571193 </i>
    <i name="e_wo_entrp">    -49.86571193 </i>
    <i name="e_0_energy">    -49.86571193 </i>
   </energy>
  </scstep>
  <scstep>
   <time name="dav">   13.57   13.65</time>
   <time name="total">  118.63  118.78</time>
   <energy>
    <i name="alphaZ">     15.92198659 </i>
    <i name="ewald">   1274.24932191 </i>
    <i name="hartreedc">  -2456.31915389 </i>
    <i name="XCdc">   -170.61189039 </i>
    <i name="pawpsdc">   1743.33283854 </i>
    <i name="pawaedc">  -1464.79059020 </i>
    <i name="eentropy">     -0.00000000 </i>
    <i name="bandstr">   -325.37641171 </i>
    <i name="atom">   1333.72818728 </i>
    <i name="e_fr_energy">    -49.86571187 </i>
    <i name="e_wo_entrp">    -49.86571187 </i>
    <i name="e_0_energy">    -49.86571187 </i>
   </energy>
  </scstep>
  <structure>
   <crystal>
    <varray name="basis" >
     <v>       6.01920000       0.00000000       0.00000000 </v>
     <v>       0.00000000      10.14000000       0.00000000 </v>
     <v>       0.00000000       0.00000000      15.00000000 </v>
    </varray>
    <i name="volume">    915.52032000 </i>
    <varray name="rec_basis" >
     <v>       0.16613503       0.00000000       0.00000000 </v>
     <v>       0.00000000       0.09861933       0.00000000 </v>
     <v>       0.00000000       0.00000000       0.06666667 </v>
    </varray>
   </crystal>
   <varray name="positions" >
    <v>       0.44100648       0.87848409       0.22251514 </v>
    <v>       0.94063209       0.87941358       0.27346923 </v>
    <v>       0.44140195       0.61555055       0.22435879 </v>
    <v>       0.94133015       0.61708484       0.27685362 </v>
    <v>       0.43885878       0.37807952       0.27927675 </v>
    <v>       0.94042608       0.37969564       0.22476019 </v>
    <v>       0.43981739       0.11720641       0.27166325 </v>
    <v>       0.94034512       0.11648461       0.22160130 </v>
    <v>       0.19045107      -0.00253742       0.24652324 </v>
    <v>       0.69047324      -0.00212903       0.24756473 </v>
    <v>       0.19074357       0.49797192       0.25069218 </v>
    <v>       0.69059930       0.49764120       0.25369856 </v>
    <v>       0.55226874       0.43836473       0.47828368 </v>
    <v>       0.75775304       0.35628006       0.47862710 </v>
    <v>       0.46466387       0.36430280       0.55775226 </v>
   </varray>
  </structure>
  <varray name="forces" >
   <v>      -0.00274963      -0.00369412      -0.00507535 </v>
   <v>      -0.00130939      -0.00047585      -0.00583579 </v>
   <v>       0.00132306      -0.02008990       0.00523864 </v>
   <v>       0.00355146      -0.00143498       0.00195555 </v>
   <v>       0.00313317       0.00315686      -0.01138528 </v>
   <v>      -0.00021522       0.00195148      -0.00826310 </v>
   <v>      -0.00260624      -0.00921923       0.00994083 </v>
   <v>       0.00057968      -0.00057720       0.00714986 </v>
   <v>      -0.00019187       0.00643467       0.00192590 </v>
   <v>      -0.00212977      -0.00005670      -0.00005739 </v>
   <v>      -0.01180210       0.00262008       0.00303006 </v>
   <v>       0.00160975       0.00525375       0.00247648 </v>
   <v>       0.00116709       0.00230548       0.00049055 </v>
   <v>       0.00448133       0.00655562      -0.00300410 </v>
   <v>       0.00515868       0.00727004       0.00141311 </v>
  </varray>
  <varray name="stress" >
   <v>       8.54853177       0.18792309       0.07612929 </v>
   <v>       0.18792241     -10.51784916       0.12154987 </v>
   <v>       0.07612756       0.12155135      -1.29572376 </v>
  </varray>
  <energy>
   <i name="e_fr_energy">    -49.86571187 </i>
   <i name="e_wo_entrp">    -49.86571187 </i>
   <i name="e_0_energy">     -0.00000000 </i>
  </energy>
  <time name="totalsc">  599.22  600.52</time>
 </calculation>
 <calculation>
  <scstep>
   <time name="dav">   16.34   16.36</time>
   <time name="total">  129.62  129.75</time>
   <energy>
    <i name="alphaZ">     15.92198659 </i>
    <i name="ewald">   1274.32496725 </i>
    <i name="hartreedc">  -2456.40903439 </i>
    <i name="XCdc">   -170.61454542 </i>
    <i name="pawpsdc">   1743.30167739 </i>
    <i name="pawaedc">  -1464.75917767 </i>
    <i name="eentropy">     -0.00000000 </i>
    <i name="bandstr">   -325.35975574 </i>
    <i name="atom">   1333.72818728 </i>
    <i name="e_fr_energy">    -49.86569471 </i>
    <i name="e_wo_entrp">    -49.86569471 </i>
    <i name="e_0_energy">    -49.86569471 </i>
   </energy>
  </scstep>
  <scstep>
   <time name="dav">   21.21   21.23</time>
   <time name="total">  133.47  133.58</time>
   <energy>
    <i name="e_fr_energy">    -49.86574254 </i>
    <i name="e_wo_entrp">    -49.86574254 </i>
    <i name="e_0_energy">    -49.86574254 </i>
   </energy>
  </scstep>
  <scstep>
   <time name="dav">   14.84   14.93</time>
   <time name="total">  123.92  124.19</time>
   <energy>
    <i name="alphaZ">     15.92198659 </i>
    <i name="ewald">   1274.32496725 </i>
    <i name="hartreedc">  -2456.39499377 </i>
    <i name="XCdc">   -170.61438794 </i>
    <i name="pawpsdc">   1743.20994567 </i>
    <i name="pawaedc">  -1464.66696545 </i>
    <i name="eentropy">     -0.00000000 </i>
    <i name="bandstr">   -325.37448181 </i>
    <i name="atom">   1333.72818728 </i>
    <i name="e_fr_energy">    -49.86574217 </i>
    <i name="e_wo_entrp">    -49.86574217 </i>
    <i name="e_0_energy">    -49.86574217 </i>
   </energy>
  </scstep>
  <structure>
   <crystal>
    <varray name="basis" >
     <v>       6.01920000       0.00000000       0.00000000 </v>
     <v>       0.00000000      10.14000000       0.00000000 </v>
     <v>       0.00000000       0.00000000      15.00000000 </v>
    </varray>
    <i name="volume">    915.52032000 </i>
    <varray name="rec_basis" >
     <v>       0.16613503       0.00000000       0.00000000 </v>
     <v>       0.00000000       0.09861933       0.00000000 </v>
     <v>       0.00000000       0.00000000       0.06666667 </v>
    </varray>
   </crystal>
   <varray name="positions" >
    <v>       0.44093468       0.87842703       0.22254498 </v>
    <v>       0.94051804       0.87936931       0.27348392 </v>
    <v>       0.44141696       0.61554088       0.22434081 </v>
    <v>       0.94125653       0.61701520       0.27683834 </v>
    <v>       0.43880129       0.37798196       0.27923994 </v>
    <v>       0.94026672       0.37966461       0.22472986 </v>
    <v>       0.43982774       0.11713916       0.27168276 </v>
    <v>       0.94035904       0.11644348       0.22162104 </v>
    <v>       0.19041158      -0.00257570       0.24655675 </v>
    <v>       0.69044203      -0.00216398       0.24754173 </v>
    <v>       0.19075159       0.49793298       0.25065331 </v>
    <v>       0.69049312       0.49760007       0.25373228 </v>
    <v>       0.55246088       0.43853336       0.47823005 </v>
    <v>       0.75791233       0.35646989       0.47860391 </v>
    <v>       0.46491832       0.36451524       0.55784033 </v>
   </varray>
  </structure>
  <varray name="forces" >
   <v>      -0.00111115      -0.00080815      -0.00650513 </v>
   <v>       0.00285812      -0.00095023      -0.00668442 </v>
   <v>      -0.00392464      -0.02542694       0.00787917 </v>
   <v>       0.00825275       0.00086289       0.00323129 </v>
   <v>       0.00070953       0.00977469      -0.01047840 </v>
   <v>       0.00857623       0.00298113      -0.00671182 </v>
   <v>      -0.00469834      -0.00785054       0.00919446 </v>
   <v>      -0.00205991       0.00034780       0.00609545 </v>
   <v>      -0.00036847       0.00297438       0.00345685 </v>
   <v>      -0.00306291      -0.00160059       0.00057111 </v>
   <v>      -0.02088410      -0.00052692       0.00041652 </v>
   <v>       0.00623016       0.00326803       0.00069380 </v>
   <v>      -0.01234401      -0.00522708       0.01844318 </v>
   <v>       0.00903803       0.00337515      -0.00335885 </v>
   <v>       0.01278872       0.01880637      -0.01624322 </v>
  </varray>
  <varray name="stress" >
   <v>       8.54525148       0.15074400       0.09200249 </v>
   <v>       0.15074328     -10.53354216       0.15254027 </v>
   <v>       0.09200055       0.15254173      -1.33625680 </v>
  </varray>
  <energy>
   <i name="e_fr_energy">    -49.86574217 </i>
   <i name="e_wo_entrp">    -49.86574217 </i>
   <i name="e_0_energy">     -0.00000000 </i>
  </energy>
  <time name="totalsc">  623.17  624.71</time>
 </calculation>
 <calculation>
  <scstep>
   <time name="dav">   15.97   16.02</time>
   <time name="total">  121.67  121.83</time>
   <energy>
    <i name="alphaZ">     15.92198659 </i>
    <i name="ewald">   1274.36910792 </i>
    <i name="hartreedc">  -2456.42018330 </i>
    <i name="XCdc">   -170.61415708 </i>
    <i name="pawpsdc">   1743.17427791 </i>
    <i name="pawaedc">  -1464.63100480 </i>
    <i name="eentropy">     -0.00000000 </i>
    <i name="bandstr">   -325.39400734 </i>
    <i name="atom">   1333.72818728 </i>
    <i name="e_fr_energy">    -49.86579281 </i>
    <i name="e_wo_entrp">    -49.86579281 </i>
    <i name="e_0_energy">    -49.86579281 </i>
   </energy>
  </scstep>
  <scstep>
   <time name="dav">   19.86   19.89</time>
   <time name="total">  124.82  125.06</time>
   <energy>
    <i name="e_fr_energy">    -49.86580199 </i>
    <i name="e_wo_entrp">    -49.86580199 </i>
    <i name="e_0_energy">    -49.86580199 </i>
   </energy>
  </scstep>
  <scstep>
   <time name="dav">   12.64   12.67</time>
   <time name="total">  116.39  116.59</time>
   <energy>
    <i name="alphaZ">     15.92198659 </i>
    <i name="ewald">   1274.36910792 </i>
    <i name="hartreedc">  -2456.42196622 </i>
    <i name="XCdc">   -170.61334537 </i>
    <i name="pawpsdc">   1743.22363652 </i>
    <i name="pawaedc">  -1464.68052127 </i>
    <i name="eentropy">     -0.00000000 </i>
    <i name="bandstr">   -325.39288837 </i>
    <i name="atom">   1333.72818728 </i>
    <i name="e_fr_energy">    -49.86580293 </i>
    <i name="e_wo_entrp">    -49.86580293 </i>
    <i name="e_0_energy">    -49.86580293 </i>
   </energy>
  </scstep>
  <structure>
   <crystal>
    <varray name="basis" >
     <v>       6.01920000       0.00000000       0.00000000 </v>
     <v>       0.00000000      10.14000000       0.00000000 </v>
     <v>       0.00000000       0.00000000      15.00000000 </v>
    </varray>
    <i name="volume">    915.52032000 </i>
    <varray name="rec_basis" >
     <v>       0.16613503       0.00000000       0.00000000 </v>
     <v>       0.00000000       0.09861933       0.00000000 </v>
     <v>       0.00000000       0.00000000       0.06666667 </v>
    </varray>
   </crystal>
   <varray name="positions" >
    <v>       0.44089551       0.87839703       0.22255259 </v>
    <v>       0.94046886       0.87934549       0.27348372 </v>
    <v>       0.44141342       0.61549343       0.22434072 </v>
    <v>       0.94124287       0.61698169       0.27683433 </v>
    <v>       0.43877444       0.37794935       0.27920960 </v>
    <v>       0.94021092       0.37965403       0.22470704 </v>
    <v>       0.43981968       0.11709224       0.27170296 </v>
    <v>       0.94036021       0.11642342       0.22163785 </v>
    <v>       0.19039072      -0.00258994       0.24657749 </v>
    <v>       0.69041771      -0.00218421       0.24753083 </v>
    <v>       0.19069668       0.49791256       0.25063427 </v>
    <v>       0.69045740       0.49758490       0.25374999 </v>
    <v>       0.55252249       0.43860926       0.47822401 </v>
    <v>       0.75801780       0.35657084       0.47858846 </v>
    <v>       0.46508215       0.36465339       0.55786615 </v>
   </varray>
  </structure>
  <varray name="forces" >
   <v>      -0.00089843      -0.00166440      -0.00703483 </v>
   <v>       0.00426595      -0.00193433      -0.00651576 </v>
   <v>      -0.00686356      -0.02119678       0.00709888 </v>
   <v>       0.00789981       0.00293259       0.00353958 </v>
   <v>      -0.00163447       0.00828845      -0.00847989 </v>
   <v>       0.00943296       0.00136553      -0.00584231 </v>
   <v>      -0.00506837      -0.00486029       0.00850902 </v>
   <v>      -0.00339774       0.00118958       0.00492938 </v>
   <v>      -0.00130568       0.00111543       0.00320514 </v>
   <v>      -0.00280528      -0.00260395       0.00133200 </v>
   <v>      -0.01798219      -0.00147606       0.00065762 </v>
   <v>       0.00832887       0.00229892      -0.00177180 </v>
   <v>      -0.01173456      -0.00631626       0.01791318 </v>
   <v>       0.00842932       0.00448744      -0.00337272 </v>
   <v>       0.01333339       0.01837414      -0.01416750 </v>
  </varray>
  <varray name="stress" >
   <v>       8.55080955       0.15316157       0.09246757 </v>
   <v>       0.15316078     -10.51938021       0.14911116 </v>
   <v>       0.09246578       0.14911254      -1.32418802 </v>
  </varray>
  <energy>
   <i name="e_fr_energy">    -49.86580293 </i>
   <i name="e_wo_entrp">    -49.86580293 </i>
   <i name="e_0_energy">     -0.00000000 </i>
  </energy>
  <time name="totalsc">  595.78  597.90</time>
 </calculation>
 <calculation>
  <scstep>
   <time name="dav">   16.39   16.46</time>
   <time name="total">  118.21  118.42</time>
   <energy>
    <i name="alphaZ">     15.92198659 </i>
    <i name="ewald">   1274.50096138 </i>
    <i name="hartreedc">  -2456.51875875 </i>
    <i name="XCdc">   -170.61277334 </i>
    <i name="pawpsdc">   1743.23648621 </i>
    <i name="pawaedc">  -1464.69333878 </i>
    <i name="eentropy">     -0.00000000 </i>
    <i name="bandstr">   -325.42858752 </i>
    <i name="atom">   1333.72818728 </i>
    <i name="e_fr_energy">    -49.86583693 </i>
    <i name="e_wo_entrp">    -49.86583693 </i>
    <i name="e_0_energy">    -49.86583693 </i>
   </energy>
  </scstep>
  <scstep>
   <time name="dav">   21.23   21.25</time>
   <time name="total">  127.18  127.27</time>
   <energy>
    <i name="e_fr_energy">    -49.86592966 </i>
    <i name="e_wo_entrp">    -49.86592966 </i>
    <i name="e_0_energy">    -49.86592966 </i>
   </energy>
  </scstep>
  <scstep>
   <time name="dav">   19.93   19.94</time>
   <time name="total">  122.78  122.91</time>
   <energy>
    <i name="alphaZ">     15.92198659 </i>
    <i name="ewald">   1274.50096138 </i>
    <i name="hartreedc">  -2456.53083313 </i>
    <i name="XCdc">   -170.61068534 </i>
    <i name="pawpsdc">   1743.38078555 </i>
    <i name="pawaedc">  -1464.83830248 </i>
    <i name="eentropy">     -0.00000000 </i>
    <i name="bandstr">   -325.41803087 </i>
    <i name="atom">   1333.72818728 </i>
    <i name="e_fr_energy">    -49.86593101 </i>
    <i name="e_wo_entrp">    -49.86593101 </i>
    <i name="e_0_energy">    -49.86593101 </i>
   </energy>
  </scstep>
  <structure>
   <crystal>
    <varray name="basis" >
     <v>       6.01920000       0.00000000       0.00000000 </v>
     <v>       0.00000000      10.14000000       0.00000000 </v>
     <v>       0.00000000       0.00000000      15.00000000 </v>
    </varray>
    <i name="volume">    915.52032000 </i>
    <varray name="rec_basis" >
     <v>       0.16613503       0.00000000       0.00000000 </v>
     <v>       0.00000000       0.09861933       0.00000000 </v>
     <v>       0.00000000       0.00000000       0.06666667 </v>
    </varray>
   </crystal>
   <varray name="positions" >
    <v>       0.44077797       0.87830704       0.22257542 </v>
    <v>       0.94032130       0.87927404       0.27348314 </v>
    <v>       0.44140279       0.61535106       0.22434042 </v>
    <v>       0.94120187       0.61688116       0.27682230 </v>
    <v>       0.43869388       0.37785154       0.27911857 </v>
    <v>       0.94004353       0.37962228       0.22463856 </v>
    <v>       0.43979549       0.11695151       0.27176358 </v>
    <v>       0.94036373       0.11636323       0.22168828 </v>
    <v>       0.19032814      -0.00263264       0.24663971 </v>
    <v>       0.69034477      -0.00224489       0.24749812 </v>
    <v>       0.19053194       0.49785128       0.25057713 </v>
    <v>       0.69035024       0.49753938       0.25380313 </v>
    <v>       0.55270735       0.43883695       0.47820590 </v>
    <v>       0.75833422       0.35687370       0.47854213 </v>
    <v>       0.46557364       0.36506786       0.55794360 </v>
   </varray>
  </structure>
  <varray name="forces" >
   <v>       0.00087642      -0.00259485      -0.00818182 </v>
   <v>       0.00882879      -0.00309558      -0.00572280 </v>
   <v>      -0.01417907      -0.00738661       0.00535572 </v>
   <v>       0.00514851       0.01244049       0.00555607 </v>
   <v>      -0.00627493       0.00529558      -0.00274114 </v>
   <v>       0.01126476      -0.00372082      -0.00286258 </v>
   <v>      -0.00531164       0.00491410       0.00662942 </v>
   <v>      -0.00784708       0.00464693       0.00185678 </v>
   <v>      -0.00432070      -0.00681944       0.00497301 </v>
   <v>      -0.00046937      -0.00572652       0.00298422 </v>
   <v>      -0.00549148      -0.00825553      -0.00205629 </v>
   <v>       0.01079507      -0.00340682      -0.00634179 </v>
   <v>      -0.00690922      -0.00471626       0.01119428 </v>
   <v>       0.00333813       0.00557773      -0.00253162 </v>
   <v>       0.01055182       0.01284760      -0.00811146 </v>
  </varray>
  <varray name="stress" >
   <v>       8.56234570       0.14615021       0.08728991 </v>
   <v>       0.14614966     -10.46547625       0.13818679 </v>
   <v>       0.08728811       0.13818817      -1.29686424 </v>
  </varray>
  <energy>
   <i name="e_fr_energy">    -49.86593101 </i>
   <i name="e_wo_entrp">    -49.86593101 </i>
   <i name="e_0_energy">     -0.00000000 </i>
  </energy>
  <time name="totalsc">  596.26  598.06</time>
 </calculation>
 <calculation>
  <scstep>
   <time name="dav">   14.90   14.90</time>
   <time name="total">  118.59  118.59</time>
   <energy>
    <i name="alphaZ">     15.92198659 </i>
    <i name="ewald">   1274.76211038 </i>
    <i name="hartreedc">  -2456.72641539 </i>
    <i name="XCdc">   -170.60941291 </i>
    <i name="pawpsdc">   1743.42628899 </i>
    <i name="pawaedc">  -1464.88379943 </i>
    <i name="eentropy">     -0.00000000 </i>
    <i name="bandstr">   -325.48455119 </i>
    <i name="atom">   1333.72818728 </i>
    <i name="e_fr_energy">    -49.86560568 </i>
    <i name="e_wo_entrp">    -49.86560568 </i>
    <i name="e_0_energy">    -49.86560568 </i>
   </energy>
  </scstep>
  <scstep>
   <time name="dav">   19.56   19.62</time>
   <time name="total">  123.07  123.13</time>
   <energy>
    <i name="e_fr_energy">    -49.86597997 </i>
    <i name="e_wo_entrp">    -49.86597997 </i>
    <i name="e_0_energy">    -49.86597997 </i>
   </energy>
  </scstep>
  <scstep>
   <time name="dav">   20.23   20.32</time>
   <time name="total">  123.40  123.71</time>
   <energy>
    <i name="e_fr_energy">    -49.86598451 </i>
    <i name="e_wo_entrp">    -49.86598451 </i>
    <i name="e_0_energy">    -49.86598451 </i>
   </energy>
  </scstep>
  <scstep>
   <time name="dav">   17.21   17.21</time>
   <time name="total">  121.40  121.54</time>
   <energy>
    <i name="e_fr_energy">    -49.86600555 </i>
    <i name="e_wo_entrp">    -49.86600555 </i>
    <i name="e_0_energy">    -49.86600555 </i>
   </energy>
  </scstep>
  <scstep>
   <time name="dav">   14.28   14.28</time>
   <time name="total">  116.61  116.61</time>
   <energy>
    <i name="alphaZ">     15.92198659 </i>
    <i name="ewald">   1274.76211038 </i>
    <i name="hartreedc">  -2456.73164991 </i>
    <i name="XCdc">   -170.60489156 </i>
    <i name="pawpsdc">   1743.75695834 </i>
    <i name="pawaedc">  -1465.21517016 </i>
    <i name="eentropy">     -0.00000000 </i>
    <i name="bandstr">   -325.48353637 </i>
    <i name="atom">   1333.72818728 </i>
    <i name="e_fr_energy">    -49.86600540 </i>
    <i name="e_wo_entrp">    -49.86600540 </i>
    <i name="e_0_energy">    -49.86600540 </i>
   </energy>
  </scstep>
  <structure>
   <crystal>
    <varray name="basis" >
     <v>       6.01920000       0.00000000       0.00000000 </v>
     <v>       0.00000000      10.14000000       0.00000000 </v>
     <v>       0.00000000       0.00000000      15.00000000 </v>
    </varray>
    <i name="volume">    915.52032000 </i>
    <varray name="rec_basis" >
     <v>       0.16613503       0.00000000       0.00000000 </v>
     <v>       0.00000000       0.09861933       0.00000000 </v>
     <v>       0.00000000       0.00000000       0.06666667 </v>
    </varray>
   </crystal>
   <varray name="positions" >
    <v>       0.44054291       0.87812704       0.22262108 </v>
    <v>       0.94002619       0.87913114       0.27348197 </v>
    <v>       0.44138154       0.61506634       0.22433983 </v>
    <v>       0.94111988       0.61668010       0.27679824 </v>
    <v>       0.43853275       0.37765591       0.27893650 </v>
    <v>       0.93970875       0.37955879       0.22450161 </v>
    <v>       0.43974712       0.11667003       0.27188482 </v>
    <v>       0.94037078       0.11624285       0.22178914 </v>
    <v>       0.19020297      -0.00271804       0.24676415 </v>
    <v>       0.69019888      -0.00236626       0.24743271 </v>
    <v>       0.19020247       0.49772872       0.25046287 </v>
    <v>       0.69013592       0.49744834       0.25390942 </v>
    <v>       0.55307706       0.43929234       0.47816969 </v>
    <v>       0.75896704       0.35747942       0.47844946 </v>
    <v>       0.46655662       0.36589678       0.55809851 </v>
   </varray>
  </structure>
  <varray name="forces" >
   <v>       0.00266290      -0.00500238      -0.01074314 </v>
   <v>       0.01678367      -0.00611881      -0.00449858 </v>
   <v>      -0.03066651       0.01966467       0.00157007 </v>
   <v>      -0.00106540       0.03079190       0.00937551 </v>
   <v>      -0.01776922      -0.00155906       0.00847890 </v>
   <v>       0.01281755      -0.01523006       0.00223230 </v>
   <v>      -0.00634937       0.02347835       0.00275935 </v>
   <v>      -0.01748135       0.01045786      -0.00454213 </v>
   <v>      -0.00914962      -0.02180169       0.00442854 </v>
   <v>       0.00466965      -0.01048376       0.00695591 </v>
   <v>       0.02189648      -0.02101238      -0.00468428 </v>
   <v>       0.01785511      -0.01543882      -0.01584267 </v>
   <v>       0.00133073      -0.00532967       0.00052730 </v>
   <v>      -0.00426452       0.01105793      -0.00168055 </v>
   <v>       0.00872991       0.00652590       0.00566346 </v>
  </varray>
  <varray name="stress" >
   <v>       8.55957913       0.14211941       0.08250325 </v>
   <v>       0.14211873     -10.38825100       0.11772505 </v>
   <v>       0.08250153       0.11772660      -1.25415626 </v>
  </varray>
  <energy>
   <i name="e_fr_energy">    -49.86600540 </i>
   <i name="e_wo_entrp">    -49.86600540 </i>
   <i name="e_0_energy">     -0.00000000 </i>
  </energy>
  <time name="totalsc">  833.01  834.60</time>
 </calculation>
 <calculation>
  <scstep>
   <time name="dav">   15.81   15.82</time>
   <time name="total">  120.86  121.15</time>
   <energy>
    <i name="alphaZ">     15.92198659 </i>
    <i name="ewald">   1274.65774892 </i>
    <i name="hartreedc">  -2456.64896973 </i>
    <i name="XCdc">   -170.60524498 </i>
    <i name="pawpsdc">   1743.75600470 </i>
    <i name="pawaedc">  -1465.21413641 </i>
    <i name="eentropy">     -0.00000000 </i>
    <i name="bandstr">   -325.46152576 </i>
    <i name="atom">   1333.72818728 </i>
    <i name="e_fr_energy">    -49.86594940 </i>
    <i name="e_wo_entrp">    -49.86594940 </i>
    <i name="e_0_energy">    -49.86594940 </i>
   </energy>
  </scstep>
  <scstep>
   <time name="dav">   18.96   19.06</time>
   <time name="total">  125.14  125.31</time>
   <energy>
    <i name="e_fr_energy">    -49.86600758 </i>
    <i name="e_wo_entrp">    -49.86600758 </i>
    <i name="e_0_energy">    -49.86600758 </i>
   </energy>
  </scstep>
  <scstep>
   <time name="dav">   15.39   15.40</time>
   <time name="total">  121.33  121.43</time>
   <energy>
    <i name="alphaZ">     15.92198659 </i>
    <i name="ewald">   1274.65774892 </i>
    <i name="hartreedc">  -2456.63460704 </i>
    <i name="XCdc">   -170.60690314 </i>
    <i name="pawpsdc">   1743.64555588 </i>
    <i name="pawaedc">  -1465.10315058 </i>
    <i name="eentropy">     -0.00000000 </i>
    <i name="bandstr">   -325.47482590 </i>
    <i name="atom">   1333.72818728 </i>
    <i name="e_fr_energy">    -49.86600800 </i>
    <i name="e_wo_entrp">    -49.86600800 </i>
    <i name="e_0_energy">    -49.86600800 </i>
   </energy>
  </scstep>
  <structure>
   <crystal>
    <varray name="basis" >
     <v>       6.01920000       0.00000000       0.00000000 </v>
     <v>       0.00000000      10.14000000       0.00000000 </v>
     <v>       0.00000000       0.00000000      15.00000000 </v>
    </varray>
    <i name="volume">    915.52032000 </i>
    <varray name="rec_basis" >
     <v>       0.16613503       0.00000000       0.00000000 </v>
     <v>       0.00000000       0.09861933       0.00000000 </v>
     <v>       0.00000000       0.00000000       0.06666667 </v>
    </varray>
   </crystal>
   <varray name="positions" >
    <v>       0.44063721       0.87819925       0.22260276 </v>
    <v>       0.94014459       0.87918847       0.27348244 </v>
    <v>       0.44139006       0.61518057       0.22434007 </v>
    <v>       0.94115278       0.61676076       0.27680790 </v>
    <v>       0.43859740       0.37773440       0.27900955 </v>
    <v>       0.93984306       0.37958426       0.22455655 </v>
    <v>       0.43976652       0.11678295       0.27183618 </v>
    <v>       0.94036795       0.11629114       0.22174868 </v>
    <v>       0.19025319      -0.00268378       0.24671422 </v>
    <v>       0.69025741      -0.00231757       0.24745895 </v>
    <v>       0.19033465       0.49777789       0.25050871 </v>
    <v>       0.69022190       0.49748486       0.25386677 </v>
    <v>       0.55292873       0.43910964       0.47818422 </v>
    <v>       0.75871316       0.35723641       0.47848664 </v>
    <v>       0.46616225       0.36556422       0.55803636 </v>
   </varray>
  </structure>
  <varray name="forces" >
   <v>       0.00154285      -0.00435624      -0.00963122 </v>
   <v>       0.01321224      -0.00536994      -0.00507927 </v>
   <v>      -0.02461631       0.00826383       0.00296320 </v>
   <v>       0.00116955       0.02302685       0.00771806 </v>
   <v>      -0.01380828       0.00079392       0.00437148 </v>
   <v>       0.01141995      -0.01104024      -0.00008517 </v>
   <v>      -0.00606285       0.01565562       0.00443032 </v>
   <v>      -0.01391056       0.00759008      -0.00199455 </v>
   <v>      -0.00788955      -0.01631100       0.00390132 </v>
   <v>       0.00252284      -0.00900932       0.00570786 </v>
   <v>       0.01041241      -0.01677085      -0.00339596 </v>
   <v>       0.01505388      -0.01060162      -0.01300166 </v>
   <v>      -0.00161414      -0.00544899       0.00493632 </v>
   <v>       0.00054999       0.01148254      -0.00257065 </v>
   <v>       0.01201799       0.01209534       0.00172992 </v>
  </varray>
  <varray name="stress" >
   <v>       8.55503984       0.15000000       0.08298590 </v>
   <v>       0.14999926     -10.42915918       0.12565502 </v>
   <v>       0.08298415       0.12565642      -1.26793850 </v>
  </varray>
  <energy>
   <i name="e_fr_energy">    -49.86600800 </i>
   <i name="e_wo_entrp">    -49.86600800 </i>
   <i name="e_0_energy">     -0.00000000 </i>
  </energy>
  <time name="totalsc">  601.40  602.96</time>
 </calculation>
 <calculation>
  <scstep>
   <time name="dav">   15.69   15.71</time>
   <time name="total">  117.86  117.90</time>
   <energy>
    <i name="alphaZ">     15.92198659 </i>
    <i name="ewald">   1274.70291064 </i>
    <i name="hartreedc">  -2456.66484652 </i>
    <i name="XCdc">   -170.60725066 </i>
    <i name="pawpsdc">   1743.60583651 </i>
    <i name="pawaedc">  -1465.06337769 </i>
    <i name="eentropy">     -0.00000000 </i>
    <i name="bandstr">   -325.48944953 </i>
    <i name="atom">   1333.72818728 </i>
    <i name="e_fr_energy">    -49.86600338 </i>
    <i name="e_wo_entrp">    -49.86600338 </i>
    <i name="e_0_energy">    -49.86600338 </i>
   </energy>
  </scstep>
  <scstep>
   <time name="dav">   18.21   18.21</time>
   <time name="total">  120.05  120.07</time>
   <energy>
    <i name="e_fr_energy">    -49.86601502 </i>
    <i name="e_wo_entrp">    -49.86601502 </i>
    <i name="e_0_energy">    -49.86601502 </i>
   </energy>
  </scstep>
  <scstep>
   <time name="dav">    9.92    9.93</time>
   <time name="total">  112.93  112.95</time>
   <energy>
    <i name="alphaZ">     15.92198659 </i>
    <i name="ewald">   1274.70291064 </i>
    <i name="hartreedc">  -2456.67478279 </i>
    <i name="XCdc">   -170.60630743 </i>
    <i name="pawpsdc">   1743.67237452 </i>
    <i name="pawaedc">  -1465.13037125 </i>
    <i name="eentropy">     -0.00000000 </i>
    <i name="bandstr">   -325.48001166 </i>
    <i name="atom">   1333.72818728 </i>
    <i name="e_fr_energy">    -49.86601409 </i>
    <i name="e_wo_entrp">    -49.86601409 </i>
    <i name="e_0_energy">    -49.86601409 </i>
   </energy>
  </scstep>
  <structure>
   <crystal>
    <varray name="basis" >
     <v>       6.01920000       0.00000000       0.00000000 </v>
     <v>       0.00000000      10.14000000       0.00000000 </v>
     <v>       0.00000000       0.00000000      15.00000000 </v>
    </varray>
    <i name="volume">    915.52032000 </i>
    <varray name="rec_basis" >
     <v>       0.16613503       0.00000000       0.00000000 </v>
     <v>       0.00000000       0.09861933       0.00000000 </v>
     <v>       0.00000000       0.00000000       0.06666667 </v>
    </varray>
   </crystal>
   <varray name="positions" >
    <v>       0.44059646       0.87816805       0.22261068 </v>
    <v>       0.94009343       0.87916370       0.27348223 </v>
    <v>       0.44138638       0.61513121       0.22433997 </v>
    <v>       0.94113856       0.61672591       0.27680372 </v>
    <v>       0.43856946       0.37770048       0.27897798 </v>
    <v>       0.93978503       0.37957325       0.22453281 </v>
    <v>       0.43975814       0.11673416       0.27185719 </v>
    <v>       0.94036917       0.11627028       0.22176616 </v>
    <v>       0.19023149      -0.00269858       0.24673580 </v>
    <v>       0.69023212      -0.00233860       0.24744762 </v>
    <v>       0.19027753       0.49775664       0.25048891 </v>
    <v>       0.69018475       0.49746908       0.25388520 </v>
    <v>       0.55299282       0.43918858       0.47817794 </v>
    <v>       0.75882286       0.35734142       0.47847058 </v>
    <v>       0.46633266       0.36570792       0.55806322 </v>
   </varray>
  </structure>
  <varray name="forces" >
   <v>       0.00273098      -0.00421981      -0.01003646 </v>
   <v>       0.01517932      -0.00515546      -0.00473796 </v>
   <v>      -0.02627392       0.01361836       0.00235367 </v>
   <v>       0.00018892       0.02660273       0.00838073 </v>
   <v>      -0.01442487       0.00030046       0.00589183 </v>
   <v>       0.01265988      -0.01196161       0.00106131 </v>
   <v>      -0.00608764       0.01948534       0.00378932 </v>
   <v>      -0.01512360       0.00951201      -0.00311152 </v>
   <v>      -0.00826161      -0.01905490       0.00650934 </v>
   <v>       0.00299416      -0.01095807       0.00545926 </v>
   <v>       0.01370665      -0.01937622      -0.00591804 </v>
   <v>       0.01569827      -0.01320446      -0.01295275 </v>
   <v>       0.00029703      -0.00398969       0.00268843 </v>
   <v>      -0.00243759       0.01022421      -0.00195419 </v>
   <v>       0.00915401       0.00817711       0.00257704 </v>
  </varray>
  <varray name="stress" >
   <v>       8.56380331       0.13723234       0.08255077 </v>
   <v>       0.13723179     -10.40146749       0.12167968 </v>
   <v>       0.08254892       0.12168107      -1.25581800 </v>
  </varray>
  <energy>
   <i name="e_fr_energy">    -49.86601409 </i>
   <i name="e_wo_entrp">    -49.86601409 </i>
   <i name="e_0_energy">     -0.00000000 </i>
  </energy>
  <time name="totalsc">  589.27  593.61</time>
 </calculation>
 <calculation>
  <scstep>
   <time name="dav">   15.26   15.26</time>
   <time name="total">  122.73  122.76</time>
   <energy>
    <i name="alphaZ">     15.92198659 </i>
    <i name="ewald">   1274.69034973 </i>
    <i name="hartreedc">  -2456.66890742 </i>
    <i name="XCdc">   -170.60703712 </i>
    <i name="pawpsdc">   1743.69311329 </i>
    <i name="pawaedc">  -1465.15118526 </i>
    <i name="eentropy">     -0.00000000 </i>
    <i name="bandstr">   -325.47257249 </i>
    <i name="atom">   1333.72818728 </i>
    <i name="e_fr_energy">    -49.86606538 </i>
    <i name="e_wo_entrp">    -49.86606538 </i>
    <i name="e_0_energy">    -49.86606538 </i>
   </energy>
  </scstep>
  <scstep>
   <time name="dav">   21.89   21.93</time>
   <time name="total">  127.32  127.38</time>
   <energy>
    <i name="e_fr_energy">    -49.86608649 </i>
    <i name="e_wo_entrp">    -49.86608649 </i>
    <i name="e_0_energy">    -49.86608649 </i>
   </energy>
  </scstep>
  <scstep>
   <time name="dav">   14.22   14.22</time>
   <time name="total">  120.76  120.78</time>
   <energy>
    <i name="alphaZ">     15.92198659 </i>
    <i name="ewald">   1274.69034973 </i>
    <i name="hartreedc">  -2456.66247408 </i>
    <i name="XCdc">   -170.60673262 </i>
    <i name="pawpsdc">   1743.66812147 </i>
    <i name="pawaedc">  -1465.12624360 </i>
    <i name="eentropy">     -0.00000000 </i>
    <i name="bandstr">   -325.47928126 </i>
    <i name="atom">   1333.72818728 </i>
    <i name="e_fr_energy">    -49.86608647 </i>
    <i name="e_wo_entrp">    -49.86608647 </i>
    <i name="e_0_energy">    -49.86608647 </i>
   </energy>
  </scstep>
  <structure>
   <crystal>
    <varray name="basis" >
     <v>       6.01920000       0.00000000       0.00000000 </v>
     <v>       0.00000000      10.14000000       0.00000000 </v>
     <v>       0.00000000       0.00000000      15.00000000 </v>
    </varray>
    <i name="volume">    915.52032000 </i>
    <varray name="rec_basis" >
     <v>       0.16613503       0.00000000       0.00000000 </v>
     <v>       0.00000000       0.09861933       0.00000000 </v>
     <v>       0.00000000       0.00000000       0.06666667 </v>
    </varray>
   </crystal>
   <varray name="positions" >
    <v>       0.44054681       0.87811865       0.22261166 </v>
    <v>       0.94006020       0.87912182       0.27347724 </v>
    <v>       0.44131620       0.61508290       0.22434216 </v>
    <v>       0.94111935       0.61671677       0.27680628 </v>
    <v>       0.43849507       0.37765398       0.27894014 </v>
    <v>       0.93973603       0.37954043       0.22450100 </v>
    <v>       0.43973145       0.11669525       0.27189006 </v>
    <v>       0.94033341       0.11625537       0.22178728 </v>
    <v>       0.19018099      -0.00274709       0.24677213 </v>
    <v>       0.69020452      -0.00238384       0.24743734 </v>
    <v>       0.19023241       0.49769874       0.25045560 </v>
    <v>       0.69017219       0.49742782       0.25389783 </v>
    <v>       0.55308229       0.43929201       0.47817192 </v>
    <v>       0.75896870       0.35750182       0.47844639 </v>
    <v>       0.46659125       0.36591889       0.55810296 </v>
   </varray>
  </structure>
  <varray name="forces" >
   <v>       0.00269471      -0.00145123      -0.00905822 </v>
   <v>       0.01417182      -0.00395399      -0.00397395 </v>
   <v>      -0.02307376       0.01419261       0.00176811 </v>
   <v>      -0.00019774       0.02069463       0.00670542 </v>
   <v>      -0.01143750       0.00052835       0.00774610 </v>
   <v>       0.01189329      -0.01056670       0.00280973 </v>
   <v>      -0.00654529       0.01587523       0.00179248 </v>
   <v>      -0.01463776       0.00605042      -0.00354143 </v>
   <v>      -0.00575487      -0.01688138       0.00595811 </v>
   <v>       0.00134632      -0.00949491       0.00628212 </v>
   <v>       0.01347884      -0.01693998      -0.00557296 </v>
   <v>       0.01194130      -0.01117488      -0.01428298 </v>
   <v>       0.00140015      -0.00063480      -0.00254666 </v>
   <v>      -0.00257104       0.00924464      -0.00144553 </v>
   <v>       0.00729153       0.00451199       0.00735964 </v>
  </varray>
  <varray name="stress" >
   <v>       8.55903160       0.14881676       0.07787849 </v>
   <v>       0.14881616     -10.40956211       0.10789073 </v>
   <v>       0.07787676       0.10789205      -1.24914850 </v>
  </varray>
  <energy>
   <i name="e_fr_energy">    -49.86608647 </i>
   <i name="e_wo_entrp">    -49.86608647 </i>
   <i name="e_0_energy">     -0.00000000 </i>
  </energy>
  <time name="totalsc">  602.38  603.32</time>
 </calculation>
 <calculation>
  <scstep>
   <time name="dav">   16.70   16.70</time>
   <time name="total">  121.53  121.55</time>
   <energy>
    <i name="alphaZ">     15.92198659 </i>
    <i name="ewald">   1274.65147939 </i>
    <i name="hartreedc">  -2456.63831538 </i>
    <i name="XCdc">   -170.60947816 </i>
    <i name="pawpsdc">   1743.66317087 </i>
    <i name="pawaedc">  -1465.12134389 </i>
    <i name="eentropy">     -0.00000000 </i>
    <i name="bandstr">   -325.46170924 </i>
    <i name="atom">   1333.72818728 </i>
    <i name="e_fr_energy">    -49.86602255 </i>
    <i name="e_wo_entrp">    -49.86602255 </i>
    <i name="e_0_energy">    -49.86602255 </i>
   </energy>
  </scstep>
  <scstep>
   <time name="dav">   20.92   20.99</time>
   <time name="total">  125.94  126.42</time>
   <energy>
    <i name="e_fr_energy">    -49.86622319 </i>
    <i name="e_wo_entrp">    -49.86622319 </i>
    <i name="e_0_energy">    -49.86622319 </i>
   </energy>
  </scstep>
  <scstep>
   <time name="dav">   18.40   18.43</time>
   <time name="total">  119.57  119.78</time>
   <energy>
    <i name="alphaZ">     15.92198659 </i>
    <i name="ewald">   1274.65147939 </i>
    <i name="hartreedc">  -2456.63016140 </i>
    <i name="XCdc">   -170.60808952 </i>
    <i name="pawpsdc">   1743.61577857 </i>
    <i name="pawaedc">  -1465.07437307 </i>
    <i name="eentropy">     -0.00000000 </i>
    <i name="bandstr">   -325.47102709 </i>
    <i name="atom">   1333.72818728 </i>
    <i name="e_fr_energy">    -49.86621924 </i>
    <i name="e_wo_entrp">    -49.86621924 </i>
    <i name="e_0_energy">    -49.86621924 </i>
   </energy>
  </scstep>
  <structure>
   <crystal>
    <varray name="basis" >
     <v>       6.01920000       0.00000000       0.00000000 </v>
     <v>       0.00000000      10.14000000       0.00000000 </v>
     <v>       0.00000000       0.00000000      15.00000000 </v>
    </varray>
    <i name="volume">    915.52032000 </i>
    <varray name="rec_basis" >
     <v>       0.16613503       0.00000000       0.00000000 </v>
     <v>       0.00000000       0.09861933       0.00000000 </v>
     <v>       0.00000000       0.00000000       0.06666667 </v>
    </varray>
   </crystal>
   <varray name="positions" >
    <v>       0.44039786       0.87797044       0.22261461 </v>
    <v>       0.93996051       0.87899619       0.27346227 </v>
    <v>       0.44110567       0.61493796       0.22434876 </v>
    <v>       0.94106173       0.61668934       0.27681395 </v>
    <v>       0.43827187       0.37751445       0.27882663 </v>
    <v>       0.93958906       0.37944195       0.22440556 </v>
    <v>       0.43965138       0.11657853       0.27198865 </v>
    <v>       0.94022611       0.11621065       0.22185062 </v>
    <v>       0.19002948      -0.00289263       0.24688114 </v>
    <v>       0.69012172      -0.00251956       0.24740653 </v>
    <v>       0.19009703       0.49752503       0.25035569 </v>
    <v>       0.69013453       0.49730403       0.25393574 </v>
    <v>       0.55335069       0.43960229       0.47815386 </v>
    <v>       0.75940623       0.35798304       0.47837384 </v>
    <v>       0.46736701       0.36655178       0.55822217 </v>
   </varray>
  </structure>
  <varray name="forces" >
   <v>       0.00349114       0.00669149      -0.00591893 </v>
   <v>       0.01119734      -0.00042988      -0.00157792 </v>
   <v>      -0.01151718       0.01539043       0.00038044 </v>
   <v>      -0.00161538       0.00211450       0.00178855 </v>
   <v>      -0.00031978       0.00082949       0.01333268 </v>
   <v>       0.00944268      -0.00631761       0.00833092 </v>
   <v>      -0.00774829       0.00431246      -0.00430603 </v>
   <v>      -0.01282733      -0.00455294      -0.00472470 </v>
   <v>       0.00287696      -0.00782610       0.00446437 </v>
   <v>      -0.00449499      -0.00499922       0.00808210 </v>
   <v>       0.00921031      -0.00778021      -0.00451662 </v>
   <v>      -0.00099318      -0.00481321      -0.01750410 </v>
   <v>       0.00541910       0.00915871      -0.01949647 </v>
   <v>      -0.00343450       0.00545238       0.00028313 </v>
   <v>       0.00131311      -0.00723029       0.02138259 </v>
  </varray>
  <varray name="stress" >
   <v>       8.54809440       0.17328662       0.06351626 </v>
   <v>       0.17328603     -10.42309513       0.06614299 </v>
   <v>       0.06351451       0.06614432      -1.22450040 </v>
  </varray>
  <energy>
   <i name="e_fr_energy">    -49.86621924 </i>
   <i name="e_wo_entrp">    -49.86621924 </i>
   <i name="e_0_energy">     -0.00000000 </i>
  </energy>
  <time name="totalsc">  596.60  598.36</time>
 </calculation>
 <calculation>
  <scstep>
   <time name="dav">   15.76   15.78</time>
   <time name="total">  120.65  120.81</time>
   <energy>
    <i name="alphaZ">     15.92198659 </i>
    <i name="ewald">   1274.66238363 </i>
    <i name="hartreedc">  -2456.66032369 </i>
    <i name="XCdc">   -170.60945295 </i>
    <i name="pawpsdc">   1743.60144110 </i>
    <i name="pawaedc">  -1465.06011427 </i>
    <i name="eentropy">     -0.00000000 </i>
    <i name="bandstr">   -325.45039719 </i>
    <i name="atom">   1333.72818728 </i>
    <i name="e_fr_energy">    -49.86628949 </i>
    <i name="e_wo_entrp">    -49.86628949 </i>
    <i name="e_0_energy">    -49.86628949 </i>
   </energy>
  </scstep>
  <scstep>
   <time name="dav">   19.56   19.59</time>
   <time name="total">  125.48  125.64</time>
   <energy>
    <i name="alphaZ">     15.92198659 </i>
    <i name="ewald">   1274.66238363 </i>
    <i name="hartreedc">  -2456.65290037 </i>
    <i name="XCdc">   -170.60955635 </i>
    <i name="pawpsdc">   1743.52967340 </i>
    <i name="pawaedc">  -1464.98794377 </i>
    <i name="eentropy">     -0.00000000 </i>
    <i name="bandstr">   -325.45812578 </i>
    <i name="atom">   1333.72818728 </i>
    <i name="e_fr_energy">    -49.86629538 </i>
    <i name="e_wo_entrp">    -49.86629538 </i>
    <i name="e_0_energy">    -49.86629538 </i>
   </energy>
  </scstep>
  <structure>
   <crystal>
    <varray name="basis" >
     <v>       6.01920000       0.00000000       0.00000000 </v>
     <v>       0.00000000      10.14000000       0.00000000 </v>
     <v>       0.00000000       0.00000000      15.00000000 </v>
    </varray>
    <i name="volume">    915.52032000 </i>
    <varray name="rec_basis" >
     <v>       0.16613503       0.00000000       0.00000000 </v>
     <v>       0.00000000       0.09861933       0.00000000 </v>
     <v>       0.00000000       0.00000000       0.06666667 </v>
    </varray>
   </crystal>
   <varray name="positions" >
    <v>       0.44039939       0.87797394       0.22260544 </v>
    <v>       0.93999665       0.87898480       0.27345853 </v>
    <v>       0.44104264       0.61496219       0.22434991 </v>
    <v>       0.94105056       0.61669205       0.27681742 </v>
    <v>       0.43825217       0.37750488       0.27883845 </v>
    <v>       0.93961434       0.37941896       0.22441092 </v>
    <v>       0.43961406       0.11657903       0.27198994 </v>
    <v>       0.94016641       0.11619625       0.22184834 </v>
    <v>       0.19002836      -0.00292306       0.24689724 </v>
    <v>       0.69009707      -0.00254253       0.24741683 </v>
    <v>       0.19012235       0.49749238       0.25034025 </v>
    <v>       0.69012748       0.49728248       0.25391103 </v>
    <v>       0.55339433       0.43964947       0.47812136 </v>
    <v>       0.75942876       0.35803562       0.47836830 </v>
    <v>       0.46743630       0.36658705       0.55826602 </v>
   </varray>
  </structure>
  <varray name="forces" >
   <v>       0.00230044       0.00503645      -0.00528708 </v>
   <v>       0.00679012      -0.00162814      -0.00081560 </v>
   <v>      -0.00639507       0.00865498       0.00011344 </v>
   <v>      -0.00126075      -0.00400195      -0.00046397 </v>
   <v>       0.00270974       0.00138241       0.01177657 </v>
   <v>       0.00623539      -0.00541849       0.00716708 </v>
   <v>      -0.00671855       0.00139859      -0.00391924 </v>
   <v>      -0.00930271      -0.00696896      -0.00378140 </v>
   <v>       0.00105698      -0.00195938       0.00110100 </v>
   <v>      -0.00175745      -0.00330175       0.00771187 </v>
   <v>       0.00254224      -0.00216250      -0.00217176 </v>
   <v>      -0.00192862      -0.00179103      -0.01575159 </v>
   <v>      -0.00223146       0.00216537      -0.00488945 </v>
   <v>       0.00045309       0.00576449      -0.00093252 </v>
   <v>       0.00750661       0.00282990       0.01014263 </v>
  </varray>
  <varray name="stress" >
   <v>       8.52929596       0.19478399       0.06860698 </v>
   <v>       0.19478331     -10.47103649       0.07950123 </v>
   <v>       0.06860536       0.07950279      -1.26371248 </v>
  </varray>
  <energy>
   <i name="e_fr_energy">    -49.86629538 </i>
   <i name="e_wo_entrp">    -49.86629538 </i>
   <i name="e_0_energy">     -0.00000000 </i>
  </energy>
  <time name="totalsc">  481.18  482.55</time>
 </calculation>
 <calculation>
  <scstep>
   <time name="dav">   15.08   15.08</time>
   <time name="total">  124.05  124.05</time>
   <energy>
    <i name="alphaZ">     15.92198659 </i>
    <i name="ewald">   1274.67967814 </i>
    <i name="hartreedc">  -2456.69535990 </i>
    <i name="XCdc">   -170.61270557 </i>
    <i name="pawpsdc">   1743.48883088 </i>
    <i name="pawaedc">  -1464.94682137 </i>
    <i name="eentropy">     -0.00000000 </i>
    <i name="bandstr">   -325.43011694 </i>
    <i name="atom">   1333.72818728 </i>
    <i name="e_fr_energy">    -49.86632089 </i>
    <i name="e_wo_entrp">    -49.86632089 </i>
    <i name="e_0_energy">    -49.86632089 </i>
   </energy>
  </scstep>
  <scstep>
   <time name="dav">   21.51   21.61</time>
   <time name="total">  125.05  125.28</time>
   <energy>
    <i name="e_fr_energy">    -49.86633689 </i>
    <i name="e_wo_entrp">    -49.86633689 </i>
    <i name="e_0_energy">    -49.86633689 </i>
   </energy>
  </scstep>
  <scstep>
   <time name="dav">   14.51   14.56</time>
   <time name="total">  118.11  118.38</time>
   <energy>
    <i name="alphaZ">     15.92198659 </i>
    <i name="ewald">   1274.67967814 </i>
    <i name="hartreedc">  -2456.67408081 </i>
    <i name="XCdc">   -170.61330333 </i>
    <i name="pawpsdc">   1743.32293502 </i>
    <i name="pawaedc">  -1464.78007165 </i>
    <i name="eentropy">     -0.00000000 </i>
    <i name="bandstr">   -325.45166588 </i>
    <i name="atom">   1333.72818728 </i>
    <i name="e_fr_energy">    -49.86633464 </i>
    <i name="e_wo_entrp">    -49.86633464 </i>
    <i name="e_0_energy">    -49.86633464 </i>
   </energy>
  </scstep>
  <structure>
   <crystal>
    <varray name="basis" >
     <v>       6.01920000       0.00000000       0.00000000 </v>
     <v>       0.00000000      10.14000000       0.00000000 </v>
     <v>       0.00000000       0.00000000      15.00000000 </v>
    </varray>
    <i name="volume">    915.52032000 </i>
    <varray name="rec_basis" >
     <v>       0.16613503       0.00000000       0.00000000 </v>
     <v>       0.00000000       0.09861933       0.00000000 </v>
     <v>       0.00000000       0.00000000       0.06666667 </v>
    </varray>
   </crystal>
   <varray name="positions" >
    <v>       0.44040181       0.87797947       0.22259093 </v>
    <v>       0.94005386       0.87896677       0.27345260 </v>
    <v>       0.44094285       0.61500056       0.22435173 </v>
    <v>       0.94103289       0.61669633       0.27682293 </v>
    <v>       0.43822097       0.37748972       0.27885717 </v>
    <v>       0.93965436       0.37938255       0.22441942 </v>
    <v>       0.43955498       0.11657983       0.27199199 </v>
    <v>       0.94007190       0.11617344       0.22184473 </v>
    <v>       0.19002660      -0.00297124       0.24692273 </v>
    <v>       0.69005804      -0.00257890       0.24743315 </v>
    <v>       0.19016243       0.49744068       0.25031581 </v>
    <v>       0.69011632       0.49724836       0.25387192 </v>
    <v>       0.55346344       0.43972416       0.47806992 </v>
    <v>       0.75946443       0.35811886       0.47835953 </v>
    <v>       0.46754599       0.36664289       0.55833545 </v>
   </varray>
  </structure>
  <varray name="forces" >
   <v>       0.00131245       0.00299209      -0.00392019 </v>
   <v>       0.00165101      -0.00208517       0.00066782 </v>
   <v>       0.00091674      -0.00013379      -0.00014699 </v>
   <v>      -0.00009446      -0.01236716      -0.00350321 </v>
   <v>       0.00721486       0.00331491       0.00941033 </v>
   <v>       0.00323309      -0.00241827       0.00631702 </v>
   <v>      -0.00506294      -0.00115810      -0.00248316 </v>
   <v>      -0.00376598      -0.00934833      -0.00195757 </v>
   <v>      -0.00342401       0.00435822      -0.00102425 </v>
   <v>       0.00049680      -0.00202735       0.00776898 </v>
   <v>      -0.00626621       0.00344353       0.00027796 </v>
   <v>      -0.00296113       0.00303510      -0.01415679 </v>
   <v>      -0.01257652      -0.00863448       0.01404215 </v>
   <v>       0.00438788       0.00478184      -0.00204505 </v>
   <v>       0.01493842       0.01624697      -0.00924704 </v>
  </varray>
  <varray name="stress" >
   <v>       8.52828536       0.20914389       0.08084650 </v>
   <v>       0.20914335     -10.49883278       0.10730181 </v>
   <v>       0.08084462       0.10730323      -1.30451002 </v>
  </varray>
  <energy>
   <i name="e_fr_energy">    -49.86633464 </i>
   <i name="e_wo_entrp">    -49.86633464 </i>
   <i name="e_0_energy">     -0.00000000 </i>
  </energy>
  <time name="totalsc">  598.25  600.21</time>
 </calculation>
 <calculation>
  <scstep>
   <time name="dav">   15.96   15.96</time>
   <time name="total">  121.37  121.38</time>
   <energy>
    <i name="alphaZ">     15.92198659 </i>
    <i name="ewald">   1274.68282301 </i>
    <i name="hartreedc">  -2456.65978061 </i>
    <i name="XCdc">   -170.61291855 </i>
    <i name="pawpsdc">   1743.26647767 </i>
    <i name="pawaedc">  -1464.72329602 </i>
    <i name="eentropy">     -0.00000000 </i>
    <i name="bandstr">   -325.46986755 </i>
    <i name="atom">   1333.72818728 </i>
    <i name="e_fr_energy">    -49.86638817 </i>
    <i name="e_wo_entrp">    -49.86638817 </i>
    <i name="e_0_energy">    -49.86638817 </i>
   </energy>
  </scstep>
  <scstep>
   <time name="dav">   19.32   19.32</time>
   <time name="total">  125.07  125.07</time>
   <energy>
    <i name="alphaZ">     15.92198659 </i>
    <i name="ewald">   1274.68282301 </i>
    <i name="hartreedc">  -2456.66133770 </i>
    <i name="XCdc">   -170.61261291 </i>
    <i name="pawpsdc">   1743.28694508 </i>
    <i name="pawaedc">  -1464.74385394 </i>
    <i name="eentropy">     -0.00000000 </i>
    <i name="bandstr">   -325.46852954 </i>
    <i name="atom">   1333.72818728 </i>
    <i name="e_fr_energy">    -49.86639212 </i>
    <i name="e_wo_entrp">    -49.86639212 </i>
    <i name="e_0_energy">    -49.86639212 </i>
   </energy>
  </scstep>
  <structure>
   <crystal>
    <varray name="basis" >
     <v>       6.01920000       0.00000000       0.00000000 </v>
     <v>       0.00000000      10.14000000       0.00000000 </v>
     <v>       0.00000000       0.00000000      15.00000000 </v>
    </varray>
    <i name="volume">    915.52032000 </i>
    <varray name="rec_basis" >
     <v>       0.16613503       0.00000000       0.00000000 </v>
     <v>       0.00000000       0.09861933       0.00000000 </v>
     <v>       0.00000000       0.00000000       0.06666667 </v>
    </varray>
   </crystal>
   <varray name="positions" >
    <v>       0.44041006       0.87799195       0.22257432 </v>
    <v>       0.94009558       0.87894988       0.27345056 </v>
    <v>       0.44088990       0.61502234       0.22435247 </v>
    <v>       0.94102218       0.61666051       0.27681878 </v>
    <v>       0.43824057       0.37749122       0.27888771 </v>
    <v>       0.93969438       0.37935400       0.22443756 </v>
    <v>       0.43949438       0.11657671       0.27198798 </v>
    <v>       0.93999756       0.11613129       0.22183854 </v>
    <v>       0.19000771      -0.00298562       0.24693534 </v>
    <v>       0.69003805      -0.00260622       0.24745886 </v>
    <v>       0.19015292       0.49742144       0.25030225 </v>
    <v>       0.69009441       0.49723802       0.25381965 </v>
    <v>       0.55343779       0.43974063       0.47806955 </v>
    <v>       0.75950796       0.35818183       0.47835017 </v>
    <v>       0.46768740       0.36672552       0.55835626 </v>
   </varray>
  </structure>
  <varray name="forces" >
   <v>      -0.00049474      -0.00003363      -0.00275213 </v>
   <v>      -0.00231540      -0.00536325       0.00221367 </v>
   <v>       0.00373582      -0.00484840      -0.00120556 </v>
   <v>      -0.00150242      -0.01049741      -0.00434984 </v>
   <v>       0.00664059       0.00404310       0.00566747 </v>
   <v>      -0.00121163      -0.00349236       0.00366823 </v>
   <v>      -0.00214624      -0.00121258      -0.00057823 </v>
   <v>      -0.00053510      -0.00624947      -0.00101372 </v>
   <v>      -0.00305356       0.00739425      -0.00454188 </v>
   <v>       0.00101837      -0.00028524       0.00655669 </v>
   <v>      -0.00494937       0.00569761       0.00364898 </v>
   <v>      -0.00153878       0.00434657      -0.01064057 </v>
   <v>      -0.00879369      -0.00696728       0.00984668 </v>
   <v>       0.00307860       0.00531138      -0.00209941 </v>
   <v>       0.01206754       0.01215671      -0.00442037 </v>
  </varray>
  <varray name="stress" >
   <v>       8.53601704       0.23880056       0.07533120 </v>
   <v>       0.23879978     -10.48624767       0.10551161 </v>
   <v>       0.07532934       0.10551307      -1.27810236 </v>
  </varray>
  <energy>
   <i name="e_fr_energy">    -49.86639212 </i>
   <i name="e_wo_entrp">    -49.86639212 </i>
   <i name="e_0_energy">     -0.00000000 </i>
  </energy>
  <time name="totalsc">  482.12  483.05</time>
 </calculation>
 <calculation>
  <scstep>
   <time name="dav">   15.56   15.63</time>
   <time name="total">  121.22  121.63</time>
   <energy>
    <i name="alphaZ">     15.92198659 </i>
    <i name="ewald">   1274.68835220 </i>
    <i name="hartreedc">  -2456.65102561 </i>
    <i name="XCdc">   -170.61127602 </i>
    <i name="pawpsdc">   1743.30922635 </i>
    <i name="pawaedc">  -1464.76626357 </i>
    <i name="eentropy">     -0.00000000 </i>
    <i name="bandstr">   -325.48561984 </i>
    <i name="atom">   1333.72818728 </i>
    <i name="e_fr_energy">    -49.86643262 </i>
    <i name="e_wo_entrp">    -49.86643262 </i>
    <i name="e_0_energy">    -49.86643262 </i>
   </energy>
  </scstep>
  <scstep>
   <time name="dav">   22.07   22.20</time>
   <time name="total">  123.59  124.06</time>
   <energy>
    <i name="e_fr_energy">    -49.86644705 </i>
    <i name="e_wo_entrp">    -49.86644705 </i>
    <i name="e_0_energy">    -49.86644705 </i>
   </energy>
  </scstep>
  <scstep>
   <time name="dav">   15.43   15.47</time>
   <time name="total">  122.52  123.00</time>
   <energy>
    <i name="alphaZ">     15.92198659 </i>
    <i name="ewald">   1274.68835220 </i>
    <i name="hartreedc">  -2456.65834855 </i>
    <i name="XCdc">   -170.61052440 </i>
    <i name="pawpsdc">   1743.39888738 </i>
    <i name="pawaedc">  -1464.85642036 </i>
    <i name="eentropy">     -0.00000000 </i>
    <i name="bandstr">   -325.47856555 </i>
    <i name="atom">   1333.72818728 </i>
    <i name="e_fr_energy">    -49.86644541 </i>
    <i name="e_wo_entrp">    -49.86644541 </i>
    <i name="e_0_energy">    -49.86644541 </i>
   </energy>
  </scstep>
  <structure>
   <crystal>
    <varray name="basis" >
     <v>       6.01920000       0.00000000       0.00000000 </v>
     <v>       0.00000000      10.14000000       0.00000000 </v>
     <v>       0.00000000       0.00000000      15.00000000 </v>
    </varray>
    <i name="volume">    915.52032000 </i>
    <varray name="rec_basis" >
     <v>       0.16613503       0.00000000       0.00000000 </v>
     <v>       0.00000000       0.09861933       0.00000000 </v>
     <v>       0.00000000       0.00000000       0.06666667 </v>
    </varray>
   </crystal>
   <varray name="positions" >
    <v>       0.44042610       0.87801619       0.22254204 </v>
    <v>       0.94017668       0.87891705       0.27344661 </v>
    <v>       0.44078696       0.61506468       0.22435392 </v>
    <v>       0.94100134       0.61659087       0.27681071 </v>
    <v>       0.43827866       0.37749413       0.27894707 </v>
    <v>       0.93977219       0.37929849       0.22447282 </v>
    <v>       0.43937657       0.11657063       0.27198018 </v>
    <v>       0.93985307       0.11604936       0.22182651 </v>
    <v>       0.18997100      -0.00301357       0.24695985 </v>
    <v>       0.68999919      -0.00265933       0.24750883 </v>
    <v>       0.19013445       0.49738403       0.25027590 </v>
    <v>       0.69005183       0.49721793       0.25371804 </v>
    <v>       0.55338795       0.43977264       0.47806884 </v>
    <v>       0.75959259       0.35830424       0.47833198 </v>
    <v>       0.46796228       0.36688615       0.55839670 </v>
   </varray>
  </structure>
  <varray name="forces" >
   <v>      -0.00379242      -0.00470260      -0.00030652 </v>
   <v>      -0.00868907      -0.01119120       0.00530010 </v>
   <v>       0.00778429      -0.01250901      -0.00346571 </v>
   <v>      -0.00346666      -0.00567152      -0.00563476 </v>
   <v>       0.00491319       0.00596272      -0.00131843 </v>
   <v>      -0.00853746      -0.00591940      -0.00125689 </v>
   <v>       0.00337256      -0.00124470       0.00323223 </v>
   <v>       0.00514272       0.00012723       0.00083763 </v>
   <v>      -0.00232351       0.01012411      -0.00972316 </v>
   <v>      -0.00158923       0.00127098       0.00462376 </v>
   <v>      -0.00009251       0.00608747       0.01010430 </v>
   <v>      -0.00015859       0.00481318      -0.00658960 </v>
   <v>       0.00022359       0.00109080      -0.00022104 </v>
   <v>       0.00068328       0.00720392      -0.00212665 </v>
   <v>       0.00652982       0.00455803       0.00654475 </v>
  </varray>
  <varray name="stress" >
   <v>       8.54049861       0.29455720       0.06395171 </v>
   <v>       0.29455642     -10.47311960       0.09864022 </v>
   <v>       0.06394989       0.09864160      -1.25606124 </v>
  </varray>
  <energy>
   <i name="e_fr_energy">    -49.86644541 </i>
   <i name="e_wo_entrp">    -49.86644541 </i>
   <i name="e_0_energy">     -0.00000000 </i>
  </energy>
  <time name="totalsc">  598.06  600.94</time>
 </calculation>
 <calculation>
  <scstep>
   <time name="dav">   16.78   16.80</time>
   <time name="total">  125.32  125.43</time>
   <energy>
    <i name="alphaZ">     15.92198659 </i>
    <i name="ewald">   1274.69124627 </i>
    <i name="hartreedc">  -2456.65573587 </i>
    <i name="XCdc">   -170.61001467 </i>
    <i name="pawpsdc">   1743.42033287 </i>
    <i name="pawaedc">  -1464.87797291 </i>
    <i name="eentropy">     -0.00000000 </i>
    <i name="bandstr">   -325.48452449 </i>
    <i name="atom">   1333.72818728 </i>
    <i name="e_fr_energy">    -49.86649493 </i>
    <i name="e_wo_entrp">    -49.86649493 </i>
    <i name="e_0_energy">    -49.86649493 </i>
   </energy>
  </scstep>
  <scstep>
   <time name="dav">   20.19   20.21</time>
   <time name="total">  124.91  125.01</time>
   <energy>
    <i name="alphaZ">     15.92198659 </i>
    <i name="ewald">   1274.69124627 </i>
    <i name="hartreedc">  -2456.65741761 </i>
    <i name="XCdc">   -170.60989638 </i>
    <i name="pawpsdc">   1743.43499338 </i>
    <i name="pawaedc">  -1464.89269525 </i>
    <i name="eentropy">     -0.00000000 </i>
    <i name="bandstr">   -325.48290610 </i>
    <i name="atom">   1333.72818728 </i>
    <i name="e_fr_energy">    -49.86650182 </i>
    <i name="e_wo_entrp">    -49.86650182 </i>
    <i name="e_0_energy">    -49.86650182 </i>
   </energy>
  </scstep>
  <structure>
   <crystal>
    <varray name="basis" >
     <v>       6.01920000       0.00000000       0.00000000 </v>
     <v>       0.00000000      10.14000000       0.00000000 </v>
     <v>       0.00000000       0.00000000      15.00000000 </v>
    </varray>
    <i name="volume">    915.52032000 </i>
    <varray name="rec_basis" >
     <v>       0.16613503       0.00000000       0.00000000 </v>
     <v>       0.00000000       0.09861933       0.00000000 </v>
     <v>       0.00000000       0.00000000       0.06666667 </v>
    </varray>
   </crystal>
   <varray name="positions" >
    <v>       0.44040420       0.87800440       0.22252991 </v>
    <v>       0.94014194       0.87885748       0.27346065 </v>
    <v>       0.44080754       0.61502561       0.22434435 </v>
    <v>       0.94096897       0.61654224       0.27679152 </v>
    <v>       0.43832752       0.37752079       0.27896389 </v>
    <v>       0.93973740       0.37925371       0.22448144 </v>
    <v>       0.43936001       0.11656316       0.27198687 </v>
    <v>       0.93984005       0.11602139       0.22182476 </v>
    <v>       0.18994139      -0.00297975       0.24694010 </v>
    <v>       0.68997416      -0.00267234       0.24753967 </v>
    <v>       0.19012734       0.49739720       0.25029611 </v>
    <v>       0.69003586       0.49723164       0.25366352 </v>
    <v>       0.55337222       0.43978847       0.47806795 </v>
    <v>       0.75962699       0.35837783       0.47831946 </v>
    <v>       0.46810527       0.36696166       0.55842981 </v>
   </varray>
  </structure>
  <varray name="forces" >
   <v>      -0.00471422      -0.00315094       0.00043902 </v>
   <v>      -0.00628076      -0.00349381       0.00318353 </v>
   <v>       0.00364912      -0.00466069      -0.00558101 </v>
   <v>      -0.00207921      -0.00036924      -0.00451894 </v>
   <v>       0.00095612       0.00105145      -0.00227063 </v>
   <v>      -0.00520188      -0.00272160      -0.00174919 </v>
   <v>       0.00414233       0.00079841       0.00381873 </v>
   <v>       0.00204634       0.00035195       0.00158403 </v>
   <v>      -0.00163776       0.00181358      -0.00953532 </v>
   <v>      -0.00074067      -0.00039861       0.00428621 </v>
   <v>      -0.00141116      -0.00026940       0.01058633 </v>
   <v>       0.00348927      -0.00103861      -0.00419321 </v>
   <v>       0.00137251       0.00348220      -0.00302186 </v>
   <v>       0.00158942       0.00637353      -0.00190935 </v>
   <v>       0.00482055       0.00223177       0.00888165 </v>
  </varray>
  <varray name="stress" >
   <v>       8.54434747       0.28622656       0.06550238 </v>
   <v>       0.28622583     -10.46565503       0.09488252 </v>
   <v>       0.06550066       0.09488395      -1.24624263 </v>
  </varray>
  <energy>
   <i name="e_fr_energy">    -49.86650182 </i>
   <i name="e_wo_entrp">    -49.86650182 </i>
   <i name="e_0_energy">     -0.00000000 </i>
  </energy>
  <time name="totalsc">  484.07  485.63</time>
 </calculation>
 <calculation>
  <scstep>
   <time name="dav">   15.57   15.59</time>
   <time name="total">  120.94  121.03</time>
   <energy>
    <i name="alphaZ">     15.92198659 </i>
    <i name="ewald">   1274.69535308 </i>
    <i name="hartreedc">  -2456.65180641 </i>
    <i name="XCdc">   -170.60916359 </i>
    <i name="pawpsdc">   1743.44680458 </i>
    <i name="pawaedc">  -1464.90458001 </i>
    <i name="eentropy">     -0.00000000 </i>
    <i name="bandstr">   -325.49330160 </i>
    <i name="atom">   1333.72818728 </i>
    <i name="e_fr_energy">    -49.86652009 </i>
    <i name="e_wo_entrp">    -49.86652009 </i>
    <i name="e_0_energy">    -49.86652009 </i>
   </energy>
  </scstep>
  <scstep>
   <time name="dav">   23.28   23.30</time>
   <time name="total">  128.13  128.22</time>
   <energy>
    <i name="e_fr_energy">    -49.86653082 </i>
    <i name="e_wo_entrp">    -49.86653082 </i>
    <i name="e_0_energy">    -49.86653082 </i>
   </energy>
  </scstep>
  <scstep>
   <time name="dav">   13.87   13.88</time>
   <time name="total">  122.36  122.45</time>
   <energy>
    <i name="alphaZ">     15.92198659 </i>
    <i name="ewald">   1274.69535308 </i>
    <i name="hartreedc">  -2456.66145934 </i>
    <i name="XCdc">   -170.60856118 </i>
    <i name="pawpsdc">   1743.51806385 </i>
    <i name="pawaedc">  -1464.97627689 </i>
    <i name="eentropy">     -0.00000000 </i>
    <i name="bandstr">   -325.48382109 </i>
    <i name="atom">   1333.72818728 </i>
    <i name="e_fr_energy">    -49.86652771 </i>
    <i name="e_wo_entrp">    -49.86652771 </i>
    <i name="e_0_energy">    -49.86652771 </i>
   </energy>
  </scstep>
  <structure>
   <crystal>
    <varray name="basis" >
     <v>       6.01920000       0.00000000       0.00000000 </v>
     <v>       0.00000000      10.14000000       0.00000000 </v>
     <v>       0.00000000       0.00000000      15.00000000 </v>
    </varray>
    <i name="volume">    915.52032000 </i>
    <varray name="rec_basis" >
     <v>       0.16613503       0.00000000       0.00000000 </v>
     <v>       0.00000000       0.09861933       0.00000000 </v>
     <v>       0.00000000       0.00000000       0.06666667 </v>
    </varray>
   </crystal>
   <varray name="positions" >
    <v>       0.44037106       0.87798656       0.22251156 </v>
    <v>       0.94008936       0.87876733       0.27348189 </v>
    <v>       0.44083869       0.61496648       0.22432986 </v>
    <v>       0.94091998       0.61646863       0.27676247 </v>
    <v>       0.43840147       0.37756114       0.27898935 </v>
    <v>       0.93968476       0.37918593       0.22449448 </v>
    <v>       0.43933495       0.11655186       0.27199698 </v>
    <v>       0.93982033       0.11597906       0.22182211 </v>
    <v>       0.18989657      -0.00292856       0.24691022 </v>
    <v>       0.68993626      -0.00269204       0.24758634 </v>
    <v>       0.19011660       0.49741713       0.25032670 </v>
    <v>       0.69001169       0.49725239       0.25358099 </v>
    <v>       0.55334842       0.43981244       0.47806661 </v>
    <v>       0.75967906       0.35848920       0.47830052 </v>
    <v>       0.46832168       0.36707594       0.55847991 </v>
   </varray>
  </structure>
  <varray name="forces" >
   <v>      -0.00666652       0.00037194       0.00163594 </v>
   <v>      -0.00202074       0.00929742      -0.00005004 </v>
   <v>      -0.00446709       0.00822377      -0.00958520 </v>
   <v>       0.00187099       0.00890684      -0.00291564 </v>
   <v>      -0.00637856      -0.00632775      -0.00354190 </v>
   <v>       0.00189779       0.00206458      -0.00283717 </v>
   <v>       0.00522465       0.00376304       0.00469456 </v>
   <v>      -0.00277444       0.00071844       0.00265740 </v>
   <v>      -0.00129713      -0.01404156      -0.00722357 </v>
   <v>       0.00113698      -0.00430102       0.00244110 </v>
   <v>      -0.00374641      -0.01199640       0.00950538 </v>
   <v>       0.00865558      -0.01060512       0.00076580 </v>
   <v>       0.00220071       0.00903233      -0.00621852 </v>
   <v>       0.00359232       0.00553540      -0.00187823 </v>
   <v>       0.00277184      -0.00064191       0.01255010 </v>
  </varray>
  <varray name="stress" >
   <v>       8.55514243       0.25430939       0.07221237 </v>
   <v>       0.25430858     -10.45599545       0.08820826 </v>
   <v>       0.07221064       0.08820965      -1.24063147 </v>
  </varray>
  <energy>
   <i name="e_fr_energy">    -49.86652771 </i>
   <i name="e_wo_entrp">    -49.86652771 </i>
   <i name="e_0_energy">     -0.00000000 </i>
  </energy>
  <time name="totalsc">  604.19  605.41</time>
 </calculation>
 <calculation>
  <scstep>
   <time name="dav">   16.23   16.30</time>
   <time name="total">  125.92  126.11</time>
   <energy>
    <i name="alphaZ">     15.92198659 </i>
    <i name="ewald">   1274.67098154 </i>
    <i name="hartreedc">  -2456.64931142 </i>
    <i name="XCdc">   -170.60961764 </i>
    <i name="pawpsdc">   1743.53039287 </i>
    <i name="pawaedc">  -1464.98867389 </i>
    <i name="eentropy">     -0.00000000 </i>
    <i name="bandstr">   -325.47050372 </i>
    <i name="atom">   1333.72818728 </i>
    <i name="e_fr_energy">    -49.86655838 </i>
    <i name="e_wo_entrp">    -49.86655838 </i>
    <i name="e_0_energy">    -49.86655838 </i>
   </energy>
  </scstep>
  <scstep>
   <time name="dav">   20.94   20.96</time>
   <time name="total">  130.38  130.49</time>
   <energy>
    <i name="alphaZ">     15.92198659 </i>
    <i name="ewald">   1274.67098154 </i>
    <i name="hartreedc">  -2456.64801544 </i>
    <i name="XCdc">   -170.60963489 </i>
    <i name="pawpsdc">   1743.49782762 </i>
    <i name="pawaedc">  -1464.95598473 </i>
    <i name="eentropy">     -0.00000000 </i>
    <i name="bandstr">   -325.47191151 </i>
    <i name="atom">   1333.72818728 </i>
    <i name="e_fr_energy">    -49.86656354 </i>
    <i name="e_wo_entrp">    -49.86656354 </i>
    <i name="e_0_energy">    -49.86656354 </i>
   </energy>
  </scstep>
  <structure>
   <crystal>
    <varray name="basis" >
     <v>       6.01920000       0.00000000       0.00000000 </v>
     <v>       0.00000000      10.14000000       0.00000000 </v>
     <v>       0.00000000       0.00000000      15.00000000 </v>
    </varray>
    <i name="volume">    915.52032000 </i>
    <varray name="rec_basis" >
     <v>       0.16613503       0.00000000       0.00000000 </v>
     <v>       0.00000000       0.09861933       0.00000000 </v>
     <v>       0.00000000       0.00000000       0.06666667 </v>
    </varray>
   </crystal>
   <varray name="positions" >
    <v>       0.44032690       0.87797845       0.22250499 </v>
    <v>       0.94005449       0.87874448       0.27349254 </v>
    <v>       0.44083606       0.61495668       0.22430672 </v>
    <v>       0.94090292       0.61645319       0.27674299 </v>
    <v>       0.43841260       0.37756608       0.27899637 </v>
    <v>       0.93966597       0.37915674       0.22449639 </v>
    <v>       0.43934377       0.11655533       0.27200984 </v>
    <v>       0.93979897       0.11595943       0.22182516 </v>
    <v>       0.18986859      -0.00293697       0.24688320 </v>
    <v>       0.68992179      -0.00271249       0.24761395 </v>
    <v>       0.19009576       0.49739791       0.25035783 </v>
    <v>       0.69003508       0.49723698       0.25354057 </v>
    <v>       0.55334544       0.43984659       0.47805566 </v>
    <v>       0.75972014       0.35855898       0.47828785 </v>
    <v>       0.46844240       0.36713210       0.55852594 </v>
   </varray>
  </structure>
  <varray name="forces" >
   <v>      -0.00504247       0.00206273       0.00197532 </v>
   <v>       0.00015450       0.01112784      -0.00102147 </v>
   <v>      -0.00629180       0.00678409      -0.00850580 </v>
   <v>       0.00261804       0.01007174      -0.00177452 </v>
   <v>      -0.00671684      -0.00699391      -0.00405048 </v>
   <v>       0.00455229       0.00249708      -0.00293896 </v>
   <v>       0.00304418       0.00075114       0.00374938 </v>
   <v>      -0.00391892       0.00052854       0.00250680 </v>
   <v>       0.00074616      -0.01462446      -0.00523745 </v>
   <v>      -0.00054619      -0.00387686       0.00177477 </v>
   <v>      -0.00069051      -0.01161665       0.00816890 </v>
   <v>       0.00296947      -0.00986034       0.00093721 </v>
   <v>       0.00194970       0.00522020      -0.00146701 </v>
   <v>       0.00328105       0.00579819      -0.00186766 </v>
   <v>       0.00389135       0.00213067       0.00775099 </v>
  </varray>
  <varray name="stress" >
   <v>       8.54827561       0.23241725       0.07855067 </v>
   <v>       0.23241660     -10.46921411       0.09426350 </v>
   <v>       0.07854889       0.09426493      -1.25622212 </v>
  </varray>
  <energy>
   <i name="e_fr_energy">    -49.86656354 </i>
   <i name="e_wo_entrp">    -49.86656354 </i>
   <i name="e_0_energy">     -0.00000000 </i>
  </energy>
  <time name="totalsc">  490.51  491.71</time>
 </calculation>
 <calculation>
  <scstep>
   <time name="dav">   15.95   15.98</time>
   <time name="total">  120.63  120.81</time>
   <energy>
    <i name="alphaZ">     15.92198659 </i>
    <i name="ewald">   1274.60058383 </i>
    <i name="hartreedc">  -2456.60564401 </i>
    <i name="XCdc">   -170.61282547 </i>
    <i name="pawpsdc">   1743.48143587 </i>
    <i name="pawaedc">  -1464.93950671 </i>
    <i name="eentropy">     -0.00000000 </i>
    <i name="bandstr">   -325.44079000 </i>
    <i name="atom">   1333.72818728 </i>
    <i name="e_fr_energy">    -49.86657262 </i>
    <i name="e_wo_entrp">    -49.86657262 </i>
    <i name="e_0_energy">    -49.86657262 </i>
   </energy>
  </scstep>
  <scstep>
   <time name="dav">   20.62   20.73</time>
   <time name="total">  125.24  125.51</time>
   <energy>
    <i name="e_fr_energy">    -49.86661383 </i>
    <i name="e_wo_entrp">    -49.86661383 </i>
    <i name="e_0_energy">    -49.86661383 </i>
   </energy>
  </scstep>
  <scstep>
   <time name="dav">   16.32   16.33</time>
   <time name="total">  120.20  120.27</time>
   <energy>
    <i name="alphaZ">     15.92198659 </i>
    <i name="ewald">   1274.60058383 </i>
    <i name="hartreedc">  -2456.59418189 </i>
    <i name="XCdc">   -170.61311470 </i>
    <i name="pawpsdc">   1743.33309123 </i>
    <i name="pawaedc">  -1464.79054269 </i>
    <i name="eentropy">     -0.00000000 </i>
    <i name="bandstr">   -325.45261749 </i>
    <i name="atom">   1333.72818728 </i>
    <i name="e_fr_energy">    -49.86660785 </i>
    <i name="e_wo_entrp">    -49.86660785 </i>
    <i name="e_0_energy">    -49.86660785 </i>
   </energy>
  </scstep>
  <structure>
   <crystal>
    <varray name="basis" >
     <v>       6.01920000       0.00000000       0.00000000 </v>
     <v>       0.00000000      10.14000000       0.00000000 </v>
     <v>       0.00000000       0.00000000      15.00000000 </v>
    </varray>
    <i name="volume">    915.52032000 </i>
    <varray name="rec_basis" >
     <v>       0.16613503       0.00000000       0.00000000 </v>
     <v>       0.00000000       0.09861933       0.00000000 </v>
     <v>       0.00000000       0.00000000       0.06666667 </v>
    </varray>
   </crystal>
   <varray name="positions" >
    <v>       0.44020098       0.87795534       0.22248625 </v>
    <v>       0.93995506       0.87867933       0.27352291 </v>
    <v>       0.44082855       0.61492875       0.22424075 </v>
    <v>       0.94085429       0.61640916       0.27668743 </v>
    <v>       0.43844433       0.37758016       0.27901639 </v>
    <v>       0.93961238       0.37907348       0.22450183 </v>
    <v>       0.43936893       0.11656524       0.27204651 </v>
    <v>       0.93973804       0.11590345       0.22183384 </v>
    <v>       0.18978881      -0.00296098       0.24680617 </v>
    <v>       0.68988053      -0.00277081       0.24769267 </v>
    <v>       0.19003635       0.49734311       0.25044662 </v>
    <v>       0.69010176       0.49719305       0.25342530 </v>
    <v>       0.55333696       0.43994399       0.47802446 </v>
    <v>       0.75983727       0.35875795       0.47825172 </v>
    <v>       0.46878665       0.36729226       0.55865717 </v>
   </varray>
  </structure>
  <varray name="forces" >
   <v>      -0.00018210       0.00539949       0.00259294 </v>
   <v>       0.00601813       0.01456076      -0.00348101 </v>
   <v>      -0.01076711       0.00023779      -0.00530590 </v>
   <v>       0.00537877       0.01198308       0.00104649 </v>
   <v>      -0.00700290      -0.00832397      -0.00514241 </v>
   <v>       0.01214156       0.00252483      -0.00363815 </v>
   <v>      -0.00324650      -0.00807455       0.00120597 </v>
   <v>      -0.00550784       0.00010488       0.00176852 </v>
   <v>       0.00575084      -0.01283593       0.00004052 </v>
   <v>      -0.00749573      -0.00354141       0.00158712 </v>
   <v>       0.00883358      -0.00930800       0.00249712 </v>
   <v>      -0.01387744      -0.00684046       0.00369375 </v>
   <v>      -0.00040444      -0.00167410       0.01137638 </v>
   <v>       0.00294221       0.00640741      -0.00225662 </v>
   <v>       0.00741896       0.00938016      -0.00598472 </v>
  </varray>
  <varray name="stress" >
   <v>       8.53385582       0.16343349       0.08904483 </v>
   <v>       0.16343280     -10.50220163       0.11693341 </v>
   <v>       0.08904313       0.11693479      -1.29267517 </v>
  </varray>
  <energy>
   <i name="e_fr_energy">    -49.86660785 </i>
   <i name="e_wo_entrp">    -49.86660785 </i>
   <i name="e_0_energy">     -0.00000000 </i>
  </energy>
  <time name="totalsc">  604.93  610.56</time>
 </calculation>
 <calculation>
  <scstep>
   <time name="dav">   16.60   16.61</time>
   <time name="total">  120.34  120.94</time>
   <energy>
    <i name="alphaZ">     15.92198659 </i>
    <i name="ewald">   1274.53924521 </i>
    <i name="hartreedc">  -2456.52886994 </i>
    <i name="XCdc">   -170.61322737 </i>
    <i name="pawpsdc">   1743.30028479 </i>
    <i name="pawaedc">  -1464.75754740 </i>
    <i name="eentropy">     -0.00000000 </i>
    <i name="bandstr">   -325.45672073 </i>
    <i name="atom">   1333.72818728 </i>
    <i name="e_fr_energy">    -49.86666158 </i>
    <i name="e_wo_entrp">    -49.86666158 </i>
    <i name="e_0_energy">    -49.86666158 </i>
   </energy>
  </scstep>
  <scstep>
   <time name="dav">   21.28   21.31</time>
   <time name="total">  126.56  126.79</time>
   <energy>
    <i name="e_fr_energy">    -49.86667472 </i>
    <i name="e_wo_entrp">    -49.86667472 </i>
    <i name="e_0_energy">    -49.86667472 </i>
   </energy>
  </scstep>
  <scstep>
   <time name="dav">   14.15   14.21</time>
   <time name="total">  115.36  115.82</time>
   <energy>
    <i name="alphaZ">     15.92198659 </i>
    <i name="ewald">   1274.53924521 </i>
    <i name="hartreedc">  -2456.53507185 </i>
    <i name="XCdc">   -170.61279353 </i>
    <i name="pawpsdc">   1743.31774862 </i>
    <i name="pawaedc">  -1464.77517867 </i>
    <i name="eentropy">     -0.00000000 </i>
    <i name="bandstr">   -325.45079637 </i>
    <i name="atom">   1333.72818728 </i>
    <i name="e_fr_energy">    -49.86667271 </i>
    <i name="e_wo_entrp">    -49.86667271 </i>
    <i name="e_0_energy">    -49.86667271 </i>
   </energy>
  </scstep>
  <structure>
   <crystal>
    <varray name="basis" >
     <v>       6.01920000       0.00000000       0.00000000 </v>
     <v>       0.00000000      10.14000000       0.00000000 </v>
     <v>       0.00000000       0.00000000      15.00000000 </v>
    </varray>
    <i name="volume">    915.52032000 </i>
    <varray name="rec_basis" >
     <v>       0.16613503       0.00000000       0.00000000 </v>
     <v>       0.00000000       0.09861933       0.00000000 </v>
     <v>       0.00000000       0.00000000       0.06666667 </v>
    </varray>
   </crystal>
   <varray name="positions" >
    <v>       0.44014578       0.87796346       0.22248405 </v>
    <v>       0.93994621       0.87870004       0.27352809 </v>
    <v>       0.44076461       0.61491752       0.22420036 </v>
    <v>       0.94086369       0.61643033       0.27666589 </v>
    <v>       0.43841850       0.37755836       0.27901336 </v>
    <v>       0.93965778       0.37904611       0.22449593 </v>
    <v>       0.43936144       0.11654248       0.27206501 </v>
    <v>       0.93968077       0.11587972       0.22184158 </v>
    <v>       0.18978692      -0.00301426       0.24677312 </v>
    <v>       0.68982052      -0.00280775       0.24773012 </v>
    <v>       0.19006059       0.49728838       0.25049047 </v>
    <v>       0.69005220       0.49715126       0.25338406 </v>
    <v>       0.55333103       0.43998028       0.47803678 </v>
    <v>       0.75990425       0.35886500       0.47823108 </v>
    <v>       0.46897658       0.36739256       0.55870009 </v>
   </varray>
  </structure>
  <varray name="forces" >
   <v>       0.00258275      -0.00138978       0.00063426 </v>
   <v>       0.00546482       0.00826213      -0.00313229 </v>
   <v>      -0.00805713      -0.00297929      -0.00331927 </v>
   <v>       0.00183129       0.00397020       0.00041859 </v>
   <v>      -0.00323594      -0.00949020      -0.00466749 </v>
   <v>       0.00821437       0.00462917      -0.00236535 </v>
   <v>      -0.00668338      -0.00765351       0.00095260 </v>
   <v>      -0.00368879      -0.00009979       0.00116180 </v>
   <v>       0.00087920      -0.00402958       0.00181276 </v>
   <v>      -0.00338446      -0.00104064       0.00164871 </v>
   <v>       0.00137436      -0.00301192       0.00045579 </v>
   <v>      -0.00613805      -0.00228127       0.00258234 </v>
   <v>       0.00100713       0.00130962       0.00710635 </v>
   <v>       0.00337880       0.00670164      -0.00184676 </v>
   <v>       0.00645504       0.00710323      -0.00144204 </v>
  </varray>
  <varray name="stress" >
   <v>       8.53990219       0.14313924       0.08864695 </v>
   <v>       0.14313848     -10.49298352       0.10985913 </v>
   <v>       0.08864508       0.10986060      -1.28316257 </v>
  </varray>
  <energy>
   <i name="e_fr_energy">    -49.86667271 </i>
   <i name="e_wo_entrp">    -49.86667271 </i>
   <i name="e_0_energy">     -0.00000000 </i>
  </energy>
  <time name="totalsc">  590.97  593.88</time>
 </calculation>
 <calculation>
  <scstep>
   <time name="dav">   15.69   15.77</time>
   <time name="total">  119.02  119.50</time>
   <energy>
    <i name="alphaZ">     15.92198659 </i>
    <i name="ewald">   1274.43159816 </i>
    <i name="hartreedc">  -2456.42416642 </i>
    <i name="XCdc">   -170.61278753 </i>
    <i name="pawpsdc">   1743.32335535 </i>
    <i name="pawaedc">  -1464.78084237 </i>
    <i name="eentropy">     -0.00000000 </i>
    <i name="bandstr">   -325.45399678 </i>
    <i name="atom">   1333.72818728 </i>
    <i name="e_fr_energy">    -49.86666572 </i>
    <i name="e_wo_entrp">    -49.86666572 </i>
    <i name="e_0_energy">    -49.86666572 </i>
   </energy>
  </scstep>
  <scstep>
   <time name="dav">   22.00   22.04</time>
   <time name="total">  123.33  123.56</time>
   <energy>
    <i name="e_fr_energy">    -49.86670622 </i>
    <i name="e_wo_entrp">    -49.86670622 </i>
    <i name="e_0_energy">    -49.86670622 </i>
   </energy>
  </scstep>
  <scstep>
   <time name="dav">   16.46   16.51</time>
   <time name="total">  120.80  120.98</time>
   <energy>
    <i name="alphaZ">     15.92198659 </i>
    <i name="ewald">   1274.43159816 </i>
    <i name="hartreedc">  -2456.42997349 </i>
    <i name="XCdc">   -170.61227325 </i>
    <i name="pawpsdc">   1743.35238110 </i>
    <i name="pawaedc">  -1464.81018161 </i>
    <i name="eentropy">     -0.00000000 </i>
    <i name="bandstr">   -325.44842391 </i>
    <i name="atom">   1333.72818728 </i>
    <i name="e_fr_energy">    -49.86669913 </i>
    <i name="e_wo_entrp">    -49.86669913 </i>
    <i name="e_0_energy">    -49.86669913 </i>
   </energy>
  </scstep>
  <structure>
   <crystal>
    <varray name="basis" >
     <v>       6.01920000       0.00000000       0.00000000 </v>
     <v>       0.00000000      10.14000000       0.00000000 </v>
     <v>       0.00000000       0.00000000      15.00000000 </v>
    </varray>
    <i name="volume">    915.52032000 </i>
    <varray name="rec_basis" >
     <v>       0.16613503       0.00000000       0.00000000 </v>
     <v>       0.00000000       0.09861933       0.00000000 </v>
     <v>       0.00000000       0.00000000       0.06666667 </v>
    </varray>
   </crystal>
   <varray name="positions" >
    <v>       0.44004940       0.87797765       0.22248022 </v>
    <v>       0.93993076       0.87873619       0.27353715 </v>
    <v>       0.44065297       0.61489793       0.22412984 </v>
    <v>       0.94088011       0.61646728       0.27662829 </v>
    <v>       0.43837339       0.37752029       0.27900808 </v>
    <v>       0.93973706       0.37899832       0.22448565 </v>
    <v>       0.43934838       0.11650274       0.27209731 </v>
    <v>       0.93958078       0.11583829       0.22185509 </v>
    <v>       0.18978361      -0.00310730       0.24671541 </v>
    <v>       0.68971573      -0.00287226       0.24779552 </v>
    <v>       0.19010293       0.49719282       0.25056703 </v>
    <v>       0.68996566       0.49707829       0.25331206 </v>
    <v>       0.55332067       0.44004366       0.47805829 </v>
    <v>       0.76002120       0.35905191       0.47819503 </v>
    <v>       0.46930821       0.36756768       0.55877503 </v>
   </varray>
  </structure>
  <varray name="forces" >
   <v>       0.00771802      -0.01445040      -0.00280884 </v>
   <v>       0.00403417      -0.00317798      -0.00219298 </v>
   <v>      -0.00193425      -0.00895732       0.00066927 </v>
   <v>      -0.00457422      -0.01123437      -0.00050981 </v>
   <v>       0.00379838      -0.01148585      -0.00339932 </v>
   <v>       0.00009966       0.00916194       0.00033823 </v>
   <v>      -0.01231266      -0.00613591       0.00093207 </v>
   <v>       0.00040427      -0.00040214       0.00015650 </v>
   <v>      -0.00869202       0.01285512       0.00373545 </v>
   <v>       0.00497366       0.00450632       0.00196185 </v>
   <v>      -0.01271625       0.00870622      -0.00313531 </v>
   <v>       0.00861642       0.00630169       0.00065268 </v>
   <v>       0.00406430       0.00751118      -0.00189683 </v>
   <v>       0.00369649       0.00569751      -0.00076653 </v>
   <v>       0.00282403       0.00110400       0.00626358 </v>
  </varray>
  <varray name="stress" >
   <v>       8.54089298       0.12838421       0.07790772 </v>
   <v>       0.12838344     -10.48503911       0.09215772 </v>
   <v>       0.07790588       0.09215918      -1.26658698 </v>
  </varray>
  <energy>
   <i name="e_fr_energy">    -49.86669913 </i>
   <i name="e_wo_entrp">    -49.86669913 </i>
   <i name="e_0_energy">     -0.00000000 </i>
  </energy>
  <time name="totalsc">  589.74  592.07</time>
 </calculation>
 <calculation>
  <scstep>
   <time name="dav">   16.54   16.54</time>
   <time name="total">  122.37  122.37</time>
   <energy>
    <i name="alphaZ">     15.92198659 </i>
    <i name="ewald">   1274.45242576 </i>
    <i name="hartreedc">  -2456.45545126 </i>
    <i name="XCdc">   -170.61202282 </i>
    <i name="pawpsdc">   1743.36829415 </i>
    <i name="pawaedc">  -1464.82622795 </i>
    <i name="eentropy">     -0.00000000 </i>
    <i name="bandstr">   -325.44389621 </i>
    <i name="atom">   1333.72818728 </i>
    <i name="e_fr_energy">    -49.86670446 </i>
    <i name="e_wo_entrp">    -49.86670446 </i>
    <i name="e_0_energy">    -49.86670446 </i>
   </energy>
  </scstep>
  <scstep>
   <time name="dav">   15.83   15.83</time>
   <time name="total">  119.38  119.46</time>
   <energy>
    <i name="alphaZ">     15.92198659 </i>
    <i name="ewald">   1274.45242576 </i>
    <i name="hartreedc">  -2456.45486331 </i>
    <i name="XCdc">   -170.61212650 </i>
    <i name="pawpsdc">   1743.36112915 </i>
    <i name="pawaedc">  -1464.81897485 </i>
    <i name="eentropy">     -0.00000000 </i>
    <i name="bandstr">   -325.44447065 </i>
    <i name="atom">   1333.72818728 </i>
    <i name="e_fr_energy">    -49.86670653 </i>
    <i name="e_wo_entrp">    -49.86670653 </i>
    <i name="e_0_energy">    -49.86670653 </i>
   </energy>
  </scstep>
  <structure>
   <crystal>
    <varray name="basis" >
     <v>       6.01920000       0.00000000       0.00000000 </v>
     <v>       0.00000000      10.14000000       0.00000000 </v>
     <v>       0.00000000       0.00000000      15.00000000 </v>
    </varray>
    <i name="volume">    915.52032000 </i>
    <varray name="rec_basis" >
     <v>       0.16613503       0.00000000       0.00000000 </v>
     <v>       0.00000000       0.09861933       0.00000000 </v>
     <v>       0.00000000       0.00000000       0.06666667 </v>
    </varray>
   </crystal>
   <varray name="positions" >
    <v>       0.44006800       0.87797492       0.22248096 </v>
    <v>       0.93993375       0.87872922       0.27353541 </v>
    <v>       0.44067451       0.61490171       0.22414345 </v>
    <v>       0.94087694       0.61646015       0.27663554 </v>
    <v>       0.43838210       0.37752764       0.27900910 </v>
    <v>       0.93972176       0.37900754       0.22448763 </v>
    <v>       0.43935090       0.11651040       0.27209108 </v>
    <v>       0.93960007       0.11584628       0.22185249 </v>
    <v>       0.18978425      -0.00308935       0.24672654 </v>
    <v>       0.68973595      -0.00285981       0.24778290 </v>
    <v>       0.19009476       0.49721126       0.25055225 </v>
    <v>       0.68998236       0.49709237       0.25332596 </v>
    <v>       0.55332267       0.44003143       0.47805414 </v>
    <v>       0.75999863       0.35901584       0.47820198 </v>
    <v>       0.46924421       0.36753389       0.55876057 </v>
   </varray>
  </structure>
  <varray name="forces" >
   <v>       0.00709421      -0.01387983      -0.00250648 </v>
   <v>       0.00417656      -0.00239550      -0.00244921 </v>
   <v>      -0.00267164      -0.00872626      -0.00007515 </v>
   <v>      -0.00471725      -0.01059911      -0.00069080 </v>
   <v>       0.00358366      -0.01202402      -0.00332084 </v>
   <v>       0.00061625       0.00824504      -0.00003921 </v>
   <v>      -0.01197608      -0.00644941       0.00090980 </v>
   <v>      -0.00041434      -0.00123340       0.00028008 </v>
   <v>      -0.00866144       0.01190663       0.00446329 </v>
   <v>       0.00417590       0.00431956       0.00009523 </v>
   <v>      -0.01205027       0.00802043      -0.00400076 </v>
   <v>       0.00765321       0.00640664       0.00285565 </v>
   <v>       0.00376073       0.00685114      -0.00029430 </v>
   <v>       0.00448015       0.00670412      -0.00135852 </v>
   <v>       0.00495033       0.00285397       0.00613122 </v>
  </varray>
  <varray name="stress" >
   <v>       8.53715240       0.11284637       0.07955777 </v>
   <v>       0.11284570     -10.49468017       0.09426838 </v>
   <v>       0.07955593       0.09426995      -1.27286024 </v>
  </varray>
  <energy>
   <i name="e_fr_energy">    -49.86670653 </i>
   <i name="e_wo_entrp">    -49.86670653 </i>
   <i name="e_0_energy">     -0.00000000 </i>
  </energy>
  <time name="totalsc">  476.85  477.74</time>
 </calculation>
 <calculation>
  <scstep>
   <time name="dav">   15.92   15.92</time>
   <time name="total">  121.80  121.84</time>
   <energy>
    <i name="alphaZ">     15.92198659 </i>
    <i name="ewald">   1274.38940001 </i>
    <i name="hartreedc">  -2456.38740474 </i>
    <i name="XCdc">   -170.61239104 </i>
    <i name="pawpsdc">   1743.35677099 </i>
    <i name="pawaedc">  -1464.81457677 </i>
    <i name="eentropy">     -0.00000000 </i>
    <i name="bandstr">   -325.44870715 </i>
    <i name="atom">   1333.72818728 </i>
    <i name="e_fr_energy">    -49.86673483 </i>
    <i name="e_wo_entrp">    -49.86673483 </i>
    <i name="e_0_energy">    -49.86673483 </i>
   </energy>
  </scstep>
  <scstep>
   <time name="dav">   20.73   20.75</time>
   <time name="total">  126.44  126.85</time>
   <energy>
    <i name="e_fr_energy">    -49.86674937 </i>
    <i name="e_wo_entrp">    -49.86674937 </i>
    <i name="e_0_energy">    -49.86674937 </i>
   </energy>
  </scstep>
  <scstep>
   <time name="dav">   13.06   13.08</time>
   <time name="total">  115.55  115.72</time>
   <energy>
    <i name="alphaZ">     15.92198659 </i>
    <i name="ewald">   1274.38940001 </i>
    <i name="hartreedc">  -2456.39100235 </i>
    <i name="XCdc">   -170.61199020 </i>
    <i name="pawpsdc">   1743.37628554 </i>
    <i name="pawaedc">  -1464.83422241 </i>
    <i name="eentropy">     -0.00000000 </i>
    <i name="bandstr">   -325.44539283 </i>
    <i name="atom">   1333.72818728 </i>
    <i name="e_fr_energy">    -49.86674837 </i>
    <i name="e_wo_entrp">    -49.86674837 </i>
    <i name="e_0_energy">    -49.86674837 </i>
   </energy>
  </scstep>
  <structure>
   <crystal>
    <varray name="basis" >
     <v>       6.01920000       0.00000000       0.00000000 </v>
     <v>       0.00000000      10.14000000       0.00000000 </v>
     <v>       0.00000000       0.00000000      15.00000000 </v>
    </varray>
    <i name="volume">    915.52032000 </i>
    <varray name="rec_basis" >
     <v>       0.16613503       0.00000000       0.00000000 </v>
     <v>       0.00000000       0.09861933       0.00000000 </v>
     <v>       0.00000000       0.00000000       0.06666667 </v>
    </varray>
   </crystal>
   <varray name="positions" >
    <v>       0.44004996       0.87793853       0.22247325 </v>
    <v>       0.93994735       0.87874271       0.27353539 </v>
    <v>       0.44059453       0.61486211       0.22410192 </v>
    <v>       0.94086097       0.61644769       0.27661198 </v>
    <v>       0.43837508       0.37746658       0.27899878 </v>
    <v>       0.93977161       0.37900607       0.22448151 </v>
    <v>       0.43927826       0.11646632       0.27211201 </v>
    <v>       0.93953918       0.11581800       0.22186102 </v>
    <v>       0.18973531      -0.00310557       0.24670241 </v>
    <v>       0.68969714      -0.00288373       0.24782147 </v>
    <v>       0.19005421       0.49718105       0.25058845 </v>
    <v>       0.68997313       0.49707020       0.25328994 </v>
    <v>       0.55333700       0.44009067       0.47806611 </v>
    <v>       0.76009154       0.35914706       0.47817788 </v>
    <v>       0.46946559       0.36764580       0.55881787 </v>
   </varray>
  </structure>
  <varray name="forces" >
   <v>       0.00603631      -0.01110357      -0.00225238 </v>
   <v>       0.00164790      -0.00829373      -0.00106773 </v>
   <v>       0.00033129      -0.01050387       0.00246212 </v>
   <v>      -0.00613474      -0.00749422       0.00087718 </v>
   <v>       0.00394373      -0.00580904      -0.00361231 </v>
   <v>      -0.00377734       0.00394479      -0.00062970 </v>
   <v>      -0.01011509      -0.00584818       0.00040420 </v>
   <v>      -0.00007290       0.00364253      -0.00089126 </v>
   <v>      -0.00362970       0.01045876       0.00388033 </v>
   <v>       0.00223401       0.00280827       0.00125309 </v>
   <v>      -0.00506208       0.00740645      -0.00485285 </v>
   <v>       0.00336820       0.00459026       0.00031272 </v>
   <v>       0.00432971       0.00958531      -0.00216809 </v>
   <v>       0.00370470       0.00574994      -0.00058585 </v>
   <v>       0.00319600       0.00086630       0.00687052 </v>
  </varray>
  <varray name="stress" >
   <v>       8.54207756       0.13150386       0.07863809 </v>
   <v>       0.13150311     -10.48098235       0.09266776 </v>
   <v>       0.07863645       0.09266920      -1.26884988 </v>
  </varray>
  <energy>
   <i name="e_fr_energy">    -49.86674837 </i>
   <i name="e_wo_entrp">    -49.86674837 </i>
   <i name="e_0_energy">     -0.00000000 </i>
  </energy>
  <time name="totalsc">  587.79  589.44</time>
 </calculation>
 <calculation>
  <scstep>
   <time name="dav">   15.71   15.76</time>
   <time name="total">  115.83  116.18</time>
   <energy>
    <i name="alphaZ">     15.92198659 </i>
    <i name="ewald">   1274.26110818 </i>
    <i name="hartreedc">  -2456.25595335 </i>
    <i name="XCdc">   -170.61230760 </i>
    <i name="pawpsdc">   1743.38859235 </i>
    <i name="pawaedc">  -1464.84656120 </i>
    <i name="eentropy">     -0.00000000 </i>
    <i name="bandstr">   -325.45178823 </i>
    <i name="atom">   1333.72818728 </i>
    <i name="e_fr_energy">    -49.86673598 </i>
    <i name="e_wo_entrp">    -49.86673598 </i>
    <i name="e_0_energy">    -49.86673598 </i>
   </energy>
  </scstep>
  <scstep>
   <time name="dav">   20.94   20.98</time>
   <time name="total">  122.70  122.91</time>
   <energy>
    <i name="e_fr_energy">    -49.86678638 </i>
    <i name="e_wo_entrp">    -49.86678638 </i>
    <i name="e_0_energy">    -49.86678638 </i>
   </energy>
  </scstep>
  <scstep>
   <time name="dav">   15.04   15.05</time>
   <time name="total">  115.80  115.90</time>
   <energy>
    <i name="alphaZ">     15.92198659 </i>
    <i name="ewald">   1274.26110818 </i>
    <i name="hartreedc">  -2456.26247193 </i>
    <i name="XCdc">   -170.61143589 </i>
    <i name="pawpsdc">   1743.43521653 </i>
    <i name="pawaedc">  -1464.89349537 </i>
    <i name="eentropy">     -0.00000000 </i>
    <i name="bandstr">   -325.44587987 </i>
    <i name="atom">   1333.72818728 </i>
    <i name="e_fr_energy">    -49.86678448 </i>
    <i name="e_wo_entrp">    -49.86678448 </i>
    <i name="e_0_energy">    -49.86678448 </i>
   </energy>
  </scstep>
  <structure>
   <crystal>
    <varray name="basis" >
     <v>       6.01920000       0.00000000       0.00000000 </v>
     <v>       0.00000000      10.14000000       0.00000000 </v>
     <v>       0.00000000       0.00000000      15.00000000 </v>
    </varray>
    <i name="volume">    915.52032000 </i>
    <varray name="rec_basis" >
     <v>       0.16613503       0.00000000       0.00000000 </v>
     <v>       0.00000000       0.09861933       0.00000000 </v>
     <v>       0.00000000       0.00000000       0.06666667 </v>
    </varray>
   </crystal>
   <varray name="positions" >
    <v>       0.44001348       0.87786496       0.22245767 </v>
    <v>       0.93997485       0.87876999       0.27353535 </v>
    <v>       0.44043279       0.61478203       0.22401794 </v>
    <v>       0.94082869       0.61642248       0.27656434 </v>
    <v>       0.43836090       0.37734311       0.27897789 </v>
    <v>       0.93987241       0.37900308       0.22446914 </v>
    <v>       0.43913135       0.11637717       0.27215433 </v>
    <v>       0.93941602       0.11576082       0.22187828 </v>
    <v>       0.18963635      -0.00313839       0.24665361 </v>
    <v>       0.68961867      -0.00293211       0.24789947 </v>
    <v>       0.18997220       0.49711994       0.25066165 </v>
    <v>       0.68995446       0.49702537       0.25321711 </v>
    <v>       0.55336598       0.44021047       0.47809032 </v>
    <v>       0.76027942       0.35941244       0.47812914 </v>
    <v>       0.46991328       0.36787212       0.55893376 </v>
   </varray>
  </structure>
  <varray name="forces" >
   <v>       0.00431887      -0.00730070      -0.00188438 </v>
   <v>      -0.00405786      -0.02222427       0.00178526 </v>
   <v>       0.00767652      -0.01554401       0.00813716 </v>
   <v>      -0.01146227      -0.00313174       0.00424150 </v>
   <v>       0.00650606       0.00642066      -0.00390440 </v>
   <v>      -0.01511167      -0.00517766      -0.00151676 </v>
   <v>      -0.00666613      -0.00461978      -0.00065065 </v>
   <v>      -0.00006933       0.01319371      -0.00348479 </v>
   <v>       0.00559479       0.00922260       0.00356615 </v>
   <v>      -0.00114817       0.00199485       0.00051414 </v>
   <v>       0.00865613       0.00827910      -0.00794101 </v>
   <v>      -0.00496034       0.00350521      -0.00170181 </v>
   <v>       0.00665680       0.01322551      -0.00743972 </v>
   <v>       0.00298286       0.00462985       0.00066147 </v>
   <v>       0.00108374      -0.00247333       0.00961783 </v>
  </varray>
  <varray name="stress" >
   <v>       8.54747694       0.15240219       0.07768348 </v>
   <v>       0.15240137     -10.46478391       0.09242965 </v>
   <v>       0.07768166       0.09243109      -1.26256559 </v>
  </varray>
  <energy>
   <i name="e_fr_energy">    -49.86678448 </i>
   <i name="e_wo_entrp">    -49.86678448 </i>
   <i name="e_0_energy">     -0.00000000 </i>
  </energy>
  <time name="totalsc">  577.76  579.48</time>
 </calculation>
 <calculation>
  <scstep>
   <time name="dav">   16.47   16.48</time>
   <time name="total">  122.16  122.29</time>
   <energy>
    <i name="alphaZ">     15.92198659 </i>
    <i name="ewald">   1274.17824977 </i>
    <i name="hartreedc">  -2456.19798687 </i>
    <i name="XCdc">   -170.61326310 </i>
    <i name="pawpsdc">   1743.45243317 </i>
    <i name="pawaedc">  -1464.91075022 </i>
    <i name="eentropy">     -0.00000000 </i>
    <i name="bandstr">   -325.42569408 </i>
    <i name="atom">   1333.72818728 </i>
    <i name="e_fr_energy">    -49.86683746 </i>
    <i name="e_wo_entrp">    -49.86683746 </i>
    <i name="e_0_energy">    -49.86683746 </i>
   </energy>
  </scstep>
  <scstep>
   <time name="dav">   21.71   21.74</time>
   <time name="total">  125.80  125.97</time>
   <energy>
    <i name="e_fr_energy">    -49.86685520 </i>
    <i name="e_wo_entrp">    -49.86685520 </i>
    <i name="e_0_energy">    -49.86685520 </i>
   </energy>
  </scstep>
  <scstep>
   <time name="dav">   13.40   13.42</time>
   <time name="total">  115.04  115.24</time>
   <energy>
    <i name="alphaZ">     15.92198659 </i>
    <i name="ewald">   1274.17824977 </i>
    <i name="hartreedc">  -2456.18921701 </i>
    <i name="XCdc">   -170.61338382 </i>
    <i name="pawpsdc">   1743.37251522 </i>
    <i name="pawaedc">  -1464.83041044 </i>
    <i name="eentropy">     -0.00000000 </i>
    <i name="bandstr">   -325.43478281 </i>
    <i name="atom">   1333.72818728 </i>
    <i name="e_fr_energy">    -49.86685523 </i>
    <i name="e_wo_entrp">    -49.86685523 </i>
    <i name="e_0_energy">    -49.86685523 </i>
   </energy>
  </scstep>
  <structure>
   <crystal>
    <varray name="basis" >
     <v>       6.01920000       0.00000000       0.00000000 </v>
     <v>       0.00000000      10.14000000       0.00000000 </v>
     <v>       0.00000000       0.00000000      15.00000000 </v>
    </varray>
    <i name="volume">    915.52032000 </i>
    <varray name="rec_basis" >
     <v>       0.16613503       0.00000000       0.00000000 </v>
     <v>       0.00000000       0.09861933       0.00000000 </v>
     <v>       0.00000000       0.00000000       0.06666667 </v>
    </varray>
   </crystal>
   <varray name="positions" >
    <v>       0.44001732       0.87780276       0.22244536 </v>
    <v>       0.93996766       0.87871370       0.27353917 </v>
    <v>       0.44038829       0.61469014       0.22399097 </v>
    <v>       0.94075013       0.61639917       0.27654823 </v>
    <v>       0.43838828       0.37729816       0.27895843 </v>
    <v>       0.93984476       0.37898502       0.22445932 </v>
    <v>       0.43901781       0.11631525       0.27217535 </v>
    <v>       0.93935043       0.11577253       0.22187993 </v>
    <v>       0.18961394      -0.00312641       0.24663544 </v>
    <v>       0.68957095      -0.00295138       0.24794188 </v>
    <v>       0.18997519       0.49711392       0.25068333 </v>
    <v>       0.68991798       0.49701278       0.25317488 </v>
    <v>       0.55341703       0.44031601       0.47808714 </v>
    <v>       0.76039492       0.35956772       0.47810474 </v>
    <v>       0.47015619       0.36798411       0.55901583 </v>
   </varray>
  </structure>
  <varray name="forces" >
   <v>       0.00210319      -0.00273092      -0.00119520 </v>
   <v>      -0.00471331      -0.01345380      -0.00003744 </v>
   <v>       0.00774584      -0.00596874       0.00691258 </v>
   <v>      -0.00826688      -0.00345109       0.00419409 </v>
   <v>       0.00375430       0.00541412      -0.00229947 </v>
   <v>      -0.01294494      -0.00380237      -0.00120827 </v>
   <v>      -0.00094030      -0.00068230      -0.00033382 </v>
   <v>      -0.00111014       0.00646333      -0.00173731 </v>
   <v>       0.00096259       0.00059992       0.00344704 </v>
   <v>       0.00170499      -0.00068074      -0.00082402 </v>
   <v>       0.00180704       0.00310560      -0.00945666 </v>
   <v>      -0.00238774      -0.00030962       0.00002330 </v>
   <v>       0.00500667       0.00657426       0.00072733 </v>
   <v>       0.00262372       0.00566871       0.00030452 </v>
   <v>       0.00465497       0.00325364       0.00148332 </v>
  </varray>
  <varray name="stress" >
   <v>       8.53712611       0.15511646       0.09075641 </v>
   <v>       0.15511571     -10.48814621       0.10505552 </v>
   <v>       0.09075461       0.10505693      -1.28953962 </v>
  </varray>
  <energy>
   <i name="e_fr_energy">    -49.86685523 </i>
   <i name="e_wo_entrp">    -49.86685523 </i>
   <i name="e_0_energy">     -0.00000000 </i>
  </energy>
  <time name="totalsc">  594.59  596.05</time>
 </calculation>
 <calculation>
  <scstep>
   <time name="dav">   15.35   15.37</time>
   <time name="total">  119.82  120.05</time>
   <energy>
    <i name="alphaZ">     15.92198659 </i>
    <i name="ewald">   1274.06640690 </i>
    <i name="hartreedc">  -2456.09624221 </i>
    <i name="XCdc">   -170.61623141 </i>
    <i name="pawpsdc">   1743.34765891 </i>
    <i name="pawaedc">  -1464.80537103 </i>
    <i name="eentropy">     -0.00000000 </i>
    <i name="bandstr">   -325.41324755 </i>
    <i name="atom">   1333.72818728 </i>
    <i name="e_fr_energy">    -49.86685252 </i>
    <i name="e_wo_entrp">    -49.86685252 </i>
    <i name="e_0_energy">    -49.86685252 </i>
   </energy>
  </scstep>
  <scstep>
   <time name="dav">   21.02   21.09</time>
   <time name="total">  125.10  125.38</time>
   <energy>
    <i name="e_fr_energy">    -49.86688569 </i>
    <i name="e_wo_entrp">    -49.86688569 </i>
    <i name="e_0_energy">    -49.86688569 </i>
   </energy>
  </scstep>
  <scstep>
   <time name="dav">   13.53   13.55</time>
   <time name="total">  118.12  118.25</time>
   <energy>
    <i name="alphaZ">     15.92198659 </i>
    <i name="ewald">   1274.06640690 </i>
    <i name="hartreedc">  -2456.08698310 </i>
    <i name="XCdc">   -170.61614721 </i>
    <i name="pawpsdc">   1743.25382382 </i>
    <i name="pawaedc">  -1464.71111668 </i>
    <i name="eentropy">     -0.00000000 </i>
    <i name="bandstr">   -325.42304337 </i>
    <i name="atom">   1333.72818728 </i>
    <i name="e_fr_energy">    -49.86688578 </i>
    <i name="e_wo_entrp">    -49.86688578 </i>
    <i name="e_0_energy">    -49.86688578 </i>
   </energy>
  </scstep>
  <structure>
   <crystal>
    <varray name="basis" >
     <v>       6.01920000       0.00000000       0.00000000 </v>
     <v>       0.00000000      10.14000000       0.00000000 </v>
     <v>       0.00000000       0.00000000      15.00000000 </v>
    </varray>
    <i name="volume">    915.52032000 </i>
    <varray name="rec_basis" >
     <v>       0.16613503       0.00000000       0.00000000 </v>
     <v>       0.00000000       0.09861933       0.00000000 </v>
     <v>       0.00000000       0.00000000       0.06666667 </v>
    </varray>
   </crystal>
   <varray name="positions" >
    <v>       0.44002249       0.87771899       0.22242878 </v>
    <v>       0.93995798       0.87863789       0.27354431 </v>
    <v>       0.44032837       0.61456639       0.22395465 </v>
    <v>       0.94064433       0.61636777       0.27652654 </v>
    <v>       0.43842514       0.37723762       0.27893222 </v>
    <v>       0.93980753       0.37896070       0.22444610 </v>
    <v>       0.43886489       0.11623186       0.27220365 </v>
    <v>       0.93926209       0.11578830       0.22188214 </v>
    <v>       0.18958375      -0.00311028       0.24661097 </v>
    <v>       0.68950669      -0.00297733       0.24799901 </v>
    <v>       0.18997921       0.49710583       0.25071252 </v>
    <v>       0.68986884       0.49699583       0.25311801 </v>
    <v>       0.55348577       0.44045815       0.47808285 </v>
    <v>       0.76055047       0.35977684       0.47807189 </v>
    <v>       0.47048333       0.36813493       0.55912635 </v>
   </varray>
  </structure>
  <varray name="forces" >
   <v>      -0.00089554       0.00428829       0.00007427 </v>
   <v>      -0.00504727      -0.00018256      -0.00250655 </v>
   <v>       0.00792920       0.00817875       0.00519364 </v>
   <v>      -0.00218362      -0.00328773       0.00434455 </v>
   <v>      -0.00081285       0.00376996       0.00002605 </v>
   <v>      -0.00881018      -0.00151613      -0.00053936 </v>
   <v>       0.00754293       0.00475403       0.00015152 </v>
   <v>      -0.00168027      -0.00305056       0.00096329 </v>
   <v>      -0.00698711      -0.01205328       0.00187979 </v>
   <v>       0.00637601      -0.00477032      -0.00109206 </v>
   <v>      -0.00814979      -0.00539517      -0.00917724 </v>
   <v>       0.00193194      -0.00666714      -0.00044216 </v>
   <v>       0.00029392      -0.00088055       0.01146108 </v>
   <v>       0.00186485       0.00627012       0.00025295 </v>
   <v>       0.00862779       0.01054229      -0.01058977 </v>
  </varray>
  <varray name="stress" >
   <v>       8.53022278       0.16721758       0.10913510 </v>
   <v>       0.16721671     -10.50910395       0.12211919 </v>
   <v>       0.10913331       0.12212066      -1.32057143 </v>
  </varray>
  <energy>
   <i name="e_fr_energy">    -49.86688578 </i>
   <i name="e_wo_entrp">    -49.86688578 </i>
   <i name="e_0_energy">     -0.00000000 </i>
  </energy>
  <time name="totalsc">  593.05  594.67</time>
 </calculation>
 <calculation>
  <scstep>
   <time name="dav">   14.71   14.73</time>
   <time name="total">  115.11  115.20</time>
   <energy>
    <i name="alphaZ">     15.92198659 </i>
    <i name="ewald">   1273.95789461 </i>
    <i name="hartreedc">  -2455.97045970 </i>
    <i name="XCdc">   -170.61641035 </i>
    <i name="pawpsdc">   1743.21628955 </i>
    <i name="pawaedc">  -1464.67332651 </i>
    <i name="eentropy">     -0.00000000 </i>
    <i name="bandstr">   -325.43107826 </i>
    <i name="atom">   1333.72818728 </i>
    <i name="e_fr_energy">    -49.86691679 </i>
    <i name="e_wo_entrp">    -49.86691679 </i>
    <i name="e_0_energy">    -49.86691679 </i>
   </energy>
  </scstep>
  <scstep>
   <time name="dav">   19.33   19.35</time>
   <time name="total">  119.04  119.14</time>
   <energy>
    <i name="e_fr_energy">    -49.86693576 </i>
    <i name="e_wo_entrp">    -49.86693576 </i>
    <i name="e_0_energy">    -49.86693576 </i>
   </energy>
  </scstep>
  <scstep>
   <time name="dav">   12.45   12.45</time>
   <time name="total">  112.67  112.74</time>
   <energy>
    <i name="alphaZ">     15.92198659 </i>
    <i name="ewald">   1273.95789461 </i>
    <i name="hartreedc">  -2455.97289392 </i>
    <i name="XCdc">   -170.61588418 </i>
    <i name="pawpsdc">   1743.23838742 </i>
    <i name="pawaedc">  -1464.69566972 </i>
    <i name="eentropy">     -0.00000000 </i>
    <i name="bandstr">   -325.42894328 </i>
    <i name="atom">   1333.72818728 </i>
    <i name="e_fr_energy">    -49.86693520 </i>
    <i name="e_wo_entrp">    -49.86693520 </i>
    <i name="e_0_energy">    -49.86693520 </i>
   </energy>
  </scstep>
  <structure>
   <crystal>
    <varray name="basis" >
     <v>       6.01920000       0.00000000       0.00000000 </v>
     <v>       0.00000000      10.14000000       0.00000000 </v>
     <v>       0.00000000       0.00000000      15.00000000 </v>
    </varray>
    <i name="volume">    915.52032000 </i>
    <varray name="rec_basis" >
     <v>       0.16613503       0.00000000       0.00000000 </v>
     <v>       0.00000000       0.09861933       0.00000000 </v>
     <v>       0.00000000       0.00000000       0.06666667 </v>
    </varray>
   </crystal>
   <varray name="positions" >
    <v>       0.44001978       0.87768133       0.22241810 </v>
    <v>       0.93991727       0.87858739       0.27354085 </v>
    <v>       0.44034300       0.61451820       0.22394500 </v>
    <v>       0.94056002       0.61633387       0.27652417 </v>
    <v>       0.43844381       0.37721311       0.27891509 </v>
    <v>       0.93972313       0.37893861       0.22443595 </v>
    <v>       0.43881585       0.11619633       0.27222264 </v>
    <v>       0.93919266       0.11578633       0.22188622 </v>
    <v>       0.18951638      -0.00314839       0.24660004 </v>
    <v>       0.68950790      -0.00301364       0.24803352 </v>
    <v>       0.18992637       0.49707871       0.25070662 </v>
    <v>       0.68984974       0.49695777       0.25307946 </v>
    <v>       0.55353290       0.44054790       0.47811134 </v>
    <v>       0.76066527       0.35993945       0.47805102 </v>
    <v>       0.47075679       0.36827652       0.55916998 </v>
   </varray>
  </structure>
  <varray name="forces" >
   <v>      -0.00241477       0.00760973       0.00139702 </v>
   <v>      -0.00376244       0.00293298      -0.00239826 </v>
   <v>       0.00249078       0.01148999       0.00396988 </v>
   <v>       0.00222339      -0.00257635       0.00361669 </v>
   <v>      -0.00606132       0.00258668       0.00052156 </v>
   <v>      -0.00289292      -0.00252856      -0.00140909 </v>
   <v>       0.00812220       0.00226406      -0.00057658 </v>
   <v>      -0.00054303      -0.00793945       0.00206168 </v>
   <v>      -0.00329402      -0.01348036       0.00210185 </v>
   <v>       0.00094424      -0.00338564      -0.00350958 </v>
   <v>      -0.00664848      -0.00645861      -0.00995606 </v>
   <v>       0.00007062      -0.00632656       0.00270835 </v>
   <v>       0.00249201       0.00279138       0.00481257 </v>
   <v>       0.00280180       0.00607128       0.00054702 </v>
   <v>       0.00647194       0.00694942      -0.00388704 </v>
  </varray>
  <varray name="stress" >
   <v>       8.53452620       0.16205371       0.10671512 </v>
   <v>       0.16205283     -10.50815559       0.11258829 </v>
   <v>       0.10671324       0.11258976      -1.30431278 </v>
  </varray>
  <energy>
   <i name="e_fr_energy">    -49.86693520 </i>
   <i name="e_wo_entrp">    -49.86693520 </i>
   <i name="e_0_energy">     -0.00000000 </i>
  </energy>
  <time name="totalsc">  570.80  571.87</time>
 </calculation>
 <calculation>
  <scstep>
   <time name="dav">   15.28   15.30</time>
   <time name="total">  115.13  115.26</time>
   <energy>
    <i name="alphaZ">     15.92198659 </i>
    <i name="ewald">   1273.75225264 </i>
    <i name="hartreedc">  -2455.76138560 </i>
    <i name="XCdc">   -170.61617978 </i>
    <i name="pawpsdc">   1743.24357350 </i>
    <i name="pawaedc">  -1464.70094305 </i>
    <i name="eentropy">     -0.00000000 </i>
    <i name="bandstr">   -325.43439508 </i>
    <i name="atom">   1333.72818728 </i>
    <i name="e_fr_energy">    -49.86690349 </i>
    <i name="e_wo_entrp">    -49.86690349 </i>
    <i name="e_0_energy">    -49.86690349 </i>
   </energy>
  </scstep>
  <scstep>
   <time name="dav">   20.18   20.22</time>
   <time name="total">  120.66  120.95</time>
   <energy>
    <i name="e_fr_energy">    -49.86697406 </i>
    <i name="e_wo_entrp">    -49.86697406 </i>
    <i name="e_0_energy">    -49.86697406 </i>
   </energy>
  </scstep>
  <scstep>
   <time name="dav">   16.50   16.54</time>
   <time name="total">  117.20  117.36</time>
   <energy>
    <i name="alphaZ">     15.92198659 </i>
    <i name="ewald">   1273.75225264 </i>
    <i name="hartreedc">  -2455.76538819 </i>
    <i name="XCdc">   -170.61534141 </i>
    <i name="pawpsdc">   1743.28106341 </i>
    <i name="pawaedc">  -1464.73892852 </i>
    <i name="eentropy">     -0.00000000 </i>
    <i name="bandstr">   -325.43080269 </i>
    <i name="atom">   1333.72818728 </i>
    <i name="e_fr_energy">    -49.86697088 </i>
    <i name="e_wo_entrp">    -49.86697088 </i>
    <i name="e_0_energy">    -49.86697088 </i>
   </energy>
  </scstep>
  <structure>
   <crystal>
    <varray name="basis" >
     <v>       6.01920000       0.00000000       0.00000000 </v>
     <v>       0.00000000      10.14000000       0.00000000 </v>
     <v>       0.00000000       0.00000000      15.00000000 </v>
    </varray>
    <i name="volume">    915.52032000 </i>
    <varray name="rec_basis" >
     <v>       0.16613503       0.00000000       0.00000000 </v>
     <v>       0.00000000       0.09861933       0.00000000 </v>
     <v>       0.00000000       0.00000000       0.06666667 </v>
    </varray>
   </crystal>
   <varray name="positions" >
    <v>       0.44001467       0.87761003       0.22239789 </v>
    <v>       0.93984020       0.87849179       0.27353428 </v>
    <v>       0.44037069       0.61442698       0.22392672 </v>
    <v>       0.94040041       0.61626971       0.27651967 </v>
    <v>       0.43847915       0.37716671       0.27888265 </v>
    <v>       0.93956335       0.37889679       0.22441673 </v>
    <v>       0.43872302       0.11612907       0.27225860 </v>
    <v>       0.93906124       0.11578260       0.22189395 </v>
    <v>       0.18938885      -0.00322053       0.24657935 </v>
    <v>       0.68951019      -0.00308238       0.24809885 </v>
    <v>       0.18982636       0.49702739       0.25069546 </v>
    <v>       0.68981357       0.49688572       0.25300650 </v>
    <v>       0.55362210       0.44071779       0.47816527 </v>
    <v>       0.76088258       0.36024727       0.47801151 </v>
    <v>       0.47127446       0.36854456       0.55925257 </v>
   </varray>
  </structure>
  <varray name="forces" >
   <v>      -0.00496629       0.01300044       0.00373654 </v>
   <v>      -0.00107427       0.00734254      -0.00186508 </v>
   <v>      -0.00743221       0.01634409       0.00198495 </v>
   <v>       0.01154670      -0.00149333       0.00218223 </v>
   <v>      -0.01606544       0.00057247       0.00094878 </v>
   <v>       0.00879384      -0.00511298      -0.00327434 </v>
   <v>       0.00890705      -0.00333179      -0.00225657 </v>
   <v>       0.00356258      -0.01668874       0.00396848 </v>
   <v>       0.00666156      -0.01136334       0.00107661 </v>
   <v>      -0.01212386      -0.00133688      -0.00447256 </v>
   <v>      -0.00000144      -0.00790426      -0.00925895 </v>
   <v>      -0.00612454      -0.00544366       0.00563041 </v>
   <v>       0.00354356       0.01358076      -0.00805135 </v>
   <v>       0.00410359       0.00381960       0.00132535 </v>
   <v>       0.00066917      -0.00198492       0.00832551 </v>
  </varray>
  <varray name="stress" >
   <v>       8.53931479       0.16176024       0.09377441 </v>
   <v>       0.16175926     -10.50516645       0.09172026 </v>
   <v>       0.09377267       0.09172176      -1.27564473 </v>
  </varray>
  <energy>
   <i name="e_fr_energy">    -49.86697088 </i>
   <i name="e_wo_entrp">    -49.86697088 </i>
   <i name="e_0_energy">     -0.00000000 </i>
  </energy>
  <time name="totalsc">  577.37  578.97</time>
 </calculation>
 <calculation>
  <scstep>
   <time name="dav">   15.07   15.10</time>
   <time name="total">  116.99  117.12</time>
   <energy>
    <i name="alphaZ">     15.92198659 </i>
    <i name="ewald">   1273.69109815 </i>
    <i name="hartreedc">  -2455.70159019 </i>
    <i name="XCdc">   -170.61562233 </i>
    <i name="pawpsdc">   1743.29191473 </i>
    <i name="pawaedc">  -1464.74997244 </i>
    <i name="eentropy">     -0.00000000 </i>
    <i name="bandstr">   -325.43301335 </i>
    <i name="atom">   1333.72818728 </i>
    <i name="e_fr_energy">    -49.86701155 </i>
    <i name="e_wo_entrp">    -49.86701155 </i>
    <i name="e_0_energy">    -49.86701155 </i>
   </energy>
  </scstep>
  <scstep>
   <time name="dav">   19.09   19.12</time>
   <time name="total">  124.39  124.53</time>
   <energy>
    <i name="e_fr_energy">    -49.86702416 </i>
    <i name="e_wo_entrp">    -49.86702416 </i>
    <i name="e_0_energy">    -49.86702416 </i>
   </energy>
  </scstep>
  <scstep>
   <time name="dav">   11.99   12.00</time>
   <time name="total">  117.22  117.34</time>
   <energy>
    <i name="alphaZ">     15.92198659 </i>
    <i name="ewald">   1273.69109815 </i>
    <i name="hartreedc">  -2455.70414563 </i>
    <i name="XCdc">   -170.61505508 </i>
    <i name="pawpsdc">   1743.29920921 </i>
    <i name="pawaedc">  -1464.75728077 </i>
    <i name="eentropy">     -0.00000000 </i>
    <i name="bandstr">   -325.43102486 </i>
    <i name="atom">   1333.72818728 </i>
    <i name="e_fr_energy">    -49.86702509 </i>
    <i name="e_wo_entrp">    -49.86702509 </i>
    <i name="e_0_energy">    -49.86702509 </i>
   </energy>
  </scstep>
  <structure>
   <crystal>
    <varray name="basis" >
     <v>       6.01920000       0.00000000       0.00000000 </v>
     <v>       0.00000000      10.14000000       0.00000000 </v>
     <v>       0.00000000       0.00000000      15.00000000 </v>
    </varray>
    <i name="volume">    915.52032000 </i>
    <varray name="rec_basis" >
     <v>       0.16613503       0.00000000       0.00000000 </v>
     <v>       0.00000000       0.09861933       0.00000000 </v>
     <v>       0.00000000       0.00000000       0.06666667 </v>
    </varray>
   </crystal>
   <varray name="positions" >
    <v>       0.43999660       0.87760577       0.22239447 </v>
    <v>       0.93980531       0.87846682       0.27352920 </v>
    <v>       0.44035809       0.61442098       0.22392183 </v>
    <v>       0.94037245       0.61624068       0.27652066 </v>
    <v>       0.43844189       0.37714888       0.27887065 </v>
    <v>       0.93952646       0.37886997       0.22440466 </v>
    <v>       0.43871380       0.11609527       0.27227035 </v>
    <v>       0.93901909       0.11574921       0.22190223 </v>
    <v>       0.18935826      -0.00327166       0.24657230 </v>
    <v>       0.68947213      -0.00311297       0.24811973 </v>
    <v>       0.18978556       0.49699136       0.25067895 </v>
    <v>       0.68977912       0.49684593       0.25298401 </v>
    <v>       0.55366989       0.44081303       0.47817687 </v>
    <v>       0.76098443       0.36038013       0.47799710 </v>
    <v>       0.47148779       0.36865011       0.55929701 </v>
   </varray>
  </structure>
  <varray name="forces" >
   <v>      -0.00559242       0.00916289       0.00347466 </v>
   <v>      -0.00084335       0.00438847      -0.00082654 </v>
   <v>      -0.00993195       0.01362931       0.00183256 </v>
   <v>       0.01106777      -0.00268356       0.00116911 </v>
   <v>      -0.01697013      -0.00091421       0.00086787 </v>
   <v>       0.00955824      -0.00714880      -0.00369941 </v>
   <v>       0.00526563      -0.00315710      -0.00222407 </v>
   <v>       0.00475509      -0.01655179       0.00367156 </v>
   <v>       0.00694417      -0.00681449       0.00147020 </v>
   <v>      -0.01080954      -0.00046620      -0.00580792 </v>
   <v>       0.00249468      -0.00498406      -0.00870078 </v>
   <v>      -0.00648046      -0.00225902       0.00800736 </v>
   <v>       0.00513851       0.01313188      -0.00929493 </v>
   <v>       0.00380184       0.00553833       0.00094788 </v>
   <v>       0.00160190      -0.00087166       0.00911242 </v>
  </varray>
  <varray name="stress" >
   <v>       8.53726986       0.14958309       0.09162720 </v>
   <v>       0.14958220     -10.50708302       0.09137292 </v>
   <v>       0.09162536       0.09137436      -1.27282131 </v>
  </varray>
  <energy>
   <i name="e_fr_energy">    -49.86702509 </i>
   <i name="e_wo_entrp">    -49.86702509 </i>
   <i name="e_0_energy">     -0.00000000 </i>
  </energy>
  <time name="totalsc">  598.05  603.38</time>
 </calculation>
 <calculation>
  <scstep>
   <time name="dav">   15.60   15.62</time>
   <time name="total">  121.48  121.60</time>
   <energy>
    <i name="alphaZ">     15.92198659 </i>
    <i name="ewald">   1273.50722040 </i>
    <i name="hartreedc">  -2455.51307351 </i>
    <i name="XCdc">   -170.61647710 </i>
    <i name="pawpsdc">   1743.30079349 </i>
    <i name="pawaedc">  -1464.75882968 </i>
    <i name="eentropy">     -0.00000000 </i>
    <i name="bandstr">   -325.43681786 </i>
    <i name="atom">   1333.72818728 </i>
    <i name="e_fr_energy">    -49.86701038 </i>
    <i name="e_wo_entrp">    -49.86701038 </i>
    <i name="e_0_energy">    -49.86701038 </i>
   </energy>
  </scstep>
  <scstep>
   <time name="dav">   20.76   20.77</time>
   <time name="total">  127.18  127.20</time>
   <energy>
    <i name="e_fr_energy">    -49.86713875 </i>
    <i name="e_wo_entrp">    -49.86713875 </i>
    <i name="e_0_energy">    -49.86713875 </i>
   </energy>
  </scstep>
  <scstep>
   <time name="dav">   17.87   17.93</time>
   <time name="total">  122.29  122.63</time>
   <energy>
    <i name="alphaZ">     15.92198659 </i>
    <i name="ewald">   1273.50722040 </i>
    <i name="hartreedc">  -2455.51529782 </i>
    <i name="XCdc">   -170.61511739 </i>
    <i name="pawpsdc">   1743.33249004 </i>
    <i name="pawaedc">  -1464.79072554 </i>
    <i name="eentropy">     -0.00000000 </i>
    <i name="bandstr">   -325.43587894 </i>
    <i name="atom">   1333.72818728 </i>
    <i name="e_fr_energy">    -49.86713536 </i>
    <i name="e_wo_entrp">    -49.86713536 </i>
    <i name="e_0_energy">    -49.86713536 </i>
   </energy>
  </scstep>
  <structure>
   <crystal>
    <varray name="basis" >
     <v>       6.01920000       0.00000000       0.00000000 </v>
     <v>       0.00000000      10.14000000       0.00000000 </v>
     <v>       0.00000000       0.00000000      15.00000000 </v>
    </varray>
    <i name="volume">    915.52032000 </i>
    <varray name="rec_basis" >
     <v>       0.16613503       0.00000000       0.00000000 </v>
     <v>       0.00000000       0.09861933       0.00000000 </v>
     <v>       0.00000000       0.00000000       0.06666667 </v>
    </varray>
   </crystal>
   <varray name="positions" >
    <v>       0.43994242       0.87759299       0.22238420 </v>
    <v>       0.93970063       0.87839189       0.27351394 </v>
    <v>       0.44032026       0.61440297       0.22390715 </v>
    <v>       0.94028855       0.61615360       0.27652361 </v>
    <v>       0.43833010       0.37709538       0.27883463 </v>
    <v>       0.93941579       0.37878950       0.22436847 </v>
    <v>       0.43868615       0.11599387       0.27230561 </v>
    <v>       0.93889263       0.11564904       0.22192706 </v>
    <v>       0.18926647      -0.00342503       0.24655115 </v>
    <v>       0.68935795      -0.00320474       0.24818236 </v>
    <v>       0.18966316       0.49688327       0.25062943 </v>
    <v>       0.68967576       0.49672657       0.25291652 </v>
    <v>       0.55381326       0.44109873       0.47821169 </v>
    <v>       0.76128997       0.36077870       0.47795388 </v>
    <v>       0.47212776       0.36896676       0.55943032 </v>
   </varray>
  </structure>
  <varray name="forces" >
   <v>      -0.00665455      -0.00306809       0.00238689 </v>
   <v>       0.00001372      -0.00326666       0.00247958 </v>
   <v>      -0.01429188       0.00608751       0.00130214 </v>
   <v>       0.00951815      -0.00544599      -0.00192988 </v>
   <v>      -0.01679554      -0.00426015       0.00076666 </v>
   <v>       0.01020877      -0.01026940      -0.00449866 </v>
   <v>      -0.00409522       0.00091412      -0.00132055 </v>
   <v>       0.00916489      -0.01416974       0.00268024 </v>
   <v>       0.00625231       0.00679905       0.00160610 </v>
   <v>      -0.00442609       0.00283713      -0.00695063 </v>
   <v>       0.00923792       0.00449828      -0.00762068 </v>
   <v>      -0.00558056       0.00582899       0.00975191 </v>
   <v>       0.00794241       0.00739953      -0.00651431 </v>
   <v>      -0.00024090       0.00657479       0.00052132 </v>
   <v>      -0.00025342      -0.00045938       0.00733988 </v>
  </varray>
  <varray name="stress" >
   <v>       8.53535297       0.13400008       0.08267337 </v>
   <v>       0.13399925     -10.48772849       0.09557565 </v>
   <v>       0.08267150       0.09557713      -1.27560779 </v>
  </varray>
  <energy>
   <i name="e_fr_energy">    -49.86713536 </i>
   <i name="e_wo_entrp">    -49.86713536 </i>
   <i name="e_0_energy">     -0.00000000 </i>
  </energy>
  <time name="totalsc">  607.37  609.50</time>
 </calculation>
 <calculation>
  <scstep>
   <time name="dav">   18.50   18.50</time>
   <time name="total">  123.64  123.65</time>
   <energy>
    <i name="alphaZ">     15.92198659 </i>
    <i name="ewald">   1273.13760392 </i>
    <i name="hartreedc">  -2455.13011046 </i>
    <i name="XCdc">   -170.61791118 </i>
    <i name="pawpsdc">   1743.34265268 </i>
    <i name="pawaedc">  -1464.80079623 </i>
    <i name="eentropy">     -0.00000000 </i>
    <i name="bandstr">   -325.44831090 </i>
    <i name="atom">   1333.72818728 </i>
    <i name="e_fr_energy">    -49.86669830 </i>
    <i name="e_wo_entrp">    -49.86669830 </i>
    <i name="e_0_energy">    -49.86669830 </i>
   </energy>
  </scstep>
  <scstep>
   <time name="dav">   20.24   20.25</time>
   <time name="total">  132.44  132.47</time>
   <energy>
    <i name="e_fr_energy">    -49.86721446 </i>
    <i name="e_wo_entrp">    -49.86721446 </i>
    <i name="e_0_energy">    -49.86721446 </i>
   </energy>
  </scstep>
  <scstep>
   <time name="dav">   19.89   19.89</time>
   <time name="total">  131.89  131.91</time>
   <energy>
    <i name="e_fr_energy">    -49.86719985 </i>
    <i name="e_wo_entrp">    -49.86719985 </i>
    <i name="e_0_energy">    -49.86719985 </i>
   </energy>
  </scstep>
  <scstep>
   <time name="dav">   17.93   17.94</time>
   <time name="total">  130.04  130.05</time>
   <energy>
    <i name="e_fr_energy">    -49.86722581 </i>
    <i name="e_wo_entrp">    -49.86722581 </i>
    <i name="e_0_energy">    -49.86722581 </i>
   </energy>
  </scstep>
  <scstep>
   <time name="dav">   14.18   14.18</time>
   <time name="total">  123.73  123.74</time>
   <energy>
    <i name="alphaZ">     15.92198659 </i>
    <i name="ewald">   1273.13760392 </i>
    <i name="hartreedc">  -2455.12174507 </i>
    <i name="XCdc">   -170.61477315 </i>
    <i name="pawpsdc">   1743.39727397 </i>
    <i name="pawaedc">  -1464.85520126 </i>
    <i name="eentropy">     -0.00000000 </i>
    <i name="bandstr">   -325.46055816 </i>
    <i name="atom">   1333.72818728 </i>
    <i name="e_fr_energy">    -49.86722587 </i>
    <i name="e_wo_entrp">    -49.86722587 </i>
    <i name="e_0_energy">    -49.86722587 </i>
   </energy>
  </scstep>
  <structure>
   <crystal>
    <varray name="basis" >
     <v>       6.01920000       0.00000000       0.00000000 </v>
     <v>       0.00000000      10.14000000       0.00000000 </v>
     <v>       0.00000000       0.00000000      15.00000000 </v>
    </varray>
    <i name="volume">    915.52032000 </i>
    <varray name="rec_basis" >
     <v>       0.16613503       0.00000000       0.00000000 </v>
     <v>       0.00000000       0.09861933       0.00000000 </v>
     <v>       0.00000000       0.00000000       0.06666667 </v>
    </varray>
   </crystal>
   <varray name="positions" >
    <v>       0.43983404       0.87756743       0.22236367 </v>
    <v>       0.93949128       0.87824202       0.27348343 </v>
    <v>       0.44024461       0.61436695       0.22387778 </v>
    <v>       0.94012077       0.61597945       0.27652952 </v>
    <v>       0.43810653       0.37698838       0.27876259 </v>
    <v>       0.93919444       0.37862857       0.22429607 </v>
    <v>       0.43863085       0.11579108       0.27237613 </v>
    <v>       0.93863973       0.11544870       0.22197671 </v>
    <v>       0.18908290      -0.00373179       0.24650884 </v>
    <v>       0.68912957      -0.00338829       0.24830763 </v>
    <v>       0.18941835       0.49666709       0.25053038 </v>
    <v>       0.68946904       0.49648784       0.25278155 </v>
    <v>       0.55409999       0.44167014       0.47828133 </v>
    <v>       0.76190106       0.36157586       0.47786744 </v>
    <v>       0.47340771       0.36960007       0.55969694 </v>
   </varray>
  </structure>
  <varray name="forces" >
   <v>      -0.00969051      -0.02966228      -0.00032605 </v>
   <v>       0.00102155      -0.02056311       0.00907704 </v>
   <v>      -0.02431830      -0.01105681       0.00040042 </v>
   <v>       0.00519416      -0.01371960      -0.00857228 </v>
   <v>      -0.01769167      -0.01091483       0.00067841 </v>
   <v>       0.01104693      -0.01785297      -0.00634840 </v>
   <v>      -0.02527081       0.00823177       0.00035930 </v>
   <v>       0.01778189      -0.01076898       0.00078598 </v>
   <v>       0.00466093       0.03553472       0.00344795 </v>
   <v>       0.00901836       0.00949696      -0.01142790 </v>
   <v>       0.02278695       0.02387392      -0.00429432 </v>
   <v>      -0.00589603       0.02260911       0.01651281 </v>
   <v>       0.01515438      -0.00255205      -0.00543457 </v>
   <v>      -0.00520196       0.01324065      -0.00131581 </v>
   <v>       0.00140413       0.00410349       0.00645740 </v>
  </varray>
  <varray name="stress" >
   <v>       8.53052364       0.08563536       0.06661166 </v>
   <v>       0.08563439     -10.47084630       0.10757753 </v>
   <v>       0.06660991       0.10757913      -1.27696532 </v>
  </varray>
  <energy>
   <i name="e_fr_energy">    -49.86722587 </i>
   <i name="e_wo_entrp">    -49.86722587 </i>
   <i name="e_0_energy">     -0.00000000 </i>
  </energy>
  <time name="totalsc">  871.75  872.85</time>
 </calculation>
 <calculation>
  <scstep>
   <time name="dav">   15.12   15.13</time>
   <time name="total">  120.50  120.61</time>
   <energy>
    <i name="alphaZ">     15.92198659 </i>
    <i name="ewald">   1273.26362811 </i>
    <i name="hartreedc">  -2455.24952772 </i>
    <i name="XCdc">   -170.61374530 </i>
    <i name="pawpsdc">   1743.39384813 </i>
    <i name="pawaedc">  -1464.85168442 </i>
    <i name="eentropy">     -0.00000000 </i>
    <i name="bandstr">   -325.45985562 </i>
    <i name="atom">   1333.72818728 </i>
    <i name="e_fr_energy">    -49.86716295 </i>
    <i name="e_wo_entrp">    -49.86716295 </i>
    <i name="e_0_energy">    -49.86716295 </i>
   </energy>
  </scstep>
  <scstep>
   <time name="dav">   19.30   19.33</time>
   <time name="total">  124.58  124.63</time>
   <energy>
    <i name="e_fr_energy">    -49.86722116 </i>
    <i name="e_wo_entrp">    -49.86722116 </i>
    <i name="e_0_energy">    -49.86722116 </i>
   </energy>
  </scstep>
  <scstep>
   <time name="dav">   15.09   15.11</time>
   <time name="total">  118.73  118.84</time>
   <energy>
    <i name="alphaZ">     15.92198659 </i>
    <i name="ewald">   1273.26362811 </i>
    <i name="hartreedc">  -2455.24555617 </i>
    <i name="XCdc">   -170.61463738 </i>
    <i name="pawpsdc">   1743.37516293 </i>
    <i name="pawaedc">  -1464.83283972 </i>
    <i name="eentropy">     -0.00000000 </i>
    <i name="bandstr">   -325.46315056 </i>
    <i name="atom">   1333.72818728 </i>
    <i name="e_fr_energy">    -49.86721891 </i>
    <i name="e_wo_entrp">    -49.86721891 </i>
    <i name="e_0_energy">    -49.86721891 </i>
   </energy>
  </scstep>
  <structure>
   <crystal>
    <varray name="basis" >
     <v>       6.01920000       0.00000000       0.00000000 </v>
     <v>       0.00000000      10.14000000       0.00000000 </v>
     <v>       0.00000000       0.00000000      15.00000000 </v>
    </varray>
    <i name="volume">    915.52032000 </i>
    <varray name="rec_basis" >
     <v>       0.16613503       0.00000000       0.00000000 </v>
     <v>       0.00000000       0.09861933       0.00000000 </v>
     <v>       0.00000000       0.00000000       0.06666667 </v>
    </varray>
   </crystal>
   <varray name="positions" >
    <v>       0.43987091       0.87757612       0.22237065 </v>
    <v>       0.93956250       0.87829301       0.27349381 </v>
    <v>       0.44027035       0.61437921       0.22388777 </v>
    <v>       0.94017785       0.61603870       0.27652751 </v>
    <v>       0.43818259       0.37702478       0.27878710 </v>
    <v>       0.93926974       0.37868332       0.22432070 </v>
    <v>       0.43864967       0.11586007       0.27235214 </v>
    <v>       0.93872577       0.11551685       0.22195982 </v>
    <v>       0.18914535      -0.00362743       0.24652323 </v>
    <v>       0.68920727      -0.00332585       0.24826502 </v>
    <v>       0.18950163       0.49674064       0.25056408 </v>
    <v>       0.68953937       0.49656906       0.25282747 </v>
    <v>       0.55400244       0.44147574       0.47825763 </v>
    <v>       0.76169316       0.36130466       0.47789685 </v>
    <v>       0.47297226       0.36938461       0.55960623 </v>
   </varray>
  </structure>
  <varray name="forces" >
   <v>      -0.00874984      -0.02120817       0.00041669 </v>
   <v>       0.00036497      -0.01531785       0.00659318 </v>
   <v>      -0.02114119      -0.00577711       0.00046679 </v>
   <v>       0.00619638      -0.01158379      -0.00652819 </v>
   <v>      -0.01757598      -0.00893899       0.00076106 </v>
   <v>       0.01037653      -0.01584465      -0.00598936 </v>
   <v>      -0.01882234       0.00532475      -0.00039119 </v>
   <v>       0.01478258      -0.01230630       0.00126421 </v>
   <v>       0.00477451       0.02582589       0.00277011 </v>
   <v>       0.00446675       0.00698589      -0.01104433 </v>
   <v>       0.01773017       0.01704002      -0.00537964 </v>
   <v>      -0.00669724       0.01682061       0.01444328 </v>
   <v>       0.01212099       0.00009284      -0.00461475 </v>
   <v>      -0.00176449       0.01398459      -0.00115189 </v>
   <v>       0.00393819       0.00490227       0.00838405 </v>
  </varray>
  <varray name="stress" >
   <v>       8.53282603       0.09585482       0.07295320 </v>
   <v>       0.09585400     -10.48255569       0.10514748 </v>
   <v>       0.07295141       0.10514904      -1.27354341 </v>
  </varray>
  <energy>
   <i name="e_fr_energy">    -49.86721891 </i>
   <i name="e_wo_entrp">    -49.86721891 </i>
   <i name="e_0_energy">     -0.00000000 </i>
  </energy>
  <time name="totalsc">  597.89  600.27</time>
 </calculation>
 <calculation>
  <scstep>
   <time name="dav">   16.47   16.48</time>
   <time name="total">  122.10  122.14</time>
   <energy>
    <i name="alphaZ">     15.92198659 </i>
    <i name="ewald">   1273.18853133 </i>
    <i name="hartreedc">  -2455.16723652 </i>
    <i name="XCdc">   -170.61549554 </i>
    <i name="pawpsdc">   1743.36906613 </i>
    <i name="pawaedc">  -1464.82678672 </i>
    <i name="eentropy">     -0.00000000 </i>
    <i name="bandstr">   -325.46545935 </i>
    <i name="atom">   1333.72818728 </i>
    <i name="e_fr_energy">    -49.86720678 </i>
    <i name="e_wo_entrp">    -49.86720678 </i>
    <i name="e_0_energy">    -49.86720678 </i>
   </energy>
  </scstep>
  <scstep>
   <time name="dav">   21.12   21.13</time>
   <time name="total">  124.27  124.30</time>
   <energy>
    <i name="e_fr_energy">    -49.86722962 </i>
    <i name="e_wo_entrp">    -49.86722962 </i>
    <i name="e_0_energy">    -49.86722962 </i>
   </energy>
  </scstep>
  <scstep>
   <time name="dav">   10.19   10.20</time>
   <time name="total">  111.30  111.32</time>
   <energy>
    <i name="alphaZ">     15.92198659 </i>
    <i name="ewald">   1273.18853133 </i>
    <i name="hartreedc">  -2455.16959187 </i>
    <i name="XCdc">   -170.61490894 </i>
    <i name="pawpsdc">   1743.38935818 </i>
    <i name="pawaedc">  -1464.84729037 </i>
    <i name="eentropy">     -0.00000000 </i>
    <i name="bandstr">   -325.46349936 </i>
    <i name="atom">   1333.72818728 </i>
    <i name="e_fr_energy">    -49.86722715 </i>
    <i name="e_wo_entrp">    -49.86722715 </i>
    <i name="e_0_energy">    -49.86722715 </i>
   </energy>
  </scstep>
  <structure>
   <crystal>
    <varray name="basis" >
     <v>       6.01920000       0.00000000       0.00000000 </v>
     <v>       0.00000000      10.14000000       0.00000000 </v>
     <v>       0.00000000       0.00000000      15.00000000 </v>
    </varray>
    <i name="volume">    915.52032000 </i>
    <varray name="rec_basis" >
     <v>       0.16613503       0.00000000       0.00000000 </v>
     <v>       0.00000000       0.09861933       0.00000000 </v>
     <v>       0.00000000       0.00000000       0.06666667 </v>
    </varray>
   </crystal>
   <varray name="positions" >
    <v>       0.43984893       0.87757094       0.22236649 </v>
    <v>       0.93952004       0.87826261       0.27348762 </v>
    <v>       0.44025500       0.61437190       0.22388182 </v>
    <v>       0.94014382       0.61600337       0.27652870 </v>
    <v>       0.43813725       0.37700308       0.27877249 </v>
    <v>       0.93922485       0.37865068       0.22430602 </v>
    <v>       0.43863845       0.11581894       0.27236644 </v>
    <v>       0.93867448       0.11547622       0.22196989 </v>
    <v>       0.18910812      -0.00368965       0.24651465 </v>
    <v>       0.68916095      -0.00336307       0.24829042 </v>
    <v>       0.18945198       0.49669679       0.25054399 </v>
    <v>       0.68949744       0.49652064       0.25280009 </v>
    <v>       0.55406060       0.44159164       0.47827176 </v>
    <v>       0.76181710       0.36146634       0.47787931 </v>
    <v>       0.47323186       0.36951306       0.55966031 </v>
   </varray>
  </structure>
  <varray name="forces" >
   <v>      -0.00864841      -0.02467006       0.00047069 </v>
   <v>       0.00082131      -0.01695573       0.00815974 </v>
   <v>      -0.02236759      -0.00756353       0.00027015 </v>
   <v>       0.00586904      -0.01117942      -0.00747528 </v>
   <v>      -0.01695018      -0.00936749       0.00071124 </v>
   <v>       0.01104430      -0.01578811      -0.00603669 </v>
   <v>      -0.02121931       0.00791241       0.00027667 </v>
   <v>       0.01626655      -0.01038894       0.00121520 </v>
   <v>       0.00477952       0.02811478       0.00293084 </v>
   <v>       0.00612348       0.00725911      -0.00960715 </v>
   <v>       0.02028424       0.01897947      -0.00605471 </v>
   <v>      -0.00643843       0.01802448       0.01372187 </v>
   <v>       0.01403752      -0.00140327      -0.00448679 </v>
   <v>      -0.00449446       0.01293170      -0.00082512 </v>
   <v>       0.00089242       0.00409459       0.00672936 </v>
  </varray>
  <varray name="stress" >
   <v>       8.53277721       0.09387065       0.06989846 </v>
   <v>       0.09386980     -10.46911295       0.10659004 </v>
   <v>       0.06989658       0.10659157      -1.27212911 </v>
  </varray>
  <energy>
   <i name="e_fr_energy">    -49.86722715 </i>
   <i name="e_wo_entrp">    -49.86722715 </i>
   <i name="e_0_energy">     -0.00000000 </i>
  </energy>
  <time name="totalsc">  587.82  589.08</time>
 </calculation>
 <calculation>
  <scstep>
   <time name="dav">   17.18   17.30</time>
   <time name="total">  120.80  121.01</time>
   <energy>
    <i name="alphaZ">     15.92198659 </i>
    <i name="ewald">   1273.12092497 </i>
    <i name="hartreedc">  -2455.10412114 </i>
    <i name="XCdc">   -170.61547725 </i>
    <i name="pawpsdc">   1743.39718539 </i>
    <i name="pawaedc">  -1464.85513915 </i>
    <i name="eentropy">     -0.00000000 </i>
    <i name="bandstr">   -325.46080998 </i>
    <i name="atom">   1333.72818728 </i>
    <i name="e_fr_energy">    -49.86726329 </i>
    <i name="e_wo_entrp">    -49.86726329 </i>
    <i name="e_0_energy">    -49.86726329 </i>
   </energy>
  </scstep>
  <scstep>
   <time name="dav">   18.00   18.11</time>
   <time name="total">  118.73  119.05</time>
   <energy>
    <i name="e_fr_energy">    -49.86727467 </i>
    <i name="e_wo_entrp">    -49.86727467 </i>
    <i name="e_0_energy">    -49.86727467 </i>
   </energy>
  </scstep>
  <scstep>
   <time name="dav">   10.93   10.99</time>
   <time name="total">  114.15  114.48</time>
   <energy>
    <i name="alphaZ">     15.92198659 </i>
    <i name="ewald">   1273.12092497 </i>
    <i name="hartreedc">  -2455.10084312 </i>
    <i name="XCdc">   -170.61521171 </i>
    <i name="pawpsdc">   1743.38310617 </i>
    <i name="pawaedc">  -1464.84102186 </i>
    <i name="eentropy">     -0.00000000 </i>
    <i name="bandstr">   -325.46440400 </i>
    <i name="atom">   1333.72818728 </i>
    <i name="e_fr_energy">    -49.86727567 </i>
    <i name="e_wo_entrp">    -49.86727567 </i>
    <i name="e_0_energy">    -49.86727567 </i>
   </energy>
  </scstep>
  <structure>
   <crystal>
    <varray name="basis" >
     <v>       6.01920000       0.00000000       0.00000000 </v>
     <v>       0.00000000      10.14000000       0.00000000 </v>
     <v>       0.00000000       0.00000000      15.00000000 </v>
    </varray>
    <i name="volume">    915.52032000 </i>
    <varray name="rec_basis" >
     <v>       0.16613503       0.00000000       0.00000000 </v>
     <v>       0.00000000       0.09861933       0.00000000 </v>
     <v>       0.00000000       0.00000000       0.06666667 </v>
    </varray>
   </crystal>
   <varray name="positions" >
    <v>       0.43982078       0.87754900       0.22236337 </v>
    <v>       0.93948693       0.87822599       0.27348662 </v>
    <v>       0.44021553       0.61436058       0.22387717 </v>
    <v>       0.94012361       0.61596695       0.27652603 </v>
    <v>       0.43808025       0.37697890       0.27876110 </v>
    <v>       0.93920219       0.37861309       0.22429128 </v>
    <v>       0.43860369       0.11579160       0.27237807 </v>
    <v>       0.93865301       0.11543610       0.22197857 </v>
    <v>       0.18908401      -0.00371937       0.24650919 </v>
    <v>       0.68913117      -0.00338775       0.24830615 </v>
    <v>       0.18943672       0.49667525       0.25052491 </v>
    <v>       0.68945595       0.49649473       0.25278478 </v>
    <v>       0.55412434       0.44168372       0.47828092 </v>
    <v>       0.76191120       0.36160552       0.47786483 </v>
    <v>       0.47344146       0.36961918       0.55970702 </v>
   </varray>
  </structure>
  <varray name="forces" >
   <v>      -0.00850458      -0.02532499       0.00065355 </v>
   <v>       0.00143181      -0.01736164       0.00864797 </v>
   <v>      -0.02127703      -0.00928016       0.00000051 </v>
   <v>       0.00480660      -0.01223849      -0.00821948 </v>
   <v>      -0.01514510      -0.00926276       0.00082409 </v>
   <v>       0.01019738      -0.01440375      -0.00547509 </v>
   <v>      -0.02193181       0.00741953       0.00022310 </v>
   <v>       0.01597480      -0.00939271       0.00077066 </v>
   <v>       0.00396373       0.02920514       0.00362235 </v>
   <v>       0.00678975       0.00730610      -0.01030854 </v>
   <v>       0.01741662       0.01884752      -0.00554994 </v>
   <v>      -0.00477634       0.01828442       0.01454245 </v>
   <v>       0.01254430      -0.00040879      -0.00424303 </v>
   <v>      -0.00296158       0.01170534      -0.00098325 </v>
   <v>       0.00147147       0.00490527       0.00549467 </v>
  </varray>
  <varray name="stress" >
   <v>       8.53414762       0.08579507       0.07031582 </v>
   <v>       0.08579404     -10.47465844       0.10462506 </v>
   <v>       0.07031396       0.10462663      -1.27675672 </v>
  </varray>
  <energy>
   <i name="e_fr_energy">    -49.86727567 </i>
   <i name="e_wo_entrp">    -49.86727567 </i>
   <i name="e_0_energy">     -0.00000000 </i>
  </energy>
  <time name="totalsc">  584.44  587.73</time>
 </calculation>
 <calculation>
  <scstep>
   <time name="dav">   16.42   16.43</time>
   <time name="total">  119.11  119.14</time>
   <energy>
    <i name="alphaZ">     15.92198659 </i>
    <i name="ewald">   1272.91774642 </i>
    <i name="hartreedc">  -2454.90359113 </i>
    <i name="XCdc">   -170.61730413 </i>
    <i name="pawpsdc">   1743.38026660 </i>
    <i name="pawaedc">  -1464.83815661 </i>
    <i name="eentropy">     -0.00000000 </i>
    <i name="bandstr">   -325.45641874 </i>
    <i name="atom">   1333.72818728 </i>
    <i name="e_fr_energy">    -49.86728372 </i>
    <i name="e_wo_entrp">    -49.86728372 </i>
    <i name="e_0_energy">    -49.86728372 </i>
   </energy>
  </scstep>
  <scstep>
   <time name="dav">   19.79   19.80</time>
   <time name="total">  128.13  128.16</time>
   <energy>
    <i name="e_fr_energy">    -49.86739619 </i>
    <i name="e_wo_entrp">    -49.86739619 </i>
    <i name="e_0_energy">    -49.86739619 </i>
   </energy>
  </scstep>
  <scstep>
   <time name="dav">   17.50   17.50</time>
   <time name="total">  124.31  124.34</time>
   <energy>
    <i name="alphaZ">     15.92198659 </i>
    <i name="ewald">   1272.91774642 </i>
    <i name="hartreedc">  -2454.89846349 </i>
    <i name="XCdc">   -170.61636327 </i>
    <i name="pawpsdc">   1743.35478513 </i>
    <i name="pawaedc">  -1464.81277086 </i>
    <i name="eentropy">     -0.00000000 </i>
    <i name="bandstr">   -325.46250713 </i>
    <i name="atom">   1333.72818728 </i>
    <i name="e_fr_energy">    -49.86739933 </i>
    <i name="e_wo_entrp">    -49.86739933 </i>
    <i name="e_0_energy">    -49.86739933 </i>
   </energy>
  </scstep>
  <structure>
   <crystal>
    <varray name="basis" >
     <v>       6.01920000       0.00000000       0.00000000 </v>
     <v>       0.00000000      10.14000000       0.00000000 </v>
     <v>       0.00000000       0.00000000      15.00000000 </v>
    </varray>
    <i name="volume">    915.52032000 </i>
    <varray name="rec_basis" >
     <v>       0.16613503       0.00000000       0.00000000 </v>
     <v>       0.00000000       0.09861933       0.00000000 </v>
     <v>       0.00000000       0.00000000       0.06666667 </v>
    </varray>
   </crystal>
   <varray name="positions" >
    <v>       0.43973633       0.87748320       0.22235402 </v>
    <v>       0.93938760       0.87811610       0.27348363 </v>
    <v>       0.44009713       0.61432664       0.22386321 </v>
    <v>       0.94006297       0.61585767       0.27651799 </v>
    <v>       0.43790928       0.37690636       0.27872693 </v>
    <v>       0.93913422       0.37850032       0.22424708 </v>
    <v>       0.43849941       0.11570958       0.27241294 </v>
    <v>       0.93858863       0.11531574       0.22200461 </v>
    <v>       0.18901170      -0.00380854       0.24649279 </v>
    <v>       0.68904185      -0.00346177       0.24835334 </v>
    <v>       0.18939091       0.49661061       0.25046766 </v>
    <v>       0.68933148       0.49641701       0.25273886 </v>
    <v>       0.55431558       0.44195995       0.47830840 </v>
    <v>       0.76219350       0.36202307       0.47782138 </v>
    <v>       0.47407026       0.36993754       0.55984716 </v>
   </varray>
  </structure>
  <varray name="forces" >
   <v>      -0.00676336      -0.02433701       0.00153215 </v>
   <v>       0.00339495      -0.01595952       0.00968837 </v>
   <v>      -0.01635931      -0.01191000      -0.00100051 </v>
   <v>       0.00176760      -0.01264993      -0.01028402 </v>
   <v>      -0.00805433      -0.00769059       0.00110006 </v>
   <v>       0.00795053      -0.00823213      -0.00357502 </v>
   <v>      -0.02138949       0.00733313      -0.00013013 </v>
   <v>       0.01483721      -0.00439665      -0.00073957 </v>
   <v>       0.00136789       0.02615370       0.00470800 </v>
   <v>       0.00721956       0.00576274      -0.01010973 </v>
   <v>       0.00796276       0.01724129      -0.00435697 </v>
   <v>      -0.00012209       0.01660842       0.01534544 </v>
   <v>       0.00569766      -0.00256974      -0.00158317 </v>
   <v>       0.00094289       0.00737210      -0.00111685 </v>
   <v>       0.00154751       0.00727420       0.00052194 </v>
  </varray>
  <varray name="stress" >
   <v>       8.53577285       0.06392465       0.07300241 </v>
   <v>       0.06392372     -10.47698093       0.10346827 </v>
   <v>       0.07300061       0.10346979      -1.29061034 </v>
  </varray>
  <energy>
   <i name="e_fr_energy">    -49.86739933 </i>
   <i name="e_wo_entrp">    -49.86739933 </i>
   <i name="e_0_energy">     -0.00000000 </i>
  </energy>
  <time name="totalsc">  601.45  603.33</time>
 </calculation>
 <calculation>
  <scstep>
   <time name="dav">   16.33   16.40</time>
   <time name="total">  123.45  123.71</time>
   <energy>
    <i name="alphaZ">     15.92198659 </i>
    <i name="ewald">   1272.50977437 </i>
    <i name="hartreedc">  -2454.50260297 </i>
    <i name="XCdc">   -170.62053373 </i>
    <i name="pawpsdc">   1743.34723083 </i>
    <i name="pawaedc">  -1464.80513729 </i>
    <i name="eentropy">     -0.00000000 </i>
    <i name="bandstr">   -325.44599663 </i>
    <i name="atom">   1333.72818728 </i>
    <i name="e_fr_energy">    -49.86709156 </i>
    <i name="e_wo_entrp">    -49.86709156 </i>
    <i name="e_0_energy">    -49.86709156 </i>
   </energy>
  </scstep>
  <scstep>
   <time name="dav">   18.12   18.16</time>
   <time name="total">  120.59  120.78</time>
   <energy>
    <i name="e_fr_energy">    -49.86754328 </i>
    <i name="e_wo_entrp">    -49.86754328 </i>
    <i name="e_0_energy">    -49.86754328 </i>
   </energy>
  </scstep>
  <scstep>
   <time name="dav">   18.87   18.97</time>
   <time name="total">  123.68  123.98</time>
   <energy>
    <i name="e_fr_energy">    -49.86755705 </i>
    <i name="e_wo_entrp">    -49.86755705 </i>
    <i name="e_0_energy">    -49.86755705 </i>
   </energy>
  </scstep>
  <scstep>
   <time name="dav">   16.91   16.94</time>
   <time name="total">  121.78  122.28</time>
   <energy>
    <i name="e_fr_energy">    -49.86758060 </i>
    <i name="e_wo_entrp">    -49.86758060 </i>
    <i name="e_0_energy">    -49.86758060 </i>
   </energy>
  </scstep>
  <scstep>
   <time name="dav">   11.74   11.75</time>
   <time name="total">  116.23  116.39</time>
   <energy>
    <i name="alphaZ">     15.92198659 </i>
    <i name="ewald">   1272.50977437 </i>
    <i name="hartreedc">  -2454.47861819 </i>
    <i name="XCdc">   -170.61813302 </i>
    <i name="pawpsdc">   1743.25314715 </i>
    <i name="pawaedc">  -1464.71073290 </i>
    <i name="eentropy">     -0.00000000 </i>
    <i name="bandstr">   -325.47319145 </i>
    <i name="atom">   1333.72818728 </i>
    <i name="e_fr_energy">    -49.86758016 </i>
    <i name="e_wo_entrp">    -49.86758016 </i>
    <i name="e_0_energy">    -49.86758016 </i>
   </energy>
  </scstep>
  <structure>
   <crystal>
    <varray name="basis" >
     <v>       6.01920000       0.00000000       0.00000000 </v>
     <v>       0.00000000      10.14000000       0.00000000 </v>
     <v>       0.00000000       0.00000000      15.00000000 </v>
    </varray>
    <i name="volume">    915.52032000 </i>
    <varray name="rec_basis" >
     <v>       0.16613503       0.00000000       0.00000000 </v>
     <v>       0.00000000       0.09861933       0.00000000 </v>
     <v>       0.00000000       0.00000000       0.06666667 </v>
    </varray>
   </crystal>
   <varray name="positions" >
    <v>       0.43956743       0.87735159       0.22233533 </v>
    <v>       0.93918894       0.87789633       0.27347764 </v>
    <v>       0.43986032       0.61425874       0.22383530 </v>
    <v>       0.93994170       0.61563912       0.27650192 </v>
    <v>       0.43756733       0.37676128       0.27865859 </v>
    <v>       0.93899828       0.37827477       0.22415868 </v>
    <v>       0.43829085       0.11554556       0.27248268 </v>
    <v>       0.93845986       0.11507501       0.22205670 </v>
    <v>       0.18886706      -0.00398686       0.24646001 </v>
    <v>       0.68886321      -0.00360980       0.24844772 </v>
    <v>       0.18929931       0.49648134       0.25035315 </v>
    <v>       0.68908254       0.49626157       0.25264703 </v>
    <v>       0.55469806       0.44251242       0.47836335 </v>
    <v>       0.76275809       0.36285816       0.47773447 </v>
    <v>       0.47532786       0.37057427       0.56012743 </v>
   </varray>
  </structure>
  <varray name="forces" >
   <v>      -0.00418156      -0.02461816       0.00249869 </v>
   <v>       0.00644288      -0.01504396       0.01138338 </v>
   <v>      -0.00688616      -0.01860628      -0.00353068 </v>
   <v>      -0.00620880      -0.01620560      -0.01488860 </v>
   <v>       0.00513546      -0.00583539       0.00148063 </v>
   <v>       0.00154844       0.00277023      -0.00052165 </v>
   <v>      -0.02199152       0.00598759      -0.00099061 </v>
   <v>       0.01108343       0.00394592      -0.00412991 </v>
   <v>      -0.00234996       0.02418220       0.00810336 </v>
   <v>       0.00839235       0.00486131      -0.01316426 </v>
   <v>      -0.01161804       0.01433336      -0.00148031 </v>
   <v>       0.01142593       0.01458706       0.01913431 </v>
   <v>      -0.00939666      -0.00850858       0.00574715 </v>
   <v>       0.01165603       0.00263641      -0.00222585 </v>
   <v>       0.00694818       0.01551390      -0.00741567 </v>
  </varray>
  <varray name="stress" >
   <v>       8.53776064       0.01208626       0.08102439 </v>
   <v>       0.01208531     -10.49736177       0.09943243 </v>
   <v>       0.08102247       0.09943390      -1.31850407 </v>
  </varray>
  <energy>
   <i name="e_fr_energy">    -49.86758016 </i>
   <i name="e_wo_entrp">    -49.86758016 </i>
   <i name="e_0_energy">     -0.00000000 </i>
  </energy>
  <time name="totalsc">  834.37  837.59</time>
 </calculation>
 <calculation>
  <scstep>
   <time name="dav">   13.06   13.11</time>
   <time name="total">  120.34  120.78</time>
   <energy>
    <i name="alphaZ">     15.92198659 </i>
    <i name="ewald">   1271.68740124 </i>
    <i name="hartreedc">  -2453.68238150 </i>
    <i name="XCdc">   -170.62743821 </i>
    <i name="pawpsdc">   1743.24725123 </i>
    <i name="pawaedc">  -1464.70474890 </i>
    <i name="eentropy">     -0.00000000 </i>
    <i name="bandstr">   -325.43590524 </i>
    <i name="atom">   1333.72818728 </i>
    <i name="e_fr_energy">    -49.86564751 </i>
    <i name="e_wo_entrp">    -49.86564751 </i>
    <i name="e_0_energy">    -49.86564751 </i>
   </energy>
  </scstep>
  <scstep>
   <time name="dav">   18.61   18.66</time>
   <time name="total">  123.56  123.91</time>
   <energy>
    <i name="e_fr_energy">    -49.86750873 </i>
    <i name="e_wo_entrp">    -49.86750873 </i>
    <i name="e_0_energy">    -49.86750873 </i>
   </energy>
  </scstep>
  <scstep>
   <time name="dav">   20.21   20.22</time>
   <time name="total">  127.80  127.92</time>
   <energy>
    <i name="e_fr_energy">    -49.86753445 </i>
    <i name="e_wo_entrp">    -49.86753445 </i>
    <i name="e_0_energy">    -49.86753445 </i>
   </energy>
  </scstep>
  <scstep>
   <time name="dav">   17.02   17.11</time>
   <time name="total">  126.13  126.72</time>
   <energy>
    <i name="e_fr_energy">    -49.86760628 </i>
    <i name="e_wo_entrp">    -49.86760628 </i>
    <i name="e_0_energy">    -49.86760628 </i>
   </energy>
  </scstep>
  <scstep>
   <time name="dav">   19.44   19.47</time>
   <time name="total">  127.75  127.90</time>
   <energy>
    <i name="alphaZ">     15.92198659 </i>
    <i name="ewald">   1271.68740124 </i>
    <i name="hartreedc">  -2453.63984165 </i>
    <i name="XCdc">   -170.62252909 </i>
    <i name="pawpsdc">   1743.07768860 </i>
    <i name="pawaedc">  -1464.53485626 </i>
    <i name="eentropy">     -0.00000000 </i>
    <i name="bandstr">   -325.48564393 </i>
    <i name="atom">   1333.72818728 </i>
    <i name="e_fr_energy">    -49.86760721 </i>
    <i name="e_wo_entrp">    -49.86760721 </i>
    <i name="e_0_energy">    -49.86760721 </i>
   </energy>
  </scstep>
  <structure>
   <crystal>
    <varray name="basis" >
     <v>       6.01920000       0.00000000       0.00000000 </v>
     <v>       0.00000000      10.14000000       0.00000000 </v>
     <v>       0.00000000       0.00000000      15.00000000 </v>
    </varray>
    <i name="volume">    915.52032000 </i>
    <varray name="rec_basis" >
     <v>       0.16613503       0.00000000       0.00000000 </v>
     <v>       0.00000000       0.09861933       0.00000000 </v>
     <v>       0.00000000       0.00000000       0.06666667 </v>
    </varray>
   </crystal>
   <varray name="positions" >
    <v>       0.43922963       0.87708836       0.22229793 </v>
    <v>       0.93879163       0.87745679       0.27346567 </v>
    <v>       0.43938671       0.61412295       0.22377948 </v>
    <v>       0.93969915       0.61520202       0.27646979 </v>
    <v>       0.43688342       0.37647113       0.27852192 </v>
    <v>       0.93872640       0.37782368       0.22398188 </v>
    <v>       0.43787374       0.11521750       0.27262216 </v>
    <v>       0.93820233       0.11459356       0.22216088 </v>
    <v>       0.18857779      -0.00434352       0.24639443 </v>
    <v>       0.68850593      -0.00390588       0.24863647 </v>
    <v>       0.18911611       0.49622279       0.25012415 </v>
    <v>       0.68858466       0.49595069       0.25246335 </v>
    <v>       0.55546303       0.44361735       0.47847327 </v>
    <v>       0.76388728       0.36452833       0.47756066 </v>
    <v>       0.47784307       0.37184773       0.56068798 </v>
   </varray>
  </structure>
  <varray name="forces" >
   <v>       0.00129293      -0.02267301       0.00591432 </v>
   <v>       0.01388968      -0.01144098       0.01556062 </v>
   <v>       0.01111615      -0.03059903      -0.00820992 </v>
   <v>      -0.01908038      -0.01999732      -0.02341796 </v>
   <v>       0.03152098      -0.00091707       0.00223943 </v>
   <v>      -0.00799757       0.02600825       0.00585738 </v>
   <v>      -0.02181761       0.00464030      -0.00212839 </v>
   <v>       0.00500420       0.02228903      -0.01000656 </v>
   <v>      -0.01026637       0.01538491       0.01305223 </v>
   <v>       0.00819523      -0.00206625      -0.01372786 </v>
   <v>      -0.05031671       0.00657506      -0.00075849 </v>
   <v>       0.03004296       0.00654314       0.02029345 </v>
   <v>      -0.03511265      -0.01497910       0.02464360 </v>
   <v>       0.03033676      -0.00897317      -0.00371333 </v>
   <v>       0.01319242       0.03020524      -0.02559853 </v>
  </varray>
  <varray name="stress" >
   <v>       8.54967202      -0.08381207       0.09519998 </v>
   <v>      -0.08381284     -10.52948052       0.09589041 </v>
   <v>       0.09519798       0.09589198      -1.37887138 </v>
  </varray>
  <energy>
   <i name="e_fr_energy">    -49.86760721 </i>
   <i name="e_wo_entrp">    -49.86760721 </i>
   <i name="e_0_energy">     -0.00000000 </i>
  </energy>
  <time name="totalsc">  852.14  855.92</time>
 </calculation>
 <calculation>
  <scstep>
   <time name="dav">   15.12   15.13</time>
   <time name="total">  120.68  120.71</time>
   <energy>
    <i name="alphaZ">     15.92198659 </i>
    <i name="ewald">   1272.16034751 </i>
    <i name="hartreedc">  -2454.08826273 </i>
    <i name="XCdc">   -170.61747979 </i>
    <i name="pawpsdc">   1743.07228854 </i>
    <i name="pawaedc">  -1464.52937028 </i>
    <i name="eentropy">     -0.00000000 </i>
    <i name="bandstr">   -325.51470979 </i>
    <i name="atom">   1333.72818728 </i>
    <i name="e_fr_energy">    -49.86701267 </i>
    <i name="e_wo_entrp">    -49.86701267 </i>
    <i name="e_0_energy">    -49.86701267 </i>
   </energy>
  </scstep>
  <scstep>
   <time name="dav">   17.97   18.06</time>
   <time name="total">  121.32  121.54</time>
   <energy>
    <i name="e_fr_energy">    -49.86761209 </i>
    <i name="e_wo_entrp">    -49.86761209 </i>
    <i name="e_0_energy">    -49.86761209 </i>
   </energy>
  </scstep>
  <scstep>
   <time name="dav">   19.50   19.52</time>
   <time name="total">  121.64  121.82</time>
   <energy>
    <i name="e_fr_energy">    -49.86761979 </i>
    <i name="e_wo_entrp">    -49.86761979 </i>
    <i name="e_0_energy">    -49.86761979 </i>
   </energy>
  </scstep>
  <scstep>
   <time name="dav">   16.46   16.47</time>
   <time name="total">  118.63  118.72</time>
   <energy>
    <i name="e_fr_energy">    -49.86764694 </i>
    <i name="e_wo_entrp">    -49.86764694 </i>
    <i name="e_0_energy">    -49.86764694 </i>
   </energy>
  </scstep>
  <scstep>
   <time name="dav">   15.26   15.32</time>
   <time name="total">  118.50  118.92</time>
   <energy>
    <i name="alphaZ">     15.92198659 </i>
    <i name="ewald">   1272.16034751 </i>
    <i name="hartreedc">  -2454.09378144 </i>
    <i name="XCdc">   -170.62021210 </i>
    <i name="pawpsdc">   1743.17842439 </i>
    <i name="pawaedc">  -1464.63568111 </i>
    <i name="eentropy">     -0.00000000 </i>
    <i name="bandstr">   -325.50691641 </i>
    <i name="atom">   1333.72818728 </i>
    <i name="e_fr_energy">    -49.86764529 </i>
    <i name="e_wo_entrp">    -49.86764529 </i>
    <i name="e_0_energy">    -49.86764529 </i>
   </energy>
  </scstep>
  <structure>
   <crystal>
    <varray name="basis" >
     <v>       6.01920000       0.00000000       0.00000000 </v>
     <v>       0.00000000      10.14000000       0.00000000 </v>
     <v>       0.00000000       0.00000000      15.00000000 </v>
    </varray>
    <i name="volume">    915.52032000 </i>
    <varray name="rec_basis" >
     <v>       0.16613503       0.00000000       0.00000000 </v>
     <v>       0.00000000       0.09861933       0.00000000 </v>
     <v>       0.00000000       0.00000000       0.06666667 </v>
    </varray>
   </crystal>
   <varray name="positions" >
    <v>       0.43942347       0.87723941       0.22231939 </v>
    <v>       0.93901962       0.87770901       0.27347254 </v>
    <v>       0.43965848       0.61420087       0.22381151 </v>
    <v>       0.93983833       0.61545284       0.27648823 </v>
    <v>       0.43727587       0.37663763       0.27860035 </v>
    <v>       0.93888241       0.37808253       0.22408333 </v>
    <v>       0.43811309       0.11540575       0.27254212 </v>
    <v>       0.93835011       0.11486983       0.22210110 </v>
    <v>       0.18874378      -0.00413886       0.24643206 </v>
    <v>       0.68871095      -0.00373598       0.24852816 </v>
    <v>       0.18922124       0.49637115       0.25025556 </v>
    <v>       0.68887036       0.49612908       0.25256875 </v>
    <v>       0.55502407       0.44298331       0.47841020 </v>
    <v>       0.76323932       0.36356994       0.47766040 </v>
    <v>       0.47639977       0.37111699       0.56036632 </v>
   </varray>
  </structure>
  <varray name="forces" >
   <v>      -0.00193580      -0.02312592       0.00451148 </v>
   <v>       0.00983097      -0.01295670       0.01316871 </v>
   <v>       0.00031643      -0.02342363      -0.00582861 </v>
   <v>      -0.01089803      -0.01681464      -0.01826708 </v>
   <v>       0.01608991      -0.00352107       0.00203526 </v>
   <v>      -0.00197539       0.01314740       0.00199645 </v>
   <v>      -0.02203780       0.00580962      -0.00100708 </v>
   <v>       0.00881174       0.01225045      -0.00646904 </v>
   <v>      -0.00710965       0.01716726       0.00965200 </v>
   <v>       0.00770285      -0.00104154      -0.01107373 </v>
   <v>      -0.02858921       0.00938519      -0.00296926 </v>
   <v>       0.01737105       0.00930875       0.01757564 </v>
   <v>      -0.01823333      -0.00937510       0.01318766 </v>
   <v>       0.02020512      -0.00005475      -0.00275382 </v>
   <v>       0.01045113       0.02324468      -0.01375858 </v>
  </varray>
  <varray name="stress" >
   <v>       8.54413957      -0.02676049       0.08723793 </v>
   <v>      -0.02676136     -10.50956031       0.10023222 </v>
   <v>       0.08723597       0.10023375      -1.32912855 </v>
  </varray>
  <energy>
   <i name="e_fr_energy">    -49.86764529 </i>
   <i name="e_wo_entrp">    -49.86764529 </i>
   <i name="e_0_energy">     -0.00000000 </i>
  </energy>
  <time name="totalsc">  829.70  832.07</time>
 </calculation>
 <calculation>
  <scstep>
   <time name="dav">   17.50   17.54</time>
   <time name="total">  121.31  121.51</time>
   <energy>
    <i name="alphaZ">     15.92198659 </i>
    <i name="ewald">   1271.92422566 </i>
    <i name="hartreedc">  -2453.86923233 </i>
    <i name="XCdc">   -170.62280274 </i>
    <i name="pawpsdc">   1743.18895311 </i>
    <i name="pawaedc">  -1464.64632835 </i>
    <i name="eentropy">     -0.00000000 </i>
    <i name="bandstr">   -325.49247916 </i>
    <i name="atom">   1333.72818728 </i>
    <i name="e_fr_energy">    -49.86748994 </i>
    <i name="e_wo_entrp">    -49.86748994 </i>
    <i name="e_0_energy">    -49.86748994 </i>
   </energy>
  </scstep>
  <scstep>
   <time name="dav">   18.01   18.06</time>
   <time name="total">  120.83  121.18</time>
   <energy>
    <i name="e_fr_energy">    -49.86763674 </i>
    <i name="e_wo_entrp">    -49.86763674 </i>
    <i name="e_0_energy">    -49.86763674 </i>
   </energy>
  </scstep>
  <scstep>
   <time name="dav">   19.48   19.60</time>
   <time name="total">  123.48  124.04</time>
   <energy>
    <i name="alphaZ">     15.92198659 </i>
    <i name="ewald">   1271.92422566 </i>
    <i name="hartreedc">  -2453.86600738 </i>
    <i name="XCdc">   -170.62172017 </i>
    <i name="pawpsdc">   1743.15729364 </i>
    <i name="pawaedc">  -1464.61478302 </i>
    <i name="eentropy">     -0.00000000 </i>
    <i name="bandstr">   -325.49682262 </i>
    <i name="atom">   1333.72818728 </i>
    <i name="e_fr_energy">    -49.86764002 </i>
    <i name="e_wo_entrp">    -49.86764002 </i>
    <i name="e_0_energy">    -49.86764002 </i>
   </energy>
  </scstep>
  <structure>
   <crystal>
    <varray name="basis" >
     <v>       6.01920000       0.00000000       0.00000000 </v>
     <v>       0.00000000      10.14000000       0.00000000 </v>
     <v>       0.00000000       0.00000000      15.00000000 </v>
    </varray>
    <i name="volume">    915.52032000 </i>
    <varray name="rec_basis" >
     <v>       0.16613503       0.00000000       0.00000000 </v>
     <v>       0.00000000       0.09861933       0.00000000 </v>
     <v>       0.00000000       0.00000000       0.06666667 </v>
    </varray>
   </crystal>
   <varray name="positions" >
    <v>       0.43932655       0.87716388       0.22230866 </v>
    <v>       0.93890562       0.87758290       0.27346911 </v>
    <v>       0.43952259       0.61416191       0.22379549 </v>
    <v>       0.93976874       0.61532743       0.27647901 </v>
    <v>       0.43707964       0.37655438       0.27856113 </v>
    <v>       0.93880440       0.37795311       0.22403260 </v>
    <v>       0.43799342       0.11531162       0.27258214 </v>
    <v>       0.93827622       0.11473169       0.22213099 </v>
    <v>       0.18866079      -0.00424119       0.24641325 </v>
    <v>       0.68860844      -0.00382093       0.24858231 </v>
    <v>       0.18916868       0.49629697       0.25018986 </v>
    <v>       0.68872751       0.49603989       0.25251605 </v>
    <v>       0.55524355       0.44330033       0.47844173 </v>
    <v>       0.76356330       0.36404913       0.47761053 </v>
    <v>       0.47712142       0.37148236       0.56052715 </v>
   </varray>
  </structure>
  <varray name="forces" >
   <v>       0.00017231      -0.02212070       0.00527025 </v>
   <v>       0.01212436      -0.01156142       0.01441755 </v>
   <v>       0.00621379      -0.02673671      -0.00671728 </v>
   <v>      -0.01464187      -0.01746929      -0.02061601 </v>
   <v>       0.02450188      -0.00174597       0.00215952 </v>
   <v>      -0.00469648       0.02006505       0.00411854 </v>
   <v>      -0.02110230       0.00581266      -0.00159738 </v>
   <v>       0.00727322       0.01776121      -0.00823362 </v>
   <v>      -0.00813578       0.01690288       0.01153245 </v>
   <v>       0.00842189      -0.00128277      -0.01222596 </v>
   <v>      -0.03897980       0.00869037      -0.00146641 </v>
   <v>       0.02421838       0.00825965       0.01896476 </v>
   <v>      -0.02807964      -0.01413873       0.01840206 </v>
   <v>       0.02357503      -0.00702672      -0.00290696 </v>
   <v>       0.00913500       0.02459049      -0.02110149 </v>
  </varray>
  <varray name="stress" >
   <v>       8.55034018      -0.05135854       0.09193499 </v>
   <v>      -0.05135935     -10.50748585       0.09771392 </v>
   <v>       0.09193294       0.09771540      -1.35334472 </v>
  </varray>
  <energy>
   <i name="e_fr_energy">    -49.86764002 </i>
   <i name="e_wo_entrp">    -49.86764002 </i>
   <i name="e_0_energy">     -0.00000000 </i>
  </energy>
  <time name="totalsc">  600.71  608.19</time>
 </calculation>
 <calculation>
  <scstep>
   <time name="dav">   16.85   16.88</time>
   <time name="total">  124.68  124.87</time>
   <energy>
    <i name="alphaZ">     15.92198659 </i>
    <i name="ewald">   1272.06312921 </i>
    <i name="hartreedc">  -2453.99730539 </i>
    <i name="XCdc">   -170.61985837 </i>
    <i name="pawpsdc">   1743.14610017 </i>
    <i name="pawaedc">  -1464.60349759 </i>
    <i name="eentropy">     -0.00000000 </i>
    <i name="bandstr">   -325.50633785 </i>
    <i name="atom">   1333.72818728 </i>
    <i name="e_fr_energy">    -49.86759595 </i>
    <i name="e_wo_entrp">    -49.86759595 </i>
    <i name="e_0_energy">    -49.86759595 </i>
   </energy>
  </scstep>
  <scstep>
   <time name="dav">   18.85   18.88</time>
   <time name="total">  124.42  124.61</time>
   <energy>
    <i name="e_fr_energy">    -49.86765016 </i>
    <i name="e_wo_entrp">    -49.86765016 </i>
    <i name="e_0_energy">    -49.86765016 </i>
   </energy>
  </scstep>
  <scstep>
   <time name="dav">   12.68   12.70</time>
   <time name="total">  114.93  115.02</time>
   <energy>
    <i name="alphaZ">     15.92198659 </i>
    <i name="ewald">   1272.06312921 </i>
    <i name="hartreedc">  -2453.99670073 </i>
    <i name="XCdc">   -170.62050262 </i>
    <i name="pawpsdc">   1743.15009017 </i>
    <i name="pawaedc">  -1464.60724602 </i>
    <i name="eentropy">     -0.00000000 </i>
    <i name="bandstr">   -325.50659246 </i>
    <i name="atom">   1333.72818728 </i>
    <i name="e_fr_energy">    -49.86764856 </i>
    <i name="e_wo_entrp">    -49.86764856 </i>
    <i name="e_0_energy">    -49.86764856 </i>
   </energy>
  </scstep>
  <structure>
   <crystal>
    <varray name="basis" >
     <v>       6.01920000       0.00000000       0.00000000 </v>
     <v>       0.00000000      10.14000000       0.00000000 </v>
     <v>       0.00000000       0.00000000      15.00000000 </v>
    </varray>
    <i name="volume">    915.52032000 </i>
    <varray name="rec_basis" >
     <v>       0.16613503       0.00000000       0.00000000 </v>
     <v>       0.00000000       0.09861933       0.00000000 </v>
     <v>       0.00000000       0.00000000       0.06666667 </v>
    </varray>
   </crystal>
   <varray name="positions" >
    <v>       0.43938353       0.87720828       0.22231497 </v>
    <v>       0.93897264       0.87765704       0.27347113 </v>
    <v>       0.43960248       0.61418481       0.22380491 </v>
    <v>       0.93980965       0.61540116       0.27648443 </v>
    <v>       0.43719501       0.37660332       0.27858419 </v>
    <v>       0.93885026       0.37802920       0.22406243 </v>
    <v>       0.43806377       0.11536696       0.27255861 </v>
    <v>       0.93831966       0.11481290       0.22211341 </v>
    <v>       0.18870958      -0.00418103       0.24642431 </v>
    <v>       0.68866870      -0.00377099       0.24855047 </v>
    <v>       0.18919958       0.49634058       0.25022848 </v>
    <v>       0.68881149       0.49609233       0.25254703 </v>
    <v>       0.55511451       0.44311395       0.47842319 </v>
    <v>       0.76337283       0.36376741       0.47763984 </v>
    <v>       0.47669716       0.37126755       0.56043260 </v>
   </varray>
  </structure>
  <varray name="forces" >
   <v>      -0.00121086      -0.02391470       0.00427428 </v>
   <v>       0.01030372      -0.01347416       0.01341571 </v>
   <v>       0.00292722      -0.02558354      -0.00627643 </v>
   <v>      -0.01372733      -0.01877451      -0.01961913 </v>
   <v>       0.01967190      -0.00357282       0.00219730 </v>
   <v>      -0.00430147       0.01527983       0.00274159 </v>
   <v>      -0.02236146       0.00499578      -0.00162922 </v>
   <v>       0.00737370       0.01348655      -0.00749931 </v>
   <v>      -0.00744639       0.01927106       0.01057549 </v>
   <v>       0.00796993       0.00038001      -0.01350588 </v>
   <v>      -0.03376815       0.01009066      -0.00050506 </v>
   <v>       0.02121359       0.01029901       0.01956889 </v>
   <v>      -0.02240581      -0.01237420       0.01573782 </v>
   <v>       0.02321385      -0.00130587      -0.00350097 </v>
   <v>       0.01254757       0.02519689      -0.01597510 </v>
  </varray>
  <varray name="stress" >
   <v>       8.54159994      -0.04254988       0.09012082 </v>
   <v>      -0.04255081     -10.51900488       0.10004349 </v>
   <v>       0.09011882       0.10004506      -1.34114391 </v>
  </varray>
  <energy>
   <i name="e_fr_energy">    -49.86764856 </i>
   <i name="e_wo_entrp">    -49.86764856 </i>
   <i name="e_0_energy">     -0.00000000 </i>
  </energy>
  <time name="totalsc">  602.88  604.80</time>
 </calculation>
 <calculation>
  <scstep>
   <time name="dav">   16.38   16.40</time>
   <time name="total">  127.37  127.52</time>
   <energy>
    <i name="alphaZ">     15.92198659 </i>
    <i name="ewald">   1271.84193334 </i>
    <i name="hartreedc">  -2453.77920074 </i>
    <i name="XCdc">   -170.62242176 </i>
    <i name="pawpsdc">   1743.15272554 </i>
    <i name="pawaedc">  -1464.60985927 </i>
    <i name="eentropy">     -0.00000000 </i>
    <i name="bandstr">   -325.50102966 </i>
    <i name="atom">   1333.72818728 </i>
    <i name="e_fr_energy">    -49.86767867 </i>
    <i name="e_wo_entrp">    -49.86767867 </i>
    <i name="e_0_energy">    -49.86767867 </i>
   </energy>
  </scstep>
  <scstep>
   <time name="dav">   19.64   19.67</time>
   <time name="total">  130.18  130.31</time>
   <energy>
    <i name="e_fr_energy">    -49.86778191 </i>
    <i name="e_wo_entrp">    -49.86778191 </i>
    <i name="e_0_energy">    -49.86778191 </i>
   </energy>
  </scstep>
  <scstep>
   <time name="dav">   19.11   19.17</time>
   <time name="total">  128.96  129.14</time>
   <energy>
    <i name="alphaZ">     15.92198659 </i>
    <i name="ewald">   1271.84193334 </i>
    <i name="hartreedc">  -2453.77984676 </i>
    <i name="XCdc">   -170.62143574 </i>
    <i name="pawpsdc">   1743.16187733 </i>
    <i name="pawaedc">  -1464.61942250 </i>
    <i name="eentropy">     -0.00000000 </i>
    <i name="bandstr">   -325.50106375 </i>
    <i name="atom">   1333.72818728 </i>
    <i name="e_fr_energy">    -49.86778420 </i>
    <i name="e_wo_entrp">    -49.86778420 </i>
    <i name="e_0_energy">    -49.86778420 </i>
   </energy>
  </scstep>
  <structure>
   <crystal>
    <varray name="basis" >
     <v>       6.01920000       0.00000000       0.00000000 </v>
     <v>       0.00000000      10.14000000       0.00000000 </v>
     <v>       0.00000000       0.00000000      15.00000000 </v>
    </varray>
    <i name="volume">    915.52032000 </i>
    <varray name="rec_basis" >
     <v>       0.16613503       0.00000000       0.00000000 </v>
     <v>       0.00000000       0.09861933       0.00000000 </v>
     <v>       0.00000000       0.00000000       0.06666667 </v>
    </varray>
   </crystal>
   <varray name="positions" >
    <v>       0.43929642       0.87710415       0.22231039 </v>
    <v>       0.93890227       0.87752613       0.27348289 </v>
    <v>       0.43949300       0.61410958       0.22378417 </v>
    <v>       0.93971193       0.61526224       0.27645492 </v>
    <v>       0.43707917       0.37652554       0.27855270 </v>
    <v>       0.93877105       0.37794211       0.22402158 </v>
    <v>       0.43789912       0.11529370       0.27259142 </v>
    <v>       0.93827595       0.11471537       0.22213102 </v>
    <v>       0.18861745      -0.00423821       0.24641965 </v>
    <v>       0.68860188      -0.00384382       0.24858247 </v>
    <v>       0.18906174       0.49629283       0.25017112 </v>
    <v>       0.68874603       0.49603193       0.25252295 </v>
    <v>       0.55524297       0.44336795       0.47846774 </v>
    <v>       0.76371645       0.36417960       0.47759288 </v>
    <v>       0.47735542       0.37162438       0.56055411 </v>
   </varray>
  </structure>
  <varray name="forces" >
   <v>       0.00086183      -0.01449475       0.00655949 </v>
   <v>       0.01015197      -0.00640910       0.01281458 </v>
   <v>       0.00533862      -0.02471778      -0.00639424 </v>
   <v>      -0.01312999      -0.00671721      -0.01729058 </v>
   <v>       0.02071730       0.00169534       0.00158116 </v>
   <v>      -0.00512642       0.01439084       0.00291270 </v>
   <v>      -0.01431683       0.00185612      -0.00277326 </v>
   <v>       0.00308928       0.01612440      -0.00802258 </v>
   <v>      -0.00481230       0.01018402       0.01157289 </v>
   <v>       0.00328111      -0.00256046      -0.01177746 </v>
   <v>      -0.02345509       0.00299357      -0.00119068 </v>
   <v>       0.01191812       0.00379024       0.01805092 </v>
   <v>      -0.01682702      -0.01175938       0.00658910 </v>
   <v>       0.01651174      -0.00236584      -0.00246734 </v>
   <v>       0.00579768       0.01798998      -0.01016469 </v>
  </varray>
  <varray name="stress" >
   <v>       8.53836548      -0.02310439       0.08656370 </v>
   <v>      -0.02310527     -10.50955710       0.09108287 </v>
   <v>       0.08656177       0.09108443      -1.32656384 </v>
  </varray>
  <energy>
   <i name="e_fr_energy">    -49.86778420 </i>
   <i name="e_wo_entrp">    -49.86778420 </i>
   <i name="e_0_energy">     -0.00000000 </i>
  </energy>
  <time name="totalsc">  621.68  623.34</time>
 </calculation>
 <calculation>
  <scstep>
   <time name="dav">   15.59   15.60</time>
   <time name="total">  117.92  118.06</time>
   <energy>
    <i name="alphaZ">     15.92198659 </i>
    <i name="ewald">   1271.66753849 </i>
    <i name="hartreedc">  -2453.60856170 </i>
    <i name="XCdc">   -170.62250620 </i>
    <i name="pawpsdc">   1743.16345553 </i>
    <i name="pawaedc">  -1464.62104442 </i>
    <i name="eentropy">     -0.00000000 </i>
    <i name="bandstr">   -325.49685466 </i>
    <i name="atom">   1333.72818728 </i>
    <i name="e_fr_energy">    -49.86779908 </i>
    <i name="e_wo_entrp">    -49.86779908 </i>
    <i name="e_0_energy">    -49.86779908 </i>
   </energy>
  </scstep>
  <scstep>
   <time name="dav">   18.78   18.80</time>
   <time name="total">  121.49  121.59</time>
   <energy>
    <i name="e_fr_energy">    -49.86785882 </i>
    <i name="e_wo_entrp">    -49.86785882 </i>
    <i name="e_0_energy">    -49.86785882 </i>
   </energy>
  </scstep>
  <scstep>
   <time name="dav">   16.72   16.74</time>
   <time name="total">  118.40  118.52</time>
   <energy>
    <i name="alphaZ">     15.92198659 </i>
    <i name="ewald">   1271.66753849 </i>
    <i name="hartreedc">  -2453.60593652 </i>
    <i name="XCdc">   -170.62175155 </i>
    <i name="pawpsdc">   1743.14847615 </i>
    <i name="pawaedc">  -1464.60612011 </i>
    <i name="eentropy">     -0.00000000 </i>
    <i name="bandstr">   -325.50024453 </i>
    <i name="atom">   1333.72818728 </i>
    <i name="e_fr_energy">    -49.86786420 </i>
    <i name="e_wo_entrp">    -49.86786420 </i>
    <i name="e_0_energy">    -49.86786420 </i>
   </energy>
  </scstep>
  <structure>
   <crystal>
    <varray name="basis" >
     <v>       6.01920000       0.00000000       0.00000000 </v>
     <v>       0.00000000      10.14000000       0.00000000 </v>
     <v>       0.00000000       0.00000000      15.00000000 </v>
    </varray>
    <i name="volume">    915.52032000 </i>
    <varray name="rec_basis" >
     <v>       0.16613503       0.00000000       0.00000000 </v>
     <v>       0.00000000       0.09861933       0.00000000 </v>
     <v>       0.00000000       0.00000000       0.06666667 </v>
    </varray>
   </crystal>
   <varray name="positions" >
    <v>       0.43922786       0.87702219       0.22230678 </v>
    <v>       0.93884689       0.87742309       0.27349214 </v>
    <v>       0.43940684       0.61405036       0.22376785 </v>
    <v>       0.93963502       0.61515291       0.27643169 </v>
    <v>       0.43698801       0.37646433       0.27852791 </v>
    <v>       0.93870871       0.37787358       0.22398943 </v>
    <v>       0.43776954       0.11523603       0.27261724 </v>
    <v>       0.93824155       0.11463862       0.22214488 </v>
    <v>       0.18854494      -0.00428321       0.24641599 </v>
    <v>       0.68854929      -0.00390114       0.24860765 </v>
    <v>       0.18895326       0.49625525       0.25012598 </v>
    <v>       0.68869450       0.49598440       0.25250400 </v>
    <v>       0.55534407       0.44356786       0.47850279 </v>
    <v>       0.76398689       0.36450401       0.47755593 </v>
    <v>       0.47787349       0.37190521       0.56064974 </v>
   </varray>
  </structure>
  <varray name="forces" >
   <v>       0.00194850      -0.00793004       0.00804173 </v>
   <v>       0.00939679      -0.00154616       0.01202729 </v>
   <v>       0.00661940      -0.02462300      -0.00695026 </v>
   <v>      -0.01354283       0.00177501      -0.01587268 </v>
   <v>       0.02066403       0.00504943       0.00092569 </v>
   <v>      -0.00667444       0.01265909       0.00254825 </v>
   <v>      -0.00883012      -0.00184200      -0.00398719 </v>
   <v>      -0.00131785       0.01722529      -0.00863717 </v>
   <v>      -0.00307464       0.00315174       0.01207544 </v>
   <v>      -0.00059272      -0.00430125      -0.01148864 </v>
   <v>      -0.01554014      -0.00268457      -0.00065697 </v>
   <v>       0.00495912      -0.00132039       0.01729780 </v>
   <v>      -0.01110713      -0.01007465       0.00096420 </v>
   <v>       0.01319766      -0.00030093      -0.00229106 </v>
   <v>       0.00389436       0.01476244      -0.00399644 </v>
  </varray>
  <varray name="stress" >
   <v>       8.52241977      -0.01155985       0.08608284 </v>
   <v>      -0.01156065     -10.52259206       0.08630272 </v>
   <v>       0.08608094       0.08630429      -1.31975569 </v>
  </varray>
  <energy>
   <i name="e_fr_energy">    -49.86786420 </i>
   <i name="e_wo_entrp">    -49.86786420 </i>
   <i name="e_0_energy">     -0.00000000 </i>
  </energy>
  <time name="totalsc">  586.05  587.66</time>
 </calculation>
 <calculation>
  <scstep>
   <time name="dav">   16.40   16.43</time>
   <time name="total">  119.02  119.28</time>
   <energy>
    <i name="alphaZ">     15.92198659 </i>
    <i name="ewald">   1271.31792808 </i>
    <i name="hartreedc">  -2453.26006565 </i>
    <i name="XCdc">   -170.62430569 </i>
    <i name="pawpsdc">   1743.14425890 </i>
    <i name="pawaedc">  -1464.60188037 </i>
    <i name="eentropy">     -0.00000000 </i>
    <i name="bandstr">   -325.49378137 </i>
    <i name="atom">   1333.72818728 </i>
    <i name="e_fr_energy">    -49.86767223 </i>
    <i name="e_wo_entrp">    -49.86767223 </i>
    <i name="e_0_energy">    -49.86767223 </i>
   </energy>
  </scstep>
  <scstep>
   <time name="dav">   20.40   20.43</time>
   <time name="total">  127.75  127.88</time>
   <energy>
    <i name="e_fr_energy">    -49.86792373 </i>
    <i name="e_wo_entrp">    -49.86792373 </i>
    <i name="e_0_energy">    -49.86792373 </i>
   </energy>
  </scstep>
  <scstep>
   <time name="dav">   18.25   18.26</time>
   <time name="total">  122.12  122.22</time>
   <energy>
    <i name="e_fr_energy">    -49.86793612 </i>
    <i name="e_wo_entrp">    -49.86793612 </i>
    <i name="e_0_energy">    -49.86793612 </i>
   </energy>
  </scstep>
  <scstep>
   <time name="dav">   14.45   14.45</time>
   <time name="total">  118.59  118.69</time>
   <energy>
    <i name="e_fr_energy">    -49.86795096 </i>
    <i name="e_wo_entrp">    -49.86795096 </i>
    <i name="e_0_energy">    -49.86795096 </i>
   </energy>
  </scstep>
  <scstep>
   <time name="dav">   15.01   15.03</time>
   <time name="total">  117.30  117.40</time>
   <energy>
    <i name="alphaZ">     15.92198659 </i>
    <i name="ewald">   1271.31792808 </i>
    <i name="hartreedc">  -2453.25313255 </i>
    <i name="XCdc">   -170.62245037 </i>
    <i name="pawpsdc">   1743.11745774 </i>
    <i name="pawaedc">  -1464.57518019 </i>
    <i name="eentropy">     -0.00000000 </i>
    <i name="bandstr">   -325.50274738 </i>
    <i name="atom">   1333.72818728 </i>
    <i name="e_fr_energy">    -49.86795079 </i>
    <i name="e_wo_entrp">    -49.86795079 </i>
    <i name="e_0_energy">    -49.86795079 </i>
   </energy>
  </scstep>
  <structure>
   <crystal>
    <varray name="basis" >
     <v>       6.01920000       0.00000000       0.00000000 </v>
     <v>       0.00000000      10.14000000       0.00000000 </v>
     <v>       0.00000000       0.00000000      15.00000000 </v>
    </varray>
    <i name="volume">    915.52032000 </i>
    <varray name="rec_basis" >
     <v>       0.16613503       0.00000000       0.00000000 </v>
     <v>       0.00000000       0.09861933       0.00000000 </v>
     <v>       0.00000000       0.00000000       0.06666667 </v>
    </varray>
   </crystal>
   <varray name="positions" >
    <v>       0.43909075       0.87685827       0.22229957 </v>
    <v>       0.93873613       0.87721702       0.27351065 </v>
    <v>       0.43923452       0.61393194       0.22373520 </v>
    <v>       0.93948119       0.61493424       0.27638524 </v>
    <v>       0.43680569       0.37634190       0.27847835 </v>
    <v>       0.93858402       0.37773650       0.22392513 </v>
    <v>       0.43751037       0.11512071       0.27266889 </v>
    <v>       0.93817275       0.11448510       0.22217260 </v>
    <v>       0.18839993      -0.00437320       0.24640866 </v>
    <v>       0.68844411      -0.00401577       0.24865801 </v>
    <v>       0.18873631       0.49618010       0.25003569 </v>
    <v>       0.68859146       0.49588935       0.25246610 </v>
    <v>       0.55554627       0.44396766       0.47857291 </v>
    <v>       0.76452777       0.36515281       0.47748201 </v>
    <v>       0.47890962       0.37246686       0.56084101 </v>
   </varray>
  </structure>
  <varray name="forces" >
   <v>       0.00436914       0.00516951       0.01092672 </v>
   <v>       0.00725033       0.00740144       0.01038102 </v>
   <v>       0.00910321      -0.02502491      -0.00775778 </v>
   <v>      -0.01504330       0.01858738      -0.01276272 </v>
   <v>       0.02074002       0.01146410      -0.00020823 </v>
   <v>      -0.01049464       0.00830891       0.00179049 </v>
   <v>       0.00241332      -0.00930972      -0.00664995 </v>
   <v>      -0.01103964       0.01891948      -0.01007073 </v>
   <v>       0.00030812      -0.01049326       0.01337103 </v>
   <v>      -0.00817502      -0.00504344      -0.01230802 </v>
   <v>       0.00142240      -0.01320230       0.00226635 </v>
   <v>      -0.01001360      -0.01026584       0.01753093 </v>
   <v>       0.00125077      -0.01049527      -0.01290463 </v>
   <v>       0.00684687       0.00494367      -0.00227021 </v>
   <v>       0.00106202       0.00904027       0.00866571 </v>
  </varray>
  <varray name="stress" >
   <v>       8.49864143       0.01302651       0.08340975 </v>
   <v>       0.01302552     -10.54358786       0.07683674 </v>
   <v>       0.08340795       0.07683829      -1.30062558 </v>
  </varray>
  <energy>
   <i name="e_fr_energy">    -49.86795079 </i>
   <i name="e_wo_entrp">    -49.86795079 </i>
   <i name="e_0_energy">     -0.00000000 </i>
  </energy>
  <time name="totalsc">  837.44  839.20</time>
 </calculation>
 <calculation>
  <scstep>
   <time name="dav">   15.84   15.87</time>
   <time name="total">  121.43  121.47</time>
   <energy>
    <i name="alphaZ">     15.92198659 </i>
    <i name="ewald">   1271.30390243 </i>
    <i name="hartreedc">  -2453.22851219 </i>
    <i name="XCdc">   -170.62262602 </i>
    <i name="pawpsdc">   1743.11240927 </i>
    <i name="pawaedc">  -1464.57005892 </i>
    <i name="eentropy">     -0.00000000 </i>
    <i name="bandstr">   -325.51332339 </i>
    <i name="atom">   1333.72818728 </i>
    <i name="e_fr_energy">    -49.86803495 </i>
    <i name="e_wo_entrp">    -49.86803495 </i>
    <i name="e_0_energy">    -49.86803495 </i>
   </energy>
  </scstep>
  <scstep>
   <time name="dav">   21.42   21.46</time>
   <time name="total">  127.19  127.30</time>
   <energy>
    <i name="e_fr_energy">    -49.86806888 </i>
    <i name="e_wo_entrp">    -49.86806888 </i>
    <i name="e_0_energy">    -49.86806888 </i>
   </energy>
  </scstep>
  <scstep>
   <time name="dav">   12.53   12.53</time>
   <time name="total">  117.90  117.90</time>
   <energy>
    <i name="alphaZ">     15.92198659 </i>
    <i name="ewald">   1271.30390243 </i>
    <i name="hartreedc">  -2453.23225967 </i>
    <i name="XCdc">   -170.62190771 </i>
    <i name="pawpsdc">   1743.15555659 </i>
    <i name="pawaedc">  -1464.61346659 </i>
    <i name="eentropy">     -0.00000000 </i>
    <i name="bandstr">   -325.51006656 </i>
    <i name="atom">   1333.72818728 </i>
    <i name="e_fr_energy">    -49.86806764 </i>
    <i name="e_wo_entrp">    -49.86806764 </i>
    <i name="e_0_energy">    -49.86806764 </i>
   </energy>
  </scstep>
  <structure>
   <crystal>
    <varray name="basis" >
     <v>       6.01920000       0.00000000       0.00000000 </v>
     <v>       0.00000000      10.14000000       0.00000000 </v>
     <v>       0.00000000       0.00000000      15.00000000 </v>
    </varray>
    <i name="volume">    915.52032000 </i>
    <varray name="rec_basis" >
     <v>       0.16613503       0.00000000       0.00000000 </v>
     <v>       0.00000000       0.09861933       0.00000000 </v>
     <v>       0.00000000       0.00000000       0.06666667 </v>
    </varray>
   </crystal>
   <varray name="positions" >
    <v>       0.43906196       0.87681518       0.22231479 </v>
    <v>       0.93872786       0.87716501       0.27353369 </v>
    <v>       0.43921289       0.61383204       0.22371162 </v>
    <v>       0.93936856       0.61490472       0.27634889 </v>
    <v>       0.43682756       0.37632790       0.27846124 </v>
    <v>       0.93849957       0.37771000       0.22390627 </v>
    <v>       0.43743242       0.11505944       0.27267561 </v>
    <v>       0.93810501       0.11447841       0.22216569 </v>
    <v>       0.18835211      -0.00442874       0.24642779 </v>
    <v>       0.68837560      -0.00406661       0.24865515 </v>
    <v>       0.18866864       0.49612311       0.25000881 </v>
    <v>       0.68851626       0.49583264       0.25248162 </v>
    <v>       0.55561971       0.44407781       0.47857577 </v>
    <v>       0.76473832       0.36538411       0.47745333 </v>
    <v>       0.47926440       0.37267847       0.56091972 </v>
   </varray>
  </structure>
  <varray name="forces" >
   <v>       0.00348561       0.00140962       0.00928425 </v>
   <v>       0.00359053       0.01259076       0.00809119 </v>
   <v>       0.00516893      -0.01460795      -0.00875537 </v>
   <v>      -0.00939511       0.01796385      -0.01113838 </v>
   <v>       0.01309982       0.00263583       0.00168801 </v>
   <v>      -0.00753962       0.00696763       0.00249537 </v>
   <v>       0.00465992      -0.00437428      -0.00543925 </v>
   <v>      -0.01005945       0.01170824      -0.00814312 </v>
   <v>      -0.00377464      -0.00911723       0.01314327 </v>
   <v>      -0.00207526      -0.00587561      -0.01041526 </v>
   <v>      -0.00034306      -0.01264867       0.00010662 </v>
   <v>      -0.00414202      -0.00945842       0.01506056 </v>
   <v>       0.00216035      -0.00925542      -0.01365682 </v>
   <v>       0.00516010       0.00451506      -0.00139982 </v>
   <v>       0.00000392       0.00754657       0.00907875 </v>
  </varray>
  <varray name="stress" >
   <v>       8.50071289       0.03644140       0.08280840 </v>
   <v>       0.03644037     -10.52764443       0.07444900 </v>
   <v>       0.08280649       0.07445053      -1.29488340 </v>
  </varray>
  <energy>
   <i name="e_fr_energy">    -49.86806764 </i>
   <i name="e_wo_entrp">    -49.86806764 </i>
   <i name="e_0_energy">     -0.00000000 </i>
  </energy>
  <time name="totalsc">  600.38  602.20</time>
 </calculation>
 <calculation>
  <scstep>
   <time name="dav">   14.48   14.50</time>
   <time name="total">  120.18  120.31</time>
   <energy>
    <i name="alphaZ">     15.92198659 </i>
    <i name="ewald">   1271.26244292 </i>
    <i name="hartreedc">  -2453.16403207 </i>
    <i name="XCdc">   -170.62224543 </i>
    <i name="pawpsdc">   1743.17015490 </i>
    <i name="pawaedc">  -1464.62808849 </i>
    <i name="eentropy">     -0.00000000 </i>
    <i name="bandstr">   -325.53636612 </i>
    <i name="atom">   1333.72818728 </i>
    <i name="e_fr_energy">    -49.86796042 </i>
    <i name="e_wo_entrp">    -49.86796042 </i>
    <i name="e_0_energy">    -49.86796042 </i>
   </energy>
  </scstep>
  <scstep>
   <time name="dav">   19.80   19.90</time>
   <time name="total">  126.70  126.97</time>
   <energy>
    <i name="e_fr_energy">    -49.86824024 </i>
    <i name="e_wo_entrp">    -49.86824024 </i>
    <i name="e_0_energy">    -49.86824024 </i>
   </energy>
  </scstep>
  <scstep>
   <time name="dav">   21.68   21.71</time>
   <time name="total">  128.45  128.69</time>
   <energy>
    <i name="e_fr_energy">    -49.86823474 </i>
    <i name="e_wo_entrp">    -49.86823474 </i>
    <i name="e_0_energy">    -49.86823474 </i>
   </energy>
  </scstep>
  <scstep>
   <time name="dav">   19.40   19.43</time>
   <time name="total">  124.23  124.37</time>
   <energy>
    <i name="e_fr_energy">    -49.86825320 </i>
    <i name="e_wo_entrp">    -49.86825320 </i>
    <i name="e_0_energy">    -49.86825320 </i>
   </energy>
  </scstep>
  <scstep>
   <time name="dav">   15.05   15.14</time>
   <time name="total">  127.38  127.66</time>
   <energy>
    <i name="alphaZ">     15.92198659 </i>
    <i name="ewald">   1271.26244292 </i>
    <i name="hartreedc">  -2453.16814659 </i>
    <i name="XCdc">   -170.61995995 </i>
    <i name="pawpsdc">   1743.29688645 </i>
    <i name="pawaedc">  -1464.75514369 </i>
    <i name="eentropy">     -0.00000000 </i>
    <i name="bandstr">   -325.53450481 </i>
    <i name="atom">   1333.72818728 </i>
    <i name="e_fr_energy">    -49.86825180 </i>
    <i name="e_wo_entrp">    -49.86825180 </i>
    <i name="e_0_energy">    -49.86825180 </i>
   </energy>
  </scstep>
  <structure>
   <crystal>
    <varray name="basis" >
     <v>       6.01920000       0.00000000       0.00000000 </v>
     <v>       0.00000000      10.14000000       0.00000000 </v>
     <v>       0.00000000       0.00000000      15.00000000 </v>
    </varray>
    <i name="volume">    915.52032000 </i>
    <varray name="rec_basis" >
     <v>       0.16613503       0.00000000       0.00000000 </v>
     <v>       0.00000000       0.09861933       0.00000000 </v>
     <v>       0.00000000       0.00000000       0.06666667 </v>
    </varray>
   </crystal>
   <varray name="positions" >
    <v>       0.43897893       0.87669089       0.22235870 </v>
    <v>       0.93870402       0.87701498       0.27360016 </v>
    <v>       0.43915051       0.61354387       0.22364360 </v>
    <v>       0.93904366       0.61481954       0.27624405 </v>
    <v>       0.43689064       0.37628750       0.27841190 </v>
    <v>       0.93825596       0.37763356       0.22385188 </v>
    <v>       0.43720756       0.11488269       0.27269500 </v>
    <v>       0.93790959       0.11445911       0.22214578 </v>
    <v>       0.18821418      -0.00458894       0.24648298 </v>
    <v>       0.68817797      -0.00421326       0.24864691 </v>
    <v>       0.18847346       0.49595870       0.24993127 </v>
    <v>       0.68829936       0.49566907       0.25252637 </v>
    <v>       0.55583155       0.44439555       0.47858402 </v>
    <v>       0.76534567       0.36605132       0.47737062 </v>
    <v>       0.48028782       0.37328890       0.56114677 </v>
   </varray>
  </structure>
  <varray name="forces" >
   <v>       0.00031535      -0.01197442       0.00407588 </v>
   <v>      -0.01007354       0.02525530       0.00087647 </v>
   <v>      -0.00986234       0.01359787      -0.01222727 </v>
   <v>       0.00722000       0.01349323      -0.00679151 </v>
   <v>      -0.01316130      -0.02766537       0.00808658 </v>
   <v>       0.00044543      -0.00257110       0.00344964 </v>
   <v>       0.01078752       0.00527635      -0.00320917 </v>
   <v>      -0.01011026      -0.01469215      -0.00253801 </v>
   <v>      -0.01481596       0.00107008       0.00952061 </v>
   <v>       0.01881426       0.00143648      -0.00753143 </v>
   <v>      -0.00330705      -0.00545298       0.00135362 </v>
   <v>       0.01513195      -0.00186243       0.00855385 </v>
   <v>       0.00474039      -0.00611438      -0.01516528 </v>
   <v>       0.00239395       0.00509398      -0.00024647 </v>
   <v>       0.00148160       0.00510955       0.01179248 </v>
  </varray>
  <varray name="stress" >
   <v>       8.50033079       0.12064046       0.08209399 </v>
   <v>       0.12063949     -10.49376989       0.07392562 </v>
   <v>       0.08209223       0.07392712      -1.28106251 </v>
  </varray>
  <energy>
   <i name="e_fr_energy">    -49.86825180 </i>
   <i name="e_wo_entrp">    -49.86825180 </i>
   <i name="e_0_energy">     -0.00000000 </i>
  </energy>
  <time name="totalsc">  870.94  873.17</time>
 </calculation>
 <calculation>
  <scstep>
   <time name="dav">   15.04   15.04</time>
   <time name="total">  125.09  125.09</time>
   <energy>
    <i name="alphaZ">     15.92198659 </i>
    <i name="ewald">   1271.25378109 </i>
    <i name="hartreedc">  -2453.17190942 </i>
    <i name="XCdc">   -170.62203362 </i>
    <i name="pawpsdc">   1743.29248283 </i>
    <i name="pawaedc">  -1464.75067501 </i>
    <i name="eentropy">     -0.00000000 </i>
    <i name="bandstr">   -325.52015912 </i>
    <i name="atom">   1333.72818728 </i>
    <i name="e_fr_energy">    -49.86833937 </i>
    <i name="e_wo_entrp">    -49.86833937 </i>
    <i name="e_0_energy">    -49.86833937 </i>
   </energy>
  </scstep>
  <scstep>
   <time name="dav">   20.17   20.26</time>
   <time name="total">  124.42  124.61</time>
   <energy>
    <i name="e_fr_energy">    -49.86841129 </i>
    <i name="e_wo_entrp">    -49.86841129 </i>
    <i name="e_0_energy">    -49.86841129 </i>
   </energy>
  </scstep>
  <scstep>
   <time name="dav">   17.45   17.45</time>
   <time name="total">  118.88  118.93</time>
   <energy>
    <i name="alphaZ">     15.92198659 </i>
    <i name="ewald">   1271.25378109 </i>
    <i name="hartreedc">  -2453.16224701 </i>
    <i name="XCdc">   -170.62188677 </i>
    <i name="pawpsdc">   1743.22767884 </i>
    <i name="pawaedc">  -1464.68569671 </i>
    <i name="eentropy">     -0.00000000 </i>
    <i name="bandstr">   -325.53021259 </i>
    <i name="atom">   1333.72818728 </i>
    <i name="e_fr_energy">    -49.86840927 </i>
    <i name="e_wo_entrp">    -49.86840927 </i>
    <i name="e_0_energy">    -49.86840927 </i>
   </energy>
  </scstep>
  <structure>
   <crystal>
    <varray name="basis" >
     <v>       6.01920000       0.00000000       0.00000000 </v>
     <v>       0.00000000      10.14000000       0.00000000 </v>
     <v>       0.00000000       0.00000000      15.00000000 </v>
    </varray>
    <i name="volume">    915.52032000 </i>
    <varray name="rec_basis" >
     <v>       0.16613503       0.00000000       0.00000000 </v>
     <v>       0.00000000       0.09861933       0.00000000 </v>
     <v>       0.00000000       0.00000000       0.06666667 </v>
    </varray>
   </crystal>
   <varray name="positions" >
    <v>       0.43893918       0.87658493       0.22239076 </v>
    <v>       0.93863031       0.87703156       0.27363568 </v>
    <v>       0.43905874       0.61344870       0.22357937 </v>
    <v>       0.93892483       0.61482588       0.27617472 </v>
    <v>       0.43684163       0.37616656       0.27840702 </v>
    <v>       0.93813640       0.37758583       0.22383306 </v>
    <v>       0.43716081       0.11481317       0.27269684 </v>
    <v>       0.93774953       0.11439596       0.22212955 </v>
    <v>       0.18805413      -0.00466546       0.24653411 </v>
    <v>       0.68819409      -0.00428165       0.24862424 </v>
    <v>       0.18835521       0.49585634       0.24989567 </v>
    <v>       0.68828323       0.49558019       0.25256988 </v>
    <v>       0.55596694       0.44453280       0.47855085 </v>
    <v>       0.76566521       0.36640477       0.47732849 </v>
    <v>       0.48081061       0.37361390       0.56128974 </v>
   </varray>
  </structure>
  <varray name="forces" >
   <v>      -0.00333654      -0.00396911       0.00398861 </v>
   <v>      -0.00938640       0.01246268       0.00182200 </v>
   <v>      -0.00757641       0.00619066      -0.00637491 </v>
   <v>       0.01241395       0.00859949      -0.00328897 </v>
   <v>      -0.01498827      -0.01731309       0.00613197 </v>
   <v>       0.00297472      -0.00627231       0.00366650 </v>
   <v>       0.00854940      -0.00054134      -0.00402473 </v>
   <v>      -0.00147366      -0.00857744      -0.00400018 </v>
   <v>       0.00678532       0.00472322       0.00830776 </v>
   <v>      -0.00510807       0.00058531      -0.00605020 </v>
   <v>       0.00463173      -0.00091967       0.00029605 </v>
   <v>      -0.00042851       0.00175563       0.00482441 </v>
   <v>      -0.00047779      -0.00490372      -0.00937355 </v>
   <v>       0.00411323       0.00098668       0.00081574 </v>
   <v>       0.00330727       0.00719301       0.00325951 </v>
  </varray>
  <varray name="stress" >
   <v>       8.49637416       0.14191151       0.08243481 </v>
   <v>       0.14191056     -10.50175063       0.07051524 </v>
   <v>       0.08243288       0.07051676      -1.29980360 </v>
  </varray>
  <energy>
   <i name="e_fr_energy">    -49.86840927 </i>
   <i name="e_wo_entrp">    -49.86840927 </i>
   <i name="e_0_energy">     -0.00000000 </i>
  </energy>
  <time name="totalsc">  595.09  596.46</time>
 </calculation>
 <calculation>
  <scstep>
   <time name="dav">   15.82   15.85</time>
   <time name="total">  118.10  118.25</time>
   <energy>
    <i name="alphaZ">     15.92198659 </i>
    <i name="ewald">   1271.24536660 </i>
    <i name="hartreedc">  -2453.16524726 </i>
    <i name="XCdc">   -170.62361970 </i>
    <i name="pawpsdc">   1743.21322150 </i>
    <i name="pawaedc">  -1464.67117230 </i>
    <i name="eentropy">     -0.00000000 </i>
    <i name="bandstr">   -325.51714893 </i>
    <i name="atom">   1333.72818728 </i>
    <i name="e_fr_energy">    -49.86842622 </i>
    <i name="e_wo_entrp">    -49.86842622 </i>
    <i name="e_0_energy">    -49.86842622 </i>
   </energy>
  </scstep>
  <scstep>
   <time name="dav">   19.87   19.90</time>
   <time name="total">  124.18  124.33</time>
   <energy>
    <i name="e_fr_energy">    -49.86848260 </i>
    <i name="e_wo_entrp">    -49.86848260 </i>
    <i name="e_0_energy">    -49.86848260 </i>
   </energy>
  </scstep>
  <scstep>
   <time name="dav">   16.63   16.66</time>
   <time name="total">  118.70  118.84</time>
   <energy>
    <i name="alphaZ">     15.92198659 </i>
    <i name="ewald">   1271.24536660 </i>
    <i name="hartreedc">  -2453.15531447 </i>
    <i name="XCdc">   -170.62344215 </i>
    <i name="pawpsdc">   1743.14537279 </i>
    <i name="pawaedc">  -1464.60305473 </i>
    <i name="eentropy">     -0.00000000 </i>
    <i name="bandstr">   -325.52758594 </i>
    <i name="atom">   1333.72818728 </i>
    <i name="e_fr_energy">    -49.86848402 </i>
    <i name="e_wo_entrp">    -49.86848402 </i>
    <i name="e_0_energy">    -49.86848402 </i>
   </energy>
  </scstep>
  <structure>
   <crystal>
    <varray name="basis" >
     <v>       6.01920000       0.00000000       0.00000000 </v>
     <v>       0.00000000      10.14000000       0.00000000 </v>
     <v>       0.00000000       0.00000000      15.00000000 </v>
    </varray>
    <i name="volume">    915.52032000 </i>
    <varray name="rec_basis" >
     <v>       0.16613503       0.00000000       0.00000000 </v>
     <v>       0.00000000       0.09861933       0.00000000 </v>
     <v>       0.00000000       0.00000000       0.06666667 </v>
    </varray>
   </crystal>
   <varray name="positions" >
    <v>       0.43890341       0.87648956       0.22241962 </v>
    <v>       0.93856397       0.87704648       0.27366765 </v>
    <v>       0.43897615       0.61336304       0.22352157 </v>
    <v>       0.93881788       0.61483159       0.27611233 </v>
    <v>       0.43679752       0.37605772       0.27840264 </v>
    <v>       0.93802880       0.37754287       0.22381612 </v>
    <v>       0.43711873       0.11475060       0.27269850 </v>
    <v>       0.93760547       0.11433912       0.22211493 </v>
    <v>       0.18791008      -0.00473433       0.24658012 </v>
    <v>       0.68820860      -0.00434319       0.24860384 </v>
    <v>       0.18824879       0.49576421       0.24986364 </v>
    <v>       0.68826872       0.49550020       0.25260903 </v>
    <v>       0.55608880       0.44465633       0.47852101 </v>
    <v>       0.76595281       0.36672289       0.47729058 </v>
    <v>       0.48128114       0.37390641       0.56141842 </v>
   </varray>
  </structure>
  <varray name="forces" >
   <v>      -0.00707977       0.00291634       0.00388415 </v>
   <v>      -0.00937615       0.00024581       0.00267965 </v>
   <v>      -0.00605806      -0.00073887      -0.00121611 </v>
   <v>       0.01694118       0.00378172      -0.00029581 </v>
   <v>      -0.01718178      -0.00864704       0.00441913 </v>
   <v>       0.00497890      -0.01040305       0.00358500 </v>
   <v>       0.00616977      -0.00615822      -0.00503242 </v>
   <v>       0.00586994      -0.00335279      -0.00532714 </v>
   <v>       0.02529395       0.00861319       0.00743879 </v>
   <v>      -0.02502057       0.00073725      -0.00543885 </v>
   <v>       0.01141911       0.00323330      -0.00091041 </v>
   <v>      -0.01303324       0.00593174       0.00197244 </v>
   <v>      -0.00655542      -0.00580197      -0.00327700 </v>
   <v>       0.00691530      -0.00121178       0.00148639 </v>
   <v>       0.00671685       0.01085436      -0.00396780 </v>
  </varray>
  <varray name="stress" >
   <v>       8.49400394       0.16700108       0.08111023 </v>
   <v>       0.16700017     -10.51429632       0.06852241 </v>
   <v>       0.08110840       0.06852402      -1.31824269 </v>
  </varray>
  <energy>
   <i name="e_fr_energy">    -49.86848402 </i>
   <i name="e_wo_entrp">    -49.86848402 </i>
   <i name="e_0_energy">     -0.00000000 </i>
  </energy>
  <time name="totalsc">  592.21  594.70</time>
 </calculation>
 <calculation>
  <scstep>
   <time name="dav">   15.67   15.73</time>
   <time name="total">  119.91  119.98</time>
   <energy>
    <i name="alphaZ">     15.92198659 </i>
    <i name="ewald">   1271.25275880 </i>
    <i name="hartreedc">  -2453.17704807 </i>
    <i name="XCdc">   -170.62529511 </i>
    <i name="pawpsdc">   1743.12853593 </i>
    <i name="pawaedc">  -1464.58611183 </i>
    <i name="eentropy">     -0.00000000 </i>
    <i name="bandstr">   -325.51158655 </i>
    <i name="atom">   1333.72818728 </i>
    <i name="e_fr_energy">    -49.86857295 </i>
    <i name="e_wo_entrp">    -49.86857295 </i>
    <i name="e_0_energy">    -49.86857295 </i>
   </energy>
  </scstep>
  <scstep>
   <time name="dav">   22.21   22.23</time>
   <time name="total">  126.38  126.50</time>
   <energy>
    <i name="e_fr_energy">    -49.86862363 </i>
    <i name="e_wo_entrp">    -49.86862363 </i>
    <i name="e_0_energy">    -49.86862363 </i>
   </energy>
  </scstep>
  <scstep>
   <time name="dav">   17.38   17.38</time>
   <time name="total">  121.69  121.70</time>
   <energy>
    <i name="alphaZ">     15.92198659 </i>
    <i name="ewald">   1271.25275880 </i>
    <i name="hartreedc">  -2453.16601600 </i>
    <i name="XCdc">   -170.62528421 </i>
    <i name="pawpsdc">   1743.04982281 </i>
    <i name="pawaedc">  -1464.50715639 </i>
    <i name="eentropy">     -0.00000000 </i>
    <i name="bandstr">   -325.52292064 </i>
    <i name="atom">   1333.72818728 </i>
    <i name="e_fr_energy">    -49.86862175 </i>
    <i name="e_wo_entrp">    -49.86862175 </i>
    <i name="e_0_energy">    -49.86862175 </i>
   </energy>
  </scstep>
  <structure>
   <crystal>
    <varray name="basis" >
     <v>       6.01920000       0.00000000       0.00000000 </v>
     <v>       0.00000000      10.14000000       0.00000000 </v>
     <v>       0.00000000       0.00000000      15.00000000 </v>
    </varray>
    <i name="volume">    915.52032000 </i>
    <varray name="rec_basis" >
     <v>       0.16613503       0.00000000       0.00000000 </v>
     <v>       0.00000000       0.09861933       0.00000000 </v>
     <v>       0.00000000       0.00000000       0.06666667 </v>
    </varray>
   </crystal>
   <varray name="positions" >
    <v>       0.43881926       0.87641424       0.22245748 </v>
    <v>       0.93843504       0.87706129       0.27370487 </v>
    <v>       0.43885626       0.61328097       0.22346480 </v>
    <v>       0.93884190       0.61485309       0.27605399 </v>
    <v>       0.43663261       0.37592033       0.27841142 </v>
    <v>       0.93796570       0.37745864       0.22381093 </v>
    <v>       0.43712461       0.11466653       0.27268542 </v>
    <v>       0.93751523       0.11427238       0.22208601 </v>
    <v>       0.18796034      -0.00476078       0.24664409 </v>
    <v>       0.68804099      -0.00439672       0.24856927 </v>
    <v>       0.18823336       0.49569323       0.24983149 </v>
    <v>       0.68816108       0.49545198       0.25265083 </v>
    <v>       0.55615362       0.44474520       0.47848401 </v>
    <v>       0.76626773       0.36701070       0.47725997 </v>
    <v>       0.48176313       0.37422244       0.56152543 </v>
   </varray>
  </structure>
  <varray name="forces" >
   <v>      -0.00962942      -0.00174356       0.00027021 </v>
   <v>      -0.00323076      -0.00190202       0.00075932 </v>
   <v>       0.00136583      -0.00395237       0.00269835 </v>
   <v>       0.00994616      -0.00817439       0.00025498 </v>
   <v>      -0.00802753       0.00276852       0.00190198 </v>
   <v>       0.00033001      -0.00132760       0.00606479 </v>
   <v>       0.00177543       0.00218046      -0.00180087 </v>
   <v>       0.01054397      -0.00475243      -0.00366855 </v>
   <v>       0.00274193       0.00625642       0.00619052 </v>
   <v>      -0.00621033      -0.00032257      -0.00567948 </v>
   <v>      -0.00081957       0.00311786      -0.00133360 </v>
   <v>      -0.00460683       0.00504204      -0.00047584 </v>
   <v>      -0.00405710      -0.00653803      -0.00443378 </v>
   <v>       0.00312682       0.00026404       0.00211220 </v>
   <v>       0.00675138       0.00908363      -0.00286023 </v>
  </varray>
  <varray name="stress" >
   <v>       8.48026547       0.16845122       0.08306961 </v>
   <v>       0.16845034     -10.52962692       0.07150433 </v>
   <v>       0.08306768       0.07150604      -1.31848315 </v>
  </varray>
  <energy>
   <i name="e_fr_energy">    -49.86862175 </i>
   <i name="e_wo_entrp">    -49.86862175 </i>
   <i name="e_0_energy">     -0.00000000 </i>
  </energy>
  <time name="totalsc">  597.64  599.30</time>
 </calculation>
 <calculation>
  <scstep>
   <time name="dav">   16.54   16.55</time>
   <time name="total">  122.20  122.32</time>
   <energy>
    <i name="alphaZ">     15.92198659 </i>
    <i name="ewald">   1271.25774617 </i>
    <i name="hartreedc">  -2453.18323809 </i>
    <i name="XCdc">   -170.62663331 </i>
    <i name="pawpsdc">   1743.03051759 </i>
    <i name="pawaedc">  -1464.48778624 </i>
    <i name="eentropy">     -0.00000000 </i>
    <i name="bandstr">   -325.50941972 </i>
    <i name="atom">   1333.72818728 </i>
    <i name="e_fr_energy">    -49.86863973 </i>
    <i name="e_wo_entrp">    -49.86863973 </i>
    <i name="e_0_energy">    -49.86863973 </i>
   </energy>
  </scstep>
  <scstep>
   <time name="dav">   20.56   20.56</time>
   <time name="total">  125.44  125.44</time>
   <energy>
    <i name="e_fr_energy">    -49.86866770 </i>
    <i name="e_wo_entrp">    -49.86866770 </i>
    <i name="e_0_energy">    -49.86866770 </i>
   </energy>
  </scstep>
  <scstep>
   <time name="dav">   15.02   15.03</time>
   <time name="total">  115.74  115.85</time>
   <energy>
    <i name="alphaZ">     15.92198659 </i>
    <i name="ewald">   1271.25774617 </i>
    <i name="hartreedc">  -2453.17429401 </i>
    <i name="XCdc">   -170.62664721 </i>
    <i name="pawpsdc">   1742.96583287 </i>
    <i name="pawaedc">  -1464.42287011 </i>
    <i name="eentropy">     -0.00000000 </i>
    <i name="bandstr">   -325.51860985 </i>
    <i name="atom">   1333.72818728 </i>
    <i name="e_fr_energy">    -49.86866826 </i>
    <i name="e_wo_entrp">    -49.86866826 </i>
    <i name="e_0_energy">    -49.86866826 </i>
   </energy>
  </scstep>
  <structure>
   <crystal>
    <varray name="basis" >
     <v>       6.01920000       0.00000000       0.00000000 </v>
     <v>       0.00000000      10.14000000       0.00000000 </v>
     <v>       0.00000000       0.00000000      15.00000000 </v>
    </varray>
    <i name="volume">    915.52032000 </i>
    <varray name="rec_basis" >
     <v>       0.16613503       0.00000000       0.00000000 </v>
     <v>       0.00000000       0.09861933       0.00000000 </v>
     <v>       0.00000000       0.00000000       0.06666667 </v>
    </varray>
   </crystal>
   <varray name="positions" >
    <v>       0.43875616       0.87635776       0.22248586 </v>
    <v>       0.93833837       0.87707238       0.27373278 </v>
    <v>       0.43876637       0.61321943       0.22342224 </v>
    <v>       0.93885992       0.61486920       0.27601025 </v>
    <v>       0.43650897       0.37581732       0.27841800 </v>
    <v>       0.93791839       0.37739548       0.22380703 </v>
    <v>       0.43712901       0.11460349       0.27267561 </v>
    <v>       0.93744758       0.11422233       0.22206433 </v>
    <v>       0.18799803      -0.00478061       0.24669206 </v>
    <v>       0.68791532      -0.00443685       0.24854335 </v>
    <v>       0.18822179       0.49564001       0.24980739 </v>
    <v>       0.68808037       0.49541583       0.25268216 </v>
    <v>       0.55620223       0.44481183       0.47845626 </v>
    <v>       0.76650386       0.36722649       0.47723702 </v>
    <v>       0.48212451       0.37445940       0.56160567 </v>
   </varray>
  </structure>
  <varray name="forces" >
   <v>      -0.01188856      -0.00568570      -0.00249509 </v>
   <v>       0.00161858      -0.00305621      -0.00081524 </v>
   <v>       0.00674532      -0.00580785       0.00565453 </v>
   <v>       0.00458395      -0.01745805       0.00102853 </v>
   <v>      -0.00115657       0.01168794       0.00009672 </v>
   <v>      -0.00307530       0.00616651       0.00809305 </v>
   <v>      -0.00171174       0.00958587       0.00089345 </v>
   <v>       0.01401110      -0.00575445      -0.00223656 </v>
   <v>      -0.01421677       0.00395395       0.00581956 </v>
   <v>       0.00726047      -0.00193350      -0.00589392 </v>
   <v>      -0.00984520       0.00038905      -0.00317849 </v>
   <v>      -0.00035939       0.00238940      -0.00088364 </v>
   <v>       0.00056239      -0.00499094      -0.00707747 </v>
   <v>       0.00033623       0.00214358       0.00251648 </v>
   <v>       0.00713548       0.00837040      -0.00152189 </v>
  </varray>
  <varray name="stress" >
   <v>       8.46757687       0.17342570       0.08310880 </v>
   <v>       0.17342484     -10.54741141       0.07296473 </v>
   <v>       0.08310692       0.07296635      -1.32277751 </v>
  </varray>
  <energy>
   <i name="e_fr_energy">    -49.86866826 </i>
   <i name="e_wo_entrp">    -49.86866826 </i>
   <i name="e_0_energy">     -0.00000000 </i>
  </energy>
  <time name="totalsc">  600.83  609.30</time>
 </calculation>
 <calculation>
  <scstep>
   <time name="dav">   15.91   15.96</time>
   <time name="total">  122.37  122.80</time>
   <energy>
    <i name="alphaZ">     15.92198659 </i>
    <i name="ewald">   1271.44770415 </i>
    <i name="hartreedc">  -2453.34216196 </i>
    <i name="XCdc">   -170.62576052 </i>
    <i name="pawpsdc">   1742.94599930 </i>
    <i name="pawaedc">  -1464.40296146 </i>
    <i name="eentropy">     -0.00000000 </i>
    <i name="bandstr">   -325.54172116 </i>
    <i name="atom">   1333.72818728 </i>
    <i name="e_fr_energy">    -49.86872777 </i>
    <i name="e_wo_entrp">    -49.86872777 </i>
    <i name="e_0_energy">    -49.86872777 </i>
   </energy>
  </scstep>
  <scstep>
   <time name="dav">   21.63   21.73</time>
   <time name="total">  128.65  128.87</time>
   <energy>
    <i name="e_fr_energy">    -49.86876440 </i>
    <i name="e_wo_entrp">    -49.86876440 </i>
    <i name="e_0_energy">    -49.86876440 </i>
   </energy>
  </scstep>
  <scstep>
   <time name="dav">   15.23   15.24</time>
   <time name="total">  120.68  120.97</time>
   <energy>
    <i name="alphaZ">     15.92198659 </i>
    <i name="ewald">   1271.44770415 </i>
    <i name="hartreedc">  -2453.35133180 </i>
    <i name="XCdc">   -170.62457275 </i>
    <i name="pawpsdc">   1743.03503924 </i>
    <i name="pawaedc">  -1464.49237021 </i>
    <i name="eentropy">     -0.00000000 </i>
    <i name="bandstr">   -325.53340714 </i>
    <i name="atom">   1333.72818728 </i>
    <i name="e_fr_energy">    -49.86876464 </i>
    <i name="e_wo_entrp">    -49.86876464 </i>
    <i name="e_0_energy">    -49.86876464 </i>
   </energy>
  </scstep>
  <structure>
   <crystal>
    <varray name="basis" >
     <v>       6.01920000       0.00000000       0.00000000 </v>
     <v>       0.00000000      10.14000000       0.00000000 </v>
     <v>       0.00000000       0.00000000      15.00000000 </v>
    </varray>
    <i name="volume">    915.52032000 </i>
    <varray name="rec_basis" >
     <v>       0.16613503       0.00000000       0.00000000 </v>
     <v>       0.00000000       0.09861933       0.00000000 </v>
     <v>       0.00000000       0.00000000       0.06666667 </v>
    </varray>
   </crystal>
   <varray name="positions" >
    <v>       0.43859039       0.87626983       0.22250762 </v>
    <v>       0.93824938       0.87706906       0.27375964 </v>
    <v>       0.43872720       0.61312554       0.22339600 </v>
    <v>       0.93891713       0.61480009       0.27596733 </v>
    <v>       0.43636830       0.37576585       0.27842531 </v>
    <v>       0.93784267       0.37735899       0.22382991 </v>
    <v>       0.43711944       0.11458401       0.27266820 </v>
    <v>       0.93749241       0.11414088       0.22203388 </v>
    <v>       0.18791973      -0.00478211       0.24676232 </v>
    <v>       0.68784252      -0.00448894       0.24849620 </v>
    <v>       0.18812763       0.49558553       0.24977123 </v>
    <v>       0.68799185       0.49538931       0.25271242 </v>
    <v>       0.55625842       0.44485781       0.47840324 </v>
    <v>       0.76675691       0.36746579       0.47722109 </v>
    <v>       0.48256688       0.37475187       0.56168562 </v>
   </varray>
  </structure>
  <varray name="forces" >
   <v>      -0.00850716       0.00004269      -0.00201001 </v>
   <v>       0.00167145      -0.00984154      -0.00034501 </v>
   <v>       0.00552451      -0.00099337       0.00644981 </v>
   <v>      -0.00503221      -0.00819850       0.00475839 </v>
   <v>       0.00394038       0.01185320      -0.00078699 </v>
   <v>      -0.00801638      -0.00054530       0.00539906 </v>
   <v>      -0.00180141       0.00646320       0.00094565 </v>
   <v>       0.00534138       0.00132975      -0.00149603 </v>
   <v>      -0.00777541      -0.00175047       0.00350558 </v>
   <v>       0.00567873      -0.00236474      -0.00593081 </v>
   <v>      -0.00390772      -0.00077527      -0.00213336 </v>
   <v>       0.00468576      -0.00097380      -0.00164061 </v>
   <v>       0.00232319      -0.00070916      -0.01129076 </v>
   <v>       0.00031765       0.00130643       0.00255813 </v>
   <v>       0.00555724       0.00515689       0.00201698 </v>
  </varray>
  <varray name="stress" >
   <v>       8.47273922       0.14980443       0.08315263 </v>
   <v>       0.14980339     -10.52642380       0.06400333 </v>
   <v>       0.08315073       0.06400503      -1.30826789 </v>
  </varray>
  <energy>
   <i name="e_fr_energy">    -49.86876464 </i>
   <i name="e_wo_entrp">    -49.86876464 </i>
   <i name="e_0_energy">     -0.00000000 </i>
  </energy>
  <time name="totalsc">  600.39  603.33</time>
 </calculation>
 <calculation>
  <scstep>
   <time name="dav">   15.64   15.66</time>
   <time name="total">  117.60  117.73</time>
   <energy>
    <i name="alphaZ">     15.92198659 </i>
    <i name="ewald">   1271.66896122 </i>
    <i name="hartreedc">  -2453.54987119 </i>
    <i name="XCdc">   -170.62340795 </i>
    <i name="pawpsdc">   1743.06122004 </i>
    <i name="pawaedc">  -1464.51859339 </i>
    <i name="eentropy">     -0.00000000 </i>
    <i name="bandstr">   -325.55724941 </i>
    <i name="atom">   1333.72818728 </i>
    <i name="e_fr_energy">    -49.86876681 </i>
    <i name="e_wo_entrp">    -49.86876681 </i>
    <i name="e_0_energy">    -49.86876681 </i>
   </energy>
  </scstep>
  <scstep>
   <time name="dav">   21.01   21.06</time>
   <time name="total">  122.90  123.12</time>
   <energy>
    <i name="e_fr_energy">    -49.86881761 </i>
    <i name="e_wo_entrp">    -49.86881761 </i>
    <i name="e_0_energy">    -49.86881761 </i>
   </energy>
  </scstep>
  <scstep>
   <time name="dav">   15.53   15.61</time>
   <time name="total">  116.23  116.49</time>
   <energy>
    <i name="alphaZ">     15.92198659 </i>
    <i name="ewald">   1271.66896122 </i>
    <i name="hartreedc">  -2453.55437862 </i>
    <i name="XCdc">   -170.62242270 </i>
    <i name="pawpsdc">   1743.14893221 </i>
    <i name="pawaedc">  -1464.60663653 </i>
    <i name="eentropy">     -0.00000000 </i>
    <i name="bandstr">   -325.55344795 </i>
    <i name="atom">   1333.72818728 </i>
    <i name="e_fr_energy">    -49.86881849 </i>
    <i name="e_wo_entrp">    -49.86881849 </i>
    <i name="e_0_energy">    -49.86881849 </i>
   </energy>
  </scstep>
  <structure>
   <crystal>
    <varray name="basis" >
     <v>       6.01920000       0.00000000       0.00000000 </v>
     <v>       0.00000000      10.14000000       0.00000000 </v>
     <v>       0.00000000       0.00000000      15.00000000 </v>
    </varray>
    <i name="volume">    915.52032000 </i>
    <varray name="rec_basis" >
     <v>       0.16613503       0.00000000       0.00000000 </v>
     <v>       0.00000000       0.09861933       0.00000000 </v>
     <v>       0.00000000       0.00000000       0.06666667 </v>
    </varray>
   </crystal>
   <varray name="positions" >
    <v>       0.43839636       0.87616691       0.22253308 </v>
    <v>       0.93814521       0.87706516       0.27379108 </v>
    <v>       0.43868135       0.61301563       0.22336528 </v>
    <v>       0.93898411       0.61471918       0.27591709 </v>
    <v>       0.43620364       0.37570560       0.27843386 </v>
    <v>       0.93775403       0.37731627       0.22385670 </v>
    <v>       0.43710823       0.11456120       0.27265952 </v>
    <v>       0.93754488       0.11404553       0.22199823 </v>
    <v>       0.18782807      -0.00478387       0.24684456 </v>
    <v>       0.68775730      -0.00454990       0.24844101 </v>
    <v>       0.18801742       0.49552175       0.24972891 </v>
    <v>       0.68788822       0.49535827       0.25274784 </v>
    <v>       0.55632420       0.44491163       0.47834116 </v>
    <v>       0.76705313       0.36774590       0.47720245 </v>
    <v>       0.48308470       0.37509422       0.56177922 </v>
   </varray>
  </structure>
  <varray name="forces" >
   <v>      -0.00416733       0.00811254      -0.00128536 </v>
   <v>       0.00188343      -0.01750333       0.00012471 </v>
   <v>       0.00360912       0.00558815       0.00714155 </v>
   <v>      -0.01591664       0.00399288       0.00938730 </v>
   <v>       0.00960833       0.01208973      -0.00212206 </v>
   <v>      -0.01295190      -0.00882492       0.00191049 </v>
   <v>      -0.00144835       0.00216316       0.00075354 </v>
   <v>      -0.00503110       0.01034689      -0.00085440 </v>
   <v>       0.00120506      -0.00812563       0.00390598 </v>
   <v>       0.00256166      -0.00344380      -0.00765543 </v>
   <v>       0.00462237      -0.00401983      -0.00256114 </v>
   <v>       0.00877439      -0.00607791      -0.00174842 </v>
   <v>       0.00310520       0.00355776      -0.01516312 </v>
   <v>       0.00033964       0.00037363       0.00254296 </v>
   <v>       0.00380612       0.00177066       0.00562340 </v>
  </varray>
  <varray name="stress" >
   <v>       8.48264914       0.12033726       0.08515521 </v>
   <v>       0.12033644     -10.49594958       0.05331252 </v>
   <v>       0.08515333       0.05331420      -1.29152390 </v>
  </varray>
  <energy>
   <i name="e_fr_energy">    -49.86881849 </i>
   <i name="e_wo_entrp">    -49.86881849 </i>
   <i name="e_0_energy">     -0.00000000 </i>
  </energy>
  <time name="totalsc">  583.15  585.22</time>
 </calculation>
 <calculation>
  <scstep>
   <time name="dav">   16.27   16.34</time>
   <time name="total">  115.91  116.11</time>
   <energy>
    <i name="alphaZ">     15.92198659 </i>
    <i name="ewald">   1271.91491055 </i>
    <i name="hartreedc">  -2453.81433751 </i>
    <i name="XCdc">   -170.62375940 </i>
    <i name="pawpsdc">   1743.18259050 </i>
    <i name="pawaedc">  -1464.64036621 </i>
    <i name="eentropy">     -0.00000000 </i>
    <i name="bandstr">   -325.53807520 </i>
    <i name="atom">   1333.72818728 </i>
    <i name="e_fr_energy">    -49.86886339 </i>
    <i name="e_wo_entrp">    -49.86886339 </i>
    <i name="e_0_energy">    -49.86886339 </i>
   </energy>
  </scstep>
  <scstep>
   <time name="dav">   21.00   21.04</time>
   <time name="total">  122.07  122.24</time>
   <energy>
    <i name="e_fr_energy">    -49.86891545 </i>
    <i name="e_wo_entrp">    -49.86891545 </i>
    <i name="e_0_energy">    -49.86891545 </i>
   </energy>
  </scstep>
  <scstep>
   <time name="dav">   14.86   14.92</time>
   <time name="total">  117.10  117.55</time>
   <energy>
    <i name="alphaZ">     15.92198659 </i>
    <i name="ewald">   1271.91491055 </i>
    <i name="hartreedc">  -2453.79936166 </i>
    <i name="XCdc">   -170.62386277 </i>
    <i name="pawpsdc">   1743.09681266 </i>
    <i name="pawaedc">  -1464.55413033 </i>
    <i name="eentropy">     -0.00000000 </i>
    <i name="bandstr">   -325.55345634 </i>
    <i name="atom">   1333.72818728 </i>
    <i name="e_fr_energy">    -49.86891401 </i>
    <i name="e_wo_entrp">    -49.86891401 </i>
    <i name="e_0_energy">    -49.86891401 </i>
   </energy>
  </scstep>
  <structure>
   <crystal>
    <varray name="basis" >
     <v>       6.01920000       0.00000000       0.00000000 </v>
     <v>       0.00000000      10.14000000       0.00000000 </v>
     <v>       0.00000000       0.00000000      15.00000000 </v>
    </varray>
    <i name="volume">    915.52032000 </i>
    <varray name="rec_basis" >
     <v>       0.16613503       0.00000000       0.00000000 </v>
     <v>       0.00000000       0.09861933       0.00000000 </v>
     <v>       0.00000000       0.00000000       0.06666667 </v>
    </varray>
   </crystal>
   <varray name="positions" >
    <v>       0.43819326       0.87611538       0.22255124 </v>
    <v>       0.93806914       0.87697863       0.27381899 </v>
    <v>       0.43867011       0.61294601       0.22336133 </v>
    <v>       0.93891537       0.61466736       0.27590327 </v>
    <v>       0.43613645       0.37571031       0.27843452 </v>
    <v>       0.93757286       0.37723699       0.22388627 </v>
    <v>       0.43708684       0.11455152       0.27265435 </v>
    <v>       0.93755055       0.11401125       0.22196431 </v>
    <v>       0.18775751      -0.00482400       0.24692906 </v>
    <v>       0.68770324      -0.00461960       0.24836815 </v>
    <v>       0.18795798       0.49544686       0.24968366 </v>
    <v>       0.68786776       0.49530225       0.25277322 </v>
    <v>       0.55640659       0.44497561       0.47823818 </v>
    <v>       0.76731501       0.36799275       0.47719431 </v>
    <v>       0.48356820       0.37540216       0.56187916 </v>
   </varray>
  </structure>
  <varray name="forces" >
   <v>       0.00383973       0.00938629      -0.00151900 </v>
   <v>      -0.00092157      -0.00874652      -0.00243141 </v>
   <v>      -0.00065078       0.00943602       0.00623147 </v>
   <v>      -0.01089421       0.00272357       0.00946675 </v>
   <v>       0.00868388       0.00253583      -0.00191738 </v>
   <v>      -0.00374111      -0.00839415      -0.00032260 </v>
   <v>       0.00108497      -0.00276343       0.00041066 </v>
   <v>      -0.01060914       0.00160550       0.00300379 </v>
   <v>       0.00061285      -0.00763367       0.00345536 </v>
   <v>       0.00110703      -0.00162465      -0.00692155 </v>
   <v>       0.00043625      -0.00074014      -0.00110565 </v>
   <v>       0.00340011      -0.00299732      -0.00173637 </v>
   <v>       0.00074285       0.00094812      -0.00467081 </v>
   <v>       0.00169571      -0.00017724       0.00120961 </v>
   <v>       0.00521343       0.00644179      -0.00315287 </v>
  </varray>
  <varray name="stress" >
   <v>       8.47706202       0.10652535       0.08673309 </v>
   <v>       0.10652460     -10.50899760       0.06365122 </v>
   <v>       0.08673119       0.06365299      -1.31174941 </v>
  </varray>
  <energy>
   <i name="e_fr_energy">    -49.86891401 </i>
   <i name="e_wo_entrp">    -49.86891401 </i>
   <i name="e_0_energy">     -0.00000000 </i>
  </energy>
  <time name="totalsc">  583.99  586.37</time>
 </calculation>
 <calculation>
  <scstep>
   <time name="dav">   16.53   16.55</time>
   <time name="total">  121.92  122.03</time>
   <energy>
    <i name="alphaZ">     15.92198659 </i>
    <i name="ewald">   1272.18089147 </i>
    <i name="hartreedc">  -2454.07683137 </i>
    <i name="XCdc">   -170.62553258 </i>
    <i name="pawpsdc">   1743.07904670 </i>
    <i name="pawaedc">  -1464.53624862 </i>
    <i name="eentropy">     -0.00000000 </i>
    <i name="bandstr">   -325.54039889 </i>
    <i name="atom">   1333.72818728 </i>
    <i name="e_fr_energy">    -49.86889941 </i>
    <i name="e_wo_entrp">    -49.86889941 </i>
    <i name="e_0_energy">    -49.86889941 </i>
   </energy>
  </scstep>
  <scstep>
   <time name="dav">   19.71   19.79</time>
   <time name="total">  122.05  122.53</time>
   <energy>
    <i name="e_fr_energy">    -49.86896044 </i>
    <i name="e_wo_entrp">    -49.86896044 </i>
    <i name="e_0_energy">    -49.86896044 </i>
   </energy>
  </scstep>
  <scstep>
   <time name="dav">   16.32   16.34</time>
   <time name="total">  117.04  117.14</time>
   <energy>
    <i name="alphaZ">     15.92198659 </i>
    <i name="ewald">   1272.18089147 </i>
    <i name="hartreedc">  -2454.06444165 </i>
    <i name="XCdc">   -170.62534703 </i>
    <i name="pawpsdc">   1742.99679661 </i>
    <i name="pawaedc">  -1464.45360612 </i>
    <i name="eentropy">     -0.00000000 </i>
    <i name="bandstr">   -325.55342652 </i>
    <i name="atom">   1333.72818728 </i>
    <i name="e_fr_energy">    -49.86895937 </i>
    <i name="e_wo_entrp">    -49.86895937 </i>
    <i name="e_0_energy">    -49.86895937 </i>
   </energy>
  </scstep>
  <structure>
   <crystal>
    <varray name="basis" >
     <v>       6.01920000       0.00000000       0.00000000 </v>
     <v>       0.00000000      10.14000000       0.00000000 </v>
     <v>       0.00000000       0.00000000      15.00000000 </v>
    </varray>
    <i name="volume">    915.52032000 </i>
    <varray name="rec_basis" >
     <v>       0.16613503       0.00000000       0.00000000 </v>
     <v>       0.00000000       0.09861933       0.00000000 </v>
     <v>       0.00000000       0.00000000       0.06666667 </v>
    </varray>
   </crystal>
   <varray name="positions" >
    <v>       0.43797264       0.87605942       0.22257096 </v>
    <v>       0.93798651       0.87688464       0.27384930 </v>
    <v>       0.43865790       0.61287038       0.22335705 </v>
    <v>       0.93884070       0.61461107       0.27588825 </v>
    <v>       0.43606347       0.37571542       0.27843525 </v>
    <v>       0.93737607       0.37715087       0.22391839 </v>
    <v>       0.43706361       0.11454101       0.27264873 </v>
    <v>       0.93755670       0.11397402       0.22192746 </v>
    <v>       0.18768088      -0.00486758       0.24702084 </v>
    <v>       0.68764451      -0.00469530       0.24828900 </v>
    <v>       0.18789341       0.49536551       0.24963450 </v>
    <v>       0.68784553       0.49524140       0.25280079 </v>
    <v>       0.55649609       0.44504511       0.47812631 </v>
    <v>       0.76759947       0.36826088       0.47718546 </v>
    <v>       0.48409338       0.37573665       0.56198772 </v>
   </varray>
  </structure>
  <varray name="forces" >
   <v>       0.01314404       0.01133950      -0.00177065 </v>
   <v>      -0.00401880       0.00164346      -0.00543972 </v>
   <v>      -0.00521632       0.01411231       0.00505891 </v>
   <v>      -0.00475913       0.00210756       0.00962973 </v>
   <v>       0.00783406      -0.00771954      -0.00191546 </v>
   <v>       0.00727337      -0.00768286      -0.00274010 </v>
   <v>       0.00391680      -0.00791640      -0.00011523 </v>
   <v>      -0.01630490      -0.00774305       0.00717483 </v>
   <v>      -0.00029724      -0.00593488       0.00324500 </v>
   <v>      -0.00047049       0.00002335      -0.00645704 </v>
   <v>      -0.00499779       0.00054203      -0.00112000 </v>
   <v>      -0.00315551      -0.00101587       0.00012200 </v>
   <v>      -0.00272617      -0.00339244       0.00803227 </v>
   <v>       0.00309394      -0.00041397      -0.00028133 </v>
   <v>       0.00668414       0.01205079      -0.01342320 </v>
  </varray>
  <varray name="stress" >
   <v>       8.47269237       0.09084463       0.09072725 </v>
   <v>       0.09084396     -10.53039482       0.08055926 </v>
   <v>       0.09072527       0.08056101      -1.33432179 </v>
  </varray>
  <energy>
   <i name="e_fr_energy">    -49.86895937 </i>
   <i name="e_wo_entrp">    -49.86895937 </i>
   <i name="e_0_energy">     -0.00000000 </i>
  </energy>
  <time name="totalsc">  588.90  590.96</time>
 </calculation>
 <calculation>
  <scstep>
   <time name="dav">   15.23   15.31</time>
   <time name="total">  115.92  116.37</time>
   <energy>
    <i name="alphaZ">     15.92198659 </i>
    <i name="ewald">   1272.43093046 </i>
    <i name="hartreedc">  -2454.30532320 </i>
    <i name="XCdc">   -170.62516825 </i>
    <i name="pawpsdc">   1742.97324208 </i>
    <i name="pawaedc">  -1464.42990398 </i>
    <i name="eentropy">     -0.00000000 </i>
    <i name="bandstr">   -325.56294804 </i>
    <i name="atom">   1333.72818728 </i>
    <i name="e_fr_energy">    -49.86899705 </i>
    <i name="e_wo_entrp">    -49.86899705 </i>
    <i name="e_0_energy">    -49.86899705 </i>
   </energy>
  </scstep>
  <scstep>
   <time name="dav">   21.20   21.31</time>
   <time name="total">  121.81  122.32</time>
   <energy>
    <i name="e_fr_energy">    -49.86906089 </i>
    <i name="e_wo_entrp">    -49.86906089 </i>
    <i name="e_0_energy">    -49.86906089 </i>
   </energy>
  </scstep>
  <scstep>
   <time name="dav">   18.75   18.85</time>
   <time name="total">  118.22  118.57</time>
   <energy>
    <i name="alphaZ">     15.92198659 </i>
    <i name="ewald">   1272.43093046 </i>
    <i name="hartreedc">  -2454.30096910 </i>
    <i name="XCdc">   -170.62449218 </i>
    <i name="pawpsdc">   1742.98767127 </i>
    <i name="pawaedc">  -1464.44460975 </i>
    <i name="eentropy">     -0.00000000 </i>
    <i name="bandstr">   -325.56776230 </i>
    <i name="atom">   1333.72818728 </i>
    <i name="e_fr_energy">    -49.86905773 </i>
    <i name="e_wo_entrp">    -49.86905773 </i>
    <i name="e_0_energy">    -49.86905773 </i>
   </energy>
  </scstep>
  <structure>
   <crystal>
    <varray name="basis" >
     <v>       6.01920000       0.00000000       0.00000000 </v>
     <v>       0.00000000      10.14000000       0.00000000 </v>
     <v>       0.00000000       0.00000000      15.00000000 </v>
    </varray>
    <i name="volume">    915.52032000 </i>
    <varray name="rec_basis" >
     <v>       0.16613503       0.00000000       0.00000000 </v>
     <v>       0.00000000       0.09861933       0.00000000 </v>
     <v>       0.00000000       0.00000000       0.06666667 </v>
    </varray>
   </crystal>
   <varray name="positions" >
    <v>       0.43787576       0.87606792       0.22258414 </v>
    <v>       0.93786315       0.87679832       0.27385894 </v>
    <v>       0.43859465       0.61287487       0.22337245 </v>
    <v>       0.93871824       0.61456588       0.27591058 </v>
    <v>       0.43606537       0.37567600       0.27842850 </v>
    <v>       0.93724630       0.37701867       0.22394042 </v>
    <v>       0.43707807       0.11448453       0.27264255 </v>
    <v>       0.93740418       0.11389130       0.22191793 </v>
    <v>       0.18759986      -0.00494632       0.24712708 </v>
    <v>       0.68758006      -0.00477234       0.24818309 </v>
    <v>       0.18777892       0.49528572       0.24958002 </v>
    <v>       0.68779215       0.49517349       0.25282937 </v>
    <v>       0.55656077       0.44509635       0.47804367 </v>
    <v>       0.76791956       0.36853181       0.47717534 </v>
    <v>       0.48469382       0.37614727       0.56204593 </v>
   </varray>
  </structure>
  <varray name="forces" >
   <v>       0.01020828       0.00051516      -0.00409401 </v>
   <v>      -0.00251611       0.00391378      -0.00579427 </v>
   <v>      -0.00820262       0.00521493       0.00564526 </v>
   <v>       0.00099189      -0.00638551       0.00613236 </v>
   <v>      -0.00028279      -0.00851763      -0.00471957 </v>
   <v>       0.01113769       0.00099585      -0.00310646 </v>
   <v>      -0.00090887      -0.00581417       0.00075982 </v>
   <v>      -0.00627689      -0.00978229       0.00818088 </v>
   <v>      -0.00295652       0.00122468      -0.00031088 </v>
   <v>      -0.00093926       0.00239470      -0.00077474 </v>
   <v>       0.00011985       0.00441548       0.00321751 </v>
   <v>      -0.00710479       0.00485764      -0.00174620 </v>
   <v>       0.00454324       0.00202110      -0.00137616 </v>
   <v>       0.00095170       0.00097587      -0.00118732 </v>
   <v>       0.00123518       0.00397043      -0.00082623 </v>
  </varray>
  <varray name="stress" >
   <v>       8.46984126       0.13933811       0.07208108 </v>
   <v>       0.13933743     -10.52617987       0.07574333 </v>
   <v>       0.07207902       0.07574503      -1.29727457 </v>
  </varray>
  <energy>
   <i name="e_fr_energy">    -49.86905773 </i>
   <i name="e_wo_entrp">    -49.86905773 </i>
   <i name="e_0_energy">     -0.00000000 </i>
  </energy>
  <time name="totalsc">  579.55  582.72</time>
 </calculation>
 <calculation>
  <scstep>
   <time name="dav">   15.91   16.01</time>
   <time name="total">  122.39  122.92</time>
   <energy>
    <i name="alphaZ">     15.92198659 </i>
    <i name="ewald">   1272.51604060 </i>
    <i name="hartreedc">  -2454.38610864 </i>
    <i name="XCdc">   -170.62418362 </i>
    <i name="pawpsdc">   1743.00045191 </i>
    <i name="pawaedc">  -1464.45753963 </i>
    <i name="eentropy">     -0.00000000 </i>
    <i name="bandstr">   -325.56790611 </i>
    <i name="atom">   1333.72818728 </i>
    <i name="e_fr_energy">    -49.86907161 </i>
    <i name="e_wo_entrp">    -49.86907161 </i>
    <i name="e_0_energy">    -49.86907161 </i>
   </energy>
  </scstep>
  <scstep>
   <time name="dav">   20.96   21.06</time>
   <time name="total">  126.49  126.68</time>
   <energy>
    <i name="alphaZ">     15.92198659 </i>
    <i name="ewald">   1272.51604060 </i>
    <i name="hartreedc">  -2454.38455746 </i>
    <i name="XCdc">   -170.62401273 </i>
    <i name="pawpsdc">   1742.99450405 </i>
    <i name="pawaedc">  -1464.45154993 </i>
    <i name="eentropy">     -0.00000000 </i>
    <i name="bandstr">   -325.56967712 </i>
    <i name="atom">   1333.72818728 </i>
    <i name="e_fr_energy">    -49.86907872 </i>
    <i name="e_wo_entrp">    -49.86907872 </i>
    <i name="e_0_energy">    -49.86907872 </i>
   </energy>
  </scstep>
  <structure>
   <crystal>
    <varray name="basis" >
     <v>       6.01920000       0.00000000       0.00000000 </v>
     <v>       0.00000000      10.14000000       0.00000000 </v>
     <v>       0.00000000       0.00000000      15.00000000 </v>
    </varray>
    <i name="volume">    915.52032000 </i>
    <varray name="rec_basis" >
     <v>       0.16613503       0.00000000       0.00000000 </v>
     <v>       0.00000000       0.09861933       0.00000000 </v>
     <v>       0.00000000       0.00000000       0.06666667 </v>
    </varray>
   </crystal>
   <varray name="positions" >
    <v>       0.43784265       0.87607083       0.22258864 </v>
    <v>       0.93782098       0.87676882       0.27386224 </v>
    <v>       0.43857304       0.61287641       0.22337771 </v>
    <v>       0.93867639       0.61455043       0.27591821 </v>
    <v>       0.43606602       0.37566253       0.27842619 </v>
    <v>       0.93720195       0.37697349       0.22394795 </v>
    <v>       0.43708301       0.11446522       0.27264044 </v>
    <v>       0.93735205       0.11386303       0.22191467 </v>
    <v>       0.18757217      -0.00497323       0.24716339 </v>
    <v>       0.68755804      -0.00479867       0.24814689 </v>
    <v>       0.18773979       0.49525845       0.24956140 </v>
    <v>       0.68777390       0.49515028       0.25283913 </v>
    <v>       0.55658288       0.44511386       0.47801542 </v>
    <v>       0.76802897       0.36862441       0.47717188 </v>
    <v>       0.48489905       0.37628762       0.56206582 </v>
   </varray>
  </structure>
  <varray name="forces" >
   <v>       0.00978274      -0.00324238      -0.00481511 </v>
   <v>      -0.00236185       0.00462478      -0.00579447 </v>
   <v>      -0.00881291       0.00223564       0.00601295 </v>
   <v>       0.00273569      -0.00920389       0.00499102 </v>
   <v>      -0.00264386      -0.00831550      -0.00557755 </v>
   <v>       0.01222331       0.00455873      -0.00314159 </v>
   <v>      -0.00212333      -0.00451438       0.00124774 </v>
   <v>      -0.00279605      -0.00989291       0.00856808 </v>
   <v>      -0.00411964       0.00285180      -0.00039586 </v>
   <v>      -0.00121693       0.00174943      -0.00161069 </v>
   <v>       0.00130318       0.00445879       0.00372012 </v>
   <v>      -0.00822899       0.00547030      -0.00115252 </v>
   <v>       0.00568293       0.00535996      -0.00487051 </v>
   <v>       0.00075656       0.00201288      -0.00132007 </v>
   <v>      -0.00018084       0.00184677       0.00413847 </v>
  </varray>
  <varray name="stress" >
   <v>       8.46609030       0.15611284       0.06500216 </v>
   <v>       0.15611218     -10.53319766       0.07232936 </v>
   <v>       0.06500020       0.07233100      -1.29096057 </v>
  </varray>
  <energy>
   <i name="e_fr_energy">    -49.86907872 </i>
   <i name="e_wo_entrp">    -49.86907872 </i>
   <i name="e_0_energy">     -0.00000000 </i>
  </energy>
  <time name="totalsc">  475.57  479.97</time>
 </calculation>
 <calculation>
  <scstep>
   <time name="dav">   15.57   15.64</time>
   <time name="total">  117.56  117.74</time>
   <energy>
    <i name="alphaZ">     15.92198659 </i>
    <i name="ewald">   1272.68572592 </i>
    <i name="hartreedc">  -2454.55014042 </i>
    <i name="XCdc">   -170.62392533 </i>
    <i name="pawpsdc">   1742.99520510 </i>
    <i name="pawaedc">  -1464.45227211 </i>
    <i name="eentropy">     -0.00000000 </i>
    <i name="bandstr">   -325.57382617 </i>
    <i name="atom">   1333.72818728 </i>
    <i name="e_fr_energy">    -49.86905915 </i>
    <i name="e_wo_entrp">    -49.86905915 </i>
    <i name="e_0_energy">    -49.86905915 </i>
   </energy>
  </scstep>
  <scstep>
   <time name="dav">   21.23   21.24</time>
   <time name="total">  122.89  122.92</time>
   <energy>
    <i name="e_fr_energy">    -49.86908660 </i>
    <i name="e_wo_entrp">    -49.86908660 </i>
    <i name="e_0_energy">    -49.86908660 </i>
   </energy>
  </scstep>
  <scstep>
   <time name="dav">   15.15   15.20</time>
   <time name="total">  115.89  116.09</time>
   <energy>
    <i name="alphaZ">     15.92198659 </i>
    <i name="ewald">   1272.68572592 </i>
    <i name="hartreedc">  -2454.54797418 </i>
    <i name="XCdc">   -170.62342031 </i>
    <i name="pawpsdc">   1743.00978606 </i>
    <i name="pawaedc">  -1464.46712894 </i>
    <i name="eentropy">     -0.00000000 </i>
    <i name="bandstr">   -325.57624940 </i>
    <i name="atom">   1333.72818728 </i>
    <i name="e_fr_energy">    -49.86908697 </i>
    <i name="e_wo_entrp">    -49.86908697 </i>
    <i name="e_0_energy">    -49.86908697 </i>
   </energy>
  </scstep>
  <structure>
   <crystal>
    <varray name="basis" >
     <v>       6.01920000       0.00000000       0.00000000 </v>
     <v>       0.00000000      10.14000000       0.00000000 </v>
     <v>       0.00000000       0.00000000      15.00000000 </v>
    </varray>
    <i name="volume">    915.52032000 </i>
    <varray name="rec_basis" >
     <v>       0.16613503       0.00000000       0.00000000 </v>
     <v>       0.00000000       0.09861933       0.00000000 </v>
     <v>       0.00000000       0.00000000       0.06666667 </v>
    </varray>
   </crystal>
   <varray name="positions" >
    <v>       0.43777642       0.87607664       0.22259765 </v>
    <v>       0.93773665       0.87670982       0.27386883 </v>
    <v>       0.43852980       0.61287948       0.22338824 </v>
    <v>       0.93859268       0.61451954       0.27593347 </v>
    <v>       0.43606731       0.37563559       0.27842158 </v>
    <v>       0.93711324       0.37688312       0.22396301 </v>
    <v>       0.43709289       0.11442661       0.27263621 </v>
    <v>       0.93724780       0.11380648       0.22190816 </v>
    <v>       0.18751679      -0.00502705       0.24723601 </v>
    <v>       0.68751398      -0.00485132       0.24807450 </v>
    <v>       0.18766153       0.49520391       0.24952416 </v>
    <v>       0.68773741       0.49510387       0.25285867 </v>
    <v>       0.55662709       0.44514888       0.47795893 </v>
    <v>       0.76824778       0.36880960       0.47716497 </v>
    <v>       0.48530949       0.37656831       0.56210561 </v>
   </varray>
  </structure>
  <varray name="forces" >
   <v>       0.00744732      -0.01088740      -0.00634652 </v>
   <v>      -0.00110327       0.00591080      -0.00601293 </v>
   <v>      -0.01115954      -0.00416560       0.00657687 </v>
   <v>       0.00643798      -0.01507428       0.00276346 </v>
   <v>      -0.00836534      -0.00875979      -0.00756410 </v>
   <v>       0.01461963       0.01047735      -0.00338921 </v>
   <v>      -0.00591971      -0.00304434       0.00186092 </v>
   <v>       0.00416730      -0.01123168       0.00925028 </v>
   <v>      -0.00640703       0.00773156      -0.00289462 </v>
   <v>      -0.00176505       0.00255286       0.00199823 </v>
   <v>       0.00577442       0.00808602       0.00778968 </v>
   <v>      -0.01138562       0.00880545      -0.00239151 </v>
   <v>       0.01229299       0.01000912      -0.01233004 </v>
   <v>      -0.00093033       0.00315866      -0.00212008 </v>
   <v>      -0.00370375      -0.00356875       0.01280958 </v>
  </varray>
  <varray name="stress" >
   <v>       8.45976670       0.19433550       0.04942480 </v>
   <v>       0.19433468     -10.52866227       0.06862393 </v>
   <v>       0.04942284       0.06862557      -1.26147509 </v>
  </varray>
  <energy>
   <i name="e_fr_energy">    -49.86908697 </i>
   <i name="e_wo_entrp">    -49.86908697 </i>
   <i name="e_0_energy">     -0.00000000 </i>
  </energy>
  <time name="totalsc">  583.26  585.26</time>
 </calculation>
 <calculation>
  <scstep>
   <time name="dav">   16.48   16.54</time>
   <time name="total">  119.62  119.79</time>
   <energy>
    <i name="alphaZ">     15.92198659 </i>
    <i name="ewald">   1272.57186448 </i>
    <i name="hartreedc">  -2454.43714078 </i>
    <i name="XCdc">   -170.62328686 </i>
    <i name="pawpsdc">   1743.01556607 </i>
    <i name="pawaedc">  -1464.47297107 </i>
    <i name="eentropy">     -0.00000000 </i>
    <i name="bandstr">   -325.57328359 </i>
    <i name="atom">   1333.72818728 </i>
    <i name="e_fr_energy">    -49.86907789 </i>
    <i name="e_wo_entrp">    -49.86907789 </i>
    <i name="e_0_energy">    -49.86907789 </i>
   </energy>
  </scstep>
  <scstep>
   <time name="dav">   20.48   20.51</time>
   <time name="total">  125.54  125.63</time>
   <energy>
    <i name="e_fr_energy">    -49.86908916 </i>
    <i name="e_wo_entrp">    -49.86908916 </i>
    <i name="e_0_energy">    -49.86908916 </i>
   </energy>
  </scstep>
  <scstep>
   <time name="dav">   15.40   15.44</time>
   <time name="total">  118.41  118.85</time>
   <energy>
    <i name="alphaZ">     15.92198659 </i>
    <i name="ewald">   1272.57186448 </i>
    <i name="hartreedc">  -2454.43703341 </i>
    <i name="XCdc">   -170.62359790 </i>
    <i name="pawpsdc">   1742.99913600 </i>
    <i name="pawaedc">  -1464.45626427 </i>
    <i name="eentropy">     -0.00000000 </i>
    <i name="bandstr">   -325.57336532 </i>
    <i name="atom">   1333.72818728 </i>
    <i name="e_fr_energy">    -49.86908656 </i>
    <i name="e_wo_entrp">    -49.86908656 </i>
    <i name="e_0_energy">    -49.86908656 </i>
   </energy>
  </scstep>
  <structure>
   <crystal>
    <varray name="basis" >
     <v>       6.01920000       0.00000000       0.00000000 </v>
     <v>       0.00000000      10.14000000       0.00000000 </v>
     <v>       0.00000000       0.00000000      15.00000000 </v>
    </varray>
    <i name="volume">    915.52032000 </i>
    <varray name="rec_basis" >
     <v>       0.16613503       0.00000000       0.00000000 </v>
     <v>       0.00000000       0.09861933       0.00000000 </v>
     <v>       0.00000000       0.00000000       0.06666667 </v>
    </varray>
   </crystal>
   <varray name="positions" >
    <v>       0.43782089       0.87607274       0.22259160 </v>
    <v>       0.93779328       0.87674944       0.27386441 </v>
    <v>       0.43855883       0.61287742       0.22338117 </v>
    <v>       0.93864889       0.61454028       0.27592323 </v>
    <v>       0.43606644       0.37565368       0.27842468 </v>
    <v>       0.93717281       0.37694380       0.22395290 </v>
    <v>       0.43708626       0.11445254       0.27263905 </v>
    <v>       0.93731780       0.11384445       0.22191253 </v>
    <v>       0.18755398      -0.00499091       0.24718724 </v>
    <v>       0.68754356      -0.00481597       0.24812311 </v>
    <v>       0.18771408       0.49524054       0.24954917 </v>
    <v>       0.68776191       0.49513504       0.25284555 </v>
    <v>       0.55659740       0.44512537       0.47799686 </v>
    <v>       0.76810085       0.36868525       0.47716961 </v>
    <v>       0.48503389       0.37637983       0.56207889 </v>
   </varray>
  </structure>
  <varray name="forces" >
   <v>       0.00847839      -0.00618309      -0.00521447 </v>
   <v>      -0.00237416       0.00449852      -0.00578767 </v>
   <v>      -0.00962266      -0.00044381       0.00627002 </v>
   <v>       0.00374746      -0.01155996       0.00442715 </v>
   <v>      -0.00466648      -0.00868155      -0.00619326 </v>
   <v>       0.01278123       0.00618386      -0.00312967 </v>
   <v>      -0.00336316      -0.00426493       0.00145195 </v>
   <v>      -0.00025220      -0.01054027       0.00873829 </v>
   <v>      -0.00519155       0.00482180      -0.00212110 </v>
   <v>      -0.00188127       0.00124647      -0.00078085 </v>
   <v>       0.00208640       0.00492734       0.00440326 </v>
   <v>      -0.00968382       0.00658921      -0.00151732 </v>
   <v>       0.00701455       0.00671830      -0.00732586 </v>
   <v>       0.00177963       0.00429258      -0.00169043 </v>
   <v>       0.00114763       0.00239555       0.00846996 </v>
  </varray>
  <varray name="stress" >
   <v>       8.45971757       0.18004460       0.05821898 </v>
   <v>       0.18004377     -10.53686806       0.07065723 </v>
   <v>       0.05821694       0.07065881      -1.28098917 </v>
  </varray>
  <energy>
   <i name="e_fr_energy">    -49.86908656 </i>
   <i name="e_wo_entrp">    -49.86908656 </i>
   <i name="e_0_energy">     -0.00000000 </i>
  </energy>
  <time name="totalsc">  594.96  597.32</time>
 </calculation>
 <calculation>
  <scstep>
   <time name="dav">   16.50   16.54</time>
   <time name="total">  122.06  122.34</time>
   <energy>
    <i name="alphaZ">     15.92198659 </i>
    <i name="ewald">   1272.62883543 </i>
    <i name="hartreedc">  -2454.49152853 </i>
    <i name="XCdc">   -170.62370284 </i>
    <i name="pawpsdc">   1742.99408619 </i>
    <i name="pawaedc">  -1464.45113967 </i>
    <i name="eentropy">     -0.00000000 </i>
    <i name="bandstr">   -325.57581229 </i>
    <i name="atom">   1333.72818728 </i>
    <i name="e_fr_energy">    -49.86908783 </i>
    <i name="e_wo_entrp">    -49.86908783 </i>
    <i name="e_0_energy">    -49.86908783 </i>
   </energy>
  </scstep>
  <scstep>
   <time name="dav">   17.92   17.94</time>
   <time name="total">  119.93  120.33</time>
   <energy>
    <i name="alphaZ">     15.92198659 </i>
    <i name="ewald">   1272.62883543 </i>
    <i name="hartreedc">  -2454.49082114 </i>
    <i name="XCdc">   -170.62361316 </i>
    <i name="pawpsdc">   1742.99672133 </i>
    <i name="pawaedc">  -1464.45383080 </i>
    <i name="eentropy">     -0.00000000 </i>
    <i name="bandstr">   -325.57655650 </i>
    <i name="atom">   1333.72818728 </i>
    <i name="e_fr_energy">    -49.86909098 </i>
    <i name="e_wo_entrp">    -49.86909098 </i>
    <i name="e_0_energy">    -49.86909098 </i>
   </energy>
  </scstep>
  <structure>
   <crystal>
    <varray name="basis" >
     <v>       6.01920000       0.00000000       0.00000000 </v>
     <v>       0.00000000      10.14000000       0.00000000 </v>
     <v>       0.00000000       0.00000000      15.00000000 </v>
    </varray>
    <i name="volume">    915.52032000 </i>
    <varray name="rec_basis" >
     <v>       0.16613503       0.00000000       0.00000000 </v>
     <v>       0.00000000       0.09861933       0.00000000 </v>
     <v>       0.00000000       0.00000000       0.06666667 </v>
    </varray>
   </crystal>
   <varray name="positions" >
    <v>       0.43779866       0.87607469       0.22259463 </v>
    <v>       0.93776497       0.87672963       0.27386662 </v>
    <v>       0.43854432       0.61287845       0.22338470 </v>
    <v>       0.93862078       0.61452991       0.27592835 </v>
    <v>       0.43606688       0.37564463       0.27842313 </v>
    <v>       0.93714303       0.37691346       0.22395795 </v>
    <v>       0.43708957       0.11443958       0.27263763 </v>
    <v>       0.93728280       0.11382547       0.22191035 </v>
    <v>       0.18753539      -0.00500898       0.24721163 </v>
    <v>       0.68752877      -0.00483365       0.24809880 </v>
    <v>       0.18768780       0.49522222       0.24953666 </v>
    <v>       0.68774966       0.49511945       0.25285211 </v>
    <v>       0.55661224       0.44513713       0.47797790 </v>
    <v>       0.76817431       0.36874743       0.47716729 </v>
    <v>       0.48517169       0.37647407       0.56209225 </v>
   </varray>
  </structure>
  <varray name="forces" >
   <v>       0.00836128      -0.00813890      -0.00579547 </v>
   <v>      -0.00198606       0.00565291      -0.00599595 </v>
   <v>      -0.01010065      -0.00178709       0.00629532 </v>
   <v>       0.00475058      -0.01291534       0.00357858 </v>
   <v>      -0.00621055      -0.00862106      -0.00691752 </v>
   <v>       0.01340520       0.00860262      -0.00332876 </v>
   <v>      -0.00435563      -0.00346209       0.00161119 </v>
   <v>       0.00141428      -0.01065503       0.00899595 </v>
   <v>      -0.00552152       0.00522862      -0.00197451 </v>
   <v>      -0.00154662       0.00160197       0.00003999 </v>
   <v>       0.00416952       0.00617178       0.00569446 </v>
   <v>      -0.00982353       0.00744485      -0.00178961 </v>
   <v>       0.00943912       0.00841144      -0.00880705 </v>
   <v>      -0.00003829       0.00340879      -0.00184482 </v>
   <v>      -0.00195714      -0.00094348       0.01023820 </v>
  </varray>
  <varray name="stress" >
   <v>       8.46298873       0.18029155       0.05509390 </v>
   <v>       0.18029088     -10.52972069       0.06876014 </v>
   <v>       0.05509182       0.06876179      -1.27159898 </v>
  </varray>
  <energy>
   <i name="e_fr_energy">    -49.86909098 </i>
   <i name="e_wo_entrp">    -49.86909098 </i>
   <i name="e_0_energy">     -0.00000000 </i>
  </energy>
  <time name="totalsc">  470.61  472.73</time>
 </calculation>
 <calculation>
  <scstep>
   <time name="dav">   17.04   17.05</time>
   <time name="total">  121.74  121.82</time>
   <energy>
    <i name="alphaZ">     15.92198659 </i>
    <i name="ewald">   1273.07572322 </i>
    <i name="hartreedc">  -2454.91355681 </i>
    <i name="XCdc">   -170.62297745 </i>
    <i name="pawpsdc">   1743.00249883 </i>
    <i name="pawaedc">  -1464.45968484 </i>
    <i name="eentropy">     -0.00000000 </i>
    <i name="bandstr">   -325.60125024 </i>
    <i name="atom">   1333.72818728 </i>
    <i name="e_fr_energy">    -49.86907342 </i>
    <i name="e_wo_entrp">    -49.86907342 </i>
    <i name="e_0_energy">    -49.86907342 </i>
   </energy>
  </scstep>
  <scstep>
   <time name="dav">   19.05   19.08</time>
   <time name="total">  120.73  120.81</time>
   <energy>
    <i name="e_fr_energy">    -49.86917469 </i>
    <i name="e_wo_entrp">    -49.86917469 </i>
    <i name="e_0_energy">    -49.86917469 </i>
   </energy>
  </scstep>
  <scstep>
   <time name="dav">   20.20   20.22</time>
   <time name="total">  124.64  124.73</time>
   <energy>
    <i name="alphaZ">     15.92198659 </i>
    <i name="ewald">   1273.07572322 </i>
    <i name="hartreedc">  -2454.91815044 </i>
    <i name="XCdc">   -170.62140225 </i>
    <i name="pawpsdc">   1743.09430375 </i>
    <i name="pawaedc">  -1464.55177775 </i>
    <i name="eentropy">     -0.00000000 </i>
    <i name="bandstr">   -325.59803923 </i>
    <i name="atom">   1333.72818728 </i>
    <i name="e_fr_energy">    -49.86916882 </i>
    <i name="e_wo_entrp">    -49.86916882 </i>
    <i name="e_0_energy">    -49.86916882 </i>
   </energy>
  </scstep>
  <structure>
   <crystal>
    <varray name="basis" >
     <v>       6.01920000       0.00000000       0.00000000 </v>
     <v>       0.00000000      10.14000000       0.00000000 </v>
     <v>       0.00000000       0.00000000      15.00000000 </v>
    </varray>
    <i name="volume">    915.52032000 </i>
    <varray name="rec_basis" >
     <v>       0.16613503       0.00000000       0.00000000 </v>
     <v>       0.00000000       0.09861933       0.00000000 </v>
     <v>       0.00000000       0.00000000       0.06666667 </v>
    </varray>
   </crystal>
   <varray name="positions" >
    <v>       0.43778635       0.87602951       0.22258289 </v>
    <v>       0.93760669       0.87667246       0.27385008 </v>
    <v>       0.43836065       0.61287142       0.22343018 </v>
    <v>       0.93853955       0.61439359       0.27596915 </v>
    <v>       0.43599886       0.37554346       0.27838436 </v>
    <v>       0.93715144       0.37682553       0.22396714 </v>
    <v>       0.43705633       0.11435418       0.27263813 </v>
    <v>       0.93713081       0.11366298       0.22194061 </v>
    <v>       0.18738384      -0.00506066       0.24731968 </v>
    <v>       0.68744034      -0.00490774       0.24798235 </v>
    <v>       0.18760879       0.49517572       0.24950246 </v>
    <v>       0.68757997       0.49509456       0.25287547 </v>
    <v>       0.55679003       0.44524991       0.47784699 </v>
    <v>       0.76852639       0.36906863       0.47714779 </v>
    <v>       0.48581084       0.37691995       0.56220272 </v>
   </varray>
  </structure>
  <varray name="forces" >
   <v>      -0.00552111      -0.00953351      -0.00460548 </v>
   <v>       0.00245900      -0.00707057      -0.00152388 </v>
   <v>      -0.00370343      -0.00364763       0.00512134 </v>
   <v>       0.00112414      -0.00220268       0.00269946 </v>
   <v>      -0.00663686      -0.00389918      -0.00798436 </v>
   <v>       0.00192692       0.00968157      -0.00336314 </v>
   <v>      -0.00937777      -0.00062554       0.00148609 </v>
   <v>       0.00969949       0.00998616       0.00422852 </v>
   <v>       0.00736361       0.00035423      -0.00380632 </v>
   <v>      -0.00780358      -0.00015194       0.00360467 </v>
   <v>       0.00387633      -0.00018405       0.00912986 </v>
   <v>      -0.00006726      -0.00029979      -0.00297829 </v>
   <v>       0.00609506       0.00510427      -0.00032930 </v>
   <v>       0.00254949       0.00031892      -0.00279919 </v>
   <v>      -0.00198402       0.00216976       0.00112003 </v>
  </varray>
  <varray name="stress" >
   <v>       8.48276928       0.23289527       0.05902103 </v>
   <v>       0.23289472     -10.48812499       0.07851798 </v>
   <v>       0.05901896       0.07851978      -1.28185626 </v>
  </varray>
  <energy>
   <i name="e_fr_energy">    -49.86916882 </i>
   <i name="e_wo_entrp">    -49.86916882 </i>
   <i name="e_0_energy">     -0.00000000 </i>
  </energy>
  <time name="totalsc">  607.72  614.06</time>
 </calculation>
 <calculation>
  <scstep>
   <time name="dav">   16.80   16.82</time>
   <time name="total">  124.17  124.25</time>
   <energy>
    <i name="alphaZ">     15.92198659 </i>
    <i name="ewald">   1273.08682356 </i>
    <i name="hartreedc">  -2454.92797314 </i>
    <i name="XCdc">   -170.62102091 </i>
    <i name="pawpsdc">   1743.13137538 </i>
    <i name="pawaedc">  -1464.58880502 </i>
    <i name="eentropy">     -0.00000000 </i>
    <i name="bandstr">   -325.59975182 </i>
    <i name="atom">   1333.72818728 </i>
    <i name="e_fr_energy">    -49.86917808 </i>
    <i name="e_wo_entrp">    -49.86917808 </i>
    <i name="e_0_energy">    -49.86917808 </i>
   </energy>
  </scstep>
  <scstep>
   <time name="dav">   14.05   14.06</time>
   <time name="total">  120.46  120.55</time>
   <energy>
    <i name="alphaZ">     15.92198659 </i>
    <i name="ewald">   1273.08682356 </i>
    <i name="hartreedc">  -2454.92236764 </i>
    <i name="XCdc">   -170.62119378 </i>
    <i name="pawpsdc">   1743.11943577 </i>
    <i name="pawaedc">  -1464.57671012 </i>
    <i name="eentropy">     -0.00000000 </i>
    <i name="bandstr">   -325.60533887 </i>
    <i name="atom">   1333.72818728 </i>
    <i name="e_fr_energy">    -49.86917721 </i>
    <i name="e_wo_entrp">    -49.86917721 </i>
    <i name="e_0_energy">    -49.86917721 </i>
   </energy>
  </scstep>
  <structure>
   <crystal>
    <varray name="basis" >
     <v>       6.01920000       0.00000000       0.00000000 </v>
     <v>       0.00000000      10.14000000       0.00000000 </v>
     <v>       0.00000000       0.00000000      15.00000000 </v>
    </varray>
    <i name="volume">    915.52032000 </i>
    <varray name="rec_basis" >
     <v>       0.16613503       0.00000000       0.00000000 </v>
     <v>       0.00000000       0.09861933       0.00000000 </v>
     <v>       0.00000000       0.00000000       0.06666667 </v>
    </varray>
   </crystal>
   <varray name="positions" >
    <v>       0.43778605       0.87602839       0.22258260 </v>
    <v>       0.93760275       0.87667104       0.27384967 </v>
    <v>       0.43835608       0.61287124       0.22343131 </v>
    <v>       0.93853753       0.61439020       0.27597016 </v>
    <v>       0.43599716       0.37554094       0.27838340 </v>
    <v>       0.93715165       0.37682334       0.22396737 </v>
    <v>       0.43705550       0.11435205       0.27263814 </v>
    <v>       0.93712703       0.11365893       0.22194136 </v>
    <v>       0.18738007      -0.00506194       0.24732237 </v>
    <v>       0.68743814      -0.00490959       0.24797945 </v>
    <v>       0.18760682       0.49517456       0.24950161 </v>
    <v>       0.68757575       0.49509394       0.25287605 </v>
    <v>       0.55679445       0.44525272       0.47784373 </v>
    <v>       0.76853515       0.36907662       0.47714731 </v>
    <v>       0.48582674       0.37693105       0.56220547 </v>
   </varray>
  </structure>
  <varray name="forces" >
   <v>      -0.00739336      -0.01018194      -0.00484360 </v>
   <v>       0.00230972      -0.00833568      -0.00138691 </v>
   <v>      -0.00359029      -0.00423120       0.00504025 </v>
   <v>       0.00020293      -0.00266325       0.00258331 </v>
   <v>      -0.00666531      -0.00399411      -0.00800893 </v>
   <v>       0.00067008       0.00980538      -0.00331017 </v>
   <v>      -0.01021829      -0.00081475       0.00136038 </v>
   <v>       0.01044928       0.01049502       0.00396911 </v>
   <v>       0.00850207       0.00038713      -0.00553948 </v>
   <v>      -0.00802382       0.00006825       0.00401346 </v>
   <v>       0.00393173      -0.00071458       0.00911239 </v>
   <v>       0.00049269      -0.00078170      -0.00323944 </v>
   <v>       0.00469333       0.00485504       0.00178313 </v>
   <v>       0.00420637       0.00156657      -0.00314034 </v>
   <v>       0.00043286       0.00453983       0.00160684 </v>
  </varray>
  <varray name="stress" >
   <v>       8.47874090       0.24567341       0.06036471 </v>
   <v>       0.24567274     -10.49264333       0.07695001 </v>
   <v>       0.06036273       0.07695157      -1.29009296 </v>
  </varray>
  <energy>
   <i name="e_fr_energy">    -49.86917721 </i>
   <i name="e_wo_entrp">    -49.86917721 </i>
   <i name="e_0_energy">     -0.00000000 </i>
  </energy>
  <time name="totalsc">  475.27  476.63</time>
 </calculation>
 <calculation>
  <scstep>
   <time name="dav">   15.55   15.58</time>
   <time name="total">  117.44  117.63</time>
   <energy>
    <i name="alphaZ">     15.92198659 </i>
    <i name="ewald">   1273.10902144 </i>
    <i name="hartreedc">  -2454.93900702 </i>
    <i name="XCdc">   -170.62121513 </i>
    <i name="pawpsdc">   1743.11399143 </i>
    <i name="pawaedc">  -1464.57116168 </i>
    <i name="eentropy">     -0.00000000 </i>
    <i name="bandstr">   -325.61098194 </i>
    <i name="atom">   1333.72818728 </i>
    <i name="e_fr_energy">    -49.86917903 </i>
    <i name="e_wo_entrp">    -49.86917903 </i>
    <i name="e_0_energy">    -49.86917903 </i>
   </energy>
  </scstep>
  <scstep>
   <time name="dav">    9.65    9.66</time>
   <time name="total">  110.36  110.52</time>
   <energy>
    <i name="alphaZ">     15.92198659 </i>
    <i name="ewald">   1273.10902144 </i>
    <i name="hartreedc">  -2454.93902605 </i>
    <i name="XCdc">   -170.62111765 </i>
    <i name="pawpsdc">   1743.11937572 </i>
    <i name="pawaedc">  -1464.57657313 </i>
    <i name="eentropy">     -0.00000000 </i>
    <i name="bandstr">   -325.61103348 </i>
    <i name="atom">   1333.72818728 </i>
    <i name="e_fr_energy">    -49.86917927 </i>
    <i name="e_wo_entrp">    -49.86917927 </i>
    <i name="e_0_energy">    -49.86917927 </i>
   </energy>
  </scstep>
  <structure>
   <crystal>
    <varray name="basis" >
     <v>       6.01920000       0.00000000       0.00000000 </v>
     <v>       0.00000000      10.14000000       0.00000000 </v>
     <v>       0.00000000       0.00000000      15.00000000 </v>
    </varray>
    <i name="volume">    915.52032000 </i>
    <varray name="rec_basis" >
     <v>       0.16613503       0.00000000       0.00000000 </v>
     <v>       0.00000000       0.09861933       0.00000000 </v>
     <v>       0.00000000       0.00000000       0.06666667 </v>
    </varray>
   </crystal>
   <varray name="positions" >
    <v>       0.43778543       0.87602614       0.22258201 </v>
    <v>       0.93759487       0.87666819       0.27384884 </v>
    <v>       0.43834694       0.61287090       0.22343357 </v>
    <v>       0.93853348       0.61438342       0.27597219 </v>
    <v>       0.43599378       0.37553591       0.27838147 </v>
    <v>       0.93715207       0.37681896       0.22396782 </v>
    <v>       0.43705385       0.11434780       0.27263816 </v>
    <v>       0.93711946       0.11365085       0.22194287 </v>
    <v>       0.18737253      -0.00506451       0.24732774 </v>
    <v>       0.68743374      -0.00491328       0.24797366 </v>
    <v>       0.18760289       0.49517224       0.24949991 </v>
    <v>       0.68756731       0.49509270       0.25287722 </v>
    <v>       0.55680330       0.44525833       0.47783722 </v>
    <v>       0.76855267       0.36909260       0.47714634 </v>
    <v>       0.48585855       0.37695324       0.56221097 </v>
   </varray>
  </structure>
  <varray name="forces" >
   <v>      -0.00731066      -0.00999356      -0.00468263 </v>
   <v>       0.00209325      -0.00855081      -0.00137385 </v>
   <v>      -0.00361087      -0.00411671       0.00492872 </v>
   <v>       0.00043660      -0.00193287       0.00258243 </v>
   <v>      -0.00700623      -0.00378172      -0.00798725 </v>
   <v>       0.00060104       0.00975931      -0.00339785 </v>
   <v>      -0.00985498      -0.00070348       0.00126877 </v>
   <v>       0.01022466       0.01131601       0.00373745 </v>
   <v>       0.00856195      -0.00019187      -0.00463892 </v>
   <v>      -0.00796441      -0.00073827       0.00299058 </v>
   <v>       0.00395795      -0.00120126       0.00896409 </v>
   <v>       0.00021357      -0.00143794      -0.00275659 </v>
   <v>       0.00486281       0.00488575       0.00237914 </v>
   <v>       0.00431510       0.00182574      -0.00332884 </v>
   <v>       0.00048024       0.00486168       0.00131475 </v>
  </varray>
  <varray name="stress" >
   <v>       8.48077169       0.24526525       0.05950823 </v>
   <v>       0.24526455     -10.48757707       0.07771980 </v>
   <v>       0.05950626       0.07772152      -1.28410627 </v>
  </varray>
  <energy>
   <i name="e_fr_energy">    -49.86917927 </i>
   <i name="e_wo_entrp">    -49.86917927 </i>
   <i name="e_0_energy">     -0.00000000 </i>
  </energy>
  <time name="totalsc">  452.46  454.14</time>
 </calculation>
 <calculation>
  <scstep>
   <time name="dav">   15.39   15.41</time>
   <time name="total">  117.74  117.91</time>
   <energy>
    <i name="alphaZ">     15.92198659 </i>
    <i name="ewald">   1273.15340602 </i>
    <i name="hartreedc">  -2454.98059198 </i>
    <i name="XCdc">   -170.62097294 </i>
    <i name="pawpsdc">   1743.12659488 </i>
    <i name="pawaedc">  -1464.58381405 </i>
    <i name="eentropy">     -0.00000000 </i>
    <i name="bandstr">   -325.61397670 </i>
    <i name="atom">   1333.72818728 </i>
    <i name="e_fr_energy">    -49.86918090 </i>
    <i name="e_wo_entrp">    -49.86918090 </i>
    <i name="e_0_energy">    -49.86918090 </i>
   </energy>
  </scstep>
  <scstep>
   <time name="dav">   11.98   12.04</time>
   <time name="total">  114.58  115.10</time>
   <energy>
    <i name="alphaZ">     15.92198659 </i>
    <i name="ewald">   1273.15340602 </i>
    <i name="hartreedc">  -2454.97921048 </i>
    <i name="XCdc">   -170.62093001 </i>
    <i name="pawpsdc">   1743.12935886 </i>
    <i name="pawaedc">  -1464.58657228 </i>
    <i name="eentropy">     -0.00000000 </i>
    <i name="bandstr">   -325.61540768 </i>
    <i name="atom">   1333.72818728 </i>
    <i name="e_fr_energy">    -49.86918171 </i>
    <i name="e_wo_entrp">    -49.86918171 </i>
    <i name="e_0_energy">    -49.86918171 </i>
   </energy>
  </scstep>
  <structure>
   <crystal>
    <varray name="basis" >
     <v>       6.01920000       0.00000000       0.00000000 </v>
     <v>       0.00000000      10.14000000       0.00000000 </v>
     <v>       0.00000000       0.00000000      15.00000000 </v>
    </varray>
    <i name="volume">    915.52032000 </i>
    <varray name="rec_basis" >
     <v>       0.16613503       0.00000000       0.00000000 </v>
     <v>       0.00000000       0.09861933       0.00000000 </v>
     <v>       0.00000000       0.00000000       0.06666667 </v>
    </varray>
   </crystal>
   <varray name="positions" >
    <v>       0.43778421       0.87602165       0.22258085 </v>
    <v>       0.93757912       0.87666250       0.27384720 </v>
    <v>       0.43832866       0.61287020       0.22343810 </v>
    <v>       0.93852540       0.61436985       0.27597625 </v>
    <v>       0.43598701       0.37552584       0.27837761 </v>
    <v>       0.93715291       0.37681021       0.22396874 </v>
    <v>       0.43705054       0.11433930       0.27263821 </v>
    <v>       0.93710434       0.11363467       0.22194588 </v>
    <v>       0.18735744      -0.00506966       0.24733850 </v>
    <v>       0.68742494      -0.00492065       0.24796207 </v>
    <v>       0.18759503       0.49516761       0.24949650 </v>
    <v>       0.68755042       0.49509023       0.25287954 </v>
    <v>       0.55682099       0.44526956       0.47782419 </v>
    <v>       0.76858771       0.36912457       0.47714440 </v>
    <v>       0.48592216       0.37699761       0.56222197 </v>
   </varray>
  </structure>
  <varray name="forces" >
   <v>      -0.00915974      -0.01031402      -0.00466016 </v>
   <v>       0.00257089      -0.00999114      -0.00089663 </v>
   <v>      -0.00292063      -0.00446695       0.00483612 </v>
   <v>      -0.00031434      -0.00101368       0.00245318 </v>
   <v>      -0.00704582      -0.00338978      -0.00817347 </v>
   <v>      -0.00095095       0.00985279      -0.00340056 </v>
   <v>      -0.01087379      -0.00046258       0.00123436 </v>
   <v>       0.01120418       0.01343468       0.00325096 </v>
   <v>       0.01029154      -0.00060118      -0.00484612 </v>
   <v>      -0.00846748      -0.00067714       0.00400432 </v>
   <v>       0.00427199      -0.00159109       0.00937219 </v>
   <v>       0.00201688      -0.00207299      -0.00313708 </v>
   <v>       0.00469706       0.00493070       0.00314574 </v>
   <v>       0.00437664       0.00132355      -0.00346319 </v>
   <v>       0.00030358       0.00503882       0.00028031 </v>
  </varray>
  <varray name="stress" >
   <v>       8.48297632       0.24973150       0.05875599 </v>
   <v>       0.24973082     -10.48434449       0.07746858 </v>
   <v>       0.05875397       0.07747018      -1.28563906 </v>
  </varray>
  <energy>
   <i name="e_fr_energy">    -49.86918171 </i>
   <i name="e_wo_entrp">    -49.86918171 </i>
   <i name="e_0_energy">     -0.00000000 </i>
  </energy>
  <time name="totalsc">  463.96  466.30</time>
 </calculation>
 <calculation>
  <scstep>
   <time name="dav">   17.28   17.39</time>
   <time name="total">  118.40  118.90</time>
   <energy>
    <i name="alphaZ">     15.92198659 </i>
    <i name="ewald">   1273.36477561 </i>
    <i name="hartreedc">  -2455.19826581 </i>
    <i name="XCdc">   -170.62214747 </i>
    <i name="pawpsdc">   1743.13493865 </i>
    <i name="pawaedc">  -1464.59215372 </i>
    <i name="eentropy">     -0.00000000 </i>
    <i name="bandstr">   -325.60652570 </i>
    <i name="atom">   1333.72818728 </i>
    <i name="e_fr_energy">    -49.86920457 </i>
    <i name="e_wo_entrp">    -49.86920457 </i>
    <i name="e_0_energy">    -49.86920457 </i>
   </energy>
  </scstep>
  <scstep>
   <time name="dav">   18.64   18.66</time>
   <time name="total">  120.86  120.93</time>
   <energy>
    <i name="e_fr_energy">    -49.86926008 </i>
    <i name="e_wo_entrp">    -49.86926008 </i>
    <i name="e_0_energy">    -49.86926008 </i>
   </energy>
  </scstep>
  <scstep>
   <time name="dav">   16.20   16.29</time>
   <time name="total">  120.51  120.89</time>
   <energy>
    <i name="alphaZ">     15.92198659 </i>
    <i name="ewald">   1273.36477561 </i>
    <i name="hartreedc">  -2455.18937344 </i>
    <i name="XCdc">   -170.62175371 </i>
    <i name="pawpsdc">   1743.10079975 </i>
    <i name="pawaedc">  -1464.55787805 </i>
    <i name="eentropy">     -0.00000000 </i>
    <i name="bandstr">   -325.61600040 </i>
    <i name="atom">   1333.72818728 </i>
    <i name="e_fr_energy">    -49.86925637 </i>
    <i name="e_wo_entrp">    -49.86925637 </i>
    <i name="e_0_energy">    -49.86925637 </i>
   </energy>
  </scstep>
  <structure>
   <crystal>
    <varray name="basis" >
     <v>       6.01920000       0.00000000       0.00000000 </v>
     <v>       0.00000000      10.14000000       0.00000000 </v>
     <v>       0.00000000       0.00000000      15.00000000 </v>
    </varray>
    <i name="volume">    915.52032000 </i>
    <varray name="rec_basis" >
     <v>       0.16613503       0.00000000       0.00000000 </v>
     <v>       0.00000000       0.09861933       0.00000000 </v>
     <v>       0.00000000       0.00000000       0.06666667 </v>
    </varray>
   </crystal>
   <varray name="positions" >
    <v>       0.43766910       0.87592036       0.22255127 </v>
    <v>       0.93750488       0.87655555       0.27383210 </v>
    <v>       0.43817353       0.61283459       0.22349073 </v>
    <v>       0.93846821       0.61427301       0.27601463 </v>
    <v>       0.43585989       0.37543567       0.27831376 </v>
    <v>       0.93714734       0.37682060       0.22395885 </v>
    <v>       0.43690161       0.11427983       0.27264433 </v>
    <v>       0.93713508       0.11362078       0.22198105 </v>
    <v>       0.18737782      -0.00510787       0.24738697 </v>
    <v>       0.68726777      -0.00497417       0.24790412 </v>
    <v>       0.18759287       0.49512594       0.24951790 </v>
    <v>       0.68746218       0.49505945       0.25288023 </v>
    <v>       0.55699299       0.44537806       0.47775269 </v>
    <v>       0.76887079       0.36934537       0.47711531 </v>
    <v>       0.48634680       0.37732632       0.56229606 </v>
   </varray>
  </structure>
  <varray name="forces" >
   <v>      -0.00630748      -0.00171326      -0.00171866 </v>
   <v>       0.00104114       0.00307984      -0.00283995 </v>
   <v>       0.00504763      -0.00259063       0.00243547 </v>
   <v>      -0.00093094       0.00527129       0.00184746 </v>
   <v>       0.00066665      -0.00204063      -0.00568532 </v>
   <v>      -0.00479015       0.00404570      -0.00325554 </v>
   <v>      -0.00120190      -0.00092106       0.00008095 </v>
   <v>       0.00401211       0.00602830       0.00339001 </v>
   <v>      -0.00906177      -0.00957721      -0.00459908 </v>
   <v>       0.00826226      -0.00191287       0.00423454 </v>
   <v>      -0.00619637      -0.00245458       0.01013650 </v>
   <v>       0.00209563      -0.00543305      -0.00347393 </v>
   <v>       0.00313297       0.00245736       0.00808729 </v>
   <v>       0.00354783      -0.00013076      -0.00338504 </v>
   <v>       0.00068239       0.00589156      -0.00525470 </v>
  </varray>
  <varray name="stress" >
   <v>       8.48158622       0.25570496       0.07257099 </v>
   <v>       0.25570420     -10.49012049       0.09658523 </v>
   <v>       0.07256905       0.09658688      -1.29984090 </v>
  </varray>
  <energy>
   <i name="e_fr_energy">    -49.86925637 </i>
   <i name="e_wo_entrp">    -49.86925637 </i>
   <i name="e_0_energy">     -0.00000000 </i>
  </energy>
  <time name="totalsc">  590.05  592.38</time>
 </calculation>
 <calculation>
  <scstep>
   <time name="dav">   15.21   15.23</time>
   <time name="total">  118.15  118.31</time>
   <energy>
    <i name="alphaZ">     15.92198659 </i>
    <i name="ewald">   1273.41926972 </i>
    <i name="hartreedc">  -2455.24195543 </i>
    <i name="XCdc">   -170.62192866 </i>
    <i name="pawpsdc">   1743.09222282 </i>
    <i name="pawaedc">  -1464.54924364 </i>
    <i name="eentropy">     -0.00000000 </i>
    <i name="bandstr">   -325.61780448 </i>
    <i name="atom">   1333.72818728 </i>
    <i name="e_fr_energy">    -49.86926581 </i>
    <i name="e_wo_entrp">    -49.86926581 </i>
    <i name="e_0_energy">    -49.86926581 </i>
   </energy>
  </scstep>
  <scstep>
   <time name="dav">   18.03   18.05</time>
   <time name="total">  125.31  125.44</time>
   <energy>
    <i name="alphaZ">     15.92198659 </i>
    <i name="ewald">   1273.41926972 </i>
    <i name="hartreedc">  -2455.23816565 </i>
    <i name="XCdc">   -170.62184927 </i>
    <i name="pawpsdc">   1743.08016299 </i>
    <i name="pawaedc">  -1464.53709351 </i>
    <i name="eentropy">     -0.00000000 </i>
    <i name="bandstr">   -325.62176573 </i>
    <i name="atom">   1333.72818728 </i>
    <i name="e_fr_energy">    -49.86926758 </i>
    <i name="e_wo_entrp">    -49.86926758 </i>
    <i name="e_0_energy">    -49.86926758 </i>
   </energy>
  </scstep>
  <structure>
   <crystal>
    <varray name="basis" >
     <v>       6.01920000       0.00000000       0.00000000 </v>
     <v>       0.00000000      10.14000000       0.00000000 </v>
     <v>       0.00000000       0.00000000      15.00000000 </v>
    </varray>
    <i name="volume">    915.52032000 </i>
    <varray name="rec_basis" >
     <v>       0.16613503       0.00000000       0.00000000 </v>
     <v>       0.00000000       0.09861933       0.00000000 </v>
     <v>       0.00000000       0.00000000       0.06666667 </v>
    </varray>
   </crystal>
   <varray name="positions" >
    <v>       0.43763939       0.87589422       0.22254363 </v>
    <v>       0.93748571       0.87652795       0.27382820 </v>
    <v>       0.43813349       0.61282540       0.22350432 </v>
    <v>       0.93845345       0.61424801       0.27602454 </v>
    <v>       0.43582707       0.37541240       0.27829727 </v>
    <v>       0.93714591       0.37682328       0.22395630 </v>
    <v>       0.43686317       0.11426448       0.27264590 </v>
    <v>       0.93714302       0.11361719       0.22199013 </v>
    <v>       0.18738308      -0.00511773       0.24739948 </v>
    <v>       0.68722719      -0.00498798       0.24788916 </v>
    <v>       0.18759232       0.49511518       0.24952343 </v>
    <v>       0.68743941       0.49505151       0.25288041 </v>
    <v>       0.55703739       0.44540607       0.47773424 </v>
    <v>       0.76894387       0.36940236       0.47710781 </v>
    <v>       0.48645641       0.37741116       0.56231519 </v>
   </varray>
  </structure>
  <varray name="forces" >
   <v>      -0.00554483      -0.00015499      -0.00099816 </v>
   <v>      -0.00090193       0.00694007      -0.00366935 </v>
   <v>       0.00764926      -0.00192062       0.00160644 </v>
   <v>      -0.00236453       0.00680454       0.00178534 </v>
   <v>       0.00339547      -0.00306653      -0.00436791 </v>
   <v>      -0.00729554       0.00157485      -0.00329674 </v>
   <v>       0.00214937      -0.00174121      -0.00024901 </v>
   <v>       0.00056911       0.00233832       0.00388706 </v>
   <v>      -0.01515748      -0.01137286      -0.00641246 </v>
   <v>       0.01548625      -0.00058156       0.00552805 </v>
   <v>      -0.00906054      -0.00183602       0.00975445 </v>
   <v>       0.00321400      -0.00626646      -0.00366003 </v>
   <v>       0.00168097       0.00169690       0.00973986 </v>
   <v>       0.00422385       0.00007238      -0.00344907 </v>
   <v>       0.00195656       0.00751320      -0.00619848 </v>
  </varray>
  <varray name="stress" >
   <v>       8.48187240       0.26123323       0.07590056 </v>
   <v>       0.26123253     -10.49561438       0.10170901 </v>
   <v>       0.07589861       0.10171067      -1.30013358 </v>
  </varray>
  <energy>
   <i name="e_fr_energy">    -49.86926758 </i>
   <i name="e_wo_entrp">    -49.86926758 </i>
   <i name="e_0_energy">     -0.00000000 </i>
  </energy>
  <time name="totalsc">  483.04  484.55</time>
 </calculation>
 <calculation>
  <scstep>
   <time name="dav">   16.32   16.35</time>
   <time name="total">  125.99  126.18</time>
   <energy>
    <i name="alphaZ">     15.92198659 </i>
    <i name="ewald">   1273.55067564 </i>
    <i name="hartreedc">  -2455.35961378 </i>
    <i name="XCdc">   -170.62169154 </i>
    <i name="pawpsdc">   1743.07384650 </i>
    <i name="pawaedc">  -1464.53071360 </i>
    <i name="eentropy">     -0.00000000 </i>
    <i name="bandstr">   -325.63197236 </i>
    <i name="atom">   1333.72818728 </i>
    <i name="e_fr_energy">    -49.86929526 </i>
    <i name="e_wo_entrp">    -49.86929526 </i>
    <i name="e_0_energy">    -49.86929526 </i>
   </energy>
  </scstep>
  <scstep>
   <time name="dav">   21.47   21.54</time>
   <time name="total">  131.25  131.43</time>
   <energy>
    <i name="e_fr_energy">    -49.86934993 </i>
    <i name="e_wo_entrp">    -49.86934993 </i>
    <i name="e_0_energy">    -49.86934993 </i>
   </energy>
  </scstep>
  <scstep>
   <time name="dav">   14.89   14.90</time>
   <time name="total">  123.36  123.37</time>
   <energy>
    <i name="alphaZ">     15.92198659 </i>
    <i name="ewald">   1273.55067564 </i>
    <i name="hartreedc">  -2455.35760096 </i>
    <i name="XCdc">   -170.62101336 </i>
    <i name="pawpsdc">   1743.11005396 </i>
    <i name="pawaedc">  -1464.56722820 </i>
    <i name="eentropy">     -0.00000000 </i>
    <i name="bandstr">   -325.63440805 </i>
    <i name="atom">   1333.72818728 </i>
    <i name="e_fr_energy">    -49.86934709 </i>
    <i name="e_wo_entrp">    -49.86934709 </i>
    <i name="e_0_energy">    -49.86934709 </i>
   </energy>
  </scstep>
  <structure>
   <crystal>
    <varray name="basis" >
     <v>       6.01920000       0.00000000       0.00000000 </v>
     <v>       0.00000000      10.14000000       0.00000000 </v>
     <v>       0.00000000       0.00000000      15.00000000 </v>
    </varray>
    <i name="volume">    915.52032000 </i>
    <varray name="rec_basis" >
     <v>       0.16613503       0.00000000       0.00000000 </v>
     <v>       0.00000000       0.09861933       0.00000000 </v>
     <v>       0.00000000       0.00000000       0.06666667 </v>
    </varray>
   </crystal>
   <varray name="positions" >
    <v>       0.43747187       0.87580019       0.22251201 </v>
    <v>       0.93740748       0.87647567       0.27379792 </v>
    <v>       0.43807633       0.61277999       0.22355983 </v>
    <v>       0.93837457       0.61420413       0.27606777 </v>
    <v>       0.43574821       0.37530931       0.27821910 </v>
    <v>       0.93705946       0.37684324       0.22393246 </v>
    <v>       0.43675038       0.11419835       0.27265040 </v>
    <v>       0.93717760       0.11361991       0.22203982 </v>
    <v>       0.18723280      -0.00522809       0.24741530 </v>
    <v>       0.68725553      -0.00504097       0.24786068 </v>
    <v>       0.18748932       0.49506476       0.24958672 </v>
    <v>       0.68739422       0.49498178       0.25286466 </v>
    <v>       0.55721407       0.44551692       0.47771216 </v>
    <v>       0.76925090       0.36960558       0.47706567 </v>
    <v>       0.48686813       0.37776271       0.56235550 </v>
   </varray>
  </structure>
  <varray name="forces" >
   <v>       0.00480191       0.00984432       0.00327359 </v>
   <v>      -0.00465010       0.00183356      -0.00114959 </v>
   <v>       0.00519622      -0.00432088       0.00095890 </v>
   <v>      -0.00233105       0.00736132       0.00090687 </v>
   <v>       0.00353202       0.00098258      -0.00157951 </v>
   <v>      -0.00350316      -0.00575943      -0.00218502 </v>
   <v>       0.00700351      -0.01152414      -0.00359519 </v>
   <v>      -0.00529728       0.00039502       0.00085669 </v>
   <v>       0.00122939      -0.00400205      -0.00580853 </v>
   <v>      -0.00755771       0.00119580       0.00509873 </v>
   <v>      -0.00113809       0.00015730       0.00800551 </v>
   <v>      -0.00603857      -0.00418337      -0.00422704 </v>
   <v>       0.00935392       0.00719590      -0.00272740 </v>
   <v>      -0.00002266       0.00084451      -0.00186445 </v>
   <v>      -0.00057833      -0.00002045       0.00403645 </v>
  </varray>
  <varray name="stress" >
   <v>       8.47630232       0.24741858       0.06743535 </v>
   <v>       0.24741794     -10.48575385       0.08015214 </v>
   <v>       0.06743336       0.08015389      -1.26788804 </v>
  </varray>
  <energy>
   <i name="e_fr_energy">    -49.86934709 </i>
   <i name="e_wo_entrp">    -49.86934709 </i>
   <i name="e_0_energy">     -0.00000000 </i>
  </energy>
  <time name="totalsc">  610.68  612.57</time>
 </calculation>
 <calculation>
  <scstep>
   <time name="dav">   15.05   15.11</time>
   <time name="total">  119.93  120.52</time>
   <energy>
    <i name="alphaZ">     15.92198659 </i>
    <i name="ewald">   1273.58796406 </i>
    <i name="hartreedc">  -2455.39191869 </i>
    <i name="XCdc">   -170.62072792 </i>
    <i name="pawpsdc">   1743.12572269 </i>
    <i name="pawaedc">  -1464.58298996 </i>
    <i name="eentropy">     -0.00000000 </i>
    <i name="bandstr">   -325.63757999 </i>
    <i name="atom">   1333.72818728 </i>
    <i name="e_fr_energy">    -49.86935595 </i>
    <i name="e_wo_entrp">    -49.86935595 </i>
    <i name="e_0_energy">    -49.86935595 </i>
   </energy>
  </scstep>
  <scstep>
   <time name="dav">   19.68   19.79</time>
   <time name="total">  123.63  124.23</time>
   <energy>
    <i name="alphaZ">     15.92198659 </i>
    <i name="ewald">   1273.58796406 </i>
    <i name="hartreedc">  -2455.38962732 </i>
    <i name="XCdc">   -170.62061712 </i>
    <i name="pawpsdc">   1743.12711117 </i>
    <i name="pawaedc">  -1464.58437137 </i>
    <i name="eentropy">     -0.00000000 </i>
    <i name="bandstr">   -325.63999300 </i>
    <i name="atom">   1333.72818728 </i>
    <i name="e_fr_energy">    -49.86935970 </i>
    <i name="e_wo_entrp">    -49.86935970 </i>
    <i name="e_0_energy">    -49.86935970 </i>
   </energy>
  </scstep>
  <structure>
   <crystal>
    <varray name="basis" >
     <v>       6.01920000       0.00000000       0.00000000 </v>
     <v>       0.00000000      10.14000000       0.00000000 </v>
     <v>       0.00000000       0.00000000      15.00000000 </v>
    </varray>
    <i name="volume">    915.52032000 </i>
    <varray name="rec_basis" >
     <v>       0.16613503       0.00000000       0.00000000 </v>
     <v>       0.00000000       0.09861933       0.00000000 </v>
     <v>       0.00000000       0.00000000       0.06666667 </v>
    </varray>
   </crystal>
   <varray name="positions" >
    <v>       0.43742422       0.87577344       0.22250301 </v>
    <v>       0.93738523       0.87646081       0.27378930 </v>
    <v>       0.43806008       0.61276708       0.22357562 </v>
    <v>       0.93835213       0.61419164       0.27608006 </v>
    <v>       0.43572577       0.37527999       0.27819686 </v>
    <v>       0.93703487       0.37684891       0.22392569 </v>
    <v>       0.43671830       0.11417954       0.27265168 </v>
    <v>       0.93718743       0.11362068       0.22205395 </v>
    <v>       0.18719005      -0.00525948       0.24741980 </v>
    <v>       0.68726360      -0.00505604       0.24785258 </v>
    <v>       0.18746002       0.49505042       0.24960472 </v>
    <v>       0.68738137       0.49496194       0.25286018 </v>
    <v>       0.55726432       0.44554846       0.47770588 </v>
    <v>       0.76933823       0.36966339       0.47705369 </v>
    <v>       0.48698524       0.37786271       0.56236696 </v>
   </varray>
  </structure>
  <varray name="forces" >
   <v>       0.00806369       0.01305175       0.00460043 </v>
   <v>      -0.00653391       0.00033874      -0.00034526 </v>
   <v>       0.00417163      -0.00497166       0.00055870 </v>
   <v>      -0.00282078       0.00791285       0.00064885 </v>
   <v>       0.00348604       0.00197360      -0.00040421 </v>
   <v>      -0.00253779      -0.00863719      -0.00208465 </v>
   <v>       0.00837237      -0.01488174      -0.00485394 </v>
   <v>      -0.00745941      -0.00055826      -0.00017577 </v>
   <v>       0.00632395      -0.00131864      -0.00590173 </v>
   <v>      -0.01314484       0.00047165       0.00461494 </v>
   <v>       0.00187448       0.00118339       0.00668697 </v>
   <v>      -0.00797183      -0.00274929      -0.00406350 </v>
   <v>       0.00932089       0.00758822      -0.00516035 </v>
   <v>      -0.00056601       0.00159324      -0.00155140 </v>
   <v>      -0.00057848      -0.00099667       0.00743091 </v>
  </varray>
  <varray name="stress" >
   <v>       8.47301197       0.24115424       0.06410063 </v>
   <v>       0.24115348     -10.49137532       0.07327769 </v>
   <v>       0.06409863       0.07327927      -1.26569141 </v>
  </varray>
  <energy>
   <i name="e_fr_energy">    -49.86935970 </i>
   <i name="e_wo_entrp">    -49.86935970 </i>
   <i name="e_0_energy">     -0.00000000 </i>
  </energy>
  <time name="totalsc">  475.83  479.44</time>
 </calculation>
 <calculation>
  <scstep>
   <time name="dav">   16.57   16.58</time>
   <time name="total">  119.99  120.40</time>
   <energy>
    <i name="alphaZ">     15.92198659 </i>
    <i name="ewald">   1273.77295897 </i>
    <i name="hartreedc">  -2455.55584431 </i>
    <i name="XCdc">   -170.62013173 </i>
    <i name="pawpsdc">   1743.12935343 </i>
    <i name="pawaedc">  -1464.58660900 </i>
    <i name="eentropy">     -0.00000000 </i>
    <i name="bandstr">   -325.65927345 </i>
    <i name="atom">   1333.72818728 </i>
    <i name="e_fr_energy">    -49.86937222 </i>
    <i name="e_wo_entrp">    -49.86937222 </i>
    <i name="e_0_energy">    -49.86937222 </i>
   </energy>
  </scstep>
  <scstep>
   <time name="dav">   19.82   19.86</time>
   <time name="total">  125.23  125.29</time>
   <energy>
    <i name="e_fr_energy">    -49.86943013 </i>
    <i name="e_wo_entrp">    -49.86943013 </i>
    <i name="e_0_energy">    -49.86943013 </i>
   </energy>
  </scstep>
  <scstep>
   <time name="dav">   16.53   16.59</time>
   <time name="total">  119.15  119.38</time>
   <energy>
    <i name="alphaZ">     15.92198659 </i>
    <i name="ewald">   1273.77295897 </i>
    <i name="hartreedc">  -2455.55937497 </i>
    <i name="XCdc">   -170.61915508 </i>
    <i name="pawpsdc">   1743.20167818 </i>
    <i name="pawaedc">  -1464.65918003 </i>
    <i name="eentropy">     -0.00000000 </i>
    <i name="bandstr">   -325.65652932 </i>
    <i name="atom">   1333.72818728 </i>
    <i name="e_fr_energy">    -49.86942838 </i>
    <i name="e_wo_entrp">    -49.86942838 </i>
    <i name="e_0_energy">    -49.86942838 </i>
   </energy>
  </scstep>
  <structure>
   <crystal>
    <varray name="basis" >
     <v>       6.01920000       0.00000000       0.00000000 </v>
     <v>       0.00000000      10.14000000       0.00000000 </v>
     <v>       0.00000000       0.00000000      15.00000000 </v>
    </varray>
    <i name="volume">    915.52032000 </i>
    <varray name="rec_basis" >
     <v>       0.16613503       0.00000000       0.00000000 </v>
     <v>       0.00000000       0.09861933       0.00000000 </v>
     <v>       0.00000000       0.00000000       0.06666667 </v>
    </varray>
   </crystal>
   <varray name="positions" >
    <v>       0.43735147       0.87576010       0.22249204 </v>
    <v>       0.93726337       0.87641835       0.27376253 </v>
    <v>       0.43804737       0.61270353       0.22362445 </v>
    <v>       0.93826141       0.61419464       0.27611881 </v>
    <v>       0.43568887       0.37520288       0.27812942 </v>
    <v>       0.93694016       0.37682203       0.22389841 </v>
    <v>       0.43669443       0.11404828       0.27263886 </v>
    <v>       0.93715300       0.11362015       0.22209534 </v>
    <v>       0.18711702      -0.00535942       0.24741296 </v>
    <v>       0.68717538      -0.00509843       0.24784431 </v>
    <v>       0.18738898       0.49501381       0.24968110 </v>
    <v>       0.68727517       0.49488909       0.25283297 </v>
    <v>       0.55749315       0.44568057       0.47766956 </v>
    <v>       0.76959284       0.36984318       0.47701277 </v>
    <v>       0.48732822       0.37815472       0.56242647 </v>
   </varray>
  </structure>
  <varray name="forces" >
   <v>       0.00892358       0.00038940       0.00295952 </v>
   <v>      -0.00548600      -0.00070509       0.00033785 </v>
   <v>      -0.00204545       0.00158115      -0.00173131 </v>
   <v>      -0.00351514      -0.00212945      -0.00241995 </v>
   <v>      -0.00027848      -0.00251248       0.00352929 </v>
   <v>       0.00186367      -0.00418017       0.00204262 </v>
   <v>       0.00306037      -0.00176650      -0.00263796 </v>
   <v>      -0.00765268      -0.00553968      -0.00163674 </v>
   <v>       0.00144339       0.00359008      -0.00561020 </v>
   <v>      -0.00467066       0.00147631       0.00342030 </v>
   <v>      -0.00242178       0.00154027       0.00575689 </v>
   <v>       0.00141146      -0.00023153      -0.00448810 </v>
   <v>       0.00743528       0.00808802      -0.00255960 </v>
   <v>       0.00037139       0.00002365      -0.00041762 </v>
   <v>       0.00156103       0.00037602       0.00345502 </v>
  </varray>
  <varray name="stress" >
   <v>       8.48525045       0.20937231       0.06585262 </v>
   <v>       0.20937168     -10.46221526       0.07652181 </v>
   <v>       0.06585052       0.07652345      -1.26379105 </v>
  </varray>
  <energy>
   <i name="e_fr_energy">    -49.86942838 </i>
   <i name="e_wo_entrp">    -49.86942838 </i>
   <i name="e_0_energy">     -0.00000000 </i>
  </energy>
  <time name="totalsc">  594.92  597.29</time>
 </calculation>
 <calculation>
  <scstep>
   <time name="dav">   16.38   16.41</time>
   <time name="total">  123.20  123.40</time>
   <energy>
    <i name="alphaZ">     15.92198659 </i>
    <i name="ewald">   1273.92043559 </i>
    <i name="hartreedc">  -2455.69104221 </i>
    <i name="XCdc">   -170.61854720 </i>
    <i name="pawpsdc">   1743.22818127 </i>
    <i name="pawaedc">  -1464.68567370 </i>
    <i name="eentropy">     -0.00000000 </i>
    <i name="bandstr">   -325.67294132 </i>
    <i name="atom">   1333.72818728 </i>
    <i name="e_fr_energy">    -49.86941370 </i>
    <i name="e_wo_entrp">    -49.86941370 </i>
    <i name="e_0_energy">    -49.86941370 </i>
   </energy>
  </scstep>
  <scstep>
   <time name="dav">   20.02   20.04</time>
   <time name="total">  124.45  124.57</time>
   <energy>
    <i name="e_fr_energy">    -49.86944857 </i>
    <i name="e_wo_entrp">    -49.86944857 </i>
    <i name="e_0_energy">    -49.86944857 </i>
   </energy>
  </scstep>
  <scstep>
   <time name="dav">   13.32   13.32</time>
   <time name="total">  114.73  114.87</time>
   <energy>
    <i name="alphaZ">     15.92198659 </i>
    <i name="ewald">   1273.92043559 </i>
    <i name="hartreedc">  -2455.68868816 </i>
    <i name="XCdc">   -170.61794796 </i>
    <i name="pawpsdc">   1743.27518922 </i>
    <i name="pawaedc">  -1464.73275039 </i>
    <i name="eentropy">     -0.00000000 </i>
    <i name="bandstr">   -325.67586094 </i>
    <i name="atom">   1333.72818728 </i>
    <i name="e_fr_energy">    -49.86944878 </i>
    <i name="e_wo_entrp">    -49.86944878 </i>
    <i name="e_0_energy">    -49.86944878 </i>
   </energy>
  </scstep>
  <structure>
   <crystal>
    <varray name="basis" >
     <v>       6.01920000       0.00000000       0.00000000 </v>
     <v>       0.00000000      10.14000000       0.00000000 </v>
     <v>       0.00000000       0.00000000      15.00000000 </v>
    </varray>
    <i name="volume">    915.52032000 </i>
    <varray name="rec_basis" >
     <v>       0.16613503       0.00000000       0.00000000 </v>
     <v>       0.00000000       0.09861933       0.00000000 </v>
     <v>       0.00000000       0.00000000       0.06666667 </v>
    </varray>
   </crystal>
   <varray name="positions" >
    <v>       0.43729337       0.87574944       0.22248328 </v>
    <v>       0.93716604       0.87638444       0.27374115 </v>
    <v>       0.43803723       0.61265277       0.22366344 </v>
    <v>       0.93818895       0.61419703       0.27614977 </v>
    <v>       0.43565940       0.37514128       0.27807555 </v>
    <v>       0.93686452       0.37680056       0.22387662 </v>
    <v>       0.43667537       0.11394344       0.27262862 </v>
    <v>       0.93712550       0.11361973       0.22212840 </v>
    <v>       0.18705869      -0.00543924       0.24740749 </v>
    <v>       0.68710492      -0.00513228       0.24783771 </v>
    <v>       0.18733224       0.49498457       0.24974211 </v>
    <v>       0.68719034       0.49483090       0.25281123 </v>
    <v>       0.55767592       0.44578609       0.47764055 </v>
    <v>       0.76979621       0.36998679       0.47698009 </v>
    <v>       0.48760217       0.37838796       0.56247400 </v>
   </varray>
  </structure>
  <varray name="forces" >
   <v>       0.00975081      -0.01040525       0.00159596 </v>
   <v>      -0.00483707      -0.00182550       0.00093604 </v>
   <v>      -0.00740560       0.00665193      -0.00365474 </v>
   <v>      -0.00430551      -0.01079899      -0.00504676 </v>
   <v>      -0.00341322      -0.00639251       0.00705215 </v>
   <v>       0.00584677      -0.00050264       0.00543059 </v>
   <v>      -0.00154207       0.00908393      -0.00082737 </v>
   <v>      -0.00776468      -0.01000764      -0.00291008 </v>
   <v>      -0.00229604       0.00874370      -0.00524240 </v>
   <v>       0.00236074       0.00190571       0.00263850 </v>
   <v>      -0.00527202       0.00180711       0.00358640 </v>
   <v>       0.00980292       0.00212448      -0.00429863 </v>
   <v>       0.00273020       0.00823690       0.00007523 </v>
   <v>       0.00213335      -0.00103299       0.00033443 </v>
   <v>       0.00421145       0.00241177       0.00033068 </v>
  </varray>
  <varray name="stress" >
   <v>       8.49714089       0.17846014       0.06701242 </v>
   <v>       0.17845951     -10.44386493       0.07851013 </v>
   <v>       0.06701045       0.07851172      -1.26838298 </v>
  </varray>
  <energy>
   <i name="e_fr_energy">    -49.86944878 </i>
   <i name="e_wo_entrp">    -49.86944878 </i>
   <i name="e_0_energy">     -0.00000000 </i>
  </energy>
  <time name="totalsc">  595.13  596.71</time>
 </calculation>
 <calculation>
  <scstep>
   <time name="dav">   15.71   15.71</time>
   <time name="total">  120.75  120.79</time>
   <energy>
    <i name="alphaZ">     15.92198659 </i>
    <i name="ewald">   1274.06492878 </i>
    <i name="hartreedc">  -2455.82946615 </i>
    <i name="XCdc">   -170.61855609 </i>
    <i name="pawpsdc">   1743.29819324 </i>
    <i name="pawaedc">  -1464.75572096 </i>
    <i name="eentropy">     -0.00000000 </i>
    <i name="bandstr">   -325.67898638 </i>
    <i name="atom">   1333.72818728 </i>
    <i name="e_fr_energy">    -49.86943368 </i>
    <i name="e_wo_entrp">    -49.86943368 </i>
    <i name="e_0_energy">    -49.86943368 </i>
   </energy>
  </scstep>
  <scstep>
   <time name="dav">   20.16   20.28</time>
   <time name="total">  127.42  127.63</time>
   <energy>
    <i name="e_fr_energy">    -49.86950100 </i>
    <i name="e_wo_entrp">    -49.86950100 </i>
    <i name="e_0_energy">    -49.86950100 </i>
   </energy>
  </scstep>
  <scstep>
   <time name="dav">   16.39   16.39</time>
   <time name="total">  121.35  121.37</time>
   <energy>
    <i name="alphaZ">     15.92198659 </i>
    <i name="ewald">   1274.06492878 </i>
    <i name="hartreedc">  -2455.82208997 </i>
    <i name="XCdc">   -170.61811672 </i>
    <i name="pawpsdc">   1743.29232119 </i>
    <i name="pawaedc">  -1464.74971666 </i>
    <i name="eentropy">     -0.00000000 </i>
    <i name="bandstr">   -325.68700029 </i>
    <i name="atom">   1333.72818728 </i>
    <i name="e_fr_energy">    -49.86949980 </i>
    <i name="e_wo_entrp">    -49.86949980 </i>
    <i name="e_0_energy">    -49.86949980 </i>
   </energy>
  </scstep>
  <structure>
   <crystal>
    <varray name="basis" >
     <v>       6.01920000       0.00000000       0.00000000 </v>
     <v>       0.00000000      10.14000000       0.00000000 </v>
     <v>       0.00000000       0.00000000      15.00000000 </v>
    </varray>
    <i name="volume">    915.52032000 </i>
    <varray name="rec_basis" >
     <v>       0.16613503       0.00000000       0.00000000 </v>
     <v>       0.00000000       0.09861933       0.00000000 </v>
     <v>       0.00000000       0.00000000       0.06666667 </v>
    </varray>
   </crystal>
   <varray name="positions" >
    <v>       0.43730055       0.87568379       0.22247738 </v>
    <v>       0.93700011       0.87633169       0.27371678 </v>
    <v>       0.43796191       0.61262063       0.22370130 </v>
    <v>       0.93805949       0.61414622       0.27617258 </v>
    <v>       0.43559277       0.37503011       0.27803001 </v>
    <v>       0.93681631       0.37677042       0.22386691 </v>
    <v>       0.43663787       0.11385383       0.27261266 </v>
    <v>       0.93702483       0.11356924       0.22216113 </v>
    <v>       0.18696431      -0.00549833       0.24738277 </v>
    <v>       0.68703409      -0.00516634       0.24783812 </v>
    <v>       0.18721489       0.49495595       0.24983272 </v>
    <v>       0.68716357       0.49476662       0.25276875 </v>
    <v>       0.55793410       0.44596301       0.47760346 </v>
    <v>       0.77007589       0.37016646       0.47693916 </v>
    <v>       0.48799016       0.37870019       0.56253628 </v>
   </varray>
  </structure>
  <varray name="forces" >
   <v>       0.00246414      -0.00890948       0.00240442 </v>
   <v>       0.00213104      -0.00389661       0.00222485 </v>
   <v>      -0.00836217       0.00122046      -0.00257724 </v>
   <v>      -0.00350954      -0.00920082      -0.00513221 </v>
   <v>      -0.00304036       0.00166329       0.00836170 </v>
   <v>       0.00731182      -0.00298041       0.00655696 </v>
   <v>      -0.00769436       0.01240049      -0.00058639 </v>
   <v>      -0.00359215      -0.00586241      -0.00575313 </v>
   <v>       0.00031450       0.00666937      -0.00437359 </v>
   <v>       0.00147373       0.00011342       0.00236817 </v>
   <v>       0.00472810      -0.00014142       0.00071279 </v>
   <v>      -0.00094464       0.00182229      -0.00461989 </v>
   <v>       0.00239057       0.00267139       0.00489765 </v>
   <v>       0.00018832      -0.00058994       0.00103031 </v>
   <v>       0.00614100       0.00502036      -0.00551438 </v>
  </varray>
  <varray name="stress" >
   <v>       8.49804758       0.16546039       0.07294499 </v>
   <v>       0.16545977     -10.43646391       0.08935639 </v>
   <v>       0.07294298       0.08935806      -1.28324472 </v>
  </varray>
  <energy>
   <i name="e_fr_energy">    -49.86949980 </i>
   <i name="e_wo_entrp">    -49.86949980 </i>
   <i name="e_0_energy">     -0.00000000 </i>
  </energy>
  <time name="totalsc">  607.95  614.89</time>
 </calculation>
 <calculation>
  <scstep>
   <time name="dav">   16.19   16.28</time>
   <time name="total">  123.17  123.65</time>
   <energy>
    <i name="alphaZ">     15.92198659 </i>
    <i name="ewald">   1274.14606270 </i>
    <i name="hartreedc">  -2455.89808698 </i>
    <i name="XCdc">   -170.61845162 </i>
    <i name="pawpsdc">   1743.29472481 </i>
    <i name="pawaedc">  -1464.75199689 </i>
    <i name="eentropy">     -0.00000000 </i>
    <i name="bandstr">   -325.69192175 </i>
    <i name="atom">   1333.72818728 </i>
    <i name="e_fr_energy">    -49.86949586 </i>
    <i name="e_wo_entrp">    -49.86949586 </i>
    <i name="e_0_energy">    -49.86949586 </i>
   </energy>
  </scstep>
  <scstep>
   <time name="dav">   19.83   19.92</time>
   <time name="total">  130.45  130.99</time>
   <energy>
    <i name="e_fr_energy">    -49.86951559 </i>
    <i name="e_wo_entrp">    -49.86951559 </i>
    <i name="e_0_energy">    -49.86951559 </i>
   </energy>
  </scstep>
  <scstep>
   <time name="dav">   13.16   13.18</time>
   <time name="total">  124.49  124.88</time>
   <energy>
    <i name="alphaZ">     15.92198659 </i>
    <i name="ewald">   1274.14606270 </i>
    <i name="hartreedc">  -2455.89189559 </i>
    <i name="XCdc">   -170.61817228 </i>
    <i name="pawpsdc">   1743.29021608 </i>
    <i name="pawaedc">  -1464.74736292 </i>
    <i name="eentropy">     -0.00000000 </i>
    <i name="bandstr">   -325.69853825 </i>
    <i name="atom">   1333.72818728 </i>
    <i name="e_fr_energy">    -49.86951639 </i>
    <i name="e_wo_entrp">    -49.86951639 </i>
    <i name="e_0_energy">    -49.86951639 </i>
   </energy>
  </scstep>
  <structure>
   <crystal>
    <varray name="basis" >
     <v>       6.01920000       0.00000000       0.00000000 </v>
     <v>       0.00000000      10.14000000       0.00000000 </v>
     <v>       0.00000000       0.00000000      15.00000000 </v>
    </varray>
    <i name="volume">    915.52032000 </i>
    <varray name="rec_basis" >
     <v>       0.16613503       0.00000000       0.00000000 </v>
     <v>       0.00000000       0.09861933       0.00000000 </v>
     <v>       0.00000000       0.00000000       0.06666667 </v>
    </varray>
   </crystal>
   <varray name="positions" >
    <v>       0.43730460       0.87564684       0.22247407 </v>
    <v>       0.93690670       0.87630199       0.27370307 </v>
    <v>       0.43791952       0.61260254       0.22372262 </v>
    <v>       0.93798662       0.61411762       0.27618542 </v>
    <v>       0.43555527       0.37496753       0.27800437 </v>
    <v>       0.93678918       0.37675345       0.22386144 </v>
    <v>       0.43661677       0.11380340       0.27260367 </v>
    <v>       0.93696816       0.11354082       0.22217955 </v>
    <v>       0.18691118      -0.00553160       0.24736886 </v>
    <v>       0.68699421      -0.00518552       0.24783834 </v>
    <v>       0.18714884       0.49493984       0.24988373 </v>
    <v>       0.68714851       0.49473043       0.25274483 </v>
    <v>       0.55807944       0.44606259       0.47758258 </v>
    <v>       0.77023332       0.37026760       0.47691612 </v>
    <v>       0.48820856       0.37887594       0.56257134 </v>
   </varray>
  </structure>
  <varray name="forces" >
   <v>      -0.00229798      -0.00790016       0.00280434 </v>
   <v>       0.00666817      -0.00514977       0.00271478 </v>
   <v>      -0.00885477      -0.00242806      -0.00193261 </v>
   <v>      -0.00342342      -0.00804547      -0.00515105 </v>
   <v>      -0.00248396       0.00661311       0.00892577 </v>
   <v>       0.00807917      -0.00471254       0.00703472 </v>
   <v>      -0.01164710       0.01420444      -0.00058938 </v>
   <v>      -0.00092639      -0.00334156      -0.00754645 </v>
   <v>       0.00228035       0.00402471      -0.00391737 </v>
   <v>       0.00061748      -0.00172301       0.00193289 </v>
   <v>       0.01087093      -0.00138665      -0.00152276 </v>
   <v>      -0.00836603       0.00120916      -0.00455728 </v>
   <v>       0.00118159       0.00037821       0.00930988 </v>
   <v>      -0.00006233       0.00046551       0.00108146 </v>
   <v>       0.00836428       0.00779209      -0.00858693 </v>
  </varray>
  <varray name="stress" >
   <v>       8.50052232       0.15148505       0.07855848 </v>
   <v>       0.15148432     -10.43977632       0.09742340 </v>
   <v>       0.07855642       0.09742502      -1.28931607 </v>
  </varray>
  <energy>
   <i name="e_fr_energy">    -49.86951639 </i>
   <i name="e_wo_entrp">    -49.86951639 </i>
   <i name="e_0_energy">     -0.00000000 </i>
  </energy>
  <time name="totalsc">  619.60  622.82</time>
 </calculation>
 <calculation>
  <scstep>
   <time name="dav">   15.56   15.61</time>
   <time name="total">  116.10  116.47</time>
   <energy>
    <i name="alphaZ">     15.92198659 </i>
    <i name="ewald">   1274.19717761 </i>
    <i name="hartreedc">  -2455.93381850 </i>
    <i name="XCdc">   -170.61792141 </i>
    <i name="pawpsdc">   1743.29082474 </i>
    <i name="pawaedc">  -1464.74787239 </i>
    <i name="eentropy">     -0.00000000 </i>
    <i name="bandstr">   -325.70810197 </i>
    <i name="atom">   1333.72818728 </i>
    <i name="e_fr_energy">    -49.86953805 </i>
    <i name="e_wo_entrp">    -49.86953805 </i>
    <i name="e_0_energy">    -49.86953805 </i>
   </energy>
  </scstep>
  <scstep>
   <time name="dav">   19.95   19.99</time>
   <time name="total">  121.33  121.64</time>
   <energy>
    <i name="e_fr_energy">    -49.86959082 </i>
    <i name="e_wo_entrp">    -49.86959082 </i>
    <i name="e_0_energy">    -49.86959082 </i>
   </energy>
  </scstep>
  <scstep>
   <time name="dav">   13.85   13.90</time>
   <time name="total">  114.56  114.75</time>
   <energy>
    <i name="alphaZ">     15.92198659 </i>
    <i name="ewald">   1274.19717761 </i>
    <i name="hartreedc">  -2455.93155232 </i>
    <i name="XCdc">   -170.61747276 </i>
    <i name="pawpsdc">   1743.31534333 </i>
    <i name="pawaedc">  -1464.77268430 </i>
    <i name="eentropy">     -0.00000000 </i>
    <i name="bandstr">   -325.71057642 </i>
    <i name="atom">   1333.72818728 </i>
    <i name="e_fr_energy">    -49.86959098 </i>
    <i name="e_wo_entrp">    -49.86959098 </i>
    <i name="e_0_energy">    -49.86959098 </i>
   </energy>
  </scstep>
  <structure>
   <crystal>
    <varray name="basis" >
     <v>       6.01920000       0.00000000       0.00000000 </v>
     <v>       0.00000000      10.14000000       0.00000000 </v>
     <v>       0.00000000       0.00000000      15.00000000 </v>
    </varray>
    <i name="volume">    915.52032000 </i>
    <varray name="rec_basis" >
     <v>       0.16613503       0.00000000       0.00000000 </v>
     <v>       0.00000000       0.09861933       0.00000000 </v>
     <v>       0.00000000       0.00000000       0.06666667 </v>
    </varray>
   </crystal>
   <varray name="positions" >
    <v>       0.43728934       0.87554606       0.22247948 </v>
    <v>       0.93682519       0.87622766       0.27369213 </v>
    <v>       0.43777139       0.61256120       0.22374819 </v>
    <v>       0.93784235       0.61402889       0.27618586 </v>
    <v>       0.43547426       0.37490785       0.27799839 </v>
    <v>       0.93682295       0.37670115       0.22387941 </v>
    <v>       0.43647531       0.11380457       0.27258761 </v>
    <v>       0.93687221       0.11347849       0.22217960 </v>
    <v>       0.18685067      -0.00556050       0.24733272 </v>
    <v>       0.68693856      -0.00522462       0.24784595 </v>
    <v>       0.18714877       0.49490733       0.24995659 </v>
    <v>       0.68704705       0.49468140       0.25269090 </v>
    <v>       0.55831436       0.44621810       0.47758537 </v>
    <v>       0.77047524       0.37042598       0.47688468 </v>
    <v>       0.48862321       0.37918994       0.56259312 </v>
   </varray>
  </structure>
  <varray name="forces" >
   <v>      -0.00607180       0.00411248       0.00488256 </v>
   <v>       0.00989309      -0.00131156       0.00222164 </v>
   <v>      -0.00285287      -0.00256148      -0.00237018 </v>
   <v>      -0.00072891      -0.00314029      -0.00446631 </v>
   <v>       0.00207390       0.00955644       0.00949407 </v>
   <v>       0.00359677      -0.00459289       0.00657584 </v>
   <v>      -0.00716957       0.00364691      -0.00223450 </v>
   <v>       0.00129687      -0.00148526      -0.00783880 </v>
   <v>       0.00312738      -0.00232490      -0.00378516 </v>
   <v>      -0.00527582      -0.00239489       0.00260893 </v>
   <v>      -0.00068465      -0.00366341      -0.00218621 </v>
   <v>      -0.00467191      -0.00273979      -0.00494544 </v>
   <v>       0.00383342       0.00565422      -0.00243870 </v>
   <v>      -0.00104645       0.00027713       0.00184297 </v>
   <v>       0.00468055       0.00096729       0.00263930 </v>
  </varray>
  <varray name="stress" >
   <v>       8.50610161       0.17262185       0.08016881 </v>
   <v>       0.17262109     -10.44375695       0.07387291 </v>
   <v>       0.08016681       0.07387456      -1.26001914 </v>
  </varray>
  <energy>
   <i name="e_fr_energy">    -49.86959098 </i>
   <i name="e_wo_entrp">    -49.86959098 </i>
   <i name="e_0_energy">     -0.00000000 </i>
  </energy>
  <time name="totalsc">  576.33  578.84</time>
 </calculation>
 <calculation>
  <scstep>
   <time name="dav">   15.53   15.55</time>
   <time name="total">  118.60  119.03</time>
   <energy>
    <i name="alphaZ">     15.92198659 </i>
    <i name="ewald">   1274.23747058 </i>
    <i name="hartreedc">  -2455.96671832 </i>
    <i name="XCdc">   -170.61717468 </i>
    <i name="pawpsdc">   1743.32718984 </i>
    <i name="pawaedc">  -1464.78467903 </i>
    <i name="eentropy">     -0.00000000 </i>
    <i name="bandstr">   -325.71584804 </i>
    <i name="atom">   1333.72818728 </i>
    <i name="e_fr_energy">    -49.86958579 </i>
    <i name="e_wo_entrp">    -49.86958579 </i>
    <i name="e_0_energy">    -49.86958579 </i>
   </energy>
  </scstep>
  <scstep>
   <time name="dav">   21.21   21.33</time>
   <time name="total">  122.45  122.94</time>
   <energy>
    <i name="e_fr_energy">    -49.86961757 </i>
    <i name="e_wo_entrp">    -49.86961757 </i>
    <i name="e_0_energy">    -49.86961757 </i>
   </energy>
  </scstep>
  <scstep>
   <time name="dav">   14.29   14.31</time>
   <time name="total">  117.49  117.93</time>
   <energy>
    <i name="alphaZ">     15.92198659 </i>
    <i name="ewald">   1274.23747058 </i>
    <i name="hartreedc">  -2455.96586613 </i>
    <i name="XCdc">   -170.61675204 </i>
    <i name="pawpsdc">   1743.34409186 </i>
    <i name="pawaedc">  -1464.80178317 </i>
    <i name="eentropy">     -0.00000000 </i>
    <i name="bandstr">   -325.71695403 </i>
    <i name="atom">   1333.72818728 </i>
    <i name="e_fr_energy">    -49.86961904 </i>
    <i name="e_wo_entrp">    -49.86961904 </i>
    <i name="e_0_energy">    -49.86961904 </i>
   </energy>
  </scstep>
  <structure>
   <crystal>
    <varray name="basis" >
     <v>       6.01920000       0.00000000       0.00000000 </v>
     <v>       0.00000000      10.14000000       0.00000000 </v>
     <v>       0.00000000       0.00000000      15.00000000 </v>
    </varray>
    <i name="volume">    915.52032000 </i>
    <varray name="rec_basis" >
     <v>       0.16613503       0.00000000       0.00000000 </v>
     <v>       0.00000000       0.09861933       0.00000000 </v>
     <v>       0.00000000       0.00000000       0.06666667 </v>
    </varray>
   </crystal>
   <varray name="positions" >
    <v>       0.43727723       0.87546614       0.22248377 </v>
    <v>       0.93676056       0.87616872       0.27368346 </v>
    <v>       0.43765394       0.61252841       0.22376847 </v>
    <v>       0.93772796       0.61395854       0.27618621 </v>
    <v>       0.43541003       0.37486053       0.27799364 </v>
    <v>       0.93684972       0.37665968       0.22389366 </v>
    <v>       0.43636315       0.11380549       0.27257487 </v>
    <v>       0.93679612       0.11342907       0.22217965 </v>
    <v>       0.18680270      -0.00558341       0.24730407 </v>
    <v>       0.68689444      -0.00525562       0.24785198 </v>
    <v>       0.18714871       0.49488155       0.25001436 </v>
    <v>       0.68696660       0.49464252       0.25264813 </v>
    <v>       0.55850063       0.44634140       0.47758758 </v>
    <v>       0.77066707       0.37055156       0.47685976 </v>
    <v>       0.48895200       0.37943891       0.56261039 </v>
   </varray>
  </structure>
  <varray name="forces" >
   <v>      -0.00899174       0.01414173       0.00635150 </v>
   <v>       0.01215406       0.00207530       0.00137386 </v>
   <v>       0.00216101      -0.00186461      -0.00323315 </v>
   <v>       0.00081539       0.00073472      -0.00414343 </v>
   <v>       0.00609625       0.01114604       0.00982323 </v>
   <v>      -0.00052834      -0.00449235       0.00607812 </v>
   <v>      -0.00333532      -0.00518390      -0.00391678 </v>
   <v>       0.00265276      -0.00022772      -0.00831871 </v>
   <v>       0.00358167      -0.00798870      -0.00302544 </v>
   <v>      -0.01112719      -0.00342893       0.00277062 </v>
   <v>      -0.01135467      -0.00529940      -0.00133404 </v>
   <v>      -0.00074803      -0.00620464      -0.00532219 </v>
   <v>       0.00754813       0.00948872      -0.01102103 </v>
   <v>      -0.00129210       0.00067566       0.00204920 </v>
   <v>       0.00236810      -0.00357194       0.01186825 </v>
  </varray>
  <varray name="stress" >
   <v>       8.50382242       0.18688750       0.08293334 </v>
   <v>       0.18688670     -10.45306886       0.05051130 </v>
   <v>       0.08293115       0.05051294      -1.24239157 </v>
  </varray>
  <energy>
   <i name="e_fr_energy">    -49.86961904 </i>
   <i name="e_wo_entrp">    -49.86961904 </i>
   <i name="e_0_energy">     -0.00000000 </i>
  </energy>
  <time name="totalsc">  588.29  591.69</time>
 </calculation>
 <calculation>
  <scstep>
   <time name="dav">   16.90   16.98</time>
   <time name="total">  120.74  120.95</time>
   <energy>
    <i name="alphaZ">     15.92198659 </i>
    <i name="ewald">   1274.36241731 </i>
    <i name="hartreedc">  -2456.07894074 </i>
    <i name="XCdc">   -170.61652873 </i>
    <i name="pawpsdc">   1743.35165843 </i>
    <i name="pawaedc">  -1464.80944081 </i>
    <i name="eentropy">     -0.00000000 </i>
    <i name="bandstr">   -325.72897510 </i>
    <i name="atom">   1333.72818728 </i>
    <i name="e_fr_energy">    -49.86963577 </i>
    <i name="e_wo_entrp">    -49.86963577 </i>
    <i name="e_0_energy">    -49.86963577 </i>
   </energy>
  </scstep>
  <scstep>
   <time name="dav">   19.84   19.94</time>
   <time name="total">  127.54  128.00</time>
   <energy>
    <i name="e_fr_energy">    -49.86969315 </i>
    <i name="e_wo_entrp">    -49.86969315 </i>
    <i name="e_0_energy">    -49.86969315 </i>
   </energy>
  </scstep>
  <scstep>
   <time name="dav">   15.15   15.24</time>
   <time name="total">  119.73  119.99</time>
   <energy>
    <i name="alphaZ">     15.92198659 </i>
    <i name="ewald">   1274.36241731 </i>
    <i name="hartreedc">  -2456.08095976 </i>
    <i name="XCdc">   -170.61584610 </i>
    <i name="pawpsdc">   1743.38254419 </i>
    <i name="pawaedc">  -1464.84036678 </i>
    <i name="eentropy">     -0.00000000 </i>
    <i name="bandstr">   -325.72765435 </i>
    <i name="atom">   1333.72818728 </i>
    <i name="e_fr_energy">    -49.86969162 </i>
    <i name="e_wo_entrp">    -49.86969162 </i>
    <i name="e_0_energy">    -49.86969162 </i>
   </energy>
  </scstep>
  <structure>
   <crystal>
    <varray name="basis" >
     <v>       6.01920000       0.00000000       0.00000000 </v>
     <v>       0.00000000      10.14000000       0.00000000 </v>
     <v>       0.00000000       0.00000000      15.00000000 </v>
    </varray>
    <i name="volume">    915.52032000 </i>
    <varray name="rec_basis" >
     <v>       0.16613503       0.00000000       0.00000000 </v>
     <v>       0.00000000       0.09861933       0.00000000 </v>
     <v>       0.00000000       0.00000000       0.06666667 </v>
    </varray>
   </crystal>
   <varray name="positions" >
    <v>       0.43720574       0.87543578       0.22250496 </v>
    <v>       0.93677097       0.87611399       0.27367782 </v>
    <v>       0.43754297       0.61248629       0.22378161 </v>
    <v>       0.93761147       0.61388647       0.27617575 </v>
    <v>       0.43538138       0.37485327       0.27801428 </v>
    <v>       0.93687479       0.37659814       0.22392474 </v>
    <v>       0.43622199       0.11378642       0.27255107 </v>
    <v>       0.93673241       0.11337557       0.22215793 </v>
    <v>       0.18677496      -0.00563872       0.24726565 </v>
    <v>       0.68677493      -0.00530190       0.24786565 </v>
    <v>       0.18707463       0.49483359       0.25007238 </v>
    <v>       0.68687607       0.49457712       0.25258867 </v>
    <v>       0.55874817       0.44650939       0.47756110 </v>
    <v>       0.77086289       0.37068788       0.47683858 </v>
    <v>       0.48931750       0.37969017       0.56265982 </v>
   </varray>
  </structure>
  <varray name="forces" >
   <v>      -0.00685787       0.00900103       0.00450833 </v>
   <v>       0.00585046       0.00417131       0.00053437 </v>
   <v>       0.00319455       0.00016310      -0.00420921 </v>
   <v>       0.00114912       0.00442377      -0.00352150 </v>
   <v>       0.00473701       0.00518718       0.00995934 </v>
   <v>      -0.00509157      -0.00602080       0.00423301 </v>
   <v>       0.00165570      -0.00507297      -0.00250157 </v>
   <v>       0.00067383      -0.00293657      -0.00628583 </v>
   <v>      -0.00442445      -0.00598613      -0.00258633 </v>
   <v>      -0.00142408      -0.00159500       0.00357064 </v>
   <v>      -0.01244939      -0.00499616      -0.00141699 </v>
   <v>       0.00454129      -0.00532863      -0.00405591 </v>
   <v>       0.00481706       0.01000820      -0.00635802 </v>
   <v>       0.00056891      -0.00028458       0.00143272 </v>
   <v>       0.00305942      -0.00073376       0.00669696 </v>
  </varray>
  <varray name="stress" >
   <v>       8.51226745       0.19688433       0.08567646 </v>
   <v>       0.19688354     -10.44216272       0.05610940 </v>
   <v>       0.08567433       0.05611115      -1.24525579 </v>
  </varray>
  <energy>
   <i name="e_fr_energy">    -49.86969162 </i>
   <i name="e_wo_entrp">    -49.86969162 </i>
   <i name="e_0_energy">     -0.00000000 </i>
  </energy>
  <time name="totalsc">  600.74  603.70</time>
 </calculation>
 <calculation>
  <scstep>
   <time name="dav">   16.26   16.28</time>
   <time name="total">  122.38  122.46</time>
   <energy>
    <i name="alphaZ">     15.92198659 </i>
    <i name="ewald">   1274.72662627 </i>
    <i name="hartreedc">  -2456.41481173 </i>
    <i name="XCdc">   -170.61538053 </i>
    <i name="pawpsdc">   1743.40247468 </i>
    <i name="pawaedc">  -1464.86025982 </i>
    <i name="eentropy">     -0.00000000 </i>
    <i name="bandstr">   -325.75805663 </i>
    <i name="atom">   1333.72818728 </i>
    <i name="e_fr_energy">    -49.86923389 </i>
    <i name="e_wo_entrp">    -49.86923389 </i>
    <i name="e_0_energy">    -49.86923389 </i>
   </energy>
  </scstep>
  <scstep>
   <time name="dav">   20.35   20.37</time>
   <time name="total">  131.08  131.17</time>
   <energy>
    <i name="e_fr_energy">    -49.86973895 </i>
    <i name="e_wo_entrp">    -49.86973895 </i>
    <i name="e_0_energy">    -49.86973895 </i>
   </energy>
  </scstep>
  <scstep>
   <time name="dav">   21.99   21.99</time>
   <time name="total">  132.62  132.73</time>
   <energy>
    <i name="e_fr_energy">    -49.86972203 </i>
    <i name="e_wo_entrp">    -49.86972203 </i>
    <i name="e_0_energy">    -49.86972203 </i>
   </energy>
  </scstep>
  <scstep>
   <time name="dav">   18.90   18.92</time>
   <time name="total">  129.85  129.88</time>
   <energy>
    <i name="e_fr_energy">    -49.86974234 </i>
    <i name="e_wo_entrp">    -49.86974234 </i>
    <i name="e_0_energy">    -49.86974234 </i>
   </energy>
  </scstep>
  <scstep>
   <time name="dav">   16.44   16.44</time>
   <time name="total">  124.77  124.77</time>
   <energy>
    <i name="alphaZ">     15.92198659 </i>
    <i name="ewald">   1274.72662627 </i>
    <i name="hartreedc">  -2456.40701607 </i>
    <i name="XCdc">   -170.61335279 </i>
    <i name="pawpsdc">   1743.52669938 </i>
    <i name="pawaedc">  -1464.98426567 </i>
    <i name="eentropy">     -0.00000000 </i>
    <i name="bandstr">   -325.76860787 </i>
    <i name="atom">   1333.72818728 </i>
    <i name="e_fr_energy">    -49.86974287 </i>
    <i name="e_wo_entrp">    -49.86974287 </i>
    <i name="e_0_energy">    -49.86974287 </i>
   </energy>
  </scstep>
  <structure>
   <crystal>
    <varray name="basis" >
     <v>       6.01920000       0.00000000       0.00000000 </v>
     <v>       0.00000000      10.14000000       0.00000000 </v>
     <v>       0.00000000       0.00000000      15.00000000 </v>
    </varray>
    <i name="volume">    915.52032000 </i>
    <varray name="rec_basis" >
     <v>       0.16613503       0.00000000       0.00000000 </v>
     <v>       0.00000000       0.09861933       0.00000000 </v>
     <v>       0.00000000       0.00000000       0.06666667 </v>
    </varray>
   </crystal>
   <varray name="positions" >
    <v>       0.43699607       0.87534672       0.22256708 </v>
    <v>       0.93680148       0.87595350       0.27366128 </v>
    <v>       0.43721754       0.61236277       0.22382013 </v>
    <v>       0.93726986       0.61367513       0.27614507 </v>
    <v>       0.43529736       0.37483198       0.27807480 </v>
    <v>       0.93694829       0.37641768       0.22401587 </v>
    <v>       0.43580802       0.11373050       0.27248127 </v>
    <v>       0.93654554       0.11321866       0.22209426 </v>
    <v>       0.18669362      -0.00580091       0.24715298 </v>
    <v>       0.68642446      -0.00543762       0.24790573 </v>
    <v>       0.18685740       0.49469296       0.25024253 </v>
    <v>       0.68661058       0.49438533       0.25241430 </v>
    <v>       0.55947409       0.44700207       0.47748346 </v>
    <v>       0.77143716       0.37108767       0.47677647 </v>
    <v>       0.49038939       0.38042704       0.56280477 </v>
   </varray>
  </structure>
  <varray name="forces" >
   <v>       0.00144609      -0.00796754      -0.00188845 </v>
   <v>      -0.01585520       0.01089036      -0.00274706 </v>
   <v>       0.00466424       0.00609053      -0.00741301 </v>
   <v>       0.00043804       0.01597566      -0.00213006 </v>
   <v>      -0.00076917      -0.01276142       0.00996341 </v>
   <v>      -0.01904833      -0.01216181      -0.00205767 </v>
   <v>       0.01720837      -0.00382502       0.00160989 </v>
   <v>      -0.00839619      -0.01251412      -0.00065147 </v>
   <v>      -0.03213404       0.00427715       0.00055100 </v>
   <v>       0.03408546       0.00544360       0.00406518 </v>
   <v>      -0.00854124       0.00115501      -0.00555693 </v>
   <v>       0.02136174       0.00221282       0.00163060 </v>
   <v>      -0.01022296      -0.00554344       0.01491710 </v>
   <v>       0.00772001      -0.00191223      -0.00095173 </v>
   <v>       0.00804318       0.01064048      -0.00934081 </v>
  </varray>
  <varray name="stress" >
   <v>       8.55114104       0.20499350       0.09461770 </v>
   <v>       0.20499265     -10.41425351       0.09240472 </v>
   <v>       0.09461564       0.09240652      -1.28479066 </v>
  </varray>
  <energy>
   <i name="e_fr_energy">    -49.86974287 </i>
   <i name="e_wo_entrp">    -49.86974287 </i>
   <i name="e_0_energy">     -0.00000000 </i>
  </energy>
  <time name="totalsc">  869.01  870.21</time>
 </calculation>
 <calculation>
  <scstep>
   <time name="dav">   15.55   15.58</time>
   <time name="total">  119.38  119.59</time>
   <energy>
    <i name="alphaZ">     15.92198659 </i>
    <i name="ewald">   1274.56772323 </i>
    <i name="hartreedc">  -2456.25806261 </i>
    <i name="XCdc">   -170.61348359 </i>
    <i name="pawpsdc">   1743.52630929 </i>
    <i name="pawaedc">  -1464.98383514 </i>
    <i name="eentropy">     -0.00000000 </i>
    <i name="bandstr">   -325.75848750 </i>
    <i name="atom">   1333.72818728 </i>
    <i name="e_fr_energy">    -49.86966243 </i>
    <i name="e_wo_entrp">    -49.86966243 </i>
    <i name="e_0_energy">    -49.86966243 </i>
   </energy>
  </scstep>
  <scstep>
   <time name="dav">   18.19   18.23</time>
   <time name="total">  119.96  120.10</time>
   <energy>
    <i name="e_fr_energy">    -49.86975699 </i>
    <i name="e_wo_entrp">    -49.86975699 </i>
    <i name="e_0_energy">    -49.86975699 </i>
   </energy>
  </scstep>
  <scstep>
   <time name="dav">   18.20   18.23</time>
   <time name="total">  118.95  119.07</time>
   <energy>
    <i name="alphaZ">     15.92198659 </i>
    <i name="ewald">   1274.56772323 </i>
    <i name="hartreedc">  -2456.25364790 </i>
    <i name="XCdc">   -170.61422557 </i>
    <i name="pawpsdc">   1743.49092310 </i>
    <i name="pawaedc">  -1464.94838187 </i>
    <i name="eentropy">     -0.00000000 </i>
    <i name="bandstr">   -325.76231737 </i>
    <i name="atom">   1333.72818728 </i>
    <i name="e_fr_energy">    -49.86975249 </i>
    <i name="e_wo_entrp">    -49.86975249 </i>
    <i name="e_0_energy">    -49.86975249 </i>
   </energy>
  </scstep>
  <structure>
   <crystal>
    <varray name="basis" >
     <v>       6.01920000       0.00000000       0.00000000 </v>
     <v>       0.00000000      10.14000000       0.00000000 </v>
     <v>       0.00000000       0.00000000      15.00000000 </v>
    </varray>
    <i name="volume">    915.52032000 </i>
    <varray name="rec_basis" >
     <v>       0.16613503       0.00000000       0.00000000 </v>
     <v>       0.00000000       0.09861933       0.00000000 </v>
     <v>       0.00000000       0.00000000       0.06666667 </v>
    </varray>
   </crystal>
   <varray name="positions" >
    <v>       0.43708778       0.87538567       0.22253991 </v>
    <v>       0.93678813       0.87602370       0.27366852 </v>
    <v>       0.43735989       0.61241680       0.22380328 </v>
    <v>       0.93741928       0.61376758       0.27615849 </v>
    <v>       0.43533411       0.37484129       0.27804833 </v>
    <v>       0.93691614       0.37649661       0.22397601 </v>
    <v>       0.43598910       0.11375496       0.27251180 </v>
    <v>       0.93662728       0.11328730       0.22212211 </v>
    <v>       0.18672920      -0.00572996       0.24720226 </v>
    <v>       0.68657776      -0.00537826       0.24788820 </v>
    <v>       0.18695242       0.49475448       0.25016810 </v>
    <v>       0.68672671       0.49446922       0.25249057 </v>
    <v>       0.55915656       0.44678657       0.47751742 </v>
    <v>       0.77118597       0.37091280       0.47680364 </v>
    <v>       0.48992054       0.38010473       0.56274137 </v>
   </varray>
  </structure>
  <varray name="forces" >
   <v>      -0.00204460      -0.00143394       0.00074573 </v>
   <v>      -0.00729702       0.00797021      -0.00166056 </v>
   <v>       0.00315207       0.00300813      -0.00614032 </v>
   <v>      -0.00037816       0.01031885      -0.00303680 </v>
   <v>       0.00131951      -0.00573931       0.00995419 </v>
   <v>      -0.01318423      -0.01013869       0.00058613 </v>
   <v>       0.01004218      -0.00484487      -0.00042223 </v>
   <v>      -0.00524912      -0.00911701      -0.00328687 </v>
   <v>      -0.02035422       0.00019569      -0.00009723 </v>
   <v>       0.01846059       0.00159039       0.00354040 </v>
   <v>      -0.01014716      -0.00139147      -0.00478989 </v>
   <v>       0.01451582      -0.00083060       0.00018365 </v>
   <v>      -0.00429743       0.00112535       0.00613706 </v>
   <v>       0.00648559       0.00078024      -0.00055936 </v>
   <v>       0.00897619       0.00850704      -0.00115389 </v>
  </varray>
  <varray name="stress" >
   <v>       8.54011968       0.18984041       0.09436366 </v>
   <v>       0.18983952     -10.43425390       0.08218146 </v>
   <v>       0.09436167       0.08218304      -1.26869994 </v>
  </varray>
  <energy>
   <i name="e_fr_energy">    -49.86975249 </i>
   <i name="e_wo_entrp">    -49.86975249 </i>
   <i name="e_0_energy">     -0.00000000 </i>
  </energy>
  <time name="totalsc">  585.59  587.44</time>
 </calculation>
 <calculation>
  <scstep>
   <time name="dav">   16.52   16.56</time>
   <time name="total">  121.94  122.16</time>
   <energy>
    <i name="alphaZ">     15.92198659 </i>
    <i name="ewald">   1274.61561863 </i>
    <i name="hartreedc">  -2456.29564735 </i>
    <i name="XCdc">   -170.61444243 </i>
    <i name="pawpsdc">   1743.46815480 </i>
    <i name="pawaedc">  -1464.92567471 </i>
    <i name="eentropy">     -0.00000000 </i>
    <i name="bandstr">   -325.76793193 </i>
    <i name="atom">   1333.72818728 </i>
    <i name="e_fr_energy">    -49.86974912 </i>
    <i name="e_wo_entrp">    -49.86974912 </i>
    <i name="e_0_energy">    -49.86974912 </i>
   </energy>
  </scstep>
  <scstep>
   <time name="dav">   19.23   19.26</time>
   <time name="total">  123.15  123.29</time>
   <energy>
    <i name="e_fr_energy">    -49.86975983 </i>
    <i name="e_wo_entrp">    -49.86975983 </i>
    <i name="e_0_energy">    -49.86975983 </i>
   </energy>
  </scstep>
  <scstep>
   <time name="dav">   10.46   10.48</time>
   <time name="total">  111.06  111.19</time>
   <energy>
    <i name="alphaZ">     15.92198659 </i>
    <i name="ewald">   1274.61561863 </i>
    <i name="hartreedc">  -2456.29948938 </i>
    <i name="XCdc">   -170.61413271 </i>
    <i name="pawpsdc">   1743.48591060 </i>
    <i name="pawaedc">  -1464.94354513 </i>
    <i name="eentropy">     -0.00000000 </i>
    <i name="bandstr">   -325.76429427 </i>
    <i name="atom">   1333.72818728 </i>
    <i name="e_fr_energy">    -49.86975839 </i>
    <i name="e_wo_entrp">    -49.86975839 </i>
    <i name="e_0_energy">    -49.86975839 </i>
   </energy>
  </scstep>
  <structure>
   <crystal>
    <varray name="basis" >
     <v>       6.01920000       0.00000000       0.00000000 </v>
     <v>       0.00000000      10.14000000       0.00000000 </v>
     <v>       0.00000000       0.00000000      15.00000000 </v>
    </varray>
    <i name="volume">    915.52032000 </i>
    <varray name="rec_basis" >
     <v>       0.16613503       0.00000000       0.00000000 </v>
     <v>       0.00000000       0.09861933       0.00000000 </v>
     <v>       0.00000000       0.00000000       0.06666667 </v>
    </varray>
   </crystal>
   <varray name="positions" >
    <v>       0.43706018       0.87537395       0.22254809 </v>
    <v>       0.93679215       0.87600257       0.27366634 </v>
    <v>       0.43731704       0.61240054       0.22380835 </v>
    <v>       0.93737431       0.61373975       0.27615445 </v>
    <v>       0.43532305       0.37483849       0.27805630 </v>
    <v>       0.93692582       0.37647286       0.22398800 </v>
    <v>       0.43593459       0.11374760       0.27250261 </v>
    <v>       0.93660268       0.11326664       0.22211373 </v>
    <v>       0.18671849      -0.00575132       0.24718743 </v>
    <v>       0.68653161      -0.00539613       0.24789348 </v>
    <v>       0.18692382       0.49473596       0.25019050 </v>
    <v>       0.68669175       0.49444397       0.25246761 </v>
    <v>       0.55925214       0.44685143       0.47750720 </v>
    <v>       0.77126158       0.37096544       0.47679546 </v>
    <v>       0.49006166       0.38020174       0.56276045 </v>
   </varray>
  </structure>
  <varray name="forces" >
   <v>      -0.00150089      -0.00223082       0.00018797 </v>
   <v>      -0.00856733       0.00904762      -0.00168996 </v>
   <v>       0.00429619       0.00448172      -0.00633634 </v>
   <v>       0.00118474       0.01265859      -0.00255689 </v>
   <v>       0.00083892      -0.00657797       0.00996735 </v>
   <v>      -0.01443050      -0.00967632       0.00005401 </v>
   <v>       0.01208976      -0.00384129       0.00035860 </v>
   <v>      -0.00470152      -0.00885429      -0.00251931 </v>
   <v>      -0.02312925       0.00017847      -0.00146643 </v>
   <v>       0.02109534       0.00137545       0.00423258 </v>
   <v>      -0.01026910      -0.00207029      -0.00222788 </v>
   <v>       0.01552126      -0.00143937      -0.00137695 </v>
   <v>      -0.00471309      -0.00010637       0.00745353 </v>
   <v>       0.00558211      -0.00051038      -0.00027114 </v>
   <v>       0.00670335       0.00756524      -0.00380912 </v>
  </varray>
  <varray name="stress" >
   <v>       8.54093950       0.20712930       0.09154706 </v>
   <v>       0.20712852     -10.42159106       0.08114816 </v>
   <v>       0.09154491       0.08114993      -1.26412134 </v>
  </varray>
  <energy>
   <i name="e_fr_energy">    -49.86975839 </i>
   <i name="e_wo_entrp">    -49.86975839 </i>
   <i name="e_0_energy">     -0.00000000 </i>
  </energy>
  <time name="totalsc">  586.34  588.14</time>
 </calculation>
 <calculation>
  <scstep>
   <time name="dav">   15.84   15.90</time>
   <time name="total">  122.75  123.14</time>
   <energy>
    <i name="alphaZ">     15.92198659 </i>
    <i name="ewald">   1274.66558451 </i>
    <i name="hartreedc">  -2456.34734517 </i>
    <i name="XCdc">   -170.61421645 </i>
    <i name="pawpsdc">   1743.49495692 </i>
    <i name="pawaedc">  -1464.95261243 </i>
    <i name="eentropy">     -0.00000000 </i>
    <i name="bandstr">   -325.76630677 </i>
    <i name="atom">   1333.72818728 </i>
    <i name="e_fr_energy">    -49.86976551 </i>
    <i name="e_wo_entrp">    -49.86976550 </i>
    <i name="e_0_energy">    -49.86976551 </i>
   </energy>
  </scstep>
  <scstep>
   <time name="dav">   19.13   19.16</time>
   <time name="total">  125.44  125.76</time>
   <energy>
    <i name="e_fr_energy">    -49.86979941 </i>
    <i name="e_wo_entrp">    -49.86979941 </i>
    <i name="e_0_energy">    -49.86979941 </i>
   </energy>
  </scstep>
  <scstep>
   <time name="dav">   12.90   12.91</time>
   <time name="total">  118.08  118.17</time>
   <energy>
    <i name="alphaZ">     15.92198659 </i>
    <i name="ewald">   1274.66558451 </i>
    <i name="hartreedc">  -2456.34737959 </i>
    <i name="XCdc">   -170.61384182 </i>
    <i name="pawpsdc">   1743.50336249 </i>
    <i name="pawaedc">  -1464.96104079 </i>
    <i name="eentropy">     -0.00000000 </i>
    <i name="bandstr">   -325.76665737 </i>
    <i name="atom">   1333.72818728 </i>
    <i name="e_fr_energy">    -49.86979870 </i>
    <i name="e_wo_entrp">    -49.86979870 </i>
    <i name="e_0_energy">    -49.86979870 </i>
   </energy>
  </scstep>
  <structure>
   <crystal>
    <varray name="basis" >
     <v>       6.01920000       0.00000000       0.00000000 </v>
     <v>       0.00000000      10.14000000       0.00000000 </v>
     <v>       0.00000000       0.00000000      15.00000000 </v>
    </varray>
    <i name="volume">    915.52032000 </i>
    <varray name="rec_basis" >
     <v>       0.16613503       0.00000000       0.00000000 </v>
     <v>       0.00000000       0.09861933       0.00000000 </v>
     <v>       0.00000000       0.00000000       0.06666667 </v>
    </varray>
   </crystal>
   <varray name="positions" >
    <v>       0.43699766       0.87534521       0.22256544 </v>
    <v>       0.93677335       0.87597542       0.27365963 </v>
    <v>       0.43724105       0.61237496       0.22381089 </v>
    <v>       0.93728397       0.61370540       0.27614274 </v>
    <v>       0.43530257       0.37482023       0.27808567 </v>
    <v>       0.93690023       0.37640490       0.22401317 </v>
    <v>       0.43585896       0.11372495       0.27248384 </v>
    <v>       0.93653627       0.11320672       0.22209298 </v>
    <v>       0.18662262      -0.00579566       0.24715452 </v>
    <v>       0.68650207      -0.00543092       0.24790991 </v>
    <v>       0.18683137       0.49469332       0.25023453 </v>
    <v>       0.68666792       0.49438843       0.25241782 </v>
    <v>       0.55943713       0.44698694       0.47749531 </v>
    <v>       0.77143749       0.37107460       0.47677801 </v>
    <v>       0.49037821       0.38041898       0.56279553 </v>
   </varray>
  </structure>
  <varray name="forces" >
   <v>       0.00055070      -0.00287701      -0.00062512 </v>
   <v>      -0.01223413       0.00560500      -0.00086044 </v>
   <v>       0.00441397       0.00101158      -0.00564732 </v>
   <v>       0.00189675       0.01316411      -0.00227842 </v>
   <v>      -0.00067524      -0.00643804       0.00824999 </v>
   <v>      -0.01464078      -0.00905073      -0.00156681 </v>
   <v>       0.01320875      -0.00510480       0.00114979 </v>
   <v>      -0.00554310      -0.00511123      -0.00216399 </v>
   <v>      -0.01529827       0.00216678      -0.00140837 </v>
   <v>       0.01553322       0.00142887       0.00399783 </v>
   <v>      -0.00350274      -0.00095871      -0.00217107 </v>
   <v>       0.01044196       0.00129897      -0.00012407 </v>
   <v>      -0.00358583      -0.00241588       0.00820259 </v>
   <v>       0.00401997       0.00013671      -0.00049459 </v>
   <v>       0.00541477       0.00714437      -0.00426001 </v>
  </varray>
  <varray name="stress" >
   <v>       8.54237012       0.20797445       0.08656281 </v>
   <v>       0.20797365     -10.41910831       0.07780842 </v>
   <v>       0.08656073       0.07781022      -1.26820437 </v>
  </varray>
  <energy>
   <i name="e_fr_energy">    -49.86979870 </i>
   <i name="e_wo_entrp">    -49.86979870 </i>
   <i name="e_0_energy">     -0.00000000 </i>
  </energy>
  <time name="totalsc">  600.33  603.13</time>
 </calculation>
 <calculation>
  <scstep>
   <time name="dav">   15.58   15.60</time>
   <time name="total">  115.95  116.37</time>
   <energy>
    <i name="alphaZ">     15.92198659 </i>
    <i name="ewald">   1274.74087406 </i>
    <i name="hartreedc">  -2456.41725935 </i>
    <i name="XCdc">   -170.61401729 </i>
    <i name="pawpsdc">   1743.50986736 </i>
    <i name="pawaedc">  -1464.96752565 </i>
    <i name="eentropy">     -0.00000000 </i>
    <i name="bandstr">   -325.77186403 </i>
    <i name="atom">   1333.72818728 </i>
    <i name="e_fr_energy">    -49.86975103 </i>
    <i name="e_wo_entrp">    -49.86975103 </i>
    <i name="e_0_energy">    -49.86975103 </i>
   </energy>
  </scstep>
  <scstep>
   <time name="dav">   18.98   18.98</time>
   <time name="total">  120.73  120.73</time>
   <energy>
    <i name="e_fr_energy">    -49.86983240 </i>
    <i name="e_wo_entrp">    -49.86983240 </i>
    <i name="e_0_energy">    -49.86983240 </i>
   </energy>
  </scstep>
  <scstep>
   <time name="dav">   17.39   17.40</time>
   <time name="total">  117.96  117.97</time>
   <energy>
    <i name="alphaZ">     15.92198659 </i>
    <i name="ewald">   1274.74087406 </i>
    <i name="hartreedc">  -2456.41831817 </i>
    <i name="XCdc">   -170.61341572 </i>
    <i name="pawpsdc">   1743.52277035 </i>
    <i name="pawaedc">  -1464.98046587 </i>
    <i name="eentropy">     -0.00000000 </i>
    <i name="bandstr">   -325.77145012 </i>
    <i name="atom">   1333.72818728 </i>
    <i name="e_fr_energy">    -49.86983159 </i>
    <i name="e_wo_entrp">    -49.86983159 </i>
    <i name="e_0_energy">    -49.86983159 </i>
   </energy>
  </scstep>
  <structure>
   <crystal>
    <varray name="basis" >
     <v>       6.01920000       0.00000000       0.00000000 </v>
     <v>       0.00000000      10.14000000       0.00000000 </v>
     <v>       0.00000000       0.00000000      15.00000000 </v>
    </varray>
    <i name="volume">    915.52032000 </i>
    <varray name="rec_basis" >
     <v>       0.16613503       0.00000000       0.00000000 </v>
     <v>       0.00000000       0.09861933       0.00000000 </v>
     <v>       0.00000000       0.00000000       0.06666667 </v>
    </varray>
   </crystal>
   <varray name="positions" >
    <v>       0.43690273       0.87530157       0.22259178 </v>
    <v>       0.93674480       0.87593419       0.27364944 </v>
    <v>       0.43712565       0.61233613       0.22381474 </v>
    <v>       0.93714681       0.61365325       0.27612496 </v>
    <v>       0.43527147       0.37479249       0.27813027 </v>
    <v>       0.93686139       0.37630172       0.22405139 </v>
    <v>       0.43574412       0.11369057       0.27245534 </v>
    <v>       0.93643544       0.11311575       0.22206147 </v>
    <v>       0.18647706      -0.00586299       0.24710456 </v>
    <v>       0.68645722      -0.00548375       0.24793487 </v>
    <v>       0.18669099       0.49462858       0.25030139 </v>
    <v>       0.68663172       0.49430409       0.25234223 </v>
    <v>       0.55971801       0.44719269       0.47747726 </v>
    <v>       0.77170460       0.37124035       0.47675151 </v>
    <v>       0.49085885       0.38074883       0.56284878 </v>
   </varray>
  </structure>
  <varray name="forces" >
   <v>       0.00334259      -0.00379887      -0.00162603 </v>
   <v>      -0.01698447      -0.00059566       0.00078378 </v>
   <v>       0.00446950      -0.00514768      -0.00431099 </v>
   <v>       0.00342800       0.01363775      -0.00195733 </v>
   <v>      -0.00315108      -0.00554385       0.00541670 </v>
   <v>      -0.01417269      -0.00838852      -0.00397742 </v>
   <v>       0.01425671      -0.00744408       0.00234538 </v>
   <v>      -0.00582652       0.00120168      -0.00179778 </v>
   <v>      -0.00240233       0.00582565      -0.00093999 </v>
   <v>       0.00468590       0.00121896       0.00337946 </v>
   <v>       0.00737196       0.00125035      -0.00177915 </v>
   <v>       0.00039506       0.00474922       0.00187304 </v>
   <v>      -0.00173992      -0.00567429       0.00785059 </v>
   <v>       0.00203161       0.00158623      -0.00085428 </v>
   <v>       0.00429567       0.00712311      -0.00440597 </v>
  </varray>
  <varray name="stress" >
   <v>       8.54472018       0.20770805       0.07735380 </v>
   <v>       0.20770721     -10.41243403       0.06978052 </v>
   <v>       0.07735171       0.06978222      -1.26510095 </v>
  </varray>
  <energy>
   <i name="e_fr_energy">    -49.86983159 </i>
   <i name="e_wo_entrp">    -49.86983159 </i>
   <i name="e_0_energy">     -0.00000000 </i>
  </energy>
  <time name="totalsc">  579.46  580.93</time>
 </calculation>
 <calculation>
  <scstep>
   <time name="dav">   15.60   15.63</time>
   <time name="total">  120.28  120.48</time>
   <energy>
    <i name="alphaZ">     15.92198659 </i>
    <i name="ewald">   1274.68666471 </i>
    <i name="hartreedc">  -2456.36921367 </i>
    <i name="XCdc">   -170.61349835 </i>
    <i name="pawpsdc">   1743.53146609 </i>
    <i name="pawaedc">  -1464.98910686 </i>
    <i name="eentropy">     -0.00000000 </i>
    <i name="bandstr">   -325.76635426 </i>
    <i name="atom">   1333.72818728 </i>
    <i name="e_fr_energy">    -49.86986846 </i>
    <i name="e_wo_entrp">    -49.86986846 </i>
    <i name="e_0_energy">    -49.86986846 </i>
   </energy>
  </scstep>
  <scstep>
   <time name="dav">   18.17   18.19</time>
   <time name="total">  119.15  119.27</time>
   <energy>
    <i name="alphaZ">     15.92198659 </i>
    <i name="ewald">   1274.68666471 </i>
    <i name="hartreedc">  -2456.36848888 </i>
    <i name="XCdc">   -170.61355024 </i>
    <i name="pawpsdc">   1743.52094761 </i>
    <i name="pawaedc">  -1464.97857739 </i>
    <i name="eentropy">     -0.00000000 </i>
    <i name="bandstr">   -325.76704131 </i>
    <i name="atom">   1333.72818728 </i>
    <i name="e_fr_energy">    -49.86987162 </i>
    <i name="e_wo_entrp">    -49.86987162 </i>
    <i name="e_0_energy">    -49.86987162 </i>
   </energy>
  </scstep>
  <structure>
   <crystal>
    <varray name="basis" >
     <v>       6.01920000       0.00000000       0.00000000 </v>
     <v>       0.00000000      10.14000000       0.00000000 </v>
     <v>       0.00000000       0.00000000      15.00000000 </v>
    </varray>
    <i name="volume">    915.52032000 </i>
    <varray name="rec_basis" >
     <v>       0.16613503       0.00000000       0.00000000 </v>
     <v>       0.00000000       0.09861933       0.00000000 </v>
     <v>       0.00000000       0.00000000       0.06666667 </v>
    </varray>
   </crystal>
   <varray name="positions" >
    <v>       0.43690510       0.87528697       0.22259226 </v>
    <v>       0.93667103       0.87592775       0.27364952 </v>
    <v>       0.43713022       0.61231879       0.22380804 </v>
    <v>       0.93714444       0.61368047       0.27611956 </v>
    <v>       0.43525467       0.37477552       0.27814466 </v>
    <v>       0.93679801       0.37626865       0.22404940 </v>
    <v>       0.43578928       0.11366812       0.27245580 </v>
    <v>       0.93639914       0.11310772       0.22205468 </v>
    <v>       0.18644954      -0.00585680       0.24709696 </v>
    <v>       0.68647120      -0.00548713       0.24794350 </v>
    <v>       0.18670456       0.49462383       0.25030650 </v>
    <v>       0.68662899       0.49430558       0.25233621 </v>
    <v>       0.55974473       0.44720359       0.47748812 </v>
    <v>       0.77174527       0.37126426       0.47674689 </v>
    <v>       0.49093468       0.38080617       0.56284789 </v>
   </varray>
  </structure>
  <varray name="forces" >
   <v>       0.00117276      -0.00265311      -0.00159483 </v>
   <v>      -0.01101876       0.00022636       0.00061915 </v>
   <v>       0.00333132      -0.00580471      -0.00410334 </v>
   <v>       0.00344292       0.00600023      -0.00317557 </v>
   <v>      -0.00211031      -0.00362952       0.00451400 </v>
   <v>      -0.00936407      -0.00195634      -0.00261360 </v>
   <v>       0.00912396      -0.00623535       0.00270478 </v>
   <v>      -0.00356936       0.00131407      -0.00182968 </v>
   <v>       0.00258213       0.00357743       0.00102395 </v>
   <v>      -0.00072634       0.00006723       0.00141039 </v>
   <v>       0.00122071       0.00031649      -0.00399178 </v>
   <v>       0.00047971       0.00467884       0.00442192 </v>
   <v>      -0.00100886      -0.00241484       0.00105654 </v>
   <v>       0.00261232       0.00201304      -0.00066057 </v>
   <v>       0.00383187       0.00450017       0.00221863 </v>
  </varray>
  <varray name="stress" >
   <v>       8.54124522       0.18129356       0.07330035 </v>
   <v>       0.18129275     -10.42861293       0.05823675 </v>
   <v>       0.07329829       0.05823840      -1.26024978 </v>
  </varray>
  <energy>
   <i name="e_fr_energy">    -49.86987162 </i>
   <i name="e_wo_entrp">    -49.86987162 </i>
   <i name="e_0_energy">     -0.00000000 </i>
  </energy>
  <time name="totalsc">  477.13  482.81</time>
 </calculation>
 <calculation>
  <scstep>
   <time name="dav">   15.39   15.45</time>
   <time name="total">  120.09  120.44</time>
   <energy>
    <i name="alphaZ">     15.92198659 </i>
    <i name="ewald">   1274.60830281 </i>
    <i name="hartreedc">  -2456.29676944 </i>
    <i name="XCdc">   -170.61389847 </i>
    <i name="pawpsdc">   1743.51517351 </i>
    <i name="pawaedc">  -1464.97280874 </i>
    <i name="eentropy">     -0.00000000 </i>
    <i name="bandstr">   -325.76005905 </i>
    <i name="atom">   1333.72818728 </i>
    <i name="e_fr_energy">    -49.86988549 </i>
    <i name="e_wo_entrp">    -49.86988549 </i>
    <i name="e_0_energy">    -49.86988549 </i>
   </energy>
  </scstep>
  <scstep>
   <time name="dav">   21.03   21.05</time>
   <time name="total">  125.33  125.59</time>
   <energy>
    <i name="alphaZ">     15.92198659 </i>
    <i name="ewald">   1274.60830281 </i>
    <i name="hartreedc">  -2456.29654370 </i>
    <i name="XCdc">   -170.61398528 </i>
    <i name="pawpsdc">   1743.49782662 </i>
    <i name="pawaedc">  -1464.95553129 </i>
    <i name="eentropy">     -0.00000000 </i>
    <i name="bandstr">   -325.76013371 </i>
    <i name="atom">   1333.72818728 </i>
    <i name="e_fr_energy">    -49.86989067 </i>
    <i name="e_wo_entrp">    -49.86989067 </i>
    <i name="e_0_energy">    -49.86989067 </i>
   </energy>
  </scstep>
  <structure>
   <crystal>
    <varray name="basis" >
     <v>       6.01920000       0.00000000       0.00000000 </v>
     <v>       0.00000000      10.14000000       0.00000000 </v>
     <v>       0.00000000       0.00000000      15.00000000 </v>
    </varray>
    <i name="volume">    915.52032000 </i>
    <varray name="rec_basis" >
     <v>       0.16613503       0.00000000       0.00000000 </v>
     <v>       0.00000000       0.09861933       0.00000000 </v>
     <v>       0.00000000       0.00000000       0.06666667 </v>
    </varray>
   </crystal>
   <varray name="positions" >
    <v>       0.43690854       0.87526583       0.22259296 </v>
    <v>       0.93656427       0.87591843       0.27364962 </v>
    <v>       0.43713684       0.61229369       0.22379835 </v>
    <v>       0.93714101       0.61371986       0.27611175 </v>
    <v>       0.43523035       0.37475095       0.27816548 </v>
    <v>       0.93670631       0.37622078       0.22404652 </v>
    <v>       0.43585464       0.11363563       0.27245646 </v>
    <v>       0.93634661       0.11309610       0.22204485 </v>
    <v>       0.18640971      -0.00584784       0.24708597 </v>
    <v>       0.68649144      -0.00549202       0.24795598 </v>
    <v>       0.18672420       0.49461697       0.25031391 </v>
    <v>       0.68662503       0.49430773       0.25232751 </v>
    <v>       0.55978339       0.44721937       0.47750385 </v>
    <v>       0.77180412       0.37129887       0.47674020 </v>
    <v>       0.49104441       0.38088915       0.56284661 </v>
   </varray>
  </structure>
  <varray name="forces" >
   <v>      -0.00221917      -0.00022933      -0.00157918 </v>
   <v>      -0.00154443       0.00252540       0.00035029 </v>
   <v>       0.00282912      -0.00510609      -0.00400583 </v>
   <v>       0.00421589      -0.00417082      -0.00477994 </v>
   <v>      -0.00005010      -0.00052804       0.00300128 </v>
   <v>      -0.00283285       0.00821427      -0.00057493 </v>
   <v>       0.00213570      -0.00345532       0.00338282 </v>
   <v>       0.00084599       0.00187200      -0.00141697 </v>
   <v>       0.00553691      -0.00063081       0.00088792 </v>
   <v>      -0.00766535      -0.00266463       0.00086984 </v>
   <v>      -0.00826392      -0.00249147      -0.00424802 </v>
   <v>       0.00135461       0.00306823       0.00496042 </v>
   <v>       0.00268391       0.00279592      -0.00808283 </v>
   <v>       0.00203088       0.00189523      -0.00002203 </v>
   <v>       0.00094281      -0.00109455       0.01125716 </v>
  </varray>
  <varray name="stress" >
   <v>       8.53520076       0.15973069       0.06742075 </v>
   <v>       0.15972985     -10.44731987       0.03879237 </v>
   <v>       0.06741875       0.03879408      -1.24625632 </v>
  </varray>
  <energy>
   <i name="e_fr_energy">    -49.86989067 </i>
   <i name="e_wo_entrp">    -49.86989067 </i>
   <i name="e_0_energy">     -0.00000000 </i>
  </energy>
  <time name="totalsc">  480.65  482.26</time>
 </calculation>
 <calculation>
  <scstep>
   <time name="dav">   15.54   15.57</time>
   <time name="total">  120.18  120.34</time>
   <energy>
    <i name="alphaZ">     15.92198659 </i>
    <i name="ewald">   1274.61086084 </i>
    <i name="hartreedc">  -2456.30019684 </i>
    <i name="XCdc">   -170.61454411 </i>
    <i name="pawpsdc">   1743.48549115 </i>
    <i name="pawaedc">  -1464.94325237 </i>
    <i name="eentropy">     -0.00000000 </i>
    <i name="bandstr">   -325.75843758 </i>
    <i name="atom">   1333.72818728 </i>
    <i name="e_fr_energy">    -49.86990504 </i>
    <i name="e_wo_entrp">    -49.86990504 </i>
    <i name="e_0_energy">    -49.86990504 </i>
   </energy>
  </scstep>
  <scstep>
   <time name="dav">   15.62   15.66</time>
   <time name="total">  121.46  121.64</time>
   <energy>
    <i name="alphaZ">     15.92198659 </i>
    <i name="ewald">   1274.61086084 </i>
    <i name="hartreedc">  -2456.29925257 </i>
    <i name="XCdc">   -170.61461416 </i>
    <i name="pawpsdc">   1743.46651791 </i>
    <i name="pawaedc">  -1464.92426134 </i>
    <i name="eentropy">     -0.00000000 </i>
    <i name="bandstr">   -325.75933185 </i>
    <i name="atom">   1333.72818728 </i>
    <i name="e_fr_energy">    -49.86990730 </i>
    <i name="e_wo_entrp">    -49.86990730 </i>
    <i name="e_0_energy">    -49.86990730 </i>
   </energy>
  </scstep>
  <structure>
   <crystal>
    <varray name="basis" >
     <v>       6.01920000       0.00000000       0.00000000 </v>
     <v>       0.00000000      10.14000000       0.00000000 </v>
     <v>       0.00000000       0.00000000      15.00000000 </v>
    </varray>
    <i name="volume">    915.52032000 </i>
    <varray name="rec_basis" >
     <v>       0.16613503       0.00000000       0.00000000 </v>
     <v>       0.00000000       0.09861933       0.00000000 </v>
     <v>       0.00000000       0.00000000       0.06666667 </v>
    </varray>
   </crystal>
   <varray name="positions" >
    <v>       0.43689823       0.87525564       0.22258989 </v>
    <v>       0.93650823       0.87592226       0.27365042 </v>
    <v>       0.43715491       0.61226628       0.22378543 </v>
    <v>       0.93716198       0.61372428       0.27609801 </v>
    <v>       0.43521920       0.37473828       0.27818123 </v>
    <v>       0.93665012       0.37622538       0.22404399 </v>
    <v>       0.43589530       0.11361014       0.27246400 </v>
    <v>       0.93632761       0.11309683       0.22203742 </v>
    <v>       0.18642144      -0.00584583       0.24708295 </v>
    <v>       0.68645958      -0.00550266       0.24796344 </v>
    <v>       0.18668887       0.49460599       0.25030812 </v>
    <v>       0.68663049       0.49431842       0.25233423 </v>
    <v>       0.55981502       0.44723529       0.47749357 </v>
    <v>       0.77184131       0.37132037       0.47673716 </v>
    <v>       0.49109857       0.38092283       0.56287015 </v>
   </varray>
  </structure>
  <varray name="forces" >
   <v>      -0.00455882      -0.00175947      -0.00218590 </v>
   <v>       0.00326503       0.00219742       0.00009929 </v>
   <v>      -0.00026842      -0.00345770      -0.00394237 </v>
   <v>       0.00320244      -0.00291247      -0.00394426 </v>
   <v>      -0.00079652       0.00040238       0.00237065 </v>
   <v>      -0.00098069       0.00658082      -0.00082009 </v>
   <v>      -0.00260202      -0.00027022       0.00388317 </v>
   <v>       0.00225283       0.00100007      -0.00107398 </v>
   <v>       0.00040161      -0.00159492       0.00091575 </v>
   <v>      -0.00236484      -0.00200338       0.00025483 </v>
   <v>      -0.00182365      -0.00299788      -0.00377552 </v>
   <v>      -0.00065905       0.00045213       0.00449236 </v>
   <v>       0.00079079       0.00104110      -0.00275207 </v>
   <v>       0.00202795       0.00195294      -0.00020944 </v>
   <v>       0.00211336       0.00136917       0.00668758 </v>
  </varray>
  <varray name="stress" >
   <v>       8.53103131       0.13666371       0.06978697 </v>
   <v>       0.13666285     -10.44584573       0.04244833 </v>
   <v>       0.06978494       0.04245016      -1.24552044 </v>
  </varray>
  <energy>
   <i name="e_fr_energy">    -49.86990730 </i>
   <i name="e_wo_entrp">    -49.86990730 </i>
   <i name="e_0_energy">     -0.00000000 </i>
  </energy>
  <time name="totalsc">  473.67  475.68</time>
  <eigenvalues>
   <array>
    <dimension dim="1">band</dimension>
    <dimension dim="2">kpoint</dimension>
    <dimension dim="3">spin</dimension>
    <field>eigene</field>
    <field>occ</field>
    <set>
     <set comment="spin 1">
      <set comment="kpoint 1">
       <r>  -16.7915    1.0000 </r>
       <r>  -13.3818    1.0000 </r>
       <r>  -13.2220    1.0000 </r>
       <r>  -11.2541    1.0000 </r>
       <r>  -11.1916    1.0000 </r>
       <r>   -8.7274    1.0000 </r>
       <r>   -8.3442    1.0000 </r>
       <r>   -8.1381    1.0000 </r>
       <r>   -8.0465    1.0000 </r>
       <r>   -7.4775    1.0000 </r>
       <r>   -6.0864    1.0000 </r>
       <r>   -5.6539    1.0000 </r>
       <r>   -5.4162    1.0000 </r>
       <r>   -4.9831    1.0000 </r>
       <r>   -4.6977    1.0000 </r>
       <r>   -4.3368    1.0000 </r>
       <r>   -4.2724    1.0000 </r>
       <r>   -3.8299    1.0000 </r>
       <r>   -3.4669    1.0000 </r>
       <r>   -2.5460    1.0000 </r>
       <r>   -2.5231    1.0000 </r>
       <r>   -2.3388    1.0000 </r>
       <r>   -2.1597    1.0000 </r>
       <r>   -2.0572    1.0000 </r>
       <r>   -0.9639    0.0000 </r>
       <r>   -0.5387    0.0000 </r>
       <r>   -0.2058    0.0000 </r>
       <r>   -0.1411    0.0000 </r>
       <r>   -0.1241    0.0000 </r>
       <r>   -0.0612    0.0000 </r>
       <r>    0.4377    0.0000 </r>
       <r>    0.6308    0.0000 </r>
      </set>
      <set comment="kpoint 2">
       <r>  -16.7903    1.0000 </r>
       <r>  -13.2566    1.0000 </r>
       <r>  -13.1001    1.0000 </r>
       <r>  -11.6362    1.0000 </r>
       <r>  -11.5440    1.0000 </r>
       <r>   -8.7386    1.0000 </r>
       <r>   -7.9975    1.0000 </r>
       <r>   -7.7884    1.0000 </r>
       <r>   -7.5568    1.0000 </r>
       <r>   -7.3661    1.0000 </r>
       <r>   -6.0339    1.0000 </r>
       <r>   -5.9626    1.0000 </r>
       <r>   -5.5640    1.0000 </r>
       <r>   -4.9060    1.0000 </r>
       <r>   -4.6490    1.0000 </r>
       <r>   -4.4790    1.0000 </r>
       <r>   -4.2031    1.0000 </r>
       <r>   -3.7321    1.0000 </r>
       <r>   -3.2397    1.0000 </r>
       <r>   -3.2048    1.0000 </r>
       <r>   -3.1849    1.0000 </r>
       <r>   -2.8560    1.0000 </r>
       <r>   -2.5686    1.0000 </r>
       <r>   -1.9573    1.0000 </r>
       <r>   -1.1278    0.0000 </r>
       <r>   -0.3428    0.0000 </r>
       <r>   -0.0770    0.0000 </r>
       <r>    0.0291    0.0000 </r>
       <r>    0.2274    0.0000 </r>
       <r>    0.4262    0.0000 </r>
       <r>    0.7010    0.0000 </r>
       <r>    0.8074    0.0000 </r>
      </set>
      <set comment="kpoint 3">
       <r>  -16.7884    1.0000 </r>
       <r>  -12.8891    1.0000 </r>
       <r>  -12.7431    1.0000 </r>
       <r>  -12.3121    1.0000 </r>
       <r>  -12.1861    1.0000 </r>
       <r>   -8.7571    1.0000 </r>
       <r>   -7.6100    1.0000 </r>
       <r>   -7.5074    1.0000 </r>
       <r>   -6.8852    1.0000 </r>
       <r>   -6.4865    1.0000 </r>
       <r>   -6.1730    1.0000 </r>
       <r>   -5.6298    1.0000 </r>
       <r>   -5.5022    1.0000 </r>
       <r>   -5.1335    1.0000 </r>
       <r>   -4.7720    1.0000 </r>
       <r>   -4.6268    1.0000 </r>
       <r>   -4.3293    1.0000 </r>
       <r>   -4.3204    1.0000 </r>
       <r>   -4.1904    1.0000 </r>
       <r>   -3.8680    1.0000 </r>
       <r>   -3.5876    1.0000 </r>
       <r>   -3.2495    1.0000 </r>
       <r>   -2.4389    1.0000 </r>
       <r>   -2.0304    1.0000 </r>
       <r>   -0.9649    0.0000 </r>
       <r>   -0.4609    0.0000 </r>
       <r>    0.2248    0.0000 </r>
       <r>    0.3514    0.0000 </r>
       <r>    0.5752    0.0000 </r>
       <r>    0.6242    0.0000 </r>
       <r>    0.7276    0.0000 </r>
       <r>    0.9868    0.0000 </r>
      </set>
      <set comment="kpoint 4">
       <r>  -16.7915    1.0000 </r>
       <r>  -13.3447    1.0000 </r>
       <r>  -13.2637    1.0000 </r>
       <r>  -11.2407    1.0000 </r>
       <r>  -11.2057    1.0000 </r>
       <r>   -8.7259    1.0000 </r>
       <r>   -8.2821    1.0000 </r>
       <r>   -8.1280    1.0000 </r>
       <r>   -7.8547    1.0000 </r>
       <r>   -7.4789    1.0000 </r>
       <r>   -7.0649    1.0000 </r>
       <r>   -5.2652    1.0000 </r>
       <r>   -4.8794    1.0000 </r>
       <r>   -4.8213    1.0000 </r>
       <r>   -4.5219    1.0000 </r>
       <r>   -4.4748    1.0000 </r>
       <r>   -4.2816    1.0000 </r>
       <r>   -3.7027    1.0000 </r>
       <r>   -3.4883    1.0000 </r>
       <r>   -2.9101    1.0000 </r>
       <r>   -2.5407    1.0000 </r>
       <r>   -2.5294    1.0000 </r>
       <r>   -2.3177    1.0000 </r>
       <r>   -2.1827    1.0000 </r>
       <r>   -0.9845    0.0000 </r>
       <r>   -0.5321    0.0000 </r>
       <r>   -0.3759    0.0000 </r>
       <r>   -0.1953    0.0000 </r>
       <r>   -0.0015    0.0000 </r>
       <r>    0.2449    0.0000 </r>
       <r>    0.3770    0.0000 </r>
       <r>    0.4865    0.0000 </r>
      </set>
      <set comment="kpoint 5">
       <r>  -16.7903    1.0000 </r>
       <r>  -13.2203    1.0000 </r>
       <r>  -13.1409    1.0000 </r>
       <r>  -11.6152    1.0000 </r>
       <r>  -11.5663    1.0000 </r>
       <r>   -8.7376    1.0000 </r>
       <r>   -7.7630    1.0000 </r>
       <r>   -7.7062    1.0000 </r>
       <r>   -7.5893    1.0000 </r>
       <r>   -7.3995    1.0000 </r>
       <r>   -6.9372    1.0000 </r>
       <r>   -5.7771    1.0000 </r>
       <r>   -5.1643    1.0000 </r>
       <r>   -4.8266    1.0000 </r>
       <r>   -4.5376    1.0000 </r>
       <r>   -4.3874    1.0000 </r>
       <r>   -4.2170    1.0000 </r>
       <r>   -3.3925    1.0000 </r>
       <r>   -3.2834    1.0000 </r>
       <r>   -3.2184    1.0000 </r>
       <r>   -3.1611    1.0000 </r>
       <r>   -2.8949    1.0000 </r>
       <r>   -2.6464    1.0000 </r>
       <r>   -2.5956    1.0000 </r>
       <r>   -0.8745    0.0000 </r>
       <r>   -0.3992    0.0000 </r>
       <r>   -0.1816    0.0000 </r>
       <r>    0.1030    0.0000 </r>
       <r>    0.2238    0.0000 </r>
       <r>    0.3319    0.0000 </r>
       <r>    0.5277    0.0000 </r>
       <r>    0.7199    0.0000 </r>
      </set>
      <set comment="kpoint 6">
       <r>  -16.7884    1.0000 </r>
       <r>  -12.8552    1.0000 </r>
       <r>  -12.7808    1.0000 </r>
       <r>  -12.2830    1.0000 </r>
       <r>  -12.2180    1.0000 </r>
       <r>   -8.7567    1.0000 </r>
       <r>   -7.5551    1.0000 </r>
       <r>   -7.2948    1.0000 </r>
       <r>   -6.7159    1.0000 </r>
       <r>   -6.5758    1.0000 </r>
       <r>   -6.5018    1.0000 </r>
       <r>   -6.1305    1.0000 </r>
       <r>   -5.7390    1.0000 </r>
       <r>   -4.8888    1.0000 </r>
       <r>   -4.7544    1.0000 </r>
       <r>   -4.6431    1.0000 </r>
       <r>   -4.1730    1.0000 </r>
       <r>   -3.9998    1.0000 </r>
       <r>   -3.8170    1.0000 </r>
       <r>   -3.5741    1.0000 </r>
       <r>   -3.4934    1.0000 </r>
       <r>   -3.3007    1.0000 </r>
       <r>   -2.7171    1.0000 </r>
       <r>   -2.6273    1.0000 </r>
       <r>   -0.6348    0.0000 </r>
       <r>   -0.2554    0.0000 </r>
       <r>    0.0118    0.0000 </r>
       <r>    0.2909    0.0000 </r>
       <r>    0.4784    0.0000 </r>
       <r>    0.5503    0.0000 </r>
       <r>    0.8975    0.0000 </r>
       <r>    1.0114    0.0000 </r>
      </set>
      <set comment="kpoint 7">
       <r>  -16.7884    1.0000 </r>
       <r>  -12.8552    1.0000 </r>
       <r>  -12.7807    1.0000 </r>
       <r>  -12.2829    1.0000 </r>
       <r>  -12.2181    1.0000 </r>
       <r>   -8.7566    1.0000 </r>
       <r>   -7.5558    1.0000 </r>
       <r>   -7.2972    1.0000 </r>
       <r>   -6.7054    1.0000 </r>
       <r>   -6.5695    1.0000 </r>
       <r>   -6.5099    1.0000 </r>
       <r>   -6.1388    1.0000 </r>
       <r>   -5.7351    1.0000 </r>
       <r>   -4.9129    1.0000 </r>
       <r>   -4.7327    1.0000 </r>
       <r>   -4.6403    1.0000 </r>
       <r>   -4.1843    1.0000 </r>
       <r>   -3.9950    1.0000 </r>
       <r>   -3.8137    1.0000 </r>
       <r>   -3.5619    1.0000 </r>
       <r>   -3.4899    1.0000 </r>
       <r>   -3.3149    1.0000 </r>
       <r>   -2.7184    1.0000 </r>
       <r>   -2.6243    1.0000 </r>
       <r>   -0.6557    0.0000 </r>
       <r>   -0.2226    0.0000 </r>
       <r>    0.0320    0.0000 </r>
       <r>    0.2697    0.0000 </r>
       <r>    0.5051    0.0000 </r>
       <r>    0.5262    0.0000 </r>
       <r>    0.8959    0.0000 </r>
       <r>    1.0365    0.0000 </r>
      </set>
      <set comment="kpoint 8">
       <r>  -16.7903    1.0000 </r>
       <r>  -13.2203    1.0000 </r>
       <r>  -13.1409    1.0000 </r>
       <r>  -11.6151    1.0000 </r>
       <r>  -11.5665    1.0000 </r>
       <r>   -8.7375    1.0000 </r>
       <r>   -7.7652    1.0000 </r>
       <r>   -7.7068    1.0000 </r>
       <r>   -7.5872    1.0000 </r>
       <r>   -7.3999    1.0000 </r>
       <r>   -6.9340    1.0000 </r>
       <r>   -5.7713    1.0000 </r>
       <r>   -5.1895    1.0000 </r>
       <r>   -4.8129    1.0000 </r>
       <r>   -4.5433    1.0000 </r>
       <r>   -4.3906    1.0000 </r>
       <r>   -4.2024    1.0000 </r>
       <r>   -3.3955    1.0000 </r>
       <r>   -3.2840    1.0000 </r>
       <r>   -3.2161    1.0000 </r>
       <r>   -3.1595    1.0000 </r>
       <r>   -2.8938    1.0000 </r>
       <r>   -2.6463    1.0000 </r>
       <r>   -2.5945    1.0000 </r>
       <r>   -0.8948    0.0000 </r>
       <r>   -0.3379    0.0000 </r>
       <r>   -0.2056    0.0000 </r>
       <r>    0.0940    0.0000 </r>
       <r>    0.1566    0.0000 </r>
       <r>    0.3761    0.0000 </r>
       <r>    0.5481    0.0000 </r>
       <r>    0.6994    0.0000 </r>
      </set>
     </set>
    </set>
   </array>
  </eigenvalues>
  <separator name="orbital magnetization" >
   <v name="MAGDIPOLOUT">      0.00000000      0.00000000      0.00000000</v>
  </separator>
  <dos>
   <i name="efermi">     -1.72873037 </i>
   <total>
    <array>
     <dimension dim="1">gridpoints</dimension>
     <dimension dim="2">spin</dimension>
     <field>energy</field>
     <field>total</field>
     <field>integrated</field>
     <set>
      <set comment="spin 1">
       <r>   -17.6830     0.0000     0.0000 </r>
       <r>   -17.6176     0.0000     0.0000 </r>
       <r>   -17.5522     0.0000     0.0000 </r>
       <r>   -17.4868     0.0000     0.0000 </r>
       <r>   -17.4215     0.0000     0.0000 </r>
       <r>   -17.3561     0.0000     0.0000 </r>
       <r>   -17.2907     0.0000     0.0000 </r>
       <r>   -17.2254     0.0000     0.0000 </r>
       <r>   -17.1600     0.0000     0.0000 </r>
       <r>   -17.0946     0.0000     0.0000 </r>
       <r>   -17.0293     0.0000     0.0000 </r>
       <r>   -16.9639     0.0000     0.0000 </r>
       <r>   -16.8985     0.0324     0.0021 </r>
       <r>   -16.8331     3.3408     0.2205 </r>
       <r>   -16.7678    19.0604     1.4665 </r>
       <r>   -16.7024     7.9554     1.9865 </r>
       <r>   -16.6370     0.2062     2.0000 </r>
       <r>   -16.5717     0.0002     2.0000 </r>
       <r>   -16.5063     0.0000     2.0000 </r>
       <r>   -16.4409     0.0000     2.0000 </r>
       <r>   -16.3756     0.0000     2.0000 </r>
       <r>   -16.3102     0.0000     2.0000 </r>
       <r>   -16.2448     0.0000     2.0000 </r>
       <r>   -16.1795     0.0000     2.0000 </r>
       <r>   -16.1141     0.0000     2.0000 </r>
       <r>   -16.0487     0.0000     2.0000 </r>
       <r>   -15.9833     0.0000     2.0000 </r>
       <r>   -15.9180     0.0000     2.0000 </r>
       <r>   -15.8526     0.0000     2.0000 </r>
       <r>   -15.7872     0.0000     2.0000 </r>
       <r>   -15.7219     0.0000     2.0000 </r>
       <r>   -15.6565     0.0000     2.0000 </r>
       <r>   -15.5911     0.0000     2.0000 </r>
       <r>   -15.5258     0.0000     2.0000 </r>
       <r>   -15.4604     0.0000     2.0000 </r>
       <r>   -15.3950     0.0000     2.0000 </r>
       <r>   -15.3297     0.0000     2.0000 </r>
       <r>   -15.2643     0.0000     2.0000 </r>
       <r>   -15.1989     0.0000     2.0000 </r>
       <r>   -15.1335     0.0000     2.0000 </r>
       <r>   -15.0682     0.0000     2.0000 </r>
       <r>   -15.0028     0.0000     2.0000 </r>
       <r>   -14.9374     0.0000     2.0000 </r>
       <r>   -14.8721     0.0000     2.0000 </r>
       <r>   -14.8067     0.0000     2.0000 </r>
       <r>   -14.7413     0.0000     2.0000 </r>
       <r>   -14.6760     0.0000     2.0000 </r>
       <r>   -14.6106     0.0000     2.0000 </r>
       <r>   -14.5452     0.0000     2.0000 </r>
       <r>   -14.4798     0.0000     2.0000 </r>
       <r>   -14.4145     0.0000     2.0000 </r>
       <r>   -14.3491     0.0000     2.0000 </r>
       <r>   -14.2837     0.0000     2.0000 </r>
       <r>   -14.2184     0.0000     2.0000 </r>
       <r>   -14.1530     0.0000     2.0000 </r>
       <r>   -14.0876     0.0000     2.0000 </r>
       <r>   -14.0223     0.0000     2.0000 </r>
       <r>   -13.9569     0.0000     2.0000 </r>
       <r>   -13.8915     0.0000     2.0000 </r>
       <r>   -13.8262     0.0000     2.0000 </r>
       <r>   -13.7608     0.0000     2.0000 </r>
       <r>   -13.6954     0.0000     2.0000 </r>
       <r>   -13.6300     0.0000     2.0000 </r>
       <r>   -13.5647     0.0000     2.0000 </r>
       <r>   -13.4993     0.0009     2.0001 </r>
       <r>   -13.4339     0.1659     2.0109 </r>
       <r>   -13.3686     2.1795     2.1534 </r>
       <r>   -13.3032     4.2769     2.4330 </r>
       <r>   -13.2378     8.7093     3.0023 </r>
       <r>   -13.1725     9.8046     3.6432 </r>
       <r>   -13.1071     7.8287     4.1550 </r>
       <r>   -13.0417     3.5273     4.3855 </r>
       <r>   -12.9764     0.2506     4.4019 </r>
       <r>   -12.9110     1.5320     4.5021 </r>
       <r>   -12.8456     7.3033     4.9795 </r>
       <r>   -12.7802     7.9590     5.4997 </r>
       <r>   -12.7149     6.5327     5.9268 </r>
       <r>   -12.6495     1.1027     5.9989 </r>
       <r>   -12.5841     0.0173     6.0000 </r>
       <r>   -12.5188     0.0000     6.0000 </r>
       <r>   -12.4534     0.0001     6.0000 </r>
       <r>   -12.3880     0.0767     6.0050 </r>
       <r>   -12.3227     2.5617     6.1725 </r>
       <r>   -12.2573     8.6202     6.7360 </r>
       <r>   -12.1919     8.9921     7.3238 </r>
       <r>   -12.1266     3.9981     7.5851 </r>
       <r>   -12.0612     0.2266     7.5999 </r>
       <r>   -11.9958     0.0009     7.6000 </r>
       <r>   -11.9304     0.0000     7.6000 </r>
       <r>   -11.8651     0.0000     7.6000 </r>
       <r>   -11.7997     0.0000     7.6000 </r>
       <r>   -11.7343     0.0143     7.6009 </r>
       <r>   -11.6690     1.2455     7.6823 </r>
       <r>   -11.6036     8.5970     8.2443 </r>
       <r>   -11.5382    10.9742     8.9617 </r>
       <r>   -11.4729     3.5215     9.1919 </r>
       <r>   -11.4075     0.1236     9.2000 </r>
       <r>   -11.3421     0.0220     9.2014 </r>
       <r>   -11.2767     1.2454     9.2828 </r>
       <r>   -11.2114     6.1586     9.6854 </r>
       <r>   -11.1460     4.4083     9.9736 </r>
       <r>   -11.0806     0.4016     9.9998 </r>
       <r>   -11.0153     0.0026    10.0000 </r>
       <r>   -10.9499     0.0000    10.0000 </r>
       <r>   -10.8845     0.0000    10.0000 </r>
       <r>   -10.8192     0.0000    10.0000 </r>
       <r>   -10.7538     0.0000    10.0000 </r>
       <r>   -10.6884     0.0000    10.0000 </r>
       <r>   -10.6231     0.0000    10.0000 </r>
       <r>   -10.5577     0.0000    10.0000 </r>
       <r>   -10.4923     0.0000    10.0000 </r>
       <r>   -10.4269     0.0000    10.0000 </r>
       <r>   -10.3616     0.0000    10.0000 </r>
       <r>   -10.2962     0.0000    10.0000 </r>
       <r>   -10.2308     0.0000    10.0000 </r>
       <r>   -10.1655     0.0000    10.0000 </r>
       <r>   -10.1001     0.0000    10.0000 </r>
       <r>   -10.0347     0.0000    10.0000 </r>
       <r>    -9.9694     0.0000    10.0000 </r>
       <r>    -9.9040     0.0000    10.0000 </r>
       <r>    -9.8386     0.0000    10.0000 </r>
       <r>    -9.7733     0.0000    10.0000 </r>
       <r>    -9.7079     0.0000    10.0000 </r>
       <r>    -9.6425     0.0000    10.0000 </r>
       <r>    -9.5771     0.0000    10.0000 </r>
       <r>    -9.5118     0.0000    10.0000 </r>
       <r>    -9.4464     0.0000    10.0000 </r>
       <r>    -9.3810     0.0000    10.0000 </r>
       <r>    -9.3157     0.0000    10.0000 </r>
       <r>    -9.2503     0.0000    10.0000 </r>
       <r>    -9.1849     0.0000    10.0000 </r>
       <r>    -9.1196     0.0000    10.0000 </r>
       <r>    -9.0542     0.0000    10.0000 </r>
       <r>    -8.9888     0.0000    10.0000 </r>
       <r>    -8.9235     0.0000    10.0000 </r>
       <r>    -8.8581     0.0302    10.0020 </r>
       <r>    -8.7927     2.7901    10.1844 </r>
       <r>    -8.7273    17.4891    11.3276 </r>
       <r>    -8.6620     9.8374    11.9707 </r>
       <r>    -8.5966     0.4474    11.9999 </r>
       <r>    -8.5312     0.0012    12.0000 </r>
       <r>    -8.4659     0.0006    12.0000 </r>
       <r>    -8.4005     0.1146    12.0075 </r>
       <r>    -8.3351     1.3833    12.0980 </r>
       <r>    -8.2698     3.1000    12.3006 </r>
       <r>    -8.2044     1.5880    12.4044 </r>
       <r>    -8.1390     2.4814    12.5666 </r>
       <r>    -8.0736     3.7629    12.8126 </r>
       <r>    -8.0083     3.1116    13.0160 </r>
       <r>    -7.9429     2.5871    13.1851 </r>
       <r>    -7.8775     1.3127    13.2709 </r>
       <r>    -7.8122     4.2711    13.5501 </r>
       <r>    -7.7468     8.9582    14.1357 </r>
       <r>    -7.6814     8.2525    14.6752 </r>
       <r>    -7.6161     5.9354    15.0632 </r>
       <r>    -7.5507    14.2564    15.9951 </r>
       <r>    -7.4853    11.5406    16.7495 </r>
       <r>    -7.4200     7.1006    17.2137 </r>
       <r>    -7.3546     8.0453    17.7396 </r>
       <r>    -7.2892     6.5773    18.1695 </r>
       <r>    -7.2238     3.3568    18.3890 </r>
       <r>    -7.1585     0.1849    18.4011 </r>
       <r>    -7.0931     0.8497    18.4566 </r>
       <r>    -7.0277     2.6525    18.6300 </r>
       <r>    -6.9624     2.4474    18.7900 </r>
       <r>    -6.8970     6.6557    19.2251 </r>
       <r>    -6.8316     3.4207    19.4487 </r>
       <r>    -6.7663     0.7624    19.4985 </r>
       <r>    -6.7009     4.4711    19.7908 </r>
       <r>    -6.6355     3.3689    20.0110 </r>
       <r>    -6.5702     4.4649    20.3029 </r>
       <r>    -6.5048     8.7043    20.8719 </r>
       <r>    -6.4394     6.4318    21.2923 </r>
       <r>    -6.3740     0.6238    21.3331 </r>
       <r>    -6.3087     0.0041    21.3334 </r>
       <r>    -6.2433     0.1044    21.3402 </r>
       <r>    -6.1779     2.6327    21.5123 </r>
       <r>    -6.1126     7.6622    22.0131 </r>
       <r>    -6.0472     5.0244    22.3416 </r>
       <r>    -5.9818     3.8378    22.5925 </r>
       <r>    -5.9165     2.7811    22.7743 </r>
       <r>    -5.8511     0.5190    22.8082 </r>
       <r>    -5.7857     3.6079    23.0440 </r>
       <r>    -5.7203     9.5418    23.6678 </r>
       <r>    -5.6550     4.9441    23.9910 </r>
       <r>    -5.5896     4.6085    24.2922 </r>
       <r>    -5.5242     4.2375    24.5692 </r>
       <r>    -5.4589     3.3056    24.7853 </r>
       <r>    -5.3935     1.7289    24.8983 </r>
       <r>    -5.3281     0.6757    24.9425 </r>
       <r>    -5.2628     2.1013    25.0799 </r>
       <r>    -5.1974     4.2643    25.3586 </r>
       <r>    -5.1320     6.8930    25.8092 </r>
       <r>    -5.0667     2.8048    25.9926 </r>
       <r>    -5.0013     0.7767    26.0433 </r>
       <r>    -4.9359     3.6532    26.2822 </r>
       <r>    -4.8705    11.0412    27.0039 </r>
       <r>    -4.8052    12.0973    27.7947 </r>
       <r>    -4.7398    11.0212    28.5151 </r>
       <r>    -4.6744     8.3887    29.0635 </r>
       <r>    -4.6091    11.3199    29.8035 </r>
       <r>    -4.5437     8.0560    30.3301 </r>
       <r>    -4.4783    10.4135    31.0108 </r>
       <r>    -4.4130     6.7580    31.4526 </r>
       <r>    -4.3476     8.4155    32.0027 </r>
       <r>    -4.2822    10.1115    32.6637 </r>
       <r>    -4.2169    10.8166    33.3708 </r>
       <r>    -4.1515    14.6746    34.3300 </r>
       <r>    -4.0861     3.1097    34.5333 </r>
       <r>    -4.0207     2.0822    34.6694 </r>
       <r>    -3.9554     5.1442    35.0057 </r>
       <r>    -3.8900     2.2443    35.1524 </r>
       <r>    -3.8246     6.7143    35.5913 </r>
       <r>    -3.7593     6.8671    36.0402 </r>
       <r>    -3.6939     5.3412    36.3894 </r>
       <r>    -3.6285     3.0015    36.5856 </r>
       <r>    -3.5632     7.0554    37.0468 </r>
       <r>    -3.4978     9.6814    37.6796 </r>
       <r>    -3.4324     9.1585    38.2783 </r>
       <r>    -3.3671     6.6376    38.7122 </r>
       <r>    -3.3017     8.9590    39.2979 </r>
       <r>    -3.2363    16.1913    40.3563 </r>
       <r>    -3.1709    17.0539    41.4711 </r>
       <r>    -3.1056     7.5268    41.9631 </r>
       <r>    -3.0402     0.5622    41.9999 </r>
       <r>    -2.9748     0.2339    42.0151 </r>
       <r>    -2.9095     4.8325    42.3310 </r>
       <r>    -2.8441     8.9928    42.9189 </r>
       <r>    -2.7787     2.5431    43.0851 </r>
       <r>    -2.7134     4.4954    43.3790 </r>
       <r>    -2.6480     9.8870    44.0253 </r>
       <r>    -2.5826    16.3751    45.0957 </r>
       <r>    -2.5172    13.7074    45.9918 </r>
       <r>    -2.4519     5.5253    46.3530 </r>
       <r>    -2.3865     2.7629    46.5336 </r>
       <r>    -2.3211     3.2852    46.7483 </r>
       <r>    -2.2558     2.7339    46.9270 </r>
       <r>    -2.1904     2.1789    47.0695 </r>
       <r>    -2.1250     3.5656    47.3025 </r>
       <r>    -2.0597     2.2687    47.4509 </r>
       <r>    -1.9943     4.2212    47.7268 </r>
       <r>    -1.9289     3.3104    47.9432 </r>
       <r>    -1.8636     0.8527    47.9989 </r>
       <r>    -1.7982     0.0163    48.0000 </r>
       <r>    -1.7328     0.0000    48.0000 </r>
       <r>    -1.6674     0.0000    48.0000 </r>
       <r>    -1.6021     0.0000    48.0000 </r>
       <r>    -1.5367     0.0000    48.0000 </r>
       <r>    -1.4713     0.0000    48.0000 </r>
       <r>    -1.4060     0.0000    48.0000 </r>
       <r>    -1.3406     0.0000    48.0000 </r>
       <r>    -1.2752     0.0001    48.0000 </r>
       <r>    -1.2099     0.0414    48.0027 </r>
       <r>    -1.1445     1.2583    48.0850 </r>
       <r>    -1.0791     2.4550    48.2454 </r>
       <r>    -1.0138     1.6589    48.3539 </r>
       <r>    -0.9484     6.5983    48.7852 </r>
       <r>    -0.8830     6.4174    49.2047 </r>
       <r>    -0.8176     3.7280    49.4484 </r>
       <r>    -0.7523     0.2928    49.4675 </r>
       <r>    -0.6869     1.0433    49.5357 </r>
       <r>    -0.6215     5.0218    49.8640 </r>
       <r>    -0.5562     3.6768    50.1044 </r>
       <r>    -0.4908     4.6828    50.4105 </r>
       <r>    -0.4254     4.5994    50.7111 </r>
       <r>    -0.3601     7.9542    51.2311 </r>
       <r>    -0.2947     7.5027    51.7215 </r>
       <r>    -0.2293     7.6459    52.2214 </r>
       <r>    -0.1640    12.8230    53.0596 </r>
       <r>    -0.0986     6.8708    53.5087 </r>
       <r>    -0.0332     6.0483    53.9041 </r>
       <r>     0.0322    10.2113    54.5716 </r>
       <r>     0.0975     9.4382    55.1886 </r>
       <r>     0.1629     6.8130    55.6339 </r>
       <r>     0.2283     9.9132    56.2820 </r>
       <r>     0.2936    13.3394    57.1539 </r>
       <r>     0.3590    10.8402    57.8626 </r>
       <r>     0.4244    10.5611    58.5529 </r>
       <r>     0.4897    11.1850    59.2841 </r>
       <r>     0.5551    16.6868    60.3749 </r>
       <r>     0.6205    10.6901    61.0737 </r>
       <r>     0.6859     7.6443    61.5734 </r>
       <r>     0.7512    10.4693    62.2578 </r>
       <r>     0.8166     4.6872    62.5642 </r>
       <r>     0.8820     4.2665    62.8431 </r>
       <r>     0.9473     5.5460    63.2056 </r>
       <r>     1.0127     6.1652    63.6086 </r>
       <r>     1.0781     5.3574    63.9589 </r>
       <r>     1.1434     0.6240    63.9996 </r>
       <r>     1.2088     0.0055    64.0000 </r>
       <r>     1.2742     0.0000    64.0000 </r>
       <r>     1.3395     0.0000    64.0000 </r>
       <r>     1.4049     0.0000    64.0000 </r>
       <r>     1.4703     0.0000    64.0000 </r>
       <r>     1.5357     0.0000    64.0000 </r>
       <r>     1.6010     0.0000    64.0000 </r>
       <r>     1.6664     0.0000    64.0000 </r>
       <r>     1.7318     0.0000    64.0000 </r>
       <r>     1.7971     0.0000    64.0000 </r>
       <r>     1.8625     0.0000    64.0000 </r>
       <r>     1.9279     0.0000    64.0000 </r>
      </set>
     </set>
    </array>
   </total>
  </dos>
 </calculation>
 <structure name="finalpos" >
  <crystal>
   <varray name="basis" >
    <v>       6.01920000       0.00000000       0.00000000 </v>
    <v>       0.00000000      10.14000000       0.00000000 </v>
    <v>       0.00000000       0.00000000      15.00000000 </v>
   </varray>
   <i name="volume">    915.52032000 </i>
   <varray name="rec_basis" >
    <v>       0.16613503       0.00000000       0.00000000 </v>
    <v>       0.00000000       0.09861933       0.00000000 </v>
    <v>       0.00000000       0.00000000       0.06666667 </v>
   </varray>
  </crystal>
  <varray name="positions" >
   <v>       0.43689823       0.87525564       0.22258989 </v>
   <v>       0.93650823       0.87592226       0.27365042 </v>
   <v>       0.43715491       0.61226628       0.22378543 </v>
   <v>       0.93716198       0.61372428       0.27609801 </v>
   <v>       0.43521920       0.37473828       0.27818123 </v>
   <v>       0.93665012       0.37622538       0.22404399 </v>
   <v>       0.43589530       0.11361014       0.27246400 </v>
   <v>       0.93632761       0.11309683       0.22203742 </v>
   <v>       0.18642144      -0.00584583       0.24708295 </v>
   <v>       0.68645958      -0.00550266       0.24796344 </v>
   <v>       0.18668887       0.49460599       0.25030812 </v>
   <v>       0.68663049       0.49431842       0.25233423 </v>
   <v>       0.55981502       0.44723529       0.47749357 </v>
   <v>       0.77184131       0.37132037       0.47673716 </v>
   <v>       0.49109857       0.38092283       0.56287015 </v>
  </varray>
  <varray name="selective"  type="logical" >
   <v type="logical" >  T  T  T </v>
   <v type="logical" >  T  T  T </v>
   <v type="logical" >  T  T  T </v>
   <v type="logical" >  T  T  T </v>
   <v type="logical" >  T  T  T </v>
   <v type="logical" >  T  T  T </v>
   <v type="logical" >  T  T  T </v>
   <v type="logical" >  T  T  T </v>
   <v type="logical" >  T  T  T </v>
   <v type="logical" >  T  T  T </v>
   <v type="logical" >  T  T  T </v>
   <v type="logical" >  T  T  T </v>
   <v type="logical" >  T  T  T </v>
   <v type="logical" >  T  T  T </v>
   <v type="logical" >  T  T  T </v>
  </varray>
  <nose>
   <v>      -3.00000000       0.00000000       0.00010000       0.00010000 </v>
  </nose>
 </structure>
</modeling>
