Al   C    S    H                        
   1.0000000000000000     
     6.0191999999999997    0.0000000000000000    0.0000000000000000
     0.0000000000000000   10.1400000000000006    0.0000000000000000
     0.0000000000000000    0.0000000000000000   15.0000000000000000
   Al   C    S    H 
     8     4     1     2
Selective dynamics
Direct
  0.4240309606703148  0.8723022310989275  0.2486652549095010   T   T   T
  0.9246759501381914  0.8753475075984435  0.2431087733411598   T   T   T
  0.4421952710374484  0.6240451750959224  0.2977567491390213   T   T   T
  0.9230381535439128  0.6215350168846953  0.2644367483004170   T   T   T
  0.4299110101323505  0.3768423878982910  0.2497909814950486   T   T   T
  0.9131357683119296  0.3710503368396761  0.2593165622891445   T   T   T
  0.4250565548482081  0.1175576718404370  0.2345075469130361   T   T   T
  0.9229277425172842  0.1174107497444680  0.2410589189174894   T   T   T
  0.1746517064706667  0.9975612103827267  0.2430751457908178   T   T   T
  0.6738310674015922  0.9963518154214391  0.2352275214569670   T   T   T
  0.1730090523925054  0.4911619949667929  0.2923905372455970   T   T   T
  0.6759895469711757  0.4983789297860625  0.2496549173591968   T   T   T
  0.5401925310378912  0.6432703681453456  0.4448086666019240   T   T   T
  0.3851939549054220  0.7337611024171128  0.4689359655494413   T   T   T
  0.1647988932672453  0.4736545942958255  0.3658458892193802   T   T   T

  0.00000000E+00  0.00000000E+00  0.00000000E+00
  0.00000000E+00  0.00000000E+00  0.00000000E+00
  0.00000000E+00  0.00000000E+00  0.00000000E+00
  0.00000000E+00  0.00000000E+00  0.00000000E+00
  0.00000000E+00  0.00000000E+00  0.00000000E+00
  0.00000000E+00  0.00000000E+00  0.00000000E+00
  0.00000000E+00  0.00000000E+00  0.00000000E+00
  0.00000000E+00  0.00000000E+00  0.00000000E+00
  0.00000000E+00  0.00000000E+00  0.00000000E+00
  0.00000000E+00  0.00000000E+00  0.00000000E+00
  0.00000000E+00  0.00000000E+00  0.00000000E+00
  0.00000000E+00  0.00000000E+00  0.00000000E+00
  0.00000000E+00  0.00000000E+00  0.00000000E+00
  0.00000000E+00  0.00000000E+00  0.00000000E+00
  0.00000000E+00  0.00000000E+00  0.00000000E+00
