   15   15  999    1
  0.6103469E+02  0.6019200E-09  0.1014000E-08  0.1500000E-08  0.3500000E-15
   1.0000000000000000E-004
  CAR 
 Al2C                                    
     48      8     32

  0.3742002E-15  0.3742002E-15  0.1262379E-14  0.6666667E-01
    1      -15.232227   1.000000
    2      -14.664508   1.000000
    3      -13.800231   1.000000
    4      -12.753597   1.000000
    5      -11.674605   1.000000
    6       -8.957690   1.000000
    7       -8.900508   1.000000
    8       -8.633586   1.000000
    9       -7.656571   1.000000
   10       -7.402975   1.000000
   11       -6.718198   1.000000
   12       -6.255720   1.000000
   13       -5.899028   1.000000
   14       -5.268019   1.000000
   15       -5.085087   1.000000
   16       -4.754790   1.000000
   17       -4.361327   1.000000
   18       -4.016570   1.000000
   19       -3.881893   1.000000
   20       -3.442200   1.000000
   21       -3.195325   1.000000
   22       -2.941333   1.000000
   23       -2.545476   1.000000
   24       -2.291964   1.000000
   25       -1.599415   0.000000
   26       -1.134929   0.000000
   27       -0.356369   0.000000
   28       -0.046651   0.000000
   29        0.017087   0.000000
   30        0.455328   0.000000
   31        0.644974   0.000000
   32        0.901658   0.000000

  0.2000000E+00  0.3742002E-15  0.1262379E-14  0.1333333E+00
    1      -15.206234   1.000000
    2      -14.618900   1.000000
    3      -13.676235   1.000000
    4      -12.954693   1.000000
    5      -12.054644   1.000000
    6       -8.762572   1.000000
    7       -8.651250   1.000000
    8       -8.076729   1.000000
    9       -7.567839   1.000000
   10       -7.327415   1.000000
   11       -6.664629   1.000000
   12       -6.587103   1.000000
   13       -6.147015   1.000000
   14       -5.350555   1.000000
   15       -5.011238   1.000000
   16       -4.621326   1.000000
   17       -4.366698   1.000000
   18       -4.118547   1.000000
   19       -3.791071   1.000000
   20       -3.666276   1.000000
   21       -3.625958   1.000000
   22       -3.421222   1.000000
   23       -2.758700   1.000000
   24       -2.533950   1.000000
   25       -1.458436   0.000000
   26       -0.399560   0.000000
   27       -0.350631   0.000000
   28        0.064575   0.000000
   29        0.266924   0.000000
   30        0.694058   0.000000
   31        0.779223   0.000000
   32        0.898285   0.000000

  0.4000000E+00  0.3742002E-15  0.1262379E-14  0.1333333E+00
    1      -15.166680   1.000000
    2      -14.513608   1.000000
    3      -13.342461   1.000000
    4      -13.250010   1.000000
    5      -12.726422   1.000000
    6       -8.370472   1.000000
    7       -8.270952   1.000000
    8       -7.727825   1.000000
    9       -7.347584   1.000000
   10       -6.851964   1.000000
   11       -6.672473   1.000000
   12       -6.333266   1.000000
   13       -5.932381   1.000000
   14       -5.832401   1.000000
   15       -5.346735   1.000000
   16       -5.096427   1.000000
   17       -4.999883   1.000000
   18       -4.426484   1.000000
   19       -4.217637   1.000000
   20       -3.825213   1.000000
   21       -3.680520   1.000000
   22       -3.494229   1.000000
   23       -3.024783   1.000000
   24       -2.553598   1.000000
   25       -1.117605   0.000000
   26       -0.658468   0.000000
   27       -0.150494   0.000000
   28        0.635887   0.000000
   29        0.850313   0.000000
   30        1.202836   0.000000
   31        1.267422   0.000000
   32        1.323851   0.000000

  0.3742002E-15  0.3333333E+00  0.1262379E-14  0.1333333E+00
    1      -15.231586   1.000000
    2      -14.663693   1.000000
    3      -13.803840   1.000000
    4      -12.755439   1.000000
    5      -11.675512   1.000000
    6       -8.919298   1.000000
    7       -8.690333   1.000000
    8       -8.642136   1.000000
    9       -7.959530   1.000000
   10       -7.507190   1.000000
   11       -7.144453   1.000000
   12       -5.770387   1.000000
   13       -5.455755   1.000000
   14       -5.282955   1.000000
   15       -4.927992   1.000000
   16       -4.758816   1.000000
   17       -4.303604   1.000000
   18       -4.048298   1.000000
   19       -3.870713   1.000000
   20       -3.709892   1.000000
   21       -3.401797   1.000000
   22       -3.088445   1.000000
   23       -2.941667   1.000000
   24       -2.287953   1.000000
   25       -1.382197   0.000000
   26       -0.759431   0.000000
   27       -0.535735   0.000000
   28       -0.074721   0.000000
   29        0.402132   0.000000
   30        0.469162   0.000000
   31        0.673285   0.000000
   32        0.790037   0.000000

  0.2000000E+00  0.3333333E+00  0.1262379E-14  0.1333333E+00
    1      -15.205740   1.000000
    2      -14.618103   1.000000
    3      -13.678666   1.000000
    4      -12.956723   1.000000
    5      -12.056428   1.000000
    6       -8.661037   1.000000
    7       -8.490443   1.000000
    8       -8.105565   1.000000
    9       -7.865089   1.000000
   10       -7.338249   1.000000
   11       -7.144568   1.000000
   12       -6.394488   1.000000
   13       -5.793325   1.000000
   14       -5.311746   1.000000
   15       -4.779608   1.000000
   16       -4.618269   1.000000
   17       -4.323891   1.000000
   18       -3.975295   1.000000
   19       -3.778395   1.000000
   20       -3.722068   1.000000
   21       -3.630646   1.000000
   22       -3.561150   1.000000
   23       -3.002808   1.000000
   24       -2.750684   1.000000
   25       -1.205330   0.000000
   26       -0.709802   0.000000
   27       -0.349219   0.000000
   28        0.007038   0.000000
   29        0.354147   0.000000
   30        0.698418   0.000000
   31        0.792340   0.000000
   32        0.960320   0.000000

  0.4000000E+00  0.3333333E+00  0.1262379E-14  0.1333333E+00
    1      -15.166502   1.000000
    2      -14.512982   1.000000
    3      -13.320666   1.000000
    4      -13.273405   1.000000
    5      -12.730928   1.000000
    6       -8.328618   1.000000
    7       -8.129512   1.000000
    8       -7.658274   1.000000
    9       -7.305732   1.000000
   10       -7.026082   1.000000
   11       -6.822281   1.000000
   12       -6.627359   1.000000
   13       -6.455873   1.000000
   14       -5.473644   1.000000
   15       -5.222090   1.000000
   16       -4.884112   1.000000
   17       -4.506604   1.000000
   18       -4.216946   1.000000
   19       -4.141308   1.000000
   20       -3.811146   1.000000
   21       -3.733301   1.000000
   22       -3.489373   1.000000
   23       -3.339903   1.000000
   24       -2.876867   1.000000
   25       -0.996110   0.000000
   26       -0.695517   0.000000
   27       -0.157477   0.000000
   28        0.549548   0.000000
   29        0.623654   0.000000
   30        0.831238   0.000000
   31        1.104300   0.000000
   32        1.296835   0.000000

 -0.4000000E+00  0.3333333E+00  0.1262379E-14  0.1333333E+00
    1      -15.166528   1.000000
    2      -14.512860   1.000000
    3      -13.327005   1.000000
    4      -13.266693   1.000000
    5      -12.731376   1.000000
    6       -8.348069   1.000000
    7       -8.126029   1.000000
    8       -7.582419   1.000000
    9       -7.294955   1.000000
   10       -7.122867   1.000000
   11       -6.828709   1.000000
   12       -6.654872   1.000000
   13       -6.399928   1.000000
   14       -5.488881   1.000000
   15       -5.203507   1.000000
   16       -4.860000   1.000000
   17       -4.490387   1.000000
   18       -4.264831   1.000000
   19       -4.144663   1.000000
   20       -3.837058   1.000000
   21       -3.684676   1.000000
   22       -3.521998   1.000000
   23       -3.299992   1.000000
   24       -2.889805   1.000000
   25       -1.162387   0.000000
   26       -0.447301   0.000000
   27       -0.123346   0.000000
   28        0.451065   0.000000
   29        0.641142   0.000000
   30        0.777391   0.000000
   31        0.998546   0.000000
   32        1.400663   0.000000

 -0.2000000E+00  0.3333333E+00  0.1262379E-14  0.1333333E+00
    1      -15.205784   1.000000
    2      -14.617934   1.000000
    3      -13.679100   1.000000
    4      -12.956204   1.000000
    5      -12.056584   1.000000
    6       -8.666891   1.000000
    7       -8.507736   1.000000
    8       -8.100099   1.000000
    9       -7.766598   1.000000
   10       -7.453555   1.000000
   11       -7.109077   1.000000
   12       -6.419821   1.000000
   13       -5.790664   1.000000
   14       -5.285982   1.000000
   15       -4.753862   1.000000
   16       -4.648864   1.000000
   17       -4.292350   1.000000
   18       -4.013081   1.000000
   19       -3.835117   1.000000
   20       -3.687402   1.000000
   21       -3.620859   1.000000
   22       -3.491332   1.000000
   23       -3.045173   1.000000
   24       -2.753695   1.000000
   25       -1.345529   0.000000
   26       -0.466964   0.000000
   27       -0.354485   0.000000
   28       -0.060987   0.000000
   29        0.365653   0.000000
   30        0.619887   0.000000
   31        0.839341   0.000000
   32        0.984103   0.000000
