       N       E                     dE             d eps       ncg     rms          rms(c)
DAV:   1     0.304519005528E+03    0.30452E+03   -0.13423E+04   512   0.924E+02
DAV:   2    -0.533213045123E+01   -0.30985E+03   -0.29147E+03   728   0.216E+02
DAV:   3    -0.878290884739E+02   -0.82497E+02   -0.81249E+02   840   0.103E+02
DAV:   4    -0.909657008743E+02   -0.31366E+01   -0.31291E+01   688   0.244E+01
DAV:   5    -0.910898488688E+02   -0.12415E+00   -0.12412E+00   816   0.506E+00
DAV:   6    -0.910918948974E+02   -0.20460E-02   -0.20456E-02   768   0.749E-01
DAV:   7    -0.910919935153E+02   -0.98618E-04   -0.98615E-04   800   0.129E-01    0.186E+01
DAV:   8    -0.736624242999E+02    0.17430E+02   -0.71461E+01   608   0.416E+01    0.556E+00
DAV:   9    -0.733487381514E+02    0.31369E+00   -0.51940E+00   648   0.111E+01    0.375E+00
DAV:  10    -0.728317278455E+02    0.51701E+00   -0.13677E+00   696   0.669E+00    0.867E-01
DAV:  11    -0.727933396156E+02    0.38388E-01   -0.13061E-01   728   0.210E+00    0.447E-01
DAV:  12    -0.727879261626E+02    0.54135E-02   -0.10836E-01   728   0.159E+00    0.358E-01
DAV:  13    -0.727832678788E+02    0.46583E-02   -0.21108E-02   752   0.830E-01    0.179E-01
DAV:  14    -0.727790876030E+02    0.41803E-02   -0.20082E-02   640   0.576E-01    0.105E-01
DAV:  15    -0.727802570246E+02   -0.11694E-02   -0.24712E-03   712   0.258E-01    0.823E-02
DAV:  16    -0.727835724419E+02   -0.33154E-02   -0.36368E-03   632   0.305E-01    0.683E-02
DAV:  17    -0.727847497327E+02   -0.11773E-02   -0.11047E-03   664   0.202E-01    0.289E-02
DAV:  18    -0.727860605311E+02   -0.13108E-02   -0.10105E-03   712   0.140E-01    0.402E-02
DAV:  19    -0.727874266850E+02   -0.13662E-02   -0.56961E-04   728   0.131E-01    0.163E-02
DAV:  20    -0.727884650262E+02   -0.10383E-02   -0.18659E-04   592   0.661E-02    0.102E-02
DAV:  21    -0.727890867053E+02   -0.62168E-03   -0.10598E-04   608   0.361E-02    0.515E-03
DAV:  22    -0.727892939819E+02   -0.20728E-03   -0.35251E-05   688   0.218E-02    0.443E-03
DAV:  23    -0.727893546284E+02   -0.60647E-04   -0.62683E-06   560   0.112E-02    0.218E-03
DAV:  24    -0.727893830189E+02   -0.28390E-04   -0.49113E-06   488   0.787E-03    0.821E-04
DAV:  25    -0.727893892090E+02   -0.61901E-05   -0.75907E-07   448   0.451E-03    0.104E-03
DAV:  26    -0.727893926567E+02   -0.34477E-05   -0.69677E-07   344   0.368E-03    0.664E-04
DAV:  27    -0.727893934020E+02   -0.74537E-06   -0.33778E-07   440   0.337E-03
   1 F= -.72789393E+02 E0= -.72789393E+02  d E =-.727894E+02
       N       E                     dE             d eps       ncg     rms          rms(c)
DAV:   1    -0.727893641996E+02    0.28457E-04   -0.37728E-05   584   0.333E-02    0.145E-03
DAV:   2    -0.727893643923E+02   -0.19263E-06   -0.13489E-06   512   0.634E-03
   2 F= -.72789364E+02 E0= -.72789364E+02  d E =0.290098E-04
       N       E                     dE             d eps       ncg     rms          rms(c)
DAV:   1    -0.727893248405E+02    0.39359E-04   -0.71268E-05   576   0.487E-02    0.208E-03
DAV:   2    -0.727893251617E+02   -0.32116E-06   -0.27491E-06   600   0.924E-03
   3 F= -.72789325E+02 E0= -.72789325E+02  d E =0.392306E-04
       N       E                     dE             d eps       ncg     rms          rms(c)
DAV:   1    -0.727892633310E+02    0.61509E-04   -0.17408E-04   544   0.802E-02    0.327E-03
DAV:   2    -0.727892638817E+02   -0.55062E-06   -0.56556E-06   664   0.126E-02
   4 F= -.72789264E+02 E0= -.72789264E+02  d E =0.612800E-04
       N       E                     dE             d eps       ncg     rms          rms(c)
DAV:   1    -0.727892320236E+02    0.31307E-04   -0.85251E-05   536   0.601E-02    0.248E-03
DAV:   2    -0.727892322445E+02   -0.22093E-06   -0.23675E-06   560   0.947E-03
   5 F= -.72789232E+02 E0= -.72789232E+02  d E =0.316372E-04
       N       E                     dE             d eps       ncg     rms          rms(c)
DAV:   1    -0.727892081273E+02    0.23896E-04   -0.51427E-05   528   0.466E-02    0.176E-03
DAV:   2    -0.727892082463E+02   -0.11900E-06   -0.14780E-06   400   0.740E-03
   6 F= -.72789208E+02 E0= -.72789208E+02  d E =0.239982E-04
