Al   C    S    H                        
   1.0000000000000000     
     6.0191999999999997    0.0000000000000000    0.0000000000000000
     0.0000000000000000   10.1400000000000006    0.0000000000000000
     0.0000000000000000    0.0000000000000000   15.0000000000000000
   Al   C    S    H 
     8     4     1     2
Selective dynamics
Direct
  0.4239989481525195  0.8722919485077568  0.2486420178222179   T   T   T
  0.9246426821852866  0.8753379154249121  0.2431206388801800   T   T   T
  0.4421531983898478  0.6240359226878964  0.2977418402015888   T   T   T
  0.9229863818217791  0.6215273482476171  0.2644569964674058   T   T   T
  0.4298812200245732  0.3768285654080762  0.2497921355239867   T   T   T
  0.9131143483389212  0.3710426520441095  0.2592894821903849   T   T   T
  0.4250283842907151  0.1175488589941520  0.2345107087345510   T   T   T
  0.9229006272988552  0.1174027983668386  0.2410254589944671   T   T   T
  0.1746269557007298  0.9975528888823646  0.2430642998486248   T   T   T
  0.6738056838102832  0.9963418559649060  0.2352190802991119   T   T   T
  0.1729774499078902  0.4911529679630851  0.2923908985016639   T   T   T
  0.6759585487041819  0.4983672836220376  0.2496449936009534   T   T   T
  0.5402340068753952  0.6432751843141783  0.4447925337405364   T   T   T
  0.3853897020258413  0.7338414273814816  0.4689185036345360   T   T   T
  0.1647514986330748  0.4736249196329203  0.3658450801675346   T   T   T

  0.00000000E+00  0.00000000E+00  0.00000000E+00
  0.00000000E+00  0.00000000E+00  0.00000000E+00
  0.00000000E+00  0.00000000E+00  0.00000000E+00
  0.00000000E+00  0.00000000E+00  0.00000000E+00
  0.00000000E+00  0.00000000E+00  0.00000000E+00
  0.00000000E+00  0.00000000E+00  0.00000000E+00
  0.00000000E+00  0.00000000E+00  0.00000000E+00
  0.00000000E+00  0.00000000E+00  0.00000000E+00
  0.00000000E+00  0.00000000E+00  0.00000000E+00
  0.00000000E+00  0.00000000E+00  0.00000000E+00
  0.00000000E+00  0.00000000E+00  0.00000000E+00
  0.00000000E+00  0.00000000E+00  0.00000000E+00
  0.00000000E+00  0.00000000E+00  0.00000000E+00
  0.00000000E+00  0.00000000E+00  0.00000000E+00
  0.00000000E+00  0.00000000E+00  0.00000000E+00
