Al2C                                    
           1
     6.019200    0.000000    0.000000
     0.000000   10.140000    0.000000
     0.000000    0.000000   15.000000
   Al   C    S    H 
   8   4   1   2
Direct configuration=     1
   0.42399895  0.87229195  0.24864202
   0.92464268  0.87533792  0.24312064
   0.44215320  0.62403592  0.29774184
   0.92298638  0.62152735  0.26445700
   0.42988122  0.37682857  0.24979214
   0.91311435  0.37104265  0.25928948
   0.42502838  0.11754886  0.23451071
   0.92290063  0.11740280  0.24102546
   0.17462696  0.99755289  0.24306430
   0.67380568  0.99634186  0.23521908
   0.17297745  0.49115297  0.29239090
   0.67595855  0.49836728  0.24964499
   0.54023401  0.64327518  0.44479253
   0.38538970  0.73384143  0.46891850
   0.16475150  0.47362492  0.36584508
Direct configuration=     2
   0.42400504  0.87229352  0.24864466
   0.92464811  0.87533927  0.24311852
   0.44215909  0.62403742  0.29774449
   0.92299381  0.62152882  0.26445386
   0.42988673  0.37683094  0.24979140
   0.91311741  0.37104420  0.25929246
   0.42503421  0.11755016  0.23450966
   0.92290616  0.11740377  0.24102941
   0.17462889  0.99755366  0.24306523
   0.67380795  0.99634276  0.23521986
   0.17298081  0.49115371  0.29239094
   0.67596053  0.49836734  0.24964586
   0.54022387  0.64327025  0.44479468
   0.38535462  0.73383237  0.46892070
   0.16475799  0.47362918  0.36584332
Direct configuration=     3
   0.42401158  0.87229541  0.24864881
   0.92465512  0.87534120  0.24311553
   0.44216756  0.62403900  0.29774786
   0.92300339  0.62152979  0.26444947
   0.42989230  0.37683314  0.24979057
   0.91312152  0.37104568  0.25929709
   0.42503980  0.11755170  0.23450841
   0.92291224  0.11740517  0.24103540
   0.17463369  0.99755459  0.24306661
   0.67381209  0.99634379  0.23522097
   0.17298455  0.49115538  0.29238847
   0.67596599  0.49836910  0.24964746
   0.54021007  0.64327367  0.44479829
   0.38531457  0.73381356  0.46892273
   0.16476661  0.47363422  0.36584459
Direct configuration=     4
   0.42402147  0.87229851  0.24865580
   0.92466558  0.87534423  0.24311112
   0.44218027  0.62404167  0.29775234
   0.92301875  0.62153202  0.26444250
   0.42990047  0.37683700  0.24978955
   0.91312819  0.37104789  0.25930500
   0.42504811  0.11755446  0.23450681
   0.92292075  0.11740779  0.24104539
   0.17464240  0.99755718  0.24306933
   0.67382034  0.99634653  0.23522313
   0.17299308  0.49115793  0.29238905
   0.67597560  0.49837297  0.24965008
   0.54019589  0.64327062  0.44480361
   0.38524731  0.73378801  0.46892743
   0.16478113  0.47364360  0.36584326
Direct configuration=     5
   0.42402603  0.87230014  0.24866080
   0.92467049  0.87534535  0.24310955
   0.44218754  0.62404324  0.29775419
   0.92302837  0.62153338  0.26443919
   0.42990430  0.37683952  0.24979014
   0.91313226  0.37104875  0.25931100
   0.42505175  0.11755589  0.23450697
   0.92292376  0.11740925  0.24105250
   0.17464956  0.99755970  0.24307212
   0.67382732  0.99634874  0.23522511
   0.17300295  0.49115997  0.29238885
   0.67598471  0.49837711  0.24965253
   0.54018926  0.64327435  0.44480802
   0.38521983  0.73377098  0.46893123
   0.16479042  0.47364930  0.36584495
Direct configuration=     6
   0.42403096  0.87230223  0.24866525
   0.92467595  0.87534751  0.24310877
   0.44219527  0.62404518  0.29775675
   0.92303815  0.62153502  0.26443675
   0.42991101  0.37684239  0.24979098
   0.91313577  0.37105034  0.25931656
   0.42505655  0.11755767  0.23450755
   0.92292774  0.11741075  0.24105892
   0.17465171  0.99756121  0.24307515
   0.67383107  0.99635182  0.23522752
   0.17300905  0.49116199  0.29239054
   0.67598955  0.49837893  0.24965492
   0.54019253  0.64327037  0.44480867
   0.38519395  0.73376110  0.46893597
   0.16479889  0.47365459  0.36584589
