Al2C                                    
   1.0000000000000000     
     6.0191999999999997    0.0000000000000000    0.0000000000000000
     0.0000000000000000   10.1400000000000006    0.0000000000000000
     0.0000000000000000    0.0000000000000000   15.0000000000000000
   Al   C    S    H 
     8     4     1     2
Selective dynamics
Direct
  0.3890168532705620  0.8696925411681367  0.2429037349009899   T   T   T
  0.8913905100068187  0.8695664282464743  0.2420686559775593   T   T   T
  0.4068436124321001  0.6208284025470258  0.2877682079713371   T   T   T
  0.8738457870561875  0.6208870798942060  0.2874272007869599   T   T   T
  0.3959102254120874  0.3709952187706919  0.2489546748757323   T   T   T
  0.8843087435130317  0.3708947023869502  0.2493921614488947   T   T   T
  0.3908028172135700  0.1144234604346955  0.2318926807384577   T   T   T
  0.8895329871644673  0.1144108474239027  0.2327807663137421   T   T   T
  0.1401948883407038  0.9937602869539175  0.2357707695463581   T   T   T
  0.6401866649665121  0.9926687316742925  0.2333606046210198   T   T   T
  0.1402667374708446  0.4895675252569902  0.2994544453637319   T   T   T
  0.6402145888648780  0.4925502344818447  0.2430484354289603   T   T   T
  0.6409016165981536  0.6370937716802693  0.4253553973691662   T   T   T
  0.6408099724986049  0.7663251186812546  0.4491638235061507   T   T   T
  0.1403066553094812  0.4592019507845650  0.3705834338760681   T   T   T

  0.00000000E+00  0.00000000E+00  0.00000000E+00
  0.00000000E+00  0.00000000E+00  0.00000000E+00
  0.00000000E+00  0.00000000E+00  0.00000000E+00
  0.00000000E+00  0.00000000E+00  0.00000000E+00
  0.00000000E+00  0.00000000E+00  0.00000000E+00
  0.00000000E+00  0.00000000E+00  0.00000000E+00
  0.00000000E+00  0.00000000E+00  0.00000000E+00
  0.00000000E+00  0.00000000E+00  0.00000000E+00
  0.00000000E+00  0.00000000E+00  0.00000000E+00
  0.00000000E+00  0.00000000E+00  0.00000000E+00
  0.00000000E+00  0.00000000E+00  0.00000000E+00
  0.00000000E+00  0.00000000E+00  0.00000000E+00
  0.00000000E+00  0.00000000E+00  0.00000000E+00
  0.00000000E+00  0.00000000E+00  0.00000000E+00
  0.00000000E+00  0.00000000E+00  0.00000000E+00
