Al   C    Te   H                        
   1.0000000000000000     
     6.0191999999999997    0.0000000000000000    0.0000000000000000
     0.0000000000000000   10.1400000000000006    0.0000000000000000
     0.0000000000000000    0.0000000000000000   15.0000000000000000
   Al   C    Te   H 
     8     4     1     2
Selective dynamics
Direct
  0.4103835569114196  0.8694523355986901  0.2459678848081746   T   T   T
  0.9097870554529782  0.8691478544312837  0.2390327148702328   T   T   T
  0.4193961492753354  0.6134500173857689  0.2542707545776501   T   T   T
  0.9052495878935434  0.6147453868324051  0.2546782098722720   T   T   T
  0.4243274873122273  0.3616267777514678  0.2776586155820562   T   T   T
  0.9007046043988207  0.3633158405799524  0.2716300535518150   T   T   T
  0.4097548460276718  0.1131684451024419  0.2399130622826305   T   T   T
  0.9087920800125074  0.1115647106476348  0.2497386608631245   T   T   T
  0.1597888288574596  0.9897821557471111  0.2453701742993157   T   T   T
  0.6597432476229762  0.9893638888242482  0.2387686551318788   T   T   T
  0.1606082802963880  0.4925657910793018  0.2900679583840253   T   T   T
  0.6634120892148180  0.4916315186385869  0.2428449492709223   T   T   T
  0.5937335842502542  0.3504848146853838  0.4447441355303708   T   T   T
  0.4621044420060471  0.2195804697896204  0.4900263505529677   T   T   T
  0.1708878902369724  0.5008311838318413  0.3640776748560140   T   T   T

  0.00000000E+00  0.00000000E+00  0.00000000E+00
  0.00000000E+00  0.00000000E+00  0.00000000E+00
  0.00000000E+00  0.00000000E+00  0.00000000E+00
  0.00000000E+00  0.00000000E+00  0.00000000E+00
  0.00000000E+00  0.00000000E+00  0.00000000E+00
  0.00000000E+00  0.00000000E+00  0.00000000E+00
  0.00000000E+00  0.00000000E+00  0.00000000E+00
  0.00000000E+00  0.00000000E+00  0.00000000E+00
  0.00000000E+00  0.00000000E+00  0.00000000E+00
  0.00000000E+00  0.00000000E+00  0.00000000E+00
  0.00000000E+00  0.00000000E+00  0.00000000E+00
  0.00000000E+00  0.00000000E+00  0.00000000E+00
  0.00000000E+00  0.00000000E+00  0.00000000E+00
  0.00000000E+00  0.00000000E+00  0.00000000E+00
  0.00000000E+00  0.00000000E+00  0.00000000E+00
