Al   C    Te   H                        
   1.0000000000000000     
     6.0191999999999997    0.0000000000000000    0.0000000000000000
     0.0000000000000000   10.1400000000000006    0.0000000000000000
     0.0000000000000000    0.0000000000000000   15.0000000000000000
   Al   C    Te   H 
     8     4     1     2
Selective dynamics
Direct
  0.4106251878300665  0.8693420815104831  0.2460377241019524   T   T   T
  0.9099643536653086  0.8690537302927529  0.2390761836651533   T   T   T
  0.4197300966013895  0.6133165003005662  0.2540926970903255   T   T   T
  0.9054350270326679  0.6146785907479920  0.2545438005594670   T   T   T
  0.4246776245608581  0.3615501040855693  0.2778064433451956   T   T   T
  0.9012456523540981  0.3632660244295978  0.2712158671739777   T   T   T
  0.4099359937839143  0.1130788934309393  0.2400394988482450   T   T   T
  0.9090199404647155  0.1114331938413800  0.2498629669100286   T   T   T
  0.1599986444487409  0.9896510532505709  0.2455006189577344   T   T   T
  0.6599454145048445  0.9892744776646591  0.2389298142191698   T   T   T
  0.1608923897342240  0.4925614462985634  0.2898450213205846   T   T   T
  0.6637242496843827  0.4914626639614083  0.2427477854441062   T   T   T
  0.5931421797416611  0.3505158316249777  0.4449244218500608   T   T   T
  0.4593737254566349  0.2204156474097045  0.4902345505525869   T   T   T
  0.1705999832622317  0.5010379915450313  0.3638597302653570   T   T   T

  0.00000000E+00  0.00000000E+00  0.00000000E+00
  0.00000000E+00  0.00000000E+00  0.00000000E+00
  0.00000000E+00  0.00000000E+00  0.00000000E+00
  0.00000000E+00  0.00000000E+00  0.00000000E+00
  0.00000000E+00  0.00000000E+00  0.00000000E+00
  0.00000000E+00  0.00000000E+00  0.00000000E+00
  0.00000000E+00  0.00000000E+00  0.00000000E+00
  0.00000000E+00  0.00000000E+00  0.00000000E+00
  0.00000000E+00  0.00000000E+00  0.00000000E+00
  0.00000000E+00  0.00000000E+00  0.00000000E+00
  0.00000000E+00  0.00000000E+00  0.00000000E+00
  0.00000000E+00  0.00000000E+00  0.00000000E+00
  0.00000000E+00  0.00000000E+00  0.00000000E+00
  0.00000000E+00  0.00000000E+00  0.00000000E+00
  0.00000000E+00  0.00000000E+00  0.00000000E+00
