Al2C                                    
   1.0000000000000000     
     6.0191999999999997    0.0000000000000000    0.0000000000000000
     0.0000000000000000   10.1400000000000006    0.0000000000000000
     0.0000000000000000    0.0000000000000000   15.0000000000000000
   Al   C    O    H 
     8     4     1     2
Selective dynamics
Direct
  0.4522447202200178  0.8176674797880348  0.3049036369162066   T   T   T
  0.9727784400022234  0.8218676343656688  0.2699848188492556   T   T   T
  0.4752105968439395  0.5710007087542595  0.2503096489140252   T   T   T
  0.9742451680850585  0.5676124734699436  0.2466835620432955   T   T   T
  0.4738841648380743  0.3255182542351306  0.2360197200490116   T   T   T
  0.9756518566454331  0.3257005929656070  0.2397574854937378   T   T   T
  0.4669592750545554  0.0656242270293345  0.2538551422407040   T   T   T
  0.9823565975095164  0.0726205239361504  0.2616510223010880   T   T   T
  0.2199457087599714  0.9450009272061491  0.2545958028057998   T   T   T
  0.7232173637423309  0.9527893948206606  0.2987019119519311   T   T   T
  0.2250456758322281  0.4468166560904965  0.2359234556120183   T   T   T
  0.7242864028797809  0.4453542168100990  0.2432893684599723   T   T   T
  0.3935466358387857  0.7752482145952835  0.4163002818056341   T   T   T
  0.7371736383781811  0.9720549633873313  0.3717917598374650   T   T   T
  0.3547146219302447  0.8413172236700976  0.4604323827198335   T   T   T

  0.00000000E+00  0.00000000E+00  0.00000000E+00
  0.00000000E+00  0.00000000E+00  0.00000000E+00
  0.00000000E+00  0.00000000E+00  0.00000000E+00
  0.00000000E+00  0.00000000E+00  0.00000000E+00
  0.00000000E+00  0.00000000E+00  0.00000000E+00
  0.00000000E+00  0.00000000E+00  0.00000000E+00
  0.00000000E+00  0.00000000E+00  0.00000000E+00
  0.00000000E+00  0.00000000E+00  0.00000000E+00
  0.00000000E+00  0.00000000E+00  0.00000000E+00
  0.00000000E+00  0.00000000E+00  0.00000000E+00
  0.00000000E+00  0.00000000E+00  0.00000000E+00
  0.00000000E+00  0.00000000E+00  0.00000000E+00
  0.00000000E+00  0.00000000E+00  0.00000000E+00
  0.00000000E+00  0.00000000E+00  0.00000000E+00
  0.00000000E+00  0.00000000E+00  0.00000000E+00
