#VESTA_FORMAT_VERSION 3.5.4


CRYSTAL

TITLE
Al2C                                    

GROUP
1 1 P 1
SYMOP
 0.000000  0.000000  0.000000  1  0  0   0  1  0   0  0  1   1
 -1.0 -1.0 -1.0  0 0 0  0 0 0  0 0 0
TRANM 0
 0.000000  0.000000  0.000000  1  0  0   0  1  0   0  0  1
LTRANSL
 -1
 0.000000  0.000000  0.000000  0.000000  0.000000  0.000000
LORIENT
 -1   0   0   0   0
 1.000000  0.000000  0.000000  1.000000  0.000000  0.000000
 0.000000  0.000000  1.000000  0.000000  0.000000  1.000000
LMATRIX
 1.000000  0.000000  0.000000  0.000000
 0.000000  1.000000  0.000000  0.000000
 0.000000  0.000000  1.000000  0.000000
 0.000000  0.000000  0.000000  1.000000
 0.000000  0.000000  0.000000
CELLP
  6.019200  10.140000  15.000000  90.000000  90.000000  90.000000
  0.000000   0.000000   0.000000   0.000000   0.000000   0.000000
STRUC
  1 Al        Al1  1.0000   0.452245   0.817667   0.304904    1a       1
                            0.000000   0.000000   0.000000  0.00
  2 Al        Al2  1.0000   0.972778   0.821868   0.269985    1a       1
                            0.000000   0.000000   0.000000  0.00
  3 Al        Al3  1.0000   0.475211   0.571001   0.250310    1a       1
                            0.000000   0.000000   0.000000  0.00
  4 Al        Al4  1.0000   0.974245   0.567612   0.246684    1a       1
                            0.000000   0.000000   0.000000  0.00
  5 Al        Al5  1.0000   0.473884   0.325518   0.236020    1a       1
                            0.000000   0.000000   0.000000  0.00
  6 Al        Al6  1.0000   0.975652   0.325701   0.239757    1a       1
                            0.000000   0.000000   0.000000  0.00
  7 Al        Al7  1.0000   0.466959   0.065624   0.253855    1a       1
                            0.000000   0.000000   0.000000  0.00
  8 Al        Al8  1.0000   0.982357   0.072621   0.261651    1a       1
                            0.000000   0.000000   0.000000  0.00
  9  C         C1  1.0000   0.219946   0.945001   0.254596    1a       1
                            0.000000   0.000000   0.000000  0.00
 10  C         C2  1.0000   0.723217   0.952789   0.298702    1a       1
                            0.000000   0.000000   0.000000  0.00
 11  C         C3  1.0000   0.225046   0.446817   0.235923    1a       1
                            0.000000   0.000000   0.000000  0.00
 12  C         C4  1.0000   0.724286   0.445354   0.243289    1a       1
                            0.000000   0.000000   0.000000  0.00
 13  O         O1  1.0000   0.393547   0.775248   0.416300    1a       1
                            0.000000   0.000000   0.000000  0.00
 14  H         H1  1.0000   0.737174   0.972055   0.371792    1a       1
                            0.000000   0.000000   0.000000  0.00
 15  H         H2  1.0000   0.354715   0.841317   0.460432    1a       1
                            0.000000   0.000000   0.000000  0.00
  0 0 0 0 0 0 0
THERI 1
  1        Al1  0.000000
  2        Al2  0.000000
  3        Al3  0.000000
  4        Al4  0.000000
  5        Al5  0.000000
  6        Al6  0.000000
  7        Al7  0.000000
  8        Al8  0.000000
  9         C1  0.000000
 10         C2  0.000000
 11         C3  0.000000
 12         C4  0.000000
 13         O1  0.000000
 14         H1  0.000000
 15         H2  0.000000
  0 0 0
SHAPE
  0       0       0       0   0.000000  0   192   192   192   192
BOUND
       0        1       0.5      1.5         0        1
  0   0   0   0  0
SBOND
  1     O     H    0.00000    1.20000  0  1  0  0  1  0.250  2.000 127 127 127
  2    Al    Al    2.63000    2.65000  0  1  0  0  1  0.250  2.000 127 127 127
  3    Al    Al    2.58000    2.61000  0  1  1  0  1  0.250  2.000 127 127 127
  4    Al     C    1.91000    2.20000  0  1  1  0  1  0.250  2.000 127 127 127
  0 0 0 0
SITET
  1        Al1  1.4300 129 178 214 129 178 214 204  0
  2        Al2  1.4300 129 178 214 129 178 214 204  0
  3        Al3  1.4300 129 178 214 129 178 214 204  0
  4        Al4  1.4300 129 178 214 129 178 214 204  0
  5        Al5  1.4300 129 178 214 129 178 214 204  0
  6        Al6  1.4300 129 178 214 129 178 214 204  0
  7        Al7  1.4300 129 178 214 129 178 214 204  0
  8        Al8  1.4300 129 178 214 129 178 214 204  0
  9         C1  0.7700 128  73  41 128  73  41 204  0
 10         C2  0.7700 128  73  41 128  73  41 204  0
 11         C3  0.7700 128  73  41 128  73  41 204  0
 12         C4  0.7700 128  73  41 128  73  41 204  0
 13         O1  0.7400 254   3   0 254   3   0 204  0
 14         H1  0.4600 255 204 204 255 204 204 204  0
 15         H2  0.4600 255 204 204 255 204 204 204  0
  0 0 0 0 0 0
VECTR
 0 0 0 0 0
VECTT
 0 0 0 0 0
SPLAN
  0   0   0   0
LBLAT
 -1
LBLSP
 -1
DLATM
 -1
DLBND
 -1
DLPLY
 -1
PLN2D
  0   0   0   0
ATOMT
  1         Al  1.4300 129 178 214 129 178 214 204
  2          C  0.7700 128  73  41 128  73  41 204
  3          O  0.7400 254   3   0 254   3   0 204
  4          H  0.4600 255 204 204 255 204 204 204
  0 0 0 0 0 0
SCENE
 1.000000 -0.000000 -0.000000  0.000000
 0.000000  1.000000 -0.000000  0.000000
 0.000000  0.000000  1.000000  0.000000
 0.000000  0.000000  0.000000  1.000000
  0.000   0.000
  0.000
  1.000
HBOND 0 2

STYLE
DISPF 37753794
MODEL   0  1  0
SURFS   0  1  1
SECTS  32  1
FORMS   0  1
ATOMS   0  0  1
BONDS   1
POLYS   1
VECTS 1.000000
FORMP
  1  1.0   0   0   0
ATOMP
 24  24   0  50  2.0   0
BONDP
  1  16  0.250  2.000 127 127 127
POLYP
 204 1  1.000 180 180 180
ISURF
  0   0   0   0
TEX3P
  1  0.00000E+00  1.00000E+00
SECTP
  1  9.76021E-01  1.79680E+00  0.00000E+00  0.00000E+00  0.00000E+00  0.00000E+00
CONTR
 0.1 -1 1 1 10 -1 2 5
 2 1 2 1
   0   0   0
   0   0   0
   0   0   0
   0   0   0
HKLPP
 192 1  1.000 255   0 255
UCOLP
   0   0  1.000   0   0   0
COMPS 1
LABEL 1    12  1.000 0
PROJT 0  0.962
BKGRC
 255 255 255
DPTHQ 1 -0.5000  3.5000
LIGHT0 1
 1.000000  0.000000  0.000000  0.000000
 0.000000  1.000000  0.000000  0.000000
 0.000000  0.000000  1.000000  0.000000
 0.000000  0.000000  0.000000  1.000000
 0.000000  0.000000 20.000000  0.000000
 0.000000  0.000000 -1.000000
  26  26  26 255
 179 179 179 255
 255 255 255 255
LIGHT1
 1.000000  0.000000  0.000000  0.000000
 0.000000  1.000000  0.000000  0.000000
 0.000000  0.000000  1.000000  0.000000
 0.000000  0.000000  0.000000  1.000000
 0.000000  0.000000 20.000000  0.000000
 0.000000  0.000000 -1.000000
   0   0   0   0
   0   0   0   0
   0   0   0   0
LIGHT2
 1.000000  0.000000  0.000000  0.000000
 0.000000  1.000000  0.000000  0.000000
 0.000000  0.000000  1.000000  0.000000
 0.000000  0.000000  0.000000  1.000000
 0.000000  0.000000 20.000000  0.000000
 0.000000  0.000000 -1.000000
   0   0   0   0
   0   0   0   0
   0   0   0   0
LIGHT3
 1.000000  0.000000  0.000000  0.000000
 0.000000  1.000000  0.000000  0.000000
 0.000000  0.000000  1.000000  0.000000
 0.000000  0.000000  0.000000  1.000000
 0.000000  0.000000 20.000000  0.000000
 0.000000  0.000000 -1.000000
   0   0   0   0
   0   0   0   0
   0   0   0   0
SECCL 0

TEXCL 0

ATOMM
 204 204 204 255
  25.600
BONDM
 255 255 255 255
 128.000
POLYM
 255 255 255 255
 128.000
SURFM
   0   0   0 255
 128.000
FORMM
 255 255 255 255
 128.000
HKLPM
 255 255 255 255
 128.000
