Al   C    O    H                        
   1.0000000000000000     
     6.0191999999999997    0.0000000000000000    0.0000000000000000
     0.0000000000000000   10.1400000000000006    0.0000000000000000
     0.0000000000000000    0.0000000000000000   15.0000000000000000
   Al   C    O    H 
     8     4     1     2
Selective dynamics
Direct
  0.4461143537044915  0.8160526712706475  0.3102858656477411   T   T   T
  0.9638301391367012  0.8190667389200187  0.2627668229611309   T   T   T
  0.4620160206863961  0.5663960913280771  0.2603435316726473   T   T   T
  0.9613543292355926  0.5644434936654167  0.2408882573049145   T   T   T
  0.4624885945046789  0.3223280683429603  0.2334559165423054   T   T   T
  0.9641614106291193  0.3229155762558502  0.2510747204698041   T   T   T
  0.4608428299862957  0.0610605713261341  0.2512835053185572   T   T   T
  0.9781306376614743  0.0696622221000810  0.2675741539156590   T   T   T
  0.2136813696196284  0.9410280749574826  0.2571706591417974   T   T   T
  0.7168977178767050  0.9490158447155109  0.2946808531507225   T   T   T
  0.2131270885254845  0.4433426870794174  0.2395615288304085   T   T   T
  0.7119025786259784  0.4420409050780978  0.2466317215899716   T   T   T
  0.4207025455980137  0.7879876416941614  0.4253955452273146   T   T   T
  0.7315719369235132  0.9624096865766179  0.3683661623781376   T   T   T
  0.3961655685415054  0.8601451797543298  0.4667289856898283   T   T   T

  0.00000000E+00  0.00000000E+00  0.00000000E+00
  0.00000000E+00  0.00000000E+00  0.00000000E+00
  0.00000000E+00  0.00000000E+00  0.00000000E+00
  0.00000000E+00  0.00000000E+00  0.00000000E+00
  0.00000000E+00  0.00000000E+00  0.00000000E+00
  0.00000000E+00  0.00000000E+00  0.00000000E+00
  0.00000000E+00  0.00000000E+00  0.00000000E+00
  0.00000000E+00  0.00000000E+00  0.00000000E+00
  0.00000000E+00  0.00000000E+00  0.00000000E+00
  0.00000000E+00  0.00000000E+00  0.00000000E+00
  0.00000000E+00  0.00000000E+00  0.00000000E+00
  0.00000000E+00  0.00000000E+00  0.00000000E+00
  0.00000000E+00  0.00000000E+00  0.00000000E+00
  0.00000000E+00  0.00000000E+00  0.00000000E+00
  0.00000000E+00  0.00000000E+00  0.00000000E+00
