Al   C    O    H                        
   1.0000000000000000     
     6.0191999999999997    0.0000000000000000    0.0000000000000000
     0.0000000000000000   10.1400000000000006    0.0000000000000000
     0.0000000000000000    0.0000000000000000   15.0000000000000000
   Al   C    O    H 
     8     4     1     2
Selective dynamics
Direct
  0.4453940427343610  0.8155553129478433  0.3105082588676514   T   T   T
  0.9636618763316463  0.8187081683118130  0.2624596193206258   T   T   T
  0.4638488923664153  0.5657645689205058  0.2611921244288943   T   T   T
  0.9632484927647377  0.5638946166627242  0.2410112687833874   T   T   T
  0.4643756685488449  0.3217792251075015  0.2339998119068091   T   T   T
  0.9660021106106803  0.3224528756679015  0.2526477405493371   T   T   T
  0.4610419053621020  0.0604667182210234  0.2515282553602543   T   T   T
  0.9780616349245111  0.0691699097309395  0.2694087692607818   T   T   T
  0.2134760045158920  0.9407177178454915  0.2575987512787393   T   T   T
  0.7167772635714448  0.9481666981487917  0.2947726454345407   T   T   T
  0.2149647443818824  0.4427541344565288  0.2404615128798538   T   T   T
  0.7137507972705941  0.4415633592963970  0.2472943656238078   T   T   T
  0.4204499399292072  0.7908871646932589  0.4260418142138918   T   T   T
  0.7278470491150161  0.9587295386711591  0.3687585147969096   T   T   T
  0.3805007949123789  0.8636519323454790  0.4648807748692302   T   T   T

  0.00000000E+00  0.00000000E+00  0.00000000E+00
  0.00000000E+00  0.00000000E+00  0.00000000E+00
  0.00000000E+00  0.00000000E+00  0.00000000E+00
  0.00000000E+00  0.00000000E+00  0.00000000E+00
  0.00000000E+00  0.00000000E+00  0.00000000E+00
  0.00000000E+00  0.00000000E+00  0.00000000E+00
  0.00000000E+00  0.00000000E+00  0.00000000E+00
  0.00000000E+00  0.00000000E+00  0.00000000E+00
  0.00000000E+00  0.00000000E+00  0.00000000E+00
  0.00000000E+00  0.00000000E+00  0.00000000E+00
  0.00000000E+00  0.00000000E+00  0.00000000E+00
  0.00000000E+00  0.00000000E+00  0.00000000E+00
  0.00000000E+00  0.00000000E+00  0.00000000E+00
  0.00000000E+00  0.00000000E+00  0.00000000E+00
  0.00000000E+00  0.00000000E+00  0.00000000E+00
