 vasp.5.4.4.18Apr17-6-g9f103f2a35 (build Dec  6 2019 17:49:40) complex           
 POSCAR found type information on POSCAR  Al C  O  H 
 07/POSCAR found :  4 types and      15 ions
 scaLAPACK will be used
 LDA part: xc-table for Pade appr. of Perdew
 POSCAR found type information on POSCAR  Al C  O  H 
 00/POSCAR found :  4 types and      15 ions
 POSCAR found type information on POSCAR  Al C  O  H 
 09/POSCAR found :  4 types and      15 ions
 Jacobian:    15.248877391123434     
 POSCAR, INCAR and KPOINTS ok, starting setup
 FFT: planning ...
 WAVECAR not read
 entering main loop
       N       E                     dE             d eps       ncg     rms          rms(c)
DAV:   1     0.320266882139E+03    0.32027E+03   -0.13732E+04   536   0.925E+02
DAV:   2     0.459778584699E+01   -0.31567E+03   -0.29583E+03   736   0.224E+02
DAV:   3    -0.920679740301E+02   -0.96666E+02   -0.95382E+02   824   0.113E+02
DAV:   4    -0.961439635896E+02   -0.40760E+01   -0.40665E+01   632   0.284E+01
DAV:   5    -0.963108223071E+02   -0.16686E+00   -0.16682E+00   776   0.611E+00
DAV:   6    -0.963135609680E+02   -0.27387E-02   -0.27380E-02   664   0.102E+00
DAV:   7    -0.963137192141E+02   -0.15825E-03   -0.15824E-03   800   0.181E-01    0.208E+01
DAV:   8    -0.769362775036E+02    0.19377E+02   -0.82874E+01   640   0.472E+01    0.939E+00
DAV:   9    -0.765066437199E+02    0.42963E+00   -0.45665E+00   640   0.104E+01    0.551E+00
DAV:  10    -0.759258372584E+02    0.58081E+00   -0.96507E-01   704   0.635E+00    0.104E+00
DAV:  11    -0.758514467914E+02    0.74390E-01   -0.11019E-01   744   0.189E+00    0.405E-01
DAV:  12    -0.758371409999E+02    0.14306E-01   -0.43747E-02   720   0.109E+00    0.270E-01
DAV:  13    -0.758286066254E+02    0.85344E-02   -0.21666E-02   720   0.851E-01    0.155E-01
DAV:  14    -0.758249911650E+02    0.36155E-02   -0.97829E-03   640   0.435E-01    0.119E-01
DAV:  15    -0.758282480898E+02   -0.32569E-02   -0.66846E-03   688   0.429E-01    0.102E-01
DAV:  16    -0.758295857241E+02   -0.13376E-02   -0.18620E-03   648   0.268E-01    0.438E-02
DAV:  17    -0.758300098570E+02   -0.42413E-03   -0.12272E-03   664   0.157E-01    0.358E-02
DAV:  18    -0.758330412451E+02   -0.30314E-02   -0.53662E-04   696   0.132E-01    0.225E-02
DAV:  19    -0.758343572716E+02   -0.13160E-02   -0.15200E-04   712   0.779E-02    0.120E-02
DAV:  20    -0.758354690707E+02   -0.11118E-02   -0.15417E-04   576   0.432E-02    0.716E-03
DAV:  21    -0.758360851193E+02   -0.61605E-03   -0.93448E-05   608   0.353E-02    0.406E-03
DAV:  22    -0.758362624866E+02   -0.17737E-03   -0.20472E-05   648   0.162E-02    0.257E-03
DAV:  23    -0.758363226728E+02   -0.60186E-04   -0.75151E-06   560   0.116E-02    0.195E-03
DAV:  24    -0.758363458932E+02   -0.23220E-04   -0.22831E-06   504   0.633E-03    0.135E-03
DAV:  25    -0.758363523365E+02   -0.64433E-05   -0.56905E-07   400   0.431E-03    0.509E-04
DAV:  26    -0.758363561078E+02   -0.37712E-05   -0.59202E-07   400   0.353E-03    0.655E-04
DAV:  27    -0.758363581631E+02   -0.20554E-05   -0.31998E-07   376   0.290E-03    0.390E-04
DAV:  28    -0.758363586055E+02   -0.44237E-06   -0.16902E-07   408   0.185E-03
   1 F= -.75836359E+02 E0= -.75836359E+02  d E =-.758364E+02
 BRION: g(F)=  0.321E-02 g(S)=  0.000E+00
 bond charge predicted
       N       E                     dE             d eps       ncg     rms          rms(c)
DAV:   1    -0.758363178687E+02    0.40294E-04   -0.26690E-03   520   0.354E-01    0.160E-02
DAV:   2    -0.758363236222E+02   -0.57535E-05   -0.63545E-05   648   0.453E-02    0.615E-03
DAV:   3    -0.758363238724E+02   -0.25015E-06   -0.10051E-06   432   0.715E-03
   2 F= -.75836324E+02 E0= -.75836324E+02  d E =0.347331E-04
 BRION: g(F)=  0.419E-02 g(S)=  0.000E+00 retain N=  1 mean eig= 0.07
 eig:   0.065
 bond charge predicted
       N       E                     dE             d eps       ncg     rms          rms(c)
DAV:   1    -0.758363344372E+02   -0.10815E-04   -0.22621E-04   584   0.102E-01    0.451E-03
DAV:   2    -0.758363349811E+02   -0.54383E-06   -0.61804E-06   648   0.143E-02
   3 F= -.75836335E+02 E0= -.75836335E+02  d E =-.111087E-04
 BRION: g(F)=  0.446E-02 g(S)=  0.000E+00 retain N=  2 mean eig= 0.20
 eig:   0.234  0.171
 bond charge predicted
       N       E                     dE             d eps       ncg     rms          rms(c)
DAV:   1    -0.758363458947E+02   -0.11457E-04   -0.26097E-04   528   0.112E-01    0.497E-03
DAV:   2    -0.758363463582E+02   -0.46353E-06   -0.59805E-06   616   0.139E-02
   4 F= -.75836346E+02 E0= -.75836346E+02  d E =-.113771E-04
 BRION: g(F)=  0.412E-02 g(S)=  0.000E+00 retain N=  2 mean eig= 2.31
 eig:   0.445  4.168
 bond charge predicted
       N       E                     dE             d eps       ncg     rms          rms(c)
DAV:   1    -0.758363198988E+02    0.25996E-04   -0.14338E-03   512   0.261E-01    0.115E-02
DAV:   2    -0.758363232613E+02   -0.33625E-05   -0.35651E-05   608   0.340E-02    0.373E-03
DAV:   3    -0.758363232705E+02   -0.91563E-08   -0.50732E-07   312   0.540E-03
   5 F= -.75836323E+02 E0= -.75836323E+02  d E =0.230877E-04
 BRION: g(F)=  0.413E-02 g(S)=  0.000E+00 retain N=  2 mean eig= 0.25
 eig:   0.269  0.240
 bond charge predicted
       N       E                     dE             d eps       ncg     rms          rms(c)
DAV:   1    -0.758363136477E+02    0.96136E-05   -0.16662E-04   520   0.878E-02    0.425E-03
DAV:   2    -0.758363139556E+02   -0.30790E-06   -0.36938E-06   632   0.111E-02
   6 F= -.75836314E+02 E0= -.75836314E+02  d E =0.931483E-05
 BRION: g(F)=  0.427E-02 g(S)=  0.000E+00 retain N=  3 mean eig= 0.51
 eig:   0.656  0.656  0.217
 bond charge predicted
       N       E                     dE             d eps       ncg     rms          rms(c)
DAV:   1    -0.758363265169E+02   -0.12869E-04   -0.31085E-04   512   0.119E-01    0.526E-03
DAV:   2    -0.758363272486E+02   -0.73170E-06   -0.75301E-06   520   0.153E-02
   7 F= -.75836327E+02 E0= -.75836327E+02  d E =-.132929E-04
 BRION: g(F)=  0.431E-02 g(S)=  0.000E+00 retain N=  3 mean eig= 1.56
 eig:   4.037  0.073  0.578
 bond charge predicted
       N       E                     dE             d eps       ncg     rms          rms(c)
DAV:   1    -0.758363441072E+02   -0.17590E-04   -0.21406E-04   512   0.915E-02    0.585E-03
DAV:   2    -0.758363445403E+02   -0.43307E-06   -0.50845E-06   592   0.133E-02
   8 F= -.75836345E+02 E0= -.75836345E+02  d E =-.172917E-04
 BRION: g(F)=  0.429E-02 g(S)=  0.000E+00 retain N=  4 mean eig= 1.80
 eig:   5.077  1.855  0.137  0.137
 bond charge predicted
       N       E                     dE             d eps       ncg     rms          rms(c)
DAV:   1    -0.758363439179E+02    0.18923E-06   -0.41840E-07   296   0.444E-03    0.133E-03
DAV:   2    -0.758363439704E+02   -0.52474E-07   -0.69969E-08   264   0.202E-03
   9 F= -.75836344E+02 E0= -.75836344E+02  d E =0.569831E-06
 BRION: g(F)=  0.428E-02 g(S)=  0.000E+00 retain N=  5 mean eig= 1.92
 eig:   4.599  3.687  0.328  0.488  0.488
 bond charge predicted
       N       E                     dE             d eps       ncg     rms          rms(c)
DAV:   1    -0.758363216510E+02    0.22267E-04   -0.30909E-04   512   0.122E-01    0.522E-03
DAV:   2    -0.758363220896E+02   -0.43856E-06   -0.72688E-06   672   0.165E-02
  10 F= -.75836322E+02 E0= -.75836322E+02  d E =0.218808E-04
 BRION: g(F)=  0.446E-02 g(S)=  0.000E+00 retain N=  5 mean eig= 2.00
 eig:   7.707  1.344  0.427  0.502  0.031
 bond charge predicted
       N       E                     dE             d eps       ncg     rms          rms(c)
DAV:   1    -0.758363088467E+02    0.12804E-04   -0.35265E-04   512   0.138E-01    0.473E-03
DAV:   2    -0.758363092827E+02   -0.43596E-06   -0.65972E-06   624   0.151E-02
  11 F= -.75836309E+02 E0= -.75836309E+02  d E =0.128069E-04
 BRION: g(F)=  0.456E-02 g(S)=  0.000E+00 retain N=  4 mean eig= 1.70
 eig:   4.991  1.455  0.116  0.222
 bond charge predicted
       N       E                     dE             d eps       ncg     rms          rms(c)
DAV:   1    -0.758362761978E+02    0.32649E-04   -0.81064E-03   512   0.640E-01    0.230E-02
DAV:   2    -0.758362923975E+02   -0.16200E-04   -0.18011E-04   632   0.729E-02    0.884E-03
DAV:   3    -0.758362924711E+02   -0.73588E-07   -0.30026E-06   608   0.112E-02
  12 F= -.75836292E+02 E0= -.75836292E+02  d E =0.168115E-04
 BRION: g(F)=  0.530E-02 g(S)=  0.000E+00 retain N=  5 mean eig= 1.61
 eig:   4.915  1.593  0.715  0.715  0.104
 bond charge predicted
       N       E                     dE             d eps       ncg     rms          rms(c)
DAV:   1    -0.758362896997E+02    0.26978E-05   -0.47300E-04   520   0.155E-01    0.559E-03
DAV:   2    -0.758362903758E+02   -0.67608E-06   -0.87159E-06   656   0.166E-02
  13 F= -.75836290E+02 E0= -.75836290E+02  d E =0.209534E-05
 BRION: g(F)=  0.481E-02 g(S)=  0.000E+00 retain N=  5 mean eig= 2.01
 eig:   4.611  4.611  0.159  0.352  0.310
 bond charge predicted
       N       E                     dE             d eps       ncg     rms          rms(c)
DAV:   1    -0.758362651775E+02    0.24522E-04   -0.12671E-02   512   0.801E-01    0.248E-02
DAV:   2    -0.758362894425E+02   -0.24265E-04   -0.27300E-04   648   0.883E-02    0.122E-02
DAV:   3    -0.758362891356E+02    0.30682E-06   -0.43513E-06   640   0.130E-02
  14 F= -.75836289E+02 E0= -.75836289E+02  d E =0.124015E-05
 BRION: g(F)=  0.504E-02 g(S)=  0.000E+00 retain N=  5 mean eig= 2.22
 eig:   7.479  2.251  0.068  0.656  0.656
 bond charge predicted
       N       E                     dE             d eps       ncg     rms          rms(c)
DAV:   1    -0.758363212491E+02   -0.31807E-04   -0.10979E-03   512   0.242E-01    0.634E-03
DAV:   2    -0.758363233313E+02   -0.20822E-05   -0.25035E-05   640   0.281E-02    0.639E-03
DAV:   3    -0.758363231879E+02    0.14341E-06   -0.47608E-07   256   0.508E-03
  15 F= -.75836323E+02 E0= -.75836323E+02  d E =-.340522E-04
 BRION: g(F)=  0.468E-02 g(S)=  0.000E+00 retain N=  4 mean eig= 1.58
 eig:   5.406  0.217  0.357  0.357
 bond charge predicted
       N       E                     dE             d eps       ncg     rms          rms(c)
DAV:   1    -0.758362959649E+02    0.27366E-04   -0.81243E-04   512   0.198E-01    0.700E-03
DAV:   2    -0.758362972918E+02   -0.13269E-05   -0.20027E-05   632   0.255E-02    0.638E-03
DAV:   3    -0.758362971459E+02    0.14590E-06   -0.50129E-07   296   0.478E-03
  16 F= -.75836297E+02 E0= -.75836297E+02  d E =0.260420E-04
 BRION: g(F)=  0.508E-02 g(S)=  0.000E+00 retain N=  5 mean eig= 1.56
 eig:   6.226  0.635  0.635  0.260  0.067
 bond charge predicted
       N       E                     dE             d eps       ncg     rms          rms(c)
DAV:   1    -0.758363021954E+02   -0.49036E-05   -0.52048E-04   512   0.158E-01    0.610E-03
DAV:   2    -0.758363030838E+02   -0.88834E-06   -0.13094E-05   624   0.204E-02    0.380E-03
DAV:   3    -0.758363030630E+02    0.20816E-07   -0.35056E-07   264   0.412E-03
  17 F= -.75836303E+02 E0= -.75836303E+02  d E =-.591705E-05
 BRION: g(F)=  0.451E-02 g(S)=  0.000E+00 retain N=  1 mean eig= 0.29
 eig:   0.289
 bond charge predicted
       N       E                     dE             d eps       ncg     rms          rms(c)
DAV:   1    -0.758362583838E+02    0.44700E-04   -0.30335E-03   512   0.373E-01    0.169E-02
DAV:   2    -0.758362648552E+02   -0.64714E-05   -0.72173E-05   576   0.472E-02    0.677E-03
DAV:   3    -0.758362649826E+02   -0.12736E-06   -0.12773E-06   480   0.778E-03
  18 F= -.75836265E+02 E0= -.75836265E+02  d E =0.380804E-04
 BRION: g(F)=  0.506E-02 g(S)=  0.000E+00 retain N=  2 mean eig= 0.30
 eig:   0.291  0.300
 bond charge predicted
       N       E                     dE             d eps       ncg     rms          rms(c)
DAV:   1    -0.758362609713E+02    0.38839E-05   -0.41183E-05   576   0.443E-02    0.229E-03
DAV:   2    -0.758362610330E+02   -0.61689E-07   -0.81639E-07   456   0.570E-03
  19 F= -.75836261E+02 E0= -.75836261E+02  d E =0.394952E-05
 BRION: g(F)=  0.496E-02 g(S)=  0.000E+00 retain N=  3 mean eig= 1.09
 eig:   2.685  0.274  0.325
 bond charge predicted
       N       E                     dE             d eps       ncg     rms          rms(c)
DAV:   1    -0.758363002119E+02   -0.39241E-04   -0.55284E-03   512   0.502E-01    0.240E-02
DAV:   2    -0.758363116498E+02   -0.11438E-04   -0.12961E-04   656   0.653E-02    0.868E-03
DAV:   3    -0.758363122171E+02   -0.56729E-06   -0.32548E-06   616   0.115E-02
  20 F= -.75836312E+02 E0= -.75836312E+02  d E =-.511841E-04
 BRION: g(F)=  0.468E-02 g(S)=  0.000E+00 retain N=  4 mean eig= 2.26
 eig:   4.226  4.226  0.321  0.269
 bond charge predicted
       N       E                     dE             d eps       ncg     rms          rms(c)
DAV:   1    -0.758363288773E+02   -0.17227E-04   -0.49722E-04   512   0.150E-01    0.737E-03
DAV:   2    -0.758363297251E+02   -0.84781E-06   -0.13395E-05   648   0.200E-02    0.486E-03
DAV:   3    -0.758363296813E+02    0.43802E-07   -0.46974E-07   304   0.439E-03
  21 F= -.75836330E+02 E0= -.75836330E+02  d E =-.174642E-04
 BRION: g(F)=  0.449E-02 g(S)=  0.000E+00 retain N=  3 mean eig= 1.21
 eig:   2.598  0.420  0.607
 bond charge predicted
       N       E                     dE             d eps       ncg     rms          rms(c)
DAV:   1    -0.758363196425E+02    0.10083E-04   -0.44769E-04   528   0.147E-01    0.640E-03
DAV:   2    -0.758363203074E+02   -0.66486E-06   -0.10340E-05   656   0.191E-02    0.321E-03
DAV:   3    -0.758363202675E+02    0.39849E-07   -0.39213E-07   288   0.447E-03
  22 F= -.75836320E+02 E0= -.75836320E+02  d E =0.941374E-05
 BRION: g(F)=  0.497E-02 g(S)=  0.000E+00 retain N=  4 mean eig= 1.07
 eig:   2.604  0.811  0.507  0.355
 bond charge predicted
       N       E                     dE             d eps       ncg     rms          rms(c)
DAV:   1    -0.758363225156E+02   -0.22082E-05   -0.53608E-06   512   0.152E-02    0.108E-03
DAV:   2    -0.758363225440E+02   -0.28383E-07   -0.18726E-07   256   0.264E-03
  23 F= -.75836323E+02 E0= -.75836323E+02  d E =-.227644E-05
 BRION: g(F)=  0.490E-02 g(S)=  0.000E+00 retain N=  5 mean eig= 1.95
 eig:   2.529  0.520  0.493  0.368  5.855
 bond charge predicted
       N       E                     dE             d eps       ncg     rms          rms(c)
DAV:   1    -0.758363007358E+02    0.21780E-04   -0.23616E-04   512   0.968E-02    0.614E-03
DAV:   2    -0.758363011250E+02   -0.38924E-06   -0.53297E-06   624   0.149E-02
  24 F= -.75836301E+02 E0= -.75836301E+02  d E =0.214190E-04
 BRION: g(F)=  0.491E-02 g(S)=  0.000E+00 retain N=  3 mean eig= 1.55
 eig:   0.206  0.593  3.838
 bond charge predicted
       N       E                     dE             d eps       ncg     rms          rms(c)
DAV:   1    -0.758362484537E+02    0.52282E-04   -0.21199E-03   512   0.301E-01    0.172E-02
DAV:   2    -0.758362518093E+02   -0.33556E-05   -0.58320E-05   648   0.437E-02    0.102E-02
DAV:   3    -0.758362517741E+02    0.35162E-07   -0.38205E-06   624   0.113E-02
  25 F= -.75836252E+02 E0= -.75836252E+02  d E =0.493509E-04
 BRION: g(F)=  0.542E-02 g(S)=  0.000E+00 retain N=  4 mean eig= 1.39
 eig:   4.251  0.187  0.564  0.564
 bond charge predicted
       N       E                     dE             d eps       ncg     rms          rms(c)
DAV:   1    -0.758362461525E+02    0.56568E-05   -0.82002E-04   512   0.188E-01    0.105E-02
DAV:   2    -0.758362481119E+02   -0.19594E-05   -0.25287E-05   624   0.277E-02    0.618E-03
DAV:   3    -0.758362481017E+02    0.10172E-07   -0.81733E-07   368   0.593E-03
  26 F= -.75836248E+02 E0= -.75836248E+02  d E =0.367235E-05
 BRION: g(F)=  0.483E-02 g(S)=  0.000E+00 retain N=  3 mean eig= 3.29
 eig:   4.775  4.775  0.332
 bond charge predicted
       N       E                     dE             d eps       ncg     rms          rms(c)
DAV:   1    -0.758362330957E+02    0.15016E-04   -0.27066E-03   512   0.365E-01    0.137E-02
DAV:   2    -0.758362377888E+02   -0.46930E-05   -0.65254E-05   632   0.436E-02    0.887E-03
DAV:   3    -0.758362375786E+02    0.21020E-06   -0.20504E-06   584   0.886E-03
  27 F= -.75836238E+02 E0= -.75836238E+02  d E =0.105232E-04
 BRION: g(F)=  0.559E-02 g(S)=  0.000E+00 retain N=  4 mean eig= 2.73
 eig:   4.952  4.952  0.318  0.700
 bond charge predicted
       N       E                     dE             d eps       ncg     rms          rms(c)
DAV:   1    -0.758362268356E+02    0.10953E-04   -0.27932E-04   512   0.111E-01    0.621E-03
DAV:   2    -0.758362276393E+02   -0.80369E-06   -0.79443E-06   640   0.155E-02
  28 F= -.75836228E+02 E0= -.75836228E+02  d E =0.993927E-05
 BRION: g(F)=  0.508E-02 g(S)=  0.000E+00 retain N=  5 mean eig= 3.14
 eig:   5.901  4.647  4.647  0.296  0.215
 bond charge predicted
       N       E                     dE             d eps       ncg     rms          rms(c)
DAV:   1    -0.758362591183E+02   -0.32283E-04   -0.51780E-03   512   0.492E-01    0.208E-02
DAV:   2    -0.758362702795E+02   -0.11161E-04   -0.12088E-04   576   0.614E-02    0.777E-03
DAV:   3    -0.758362703557E+02   -0.76182E-07   -0.18284E-06   560   0.923E-03
  29 F= -.75836270E+02 E0= -.75836270E+02  d E =-.427163E-04
 BRION: g(F)=  0.494E-02 g(S)=  0.000E+00 retain N=  6 mean eig= 3.87
 eig:   4.427  4.427  7.850  5.834  0.336  0.336
 bond charge predicted
       N       E                     dE             d eps       ncg     rms          rms(c)
DAV:   1    -0.758362805147E+02   -0.10235E-04   -0.24980E-04   512   0.111E-01    0.469E-03
DAV:   2    -0.758362809229E+02   -0.40820E-06   -0.49106E-06   640   0.130E-02
  30 F= -.75836281E+02 E0= -.75836281E+02  d E =-.105672E-04
 BRION: g(F)=  0.462E-02 g(S)=  0.000E+00 retain N=  3 mean eig= 1.11
 eig:   2.468  0.428  0.428
 bond charge predicted
       N       E                     dE             d eps       ncg     rms          rms(c)
DAV:   1    -0.758362948864E+02   -0.14372E-04   -0.35908E-04   520   0.128E-01    0.651E-03
DAV:   2    -0.758362952902E+02   -0.40384E-06   -0.97458E-06   608   0.189E-02
  31 F= -.75836295E+02 E0= -.75836295E+02  d E =-.143673E-04
 BRION: g(F)=  0.466E-02 g(S)=  0.000E+00 retain N=  4 mean eig= 0.92
 eig:   2.491  0.619  0.468  0.116
 bond charge predicted
       N       E                     dE             d eps       ncg     rms          rms(c)
DAV:   1    -0.758362995081E+02   -0.46217E-05   -0.59643E-05   512   0.507E-02    0.329E-03
DAV:   2    -0.758362996958E+02   -0.18778E-06   -0.16114E-06   344   0.660E-03
  32 F= -.75836300E+02 E0= -.75836300E+02  d E =-.440563E-05
 BRION: g(F)=  0.464E-02 g(S)=  0.000E+00 retain N=  5 mean eig= 1.54
 eig:   3.773  2.672  0.459  0.405  0.405
 bond charge predicted
       N       E                     dE             d eps       ncg     rms          rms(c)
DAV:   1    -0.758362737320E+02    0.25776E-04   -0.50604E-04   512   0.158E-01    0.502E-03
DAV:   2    -0.758362746249E+02   -0.89297E-06   -0.11267E-05   608   0.182E-02    0.268E-03
DAV:   3    -0.758362745710E+02    0.53956E-07   -0.17710E-07   256   0.294E-03
  33 F= -.75836275E+02 E0= -.75836275E+02  d E =0.251249E-04
 BRION: g(F)=  0.453E-02 g(S)=  0.000E+00 retain N=  6 mean eig= 1.84
 eig:   3.499  3.499  2.586  0.978  0.454  0.029
 bond charge predicted
       N       E                     dE             d eps       ncg     rms          rms(c)
DAV:   1    -0.758362351806E+02    0.39444E-04   -0.10482E-03   512   0.225E-01    0.720E-03
DAV:   2    -0.758362367154E+02   -0.15348E-05   -0.21571E-05   640   0.249E-02    0.457E-03
DAV:   3    -0.758362366362E+02    0.79212E-07   -0.39536E-07   288   0.454E-03
  34 F= -.75836237E+02 E0= -.75836237E+02  d E =0.379347E-04
 BRION: g(F)=  0.450E-02 g(S)=  0.000E+00 retain N=  6 mean eig= 2.08
 eig:   4.777  4.777  1.279  0.171  0.742  0.742
 bond charge predicted
       N       E                     dE             d eps       ncg     rms          rms(c)
DAV:   1    -0.758362298858E+02    0.68297E-05   -0.13625E-04   520   0.791E-02    0.311E-03
DAV:   2    -0.758362301125E+02   -0.22678E-06   -0.33605E-06   520   0.100E-02
  35 F= -.75836230E+02 E0= -.75836230E+02  d E =0.652369E-05
 BRION: g(F)=  0.450E-02 g(S)=  0.000E+00 retain N=  4 mean eig= 1.27
 eig:   2.758  0.623  0.857  0.857
 bond charge predicted
       N       E                     dE             d eps       ncg     rms          rms(c)
DAV:   1    -0.758361885884E+02    0.41297E-04   -0.30491E-03   512   0.377E-01    0.160E-02
DAV:   2    -0.758361946929E+02   -0.61045E-05   -0.71618E-05   592   0.467E-02    0.740E-03
DAV:   3    -0.758361948215E+02   -0.12860E-06   -0.11584E-06   432   0.760E-03
  36 F= -.75836195E+02 E0= -.75836195E+02  d E =0.352910E-04
 BRION: g(F)=  0.497E-02 g(S)=  0.000E+00 retain N=  5 mean eig= 1.52
 eig:   1.332  1.332  0.567  2.932  1.426
 bond charge predicted
       N       E                     dE             d eps       ncg     rms          rms(c)
DAV:   1    -0.758361899454E+02    0.47475E-05   -0.62735E-05   576   0.558E-02    0.251E-03
DAV:   2    -0.758361900300E+02   -0.84586E-07   -0.11578E-06   496   0.665E-03
  37 F= -.75836190E+02 E0= -.75836190E+02  d E =0.479154E-05
 BRION: g(F)=  0.491E-02 g(S)=  0.000E+00 retain N=  6 mean eig= 2.32
 eig:   7.670  2.625  1.380  1.380  0.555  0.310
 bond charge predicted
       N       E                     dE             d eps       ncg     rms          rms(c)
DAV:   1    -0.758362171898E+02   -0.27244E-04   -0.25903E-03   512   0.345E-01    0.162E-02
DAV:   2    -0.758362226840E+02   -0.54942E-05   -0.60538E-05   640   0.447E-02    0.548E-03
DAV:   3    -0.758362229448E+02   -0.26083E-06   -0.95890E-07   376   0.690E-03
  38 F= -.75836223E+02 E0= -.75836223E+02  d E =-.329149E-04
 BRION: g(F)=  0.465E-02 g(S)=  0.000E+00 retain N=  2 mean eig= 1.25
 eig:   0.384  2.112
 bond charge predicted
       N       E                     dE             d eps       ncg     rms          rms(c)
DAV:   1    -0.758362287388E+02   -0.60548E-05   -0.65887E-04   560   0.165E-01    0.909E-03
DAV:   2    -0.758362289490E+02   -0.21023E-06   -0.18229E-05   616   0.257E-02    0.672E-03
DAV:   3    -0.758362288100E+02    0.13899E-06   -0.12710E-06   368   0.692E-03
  39 F= -.75836229E+02 E0= -.75836229E+02  d E =-.586518E-05
 BRION: g(F)=  0.517E-02 g(S)=  0.000E+00 retain N=  3 mean eig= 0.98
 eig:   2.107  0.362  0.457
 bond charge predicted
       N       E                     dE             d eps       ncg     rms          rms(c)
DAV:   1    -0.758362414821E+02   -0.12533E-04   -0.29307E-04   520   0.111E-01    0.477E-03
DAV:   2    -0.758362419676E+02   -0.48546E-06   -0.81144E-06   576   0.164E-02
  40 F= -.75836242E+02 E0= -.75836242E+02  d E =-.131576E-04
 BRION: g(F)=  0.483E-02 g(S)=  0.000E+00 retain N=  4 mean eig= 1.81
 eig:   5.034  1.715  0.391  0.085
 bond charge predicted
       N       E                     dE             d eps       ncg     rms          rms(c)
DAV:   1    -0.758362255810E+02    0.15901E-04   -0.60589E-05   512   0.538E-02    0.281E-03
DAV:   2    -0.758362257284E+02   -0.14744E-06   -0.13919E-06   400   0.655E-03
  41 F= -.75836226E+02 E0= -.75836226E+02  d E =0.162391E-04
 BRION: g(F)=  0.483E-02 g(S)=  0.000E+00 retain N=  5 mean eig= 2.00
 eig:   4.559  3.499  0.989  0.375  0.569
 bond charge predicted
       N       E                     dE             d eps       ncg     rms          rms(c)
DAV:   1    -0.758362002319E+02    0.25349E-04   -0.12831E-04   520   0.805E-02    0.338E-03
DAV:   2    -0.758362004155E+02   -0.18358E-06   -0.30201E-06   568   0.106E-02
  42 F= -.75836200E+02 E0= -.75836200E+02  d E =0.253129E-04
 BRION: g(F)=  0.466E-02 g(S)=  0.000E+00 retain N=  3 mean eig= 1.03
 eig:   0.609  1.241  1.241
 bond charge predicted
       N       E                     dE             d eps       ncg     rms          rms(c)
DAV:   1    -0.758361584129E+02    0.41819E-04   -0.24813E-03   512   0.338E-01    0.158E-02
DAV:   2    -0.758361634890E+02   -0.50762E-05   -0.59642E-05   648   0.444E-02    0.603E-03
DAV:   3    -0.758361636853E+02   -0.19634E-06   -0.13549E-06   392   0.812E-03
  43 F= -.75836164E+02 E0= -.75836164E+02  d E =0.367302E-04
 BRION: g(F)=  0.519E-02 g(S)=  0.000E+00 retain N=  4 mean eig= 1.11
 eig:   0.637  1.228  1.228  1.339
 bond charge predicted
       N       E                     dE             d eps       ncg     rms          rms(c)
DAV:   1    -0.758361376904E+02    0.25799E-04   -0.30196E-04   512   0.119E-01    0.543E-03
DAV:   2    -0.758361382348E+02   -0.54435E-06   -0.65206E-06   560   0.137E-02
  44 F= -.75836138E+02 E0= -.75836138E+02  d E =0.254506E-04
 BRION: g(F)=  0.500E-02 g(S)=  0.000E+00 retain N=  5 mean eig= 1.36
 eig:   3.450  1.278  1.278  0.639  0.178
 bond charge predicted
       N       E                     dE             d eps       ncg     rms          rms(c)
DAV:   1    -0.758361710597E+02   -0.33369E-04   -0.16654E-03   512   0.275E-01    0.123E-02
DAV:   2    -0.758361748581E+02   -0.37984E-05   -0.40493E-05   560   0.347E-02    0.455E-03
DAV:   3    -0.758361748226E+02    0.35531E-07   -0.57524E-07   312   0.566E-03
  45 F= -.75836175E+02 E0= -.75836175E+02  d E =-.365878E-04
 BRION: g(F)=  0.493E-02 g(S)=  0.000E+00 retain N=  5 mean eig= 3.63
 eig:   7.796  7.796  1.161  1.161  0.224
 bond charge predicted
       N       E                     dE             d eps       ncg     rms          rms(c)
DAV:   1    -0.758362078373E+02   -0.32979E-04   -0.20318E-03   512   0.301E-01    0.151E-02
DAV:   2    -0.758362119623E+02   -0.41250E-05   -0.47222E-05   624   0.404E-02    0.561E-03
DAV:   3    -0.758362122857E+02   -0.32338E-06   -0.88088E-07   400   0.709E-03
  46 F= -.75836212E+02 E0= -.75836212E+02  d E =-.374631E-04
 BRION: g(F)=  0.472E-02 g(S)=  0.000E+00 retain N=  3 mean eig= 3.24
 eig:   0.283  4.720  4.720
 bond charge predicted
       N       E                     dE             d eps       ncg     rms          rms(c)
DAV:   1    -0.758361854210E+02    0.26541E-04   -0.37195E-03   512   0.411E-01    0.178E-02
DAV:   2    -0.758361923102E+02   -0.68893E-05   -0.99020E-05   600   0.531E-02    0.117E-02
DAV:   3    -0.758361919528E+02    0.35744E-06   -0.37765E-06   632   0.115E-02
  47 F= -.75836192E+02 E0= -.75836192E+02  d E =0.203329E-04
 BRION: g(F)=  0.568E-02 g(S)=  0.000E+00 retain N=  4 mean eig= 2.84
 eig:   5.308  5.308  0.251  0.489
 bond charge predicted
       N       E                     dE             d eps       ncg     rms          rms(c)
DAV:   1    -0.758362307366E+02   -0.38426E-04   -0.26759E-03   512   0.347E-01    0.153E-02
DAV:   2    -0.758362373517E+02   -0.66151E-05   -0.76661E-05   584   0.455E-02    0.830E-03
DAV:   3    -0.758362370156E+02    0.33606E-06   -0.21155E-06   568   0.899E-03
  48 F= -.75836237E+02 E0= -.75836237E+02  d E =-.450628E-04
 BRION: g(F)=  0.490E-02 g(S)=  0.000E+00 retain N=  1 mean eig= 0.45
 eig:   0.453
 bond charge predicted
       N       E                     dE             d eps       ncg     rms          rms(c)
DAV:   1    -0.758362084077E+02    0.28944E-04   -0.28641E-03   512   0.368E-01    0.172E-02
DAV:   2    -0.758362153868E+02   -0.69790E-05   -0.77456E-05   576   0.490E-02    0.718E-03
DAV:   3    -0.758362152584E+02    0.12835E-06   -0.13795E-06   480   0.872E-03
  49 F= -.75836215E+02 E0= -.75836215E+02  d E =0.217572E-04
 BRION: g(F)=  0.557E-02 g(S)=  0.000E+00 retain N=  2 mean eig= 0.18
 eig:   0.262  0.101
 bond charge predicted
       N       E                     dE             d eps       ncg     rms          rms(c)
DAV:   1    -0.758362133807E+02    0.20061E-05   -0.50041E-05   576   0.475E-02    0.270E-03
DAV:   2    -0.758362135072E+02   -0.12654E-06   -0.14852E-06   400   0.739E-03
  50 F= -.75836214E+02 E0= -.75836214E+02  d E =0.175122E-05
 BRION: g(F)=  0.532E-02 g(S)=  0.000E+00 retain N=  3 mean eig= 2.83
 eig:   7.046  0.863  0.592
 bond charge predicted
       N       E                     dE             d eps       ncg     rms          rms(c)
DAV:   1    -0.758362366569E+02   -0.23276E-04   -0.32525E-03   512   0.381E-01    0.189E-02
DAV:   2    -0.758362435243E+02   -0.68675E-05   -0.76018E-05   640   0.512E-02    0.658E-03
DAV:   3    -0.758362439204E+02   -0.39607E-06   -0.14506E-06   416   0.838E-03
  51 F= -.75836244E+02 E0= -.75836244E+02  d E =-.304132E-04
 BRION: g(F)=  0.503E-02 g(S)=  0.000E+00 retain N=  2 mean eig= 0.78
 eig:   0.005  1.555
 bond charge predicted
       N       E                     dE             d eps       ncg     rms          rms(c)
DAV:   1    -0.758362039758E+02    0.39549E-04   -0.39399E-03   512   0.412E-01    0.231E-02
DAV:   2    -0.758362098712E+02   -0.58954E-05   -0.10903E-04   656   0.623E-02    0.133E-02
DAV:   3    -0.758362095844E+02    0.28681E-06   -0.76907E-06   672   0.163E-02
  52 F= -.75836210E+02 E0= -.75836210E+02  d E =0.343361E-04
 BRION: g(F)=  0.572E-02 g(S)=  0.000E+00 retain N=  3 mean eig= 2.38
 eig:   5.702  0.143  1.290
 bond charge predicted
       N       E                     dE             d eps       ncg     rms          rms(c)
DAV:   1    -0.758362473778E+02   -0.37507E-04   -0.25736E-03   512   0.335E-01    0.170E-02
DAV:   2    -0.758362530742E+02   -0.56964E-05   -0.75565E-05   632   0.486E-02    0.850E-03
DAV:   3    -0.758362530178E+02    0.56469E-07   -0.33131E-06   616   0.106E-02
  53 F= -.75836253E+02 E0= -.75836253E+02  d E =-.434334E-04
 BRION: g(F)=  0.511E-02 g(S)=  0.000E+00 retain N=  1 mean eig= 0.52
 eig:   0.520
 bond charge predicted
       N       E                     dE             d eps       ncg     rms          rms(c)
DAV:   1    -0.758362273332E+02    0.25741E-04   -0.19532E-03   512   0.298E-01    0.144E-02
DAV:   2    -0.758362318603E+02   -0.45270E-05   -0.50354E-05   632   0.423E-02    0.504E-03
DAV:   3    -0.758362319460E+02   -0.85686E-07   -0.98215E-07   312   0.737E-03
  54 F= -.75836232E+02 E0= -.75836232E+02  d E =0.210718E-04
 BRION: g(F)=  0.546E-02 g(S)=  0.000E+00 retain N=  2 mean eig= 1.35
 eig:   1.347  1.347
 bond charge predicted
       N       E                     dE             d eps       ncg     rms          rms(c)
DAV:   1    -0.758362337817E+02   -0.19214E-05   -0.28747E-05   576   0.367E-02    0.138E-03
DAV:   2    -0.758362338738E+02   -0.92100E-07   -0.92759E-07   328   0.563E-03
  55 F= -.75836234E+02 E0= -.75836234E+02  d E =-.192778E-05
 BRION: g(F)=  0.555E-02 g(S)=  0.000E+00 retain N=  3 mean eig= 1.69
 eig:   2.425  2.425  0.227
 bond charge predicted
       N       E                     dE             d eps       ncg     rms          rms(c)
DAV:   1    -0.758362426897E+02   -0.89081E-05   -0.33167E-04   512   0.124E-01    0.567E-03
DAV:   2    -0.758362432094E+02   -0.51969E-06   -0.84371E-06   624   0.165E-02
  56 F= -.75836243E+02 E0= -.75836243E+02  d E =-.933566E-05
 BRION: g(F)=  0.543E-02 g(S)=  0.000E+00 retain N=  4 mean eig= 3.04
 eig:   4.941  4.941  2.005  0.253
 bond charge predicted
       N       E                     dE             d eps       ncg     rms          rms(c)
DAV:   1    -0.758362290888E+02    0.13601E-04   -0.70806E-04   520   0.177E-01    0.810E-03
DAV:   2    -0.758362297608E+02   -0.67205E-06   -0.18505E-05   640   0.242E-02    0.650E-03
DAV:   3    -0.758362296538E+02    0.10702E-06   -0.88863E-07   360   0.570E-03
  57 F= -.75836230E+02 E0= -.75836230E+02  d E =0.135556E-04
 BRION: g(F)=  0.568E-02 g(S)=  0.000E+00 retain N=  3 mean eig= 0.74
 eig:   1.532  0.462  0.238
 bond charge predicted
       N       E                     dE             d eps       ncg     rms          rms(c)
DAV:   1    -0.758362370287E+02   -0.72679E-05   -0.49950E-04   512   0.149E-01    0.790E-03
DAV:   2    -0.758362382704E+02   -0.12416E-05   -0.16224E-05   656   0.242E-02    0.461E-03
DAV:   3    -0.758362381815E+02    0.88900E-07   -0.52162E-07   336   0.478E-03
  58 F= -.75836238E+02 E0= -.75836238E+02  d E =-.852765E-05
 BRION: g(F)=  0.541E-02 g(S)=  0.000E+00 retain N=  3 mean eig= 1.48
 eig:   3.290  0.746  0.398
 bond charge predicted
       N       E                     dE             d eps       ncg     rms          rms(c)
DAV:   1    -0.758362461074E+02   -0.78370E-05   -0.16213E-04   520   0.897E-02    0.325E-03
DAV:   2    -0.758362463653E+02   -0.25792E-06   -0.38830E-06   584   0.114E-02
  59 F= -.75836246E+02 E0= -.75836246E+02  d E =-.818387E-05
 BRION: g(F)=  0.544E-02 g(S)=  0.000E+00 retain N=  4 mean eig= 1.25
 eig:   3.180  1.253  0.396  0.178
 bond charge predicted
       N       E                     dE             d eps       ncg     rms          rms(c)
DAV:   1    -0.758362417931E+02    0.43143E-05   -0.93424E-05   616   0.635E-02    0.363E-03
DAV:   2    -0.758362417990E+02   -0.58533E-08   -0.22260E-06   384   0.862E-03
  60 F= -.75836242E+02 E0= -.75836242E+02  d E =0.456637E-05
 BRION: g(F)=  0.552E-02 g(S)=  0.000E+00 retain N=  4 mean eig= 2.52
 eig:   0.393  0.367  3.513  5.795
 bond charge predicted
       N       E                     dE             d eps       ncg     rms          rms(c)
DAV:   1    -0.758362046568E+02    0.37136E-04   -0.41187E-03   512   0.433E-01    0.188E-02
DAV:   2    -0.758362119882E+02   -0.73313E-05   -0.11102E-04   608   0.573E-02    0.119E-02
DAV:   3    -0.758362116037E+02    0.38442E-06   -0.49230E-06   656   0.127E-02
  61 F= -.75836212E+02 E0= -.75836212E+02  d E =0.301952E-04
 BRION: g(F)=  0.578E-02 g(S)=  0.000E+00 retain N=  4 mean eig= 1.86
 eig:   6.237  0.290  0.459  0.459
 bond charge predicted
       N       E                     dE             d eps       ncg     rms          rms(c)
DAV:   1    -0.758362189146E+02   -0.69264E-05   -0.50876E-04   512   0.145E-01    0.789E-03
DAV:   2    -0.758362203469E+02   -0.14323E-05   -0.16337E-05   608   0.220E-02    0.425E-03
DAV:   3    -0.758362203724E+02   -0.25519E-07   -0.55047E-07   344   0.467E-03
  62 F= -.75836220E+02 E0= -.75836220E+02  d E =-.876865E-05
 BRION: g(F)=  0.570E-02 g(S)=  0.000E+00 retain N=  4 mean eig= 2.58
 eig:   2.263  0.121  0.392  7.556
 bond charge predicted
       N       E                     dE             d eps       ncg     rms          rms(c)
DAV:   1    -0.758362030830E+02    0.17264E-04   -0.23559E-03   528   0.325E-01    0.133E-02
DAV:   2    -0.758362048645E+02   -0.17815E-05   -0.53248E-05   624   0.395E-02    0.101E-02
DAV:   3    -0.758362045769E+02    0.28751E-06   -0.30452E-06   632   0.980E-03
  63 F= -.75836205E+02 E0= -.75836205E+02  d E =0.157954E-04
 BRION: g(F)=  0.589E-02 g(S)=  0.000E+00 retain N=  4 mean eig= 0.94
 eig:   3.039  0.423  0.212  0.081
 bond charge predicted
       N       E                     dE             d eps       ncg     rms          rms(c)
DAV:   1    -0.758362387117E+02   -0.33847E-04   -0.29910E-03   512   0.366E-01    0.187E-02
DAV:   2    -0.758362453531E+02   -0.66414E-05   -0.79394E-05   632   0.502E-02    0.818E-03
DAV:   3    -0.758362455199E+02   -0.16681E-06   -0.26295E-06   592   0.101E-02
  64 F= -.75836246E+02 E0= -.75836246E+02  d E =-.409430E-04
 BRION: g(F)=  0.544E-02 g(S)=  0.000E+00 retain N=  4 mean eig= 3.08
 eig:   7.346  4.393  0.257  0.340
 bond charge predicted
       N       E                     dE             d eps       ncg     rms          rms(c)
DAV:   1    -0.758362389712E+02    0.63819E-05   -0.17191E-04   536   0.906E-02    0.584E-03
DAV:   2    -0.758362391948E+02   -0.22360E-06   -0.51282E-06   648   0.154E-02
  65 F= -.75836239E+02 E0= -.75836239E+02  d E =0.632515E-05
 BRION: g(F)=  0.563E-02 g(S)=  0.000E+00 retain N=  5 mean eig= 2.58
 eig:   7.676  4.454  0.328  0.214  0.214
 bond charge predicted
       N       E                     dE             d eps       ncg     rms          rms(c)
DAV:   1    -0.758362418923E+02   -0.29212E-05   -0.30903E-04   512   0.119E-01    0.619E-03
DAV:   2    -0.758362424047E+02   -0.51236E-06   -0.78791E-06   512   0.147E-02
  66 F= -.75836242E+02 E0= -.75836242E+02  d E =-.320992E-05
 BRION: g(F)=  0.542E-02 g(S)=  0.000E+00 retain N=  1 mean eig= 0.27
 eig:   0.275
 bond charge predicted
       N       E                     dE             d eps       ncg     rms          rms(c)
DAV:   1    -0.758362148928E+02    0.27000E-04   -0.20157E-03   512   0.304E-01    0.140E-02
DAV:   2    -0.758362190945E+02   -0.42017E-05   -0.47436E-05   656   0.406E-02    0.492E-03
DAV:   3    -0.758362192535E+02   -0.15898E-06   -0.87915E-07   344   0.643E-03
  67 F= -.75836219E+02 E0= -.75836219E+02  d E =0.231512E-04
 BRION: g(F)=  0.564E-02 g(S)=  0.000E+00 retain N=  2 mean eig= 1.05
 eig:   0.311  1.785
 bond charge predicted
       N       E                     dE             d eps       ncg     rms          rms(c)
DAV:   1    -0.758362309024E+02   -0.11808E-04   -0.81882E-04   512   0.196E-01    0.857E-03
DAV:   2    -0.758362327270E+02   -0.18246E-05   -0.21428E-05   576   0.259E-02    0.420E-03
DAV:   3    -0.758362326672E+02    0.59747E-07   -0.38282E-07   264   0.461E-03
  68 F= -.75836233E+02 E0= -.75836233E+02  d E =-.134137E-04
 BRION: g(F)=  0.571E-02 g(S)=  0.000E+00 retain N=  3 mean eig= 1.23
 eig:   0.310  1.694  1.694
 bond charge predicted
       N       E                     dE             d eps       ncg     rms          rms(c)
DAV:   1    -0.758362463753E+02   -0.13648E-04   -0.38119E-04   512   0.133E-01    0.641E-03
DAV:   2    -0.758362470782E+02   -0.70294E-06   -0.88126E-06   632   0.174E-02
  69 F= -.75836247E+02 E0= -.75836247E+02  d E =-.144110E-04
 BRION: g(F)=  0.553E-02 g(S)=  0.000E+00 retain N=  2 mean eig= 1.68
 eig:   0.089  3.267
 bond charge predicted
       N       E                     dE             d eps       ncg     rms          rms(c)
DAV:   1    -0.758362363098E+02    0.10066E-04   -0.15393E-03   512   0.271E-01    0.113E-02
DAV:   2    -0.758362392447E+02   -0.29349E-05   -0.41093E-05   624   0.356E-02    0.766E-03
DAV:   3    -0.758362390348E+02    0.20998E-06   -0.12061E-06   416   0.747E-03
  70 F= -.75836239E+02 E0= -.75836239E+02  d E =0.804349E-05
 BRION: g(F)=  0.571E-02 g(S)=  0.000E+00 retain N=  3 mean eig= 1.50
 eig:   3.424  0.226  0.852
 bond charge predicted
       N       E                     dE             d eps       ncg     rms          rms(c)
DAV:   1    -0.758362427392E+02   -0.34945E-05   -0.29771E-05   568   0.364E-02    0.251E-03
DAV:   2    -0.758362429622E+02   -0.22298E-06   -0.13049E-06   448   0.624E-03
  71 F= -.75836243E+02 E0= -.75836243E+02  d E =-.392746E-05
 BRION: g(F)=  0.569E-02 g(S)=  0.000E+00 retain N=  3 mean eig= 1.92
 eig:   5.194  0.034  0.529
 bond charge predicted
       N       E                     dE             d eps       ncg     rms          rms(c)
DAV:   1    -0.758362230821E+02    0.19657E-04   -0.41242E-04   512   0.145E-01    0.549E-03
DAV:   2    -0.758362237122E+02   -0.63006E-06   -0.10035E-05   680   0.192E-02    0.408E-03
DAV:   3    -0.758362236578E+02    0.54344E-07   -0.48988E-07   296   0.474E-03
  72 F= -.75836224E+02 E0= -.75836224E+02  d E =0.193044E-04
 BRION: g(F)=  0.592E-02 g(S)=  0.000E+00 retain N=  4 mean eig= 1.78
 eig:   5.421  0.005  0.847  0.847
 bond charge predicted
       N       E                     dE             d eps       ncg     rms          rms(c)
DAV:   1    -0.758362127403E+02    0.10972E-04   -0.45402E-04   512   0.154E-01    0.555E-03
DAV:   2    -0.758362132487E+02   -0.50834E-06   -0.88221E-06   672   0.172E-02
  73 F= -.75836213E+02 E0= -.75836213E+02  d E =0.104092E-04
 BRION: g(F)=  0.561E-02 g(S)=  0.000E+00 retain N=  5 mean eig= 1.79
 eig:   5.231  1.494  1.494  0.006  0.724
 bond charge predicted
       N       E                     dE             d eps       ncg     rms          rms(c)
DAV:   1    -0.758362020914E+02    0.10649E-04   -0.17051E-04   512   0.945E-02    0.343E-03
DAV:   2    -0.758362022864E+02   -0.19500E-06   -0.34608E-06   544   0.107E-02
  74 F= -.75836202E+02 E0= -.75836202E+02  d E =0.109622E-04
 BRION: g(F)=  0.554E-02 g(S)=  0.000E+00 retain N=  6 mean eig= 2.22
 eig:   5.376  5.376  1.038  1.038  0.391  0.107
 bond charge predicted
       N       E                     dE             d eps       ncg     rms          rms(c)
DAV:   1    -0.758361799243E+02    0.22167E-04   -0.11903E-03   512   0.242E-01    0.718E-03
DAV:   2    -0.758361815463E+02   -0.16219E-05   -0.25329E-05   632   0.276E-02    0.548E-03
DAV:   3    -0.758361814200E+02    0.12629E-06   -0.45317E-07   272   0.495E-03
  75 F= -.75836181E+02 E0= -.75836181E+02  d E =0.208665E-04
 BRION: g(F)=  0.553E-02 g(S)=  0.000E+00 retain N=  6 mean eig= 3.31
 eig:   7.599  7.599  2.009  1.021  1.021  0.609
 bond charge predicted
       N       E                     dE             d eps       ncg     rms          rms(c)
DAV:   1    -0.758361804980E+02    0.10483E-05   -0.21868E-06   608   0.107E-02    0.132E-03
DAV:   2    -0.758361805431E+02   -0.45194E-07   -0.99628E-08   272   0.224E-03
  76 F= -.75836181E+02 E0= -.75836181E+02  d E =0.876828E-06
 BRION: g(F)=  0.555E-02 g(S)=  0.000E+00 retain N=  6 mean eig= 2.44
 eig:   6.869  1.220  1.220  0.631  2.349  2.349
 bond charge predicted
       N       E                     dE             d eps       ncg     rms          rms(c)
DAV:   1    -0.758361392801E+02    0.41218E-04   -0.42243E-03   512   0.443E-01    0.198E-02
DAV:   2    -0.758361462935E+02   -0.70134E-05   -0.10314E-04   648   0.571E-02    0.107E-02
DAV:   3    -0.758361460154E+02    0.27811E-06   -0.42682E-06   664   0.126E-02
  77 F= -.75836146E+02 E0= -.75836146E+02  d E =0.345278E-04
 BRION: g(F)=  0.598E-02 g(S)=  0.000E+00 retain N=  7 mean eig= 3.68
 eig:   7.226  7.226  0.778  0.808  0.808  2.692  6.199
 bond charge predicted
       N       E                     dE             d eps       ncg     rms          rms(c)
DAV:   1    -0.758361469206E+02   -0.62710E-06   -0.20203E-04   512   0.999E-02    0.440E-03
DAV:   2    -0.758361473934E+02   -0.47277E-06   -0.51708E-06   576   0.131E-02
  78 F= -.75836147E+02 E0= -.75836147E+02  d E =-.137798E-05
 BRION: g(F)=  0.588E-02 g(S)=  0.000E+00 retain N=  3 mean eig= 2.24
 eig:   4.408  1.975  0.338
 bond charge predicted
       N       E                     dE             d eps       ncg     rms          rms(c)
DAV:   1    -0.758361801776E+02   -0.33257E-04   -0.49259E-03   512   0.503E-01    0.139E-02
DAV:   2    -0.758361885721E+02   -0.83945E-05   -0.10135E-04   576   0.562E-02    0.799E-03
DAV:   3    -0.758361881257E+02    0.44633E-06   -0.15944E-06   488   0.905E-03
  79 F= -.75836188E+02 E0= -.75836188E+02  d E =-.407324E-04
 BRION: g(F)=  0.573E-02 g(S)=  0.000E+00 retain N=  3 mean eig= 5.00
 eig:   0.325  7.331  7.331
 bond charge predicted
       N       E                     dE             d eps       ncg     rms          rms(c)
DAV:   1    -0.758362041229E+02   -0.15551E-04   -0.32994E-03   512   0.407E-01    0.110E-02
DAV:   2    -0.758362083269E+02   -0.42040E-05   -0.58992E-05   576   0.422E-02    0.703E-03
DAV:   3    -0.758362081372E+02    0.18971E-06   -0.83923E-07   440   0.695E-03
  80 F= -.75836208E+02 E0= -.75836208E+02  d E =-.200115E-04
 BRION: g(F)=  0.573E-02 g(S)=  0.000E+00 retain N=  3 mean eig= 1.44
 eig:   3.611  0.337  0.384
 bond charge predicted
       N       E                     dE             d eps       ncg     rms          rms(c)
DAV:   1    -0.758361464609E+02    0.61866E-04   -0.89261E-03   512   0.649E-01    0.275E-02
DAV:   2    -0.758361629586E+02   -0.16498E-04   -0.24305E-04   632   0.864E-02    0.184E-02
DAV:   3    -0.758361620336E+02    0.92503E-06   -0.10425E-05   720   0.187E-02    0.128E-02
DAV:   4    -0.758361620511E+02   -0.17469E-07   -0.37609E-06   600   0.148E-02
  81 F= -.75836162E+02 E0= -.75836162E+02  d E =0.460862E-04
 BRION: g(F)=  0.655E-02 g(S)=  0.000E+00 retain N=  4 mean eig= 1.42
 eig:   3.667  0.104  0.955  0.955
 bond charge predicted
       N       E                     dE             d eps       ncg     rms          rms(c)
DAV:   1    -0.758361791051E+02   -0.17071E-04   -0.13482E-03   544   0.237E-01    0.101E-02
DAV:   2    -0.758361808795E+02   -0.17744E-05   -0.34243E-05   576   0.287E-02    0.848E-03
DAV:   3    -0.758361806381E+02    0.24140E-06   -0.11905E-06   496   0.667E-03
  82 F= -.75836181E+02 E0= -.75836181E+02  d E =-.185870E-04
 BRION: g(F)=  0.579E-02 g(S)=  0.000E+00 retain N=  1 mean eig= 0.24
 eig:   0.236
 bond charge predicted
       N       E                     dE             d eps       ncg     rms          rms(c)
DAV:   1    -0.758361464648E+02    0.34415E-04   -0.24305E-03   512   0.330E-01    0.175E-02
DAV:   2    -0.758361511984E+02   -0.47336E-05   -0.57599E-05   656   0.441E-02    0.712E-03
DAV:   3    -0.758361515578E+02   -0.35944E-06   -0.16953E-06   464   0.878E-03
  83 F= -.75836152E+02 E0= -.75836152E+02  d E =0.290803E-04
 BRION: g(F)=  0.596E-02 g(S)=  0.000E+00 retain N=  2 mean eig= 2.75
 eig:   0.124  5.386
 bond charge predicted
       N       E                     dE             d eps       ncg     rms          rms(c)
DAV:   1    -0.758361698410E+02   -0.18643E-04   -0.14349E-03   512   0.261E-01    0.112E-02
DAV:   2    -0.758361731320E+02   -0.32910E-05   -0.36717E-05   624   0.346E-02    0.498E-03
DAV:   3    -0.758361730588E+02    0.73244E-07   -0.60781E-07   432   0.587E-03
  84 F= -.75836173E+02 E0= -.75836173E+02  d E =-.215010E-04
 BRION: g(F)=  0.603E-02 g(S)=  0.000E+00 retain N=  3 mean eig= 2.17
 eig:   5.117  0.098  1.285
 bond charge predicted
       N       E                     dE             d eps       ncg     rms          rms(c)
DAV:   1    -0.758362040849E+02   -0.30953E-04   -0.19939E-03   512   0.303E-01    0.148E-02
DAV:   2    -0.758362080872E+02   -0.40023E-05   -0.46307E-05   608   0.399E-02    0.563E-03
DAV:   3    -0.758362083961E+02   -0.30894E-06   -0.99570E-07   448   0.724E-03
  85 F= -.75836208E+02 E0= -.75836208E+02  d E =-.353373E-04
 BRION: g(F)=  0.573E-02 g(S)=  0.000E+00 retain N=  2 mean eig= 2.50
 eig:   0.226  4.781
 bond charge predicted
       N       E                     dE             d eps       ncg     rms          rms(c)
DAV:   1    -0.758362122300E+02   -0.41428E-05   -0.44680E-04   512   0.148E-01    0.561E-03
DAV:   2    -0.758362130525E+02   -0.82252E-06   -0.13659E-05   608   0.203E-02    0.410E-03
DAV:   3    -0.758362129033E+02    0.14919E-06   -0.45997E-07   312   0.460E-03
  86 F= -.75836213E+02 E0= -.75836213E+02  d E =-.450720E-05
 BRION: g(F)=  0.593E-02 g(S)=  0.000E+00 retain N=  3 mean eig= 1.92
 eig:   4.760  0.090  0.908
 bond charge predicted
       N       E                     dE             d eps       ncg     rms          rms(c)
DAV:   1    -0.758361990575E+02    0.13995E-04   -0.21620E-04   576   0.102E-01    0.453E-03
DAV:   2    -0.758361993244E+02   -0.26691E-06   -0.53184E-06   632   0.131E-02
  87 F= -.75836199E+02 E0= -.75836199E+02  d E =0.135790E-04
 BRION: g(F)=  0.599E-02 g(S)=  0.000E+00 retain N=  4 mean eig= 2.01
 eig:   5.956  0.688  0.688  0.718
 bond charge predicted
       N       E                     dE             d eps       ncg     rms          rms(c)
DAV:   1    -0.758361144496E+02    0.84608E-04   -0.53491E-03   512   0.482E-01    0.224E-02
DAV:   2    -0.758361220325E+02   -0.75829E-05   -0.13989E-04   624   0.639E-02    0.141E-02
DAV:   3    -0.758361215487E+02    0.48378E-06   -0.78130E-06   680   0.156E-02
  88 F= -.75836122E+02 E0= -.75836122E+02  d E =0.777757E-04
 BRION: g(F)=  0.621E-02 g(S)=  0.000E+00 retain N=  2 mean eig= 3.80
 eig:   0.601  7.002
 bond charge predicted
       N       E                     dE             d eps       ncg     rms          rms(c)
DAV:   1    -0.758361258318E+02   -0.37993E-05   -0.69744E-03   512   0.571E-01    0.239E-02
DAV:   2    -0.758361395641E+02   -0.13732E-04   -0.19258E-04   624   0.750E-02    0.156E-02
DAV:   3    -0.758361388640E+02    0.70015E-06   -0.74263E-06   640   0.159E-02
  89 F= -.75836139E+02 E0= -.75836139E+02  d E =-.173153E-04
 BRION: g(F)=  0.616E-02 g(S)=  0.000E+00 retain N=  2 mean eig= 3.98
 eig:   0.462  7.502
 bond charge predicted
       N       E                     dE             d eps       ncg     rms          rms(c)
DAV:   1    -0.758361360565E+02    0.35077E-05   -0.17793E-04   568   0.920E-02    0.661E-03
DAV:   2    -0.758361364207E+02   -0.36430E-06   -0.50887E-06   648   0.135E-02
  90 F= -.75836136E+02 E0= -.75836136E+02  d E =0.244321E-05
 BRION: g(F)=  0.606E-02 g(S)=  0.000E+00 retain N=  2 mean eig= 0.37
 eig:   0.463  0.284
 bond charge predicted
       N       E                     dE             d eps       ncg     rms          rms(c)
DAV:   1    -0.758361106739E+02    0.25383E-04   -0.73147E-04   512   0.187E-01    0.873E-03
DAV:   2    -0.758361121133E+02   -0.14394E-05   -0.17994E-05   656   0.242E-02    0.444E-03
DAV:   3    -0.758361121563E+02   -0.42970E-07   -0.35117E-07   352   0.438E-03
  91 F= -.75836112E+02 E0= -.75836112E+02  d E =0.242644E-04
 BRION: g(F)=  0.619E-02 g(S)=  0.000E+00 retain N=  2 mean eig= 2.64
 eig:   0.156  5.130
 bond charge predicted
       N       E                     dE             d eps       ncg     rms          rms(c)
DAV:   1    -0.758361407231E+02   -0.28610E-04   -0.17278E-03   512   0.281E-01    0.122E-02
DAV:   2    -0.758361434642E+02   -0.27411E-05   -0.48750E-05   576   0.382E-02    0.911E-03
DAV:   3    -0.758361431653E+02    0.29886E-06   -0.23447E-06   608   0.875E-03
  92 F= -.75836143E+02 E0= -.75836143E+02  d E =-.310090E-04
 BRION: g(F)=  0.624E-02 g(S)=  0.000E+00 retain N=  1 mean eig= 0.68
 eig:   0.683
 bond charge predicted
       N       E                     dE             d eps       ncg     rms          rms(c)
DAV:   1    -0.758360826089E+02    0.60855E-04   -0.33814E-03   512   0.391E-01    0.202E-02
DAV:   2    -0.758360892312E+02   -0.66223E-05   -0.81196E-05   656   0.532E-02    0.843E-03
DAV:   3    -0.758360894786E+02   -0.24740E-06   -0.33395E-06   632   0.120E-02
  93 F= -.75836089E+02 E0= -.75836089E+02  d E =0.536867E-04
 BRION: g(F)=  0.657E-02 g(S)=  0.000E+00 retain N=  2 mean eig= 0.99
 eig:   0.999  0.986
 bond charge predicted
       N       E                     dE             d eps       ncg     rms          rms(c)
DAV:   1    -0.758360858194E+02    0.34117E-05   -0.31538E-04   512   0.122E-01    0.634E-03
DAV:   2    -0.758360864698E+02   -0.65034E-06   -0.87490E-06   608   0.165E-02
  94 F= -.75836086E+02 E0= -.75836086E+02  d E =0.300881E-05
 BRION: g(F)=  0.634E-02 g(S)=  0.000E+00 retain N=  1 mean eig= 0.13
 eig:   0.131
 bond charge predicted
       N       E                     dE             d eps       ncg     rms          rms(c)
DAV:   1    -0.758360279422E+02    0.57877E-04   -0.61524E-03   512   0.535E-01    0.239E-02
DAV:   2    -0.758360392632E+02   -0.11321E-04   -0.16152E-04   648   0.697E-02    0.158E-02
DAV:   3    -0.758360387799E+02    0.48326E-06   -0.61523E-06   672   0.148E-02
  95 F= -.75836039E+02 E0= -.75836039E+02  d E =0.476899E-04
 BRION: g(F)=  0.660E-02 g(S)=  0.000E+00 retain N=  2 mean eig= 0.31
 eig:   0.308  0.308
 bond charge predicted
       N       E                     dE             d eps       ncg     rms          rms(c)
DAV:   1    -0.758360402132E+02   -0.94999E-06   -0.67695E-05   576   0.544E-02    0.526E-03
DAV:   2    -0.758360408297E+02   -0.61658E-06   -0.30330E-06   552   0.814E-03
  96 F= -.75836041E+02 E0= -.75836041E+02  d E =-.204983E-05
 BRION: g(F)=  0.656E-02 g(S)=  0.000E+00 retain N=  2 mean eig= 2.21
 eig:   0.617  3.798
 bond charge predicted
       N       E                     dE             d eps       ncg     rms          rms(c)
DAV:   1    -0.758360674697E+02   -0.27257E-04   -0.20345E-03   512   0.305E-01    0.127E-02
DAV:   2    -0.758360718014E+02   -0.43316E-05   -0.47958E-05   584   0.373E-02    0.557E-03
DAV:   3    -0.758360717730E+02    0.28375E-07   -0.84675E-07   360   0.652E-03
  97 F= -.75836072E+02 E0= -.75836072E+02  d E =-.309432E-04
 BRION: g(F)=  0.694E-02 g(S)=  0.000E+00 retain N=  2 mean eig= 0.41
 eig:   0.256  0.562
 bond charge predicted
       N       E                     dE             d eps       ncg     rms          rms(c)
DAV:   1    -0.758359729398E+02    0.98862E-04   -0.89906E-03   512   0.629E-01    0.321E-02
DAV:   2    -0.758359910215E+02   -0.18082E-04   -0.22411E-04   648   0.856E-02    0.142E-02
DAV:   3    -0.758359913601E+02   -0.33853E-06   -0.87104E-06   752   0.177E-02
  98 F= -.75835991E+02 E0= -.75835991E+02  d E =0.804129E-04
 BRION: g(F)=  0.692E-02 g(S)=  0.000E+00 retain N=  2 mean eig= 1.28
 eig:   0.266  2.288
 bond charge predicted
       N       E                     dE             d eps       ncg     rms          rms(c)
DAV:   1    -0.758359991945E+02   -0.81730E-05   -0.40374E-04   520   0.133E-01    0.627E-03
DAV:   2    -0.758360000774E+02   -0.88285E-06   -0.11624E-05   600   0.190E-02    0.415E-03
DAV:   3    -0.758360001055E+02   -0.28116E-07   -0.40362E-07   264   0.405E-03
  99 F= -.75836000E+02 E0= -.75836000E+02  d E =-.874543E-05
 BRION: g(F)=  0.674E-02 g(S)=  0.000E+00 retain N=  2 mean eig= 0.33
 eig:   0.327  0.327
 bond charge predicted
       N       E                     dE             d eps       ncg     rms          rms(c)
DAV:   1    -0.758359896331E+02    0.10444E-04   -0.49955E-04   512   0.152E-01    0.731E-03
DAV:   2    -0.758359903280E+02   -0.69487E-06   -0.12810E-05   656   0.197E-02    0.495E-03
DAV:   3    -0.758359903267E+02    0.12406E-08   -0.56275E-07   280   0.491E-03
 100 F= -.75835990E+02 E0= -.75835990E+02  d E =0.977878E-05
 BRION: g(F)=  0.680E-02 g(S)=  0.000E+00 retain N=  3 mean eig= 2.02
 eig:   0.397  0.397  5.262
 bond charge predicted
       N       E                     dE             d eps       ncg     rms          rms(c)
DAV:   1    -0.758359947777E+02   -0.44497E-05   -0.64754E-05   624   0.541E-02    0.263E-03
DAV:   2    -0.758359949537E+02   -0.17598E-06   -0.15306E-06   360   0.691E-03
 101 F= -.75835995E+02 E0= -.75835995E+02  d E =-.462696E-05
 BRION: g(F)=  0.687E-02 g(S)=  0.000E+00 retain N=  3 mean eig= 0.81
 eig:   0.727  0.210  1.486
 bond charge predicted
       N       E                     dE             d eps       ncg     rms          rms(c)
DAV:   1    -0.758359652818E+02    0.29496E-04   -0.18382E-03   512   0.292E-01    0.118E-02
DAV:   2    -0.758359690073E+02   -0.37255E-05   -0.43888E-05   560   0.354E-02    0.553E-03
DAV:   3    -0.758359689842E+02    0.23098E-07   -0.70561E-07   304   0.591E-03
 102 F= -.75835969E+02 E0= -.75835969E+02  d E =0.259695E-04
 BRION: g(F)=  0.684E-02 g(S)=  0.000E+00 retain N=  4 mean eig= 1.22
 eig:   3.492  1.030  0.243  0.113
 bond charge predicted
       N       E                     dE             d eps       ncg     rms          rms(c)
DAV:   1    -0.758360030406E+02   -0.34033E-04   -0.49749E-03   512   0.484E-01    0.205E-02
DAV:   2    -0.758360135564E+02   -0.10516E-04   -0.11831E-04   616   0.617E-02    0.766E-03
DAV:   3    -0.758360137268E+02   -0.17034E-06   -0.20711E-06   528   0.986E-03
 103 F= -.75836014E+02 E0= -.75836014E+02  d E =-.447426E-04
 BRION: g(F)=  0.680E-02 g(S)=  0.000E+00 retain N=  5 mean eig= 1.94
 eig:   4.134  4.134  1.008  0.206  0.206
 bond charge predicted
       N       E                     dE             d eps       ncg     rms          rms(c)
DAV:   1    -0.758360617451E+02   -0.48189E-04   -0.12967E-02   512   0.782E-01    0.321E-02
DAV:   2    -0.758360877323E+02   -0.25987E-04   -0.29249E-04   600   0.936E-02    0.132E-02
DAV:   3    -0.758360881254E+02   -0.39312E-06   -0.55277E-06   688   0.146E-02
 104 F= -.75836088E+02 E0= -.75836088E+02  d E =-.743986E-04
 BRION: g(F)=  0.650E-02 g(S)=  0.000E+00 retain N=  5 mean eig= 2.89
 eig:   6.162  6.162  1.016  0.917  0.203
 bond charge predicted
       N       E                     dE             d eps       ncg     rms          rms(c)
DAV:   1    -0.758361246167E+02   -0.36884E-04   -0.99355E-03   512   0.685E-01    0.271E-02
DAV:   2    -0.758361431265E+02   -0.18510E-04   -0.21730E-04   608   0.801E-02    0.121E-02
DAV:   3    -0.758361434808E+02   -0.35434E-06   -0.50746E-06   664   0.136E-02
 105 F= -.75836143E+02 E0= -.75836143E+02  d E =-.553555E-04
 BRION: g(F)=  0.641E-02 g(S)=  0.000E+00 retain N=  2 mean eig= 3.90
 eig:   3.903  3.903
 bond charge predicted
       N       E                     dE             d eps       ncg     rms          rms(c)
DAV:   1    -0.758361014396E+02    0.41687E-04   -0.28218E-03   512   0.361E-01    0.155E-02
DAV:   2    -0.758361084464E+02   -0.70069E-05   -0.76866E-05   608   0.464E-02    0.739E-03
DAV:   3    -0.758361082338E+02    0.21267E-06   -0.14611E-06   472   0.841E-03
 106 F= -.75836108E+02 E0= -.75836108E+02  d E =0.352471E-04
 BRION: g(F)=  0.682E-02 g(S)=  0.000E+00 retain N=  3 mean eig= 2.99
 eig:   4.354  4.354  0.258
 bond charge predicted
       N       E                     dE             d eps       ncg     rms          rms(c)
DAV:   1    -0.758361144804E+02   -0.60339E-05   -0.27649E-04   512   0.114E-01    0.487E-03
DAV:   2    -0.758361152444E+02   -0.76405E-06   -0.76438E-06   616   0.148E-02
 107 F= -.75836115E+02 E0= -.75836115E+02  d E =-.701064E-05
 BRION: g(F)=  0.662E-02 g(S)=  0.000E+00 retain N=  1 mean eig= 0.50
 eig:   0.498
 bond charge predicted
       N       E                     dE             d eps       ncg     rms          rms(c)
DAV:   1    -0.758360522573E+02    0.62223E-04   -0.39323E-03   512   0.423E-01    0.210E-02
DAV:   2    -0.758360592690E+02   -0.70118E-05   -0.10313E-04   632   0.588E-02    0.116E-02
DAV:   3    -0.758360589858E+02    0.28324E-06   -0.53492E-06   712   0.142E-02
 108 F= -.75836059E+02 E0= -.75836059E+02  d E =0.562586E-04
 BRION: g(F)=  0.686E-02 g(S)=  0.000E+00 retain N=  2 mean eig= 1.59
 eig:   0.763  2.424
 bond charge predicted
       N       E                     dE             d eps       ncg     rms          rms(c)
DAV:   1    -0.758360562359E+02    0.30332E-05   -0.80178E-04   512   0.189E-01    0.834E-03
DAV:   2    -0.758360579684E+02   -0.17325E-05   -0.21871E-05   592   0.245E-02    0.472E-03
DAV:   3    -0.758360579688E+02   -0.47339E-09   -0.58899E-07   352   0.492E-03
 109 F= -.75836058E+02 E0= -.75836058E+02  d E =0.101698E-05
 BRION: g(F)=  0.673E-02 g(S)=  0.000E+00 retain N=  2 mean eig= 1.40
 eig:   0.313  2.491
 bond charge predicted
       N       E                     dE             d eps       ncg     rms          rms(c)
DAV:   1    -0.758360594151E+02   -0.14467E-05   -0.21700E-05   600   0.306E-02    0.238E-03
DAV:   2    -0.758360593931E+02    0.21946E-07   -0.41280E-07   392   0.433E-03
 110 F= -.75836059E+02 E0= -.75836059E+02  d E =-.142432E-05
 BRION: g(F)=  0.678E-02 g(S)=  0.000E+00 retain N=  3 mean eig= 2.96
 eig:   0.338  1.019  7.530
 bond charge predicted
       N       E                     dE             d eps       ncg     rms          rms(c)
DAV:   1    -0.758360301083E+02    0.29307E-04   -0.10488E-03   512   0.221E-01    0.922E-03
DAV:   2    -0.758360321988E+02   -0.20905E-05   -0.24143E-05   632   0.268E-02    0.381E-03
DAV:   3    -0.758360322767E+02   -0.77900E-07   -0.38507E-07   344   0.428E-03
 111 F= -.75836032E+02 E0= -.75836032E+02  d E =0.271165E-04
 BRION: g(F)=  0.688E-02 g(S)=  0.000E+00 retain N=  1 mean eig= 2.51
 eig:   2.506
 bond charge predicted
       N       E                     dE             d eps       ncg     rms          rms(c)
DAV:   1    -0.758360439451E+02   -0.11746E-04   -0.10988E-03   576   0.224E-01    0.103E-02
DAV:   2    -0.758360455581E+02   -0.16130E-05   -0.29212E-05   616   0.317E-02    0.643E-03
DAV:   3    -0.758360454577E+02    0.10040E-06   -0.12402E-06   368   0.773E-03
 112 F= -.75836045E+02 E0= -.75836045E+02  d E =-.131810E-04
 BRION: g(F)=  0.697E-02 g(S)=  0.000E+00 retain N=  2 mean eig= 1.33
 eig:   2.648  0.009
 bond charge predicted
       N       E                     dE             d eps       ncg     rms          rms(c)
DAV:   1    -0.758360481619E+02   -0.26039E-05   -0.36299E-04   520   0.123E-01    0.555E-03
DAV:   2    -0.758360486775E+02   -0.51555E-06   -0.99523E-06   576   0.191E-02
 113 F= -.75836049E+02 E0= -.75836049E+02  d E =-.321980E-05
 BRION: g(F)=  0.678E-02 g(S)=  0.000E+00 retain N=  1 mean eig= 0.31
 eig:   0.315
 bond charge predicted
       N       E                     dE             d eps       ncg     rms          rms(c)
DAV:   1    -0.758359886353E+02    0.59527E-04   -0.32400E-03   512   0.388E-01    0.180E-02
DAV:   2    -0.758359950637E+02   -0.64284E-05   -0.77067E-05   656   0.507E-02    0.747E-03
DAV:   3    -0.758359951805E+02   -0.11680E-06   -0.17800E-06   424   0.930E-03
 114 F= -.75835995E+02 E0= -.75835995E+02  d E =0.534970E-04
 BRION: g(F)=  0.694E-02 g(S)=  0.000E+00 retain N=  2 mean eig= 0.21
 eig:   0.317  0.109
 bond charge predicted
       N       E                     dE             d eps       ncg     rms          rms(c)
DAV:   1    -0.758359886059E+02    0.64578E-05   -0.12121E-04   512   0.756E-02    0.377E-03
DAV:   2    -0.758359888324E+02   -0.22651E-06   -0.30094E-06   408   0.997E-03
 115 F= -.75835989E+02 E0= -.75835989E+02  d E =0.634808E-05
 BRION: g(F)=  0.688E-02 g(S)=  0.000E+00 retain N=  2 mean eig= 3.38
 eig:   0.613  6.145
 bond charge predicted
       N       E                     dE             d eps       ncg     rms          rms(c)
DAV:   1    -0.758360181911E+02   -0.29585E-04   -0.15377E-03   512   0.265E-01    0.116E-02
DAV:   2    -0.758360215416E+02   -0.33505E-05   -0.35888E-05   552   0.328E-02    0.393E-03
DAV:   3    -0.758360215816E+02   -0.40050E-07   -0.56259E-07   304   0.524E-03
 116 F= -.75836022E+02 E0= -.75836022E+02  d E =-.327493E-04
 BRION: g(F)=  0.691E-02 g(S)=  0.000E+00 retain N=  3 mean eig= 2.83
 eig:   0.594  3.953  3.953
 bond charge predicted
       N       E                     dE             d eps       ncg     rms          rms(c)
DAV:   1    -0.758360414030E+02   -0.19861E-04   -0.52679E-04   512   0.155E-01    0.717E-03
DAV:   2    -0.758360424166E+02   -0.10136E-05   -0.11636E-05   640   0.194E-02    0.252E-03
DAV:   3    -0.758360425022E+02   -0.85596E-07   -0.17838E-07   264   0.315E-03
 117 F= -.75836043E+02 E0= -.75836043E+02  d E =-.209206E-04
 BRION: g(F)=  0.684E-02 g(S)=  0.000E+00 retain N=  3 mean eig= 2.75
 eig:   0.103  4.066  4.066
 bond charge predicted
       N       E                     dE             d eps       ncg     rms          rms(c)
DAV:   1    -0.758360071675E+02    0.35249E-04   -0.13877E-03   512   0.253E-01    0.108E-02
DAV:   2    -0.758360099978E+02   -0.28303E-05   -0.35236E-05   600   0.324E-02    0.541E-03
DAV:   3    -0.758360099249E+02    0.72880E-07   -0.81127E-07   264   0.644E-03
 118 F= -.75836010E+02 E0= -.75836010E+02  d E =0.325773E-04
 BRION: g(F)=  0.698E-02 g(S)=  0.000E+00 retain N=  4 mean eig= 2.49
 eig:   4.788  4.788  0.160  0.225
 bond charge predicted
       N       E                     dE             d eps       ncg     rms          rms(c)
DAV:   1    -0.758360207923E+02   -0.10794E-04   -0.26370E-04   512   0.110E-01    0.503E-03
DAV:   2    -0.758360214868E+02   -0.69448E-06   -0.74421E-06   512   0.149E-02
 119 F= -.75836021E+02 E0= -.75836021E+02  d E =-.115619E-04
 BRION: g(F)=  0.694E-02 g(S)=  0.000E+00 retain N=  5 mean eig= 3.28
 eig:   5.524  5.524  4.299  0.175  0.895
 bond charge predicted
       N       E                     dE             d eps       ncg     rms          rms(c)
DAV:   1    -0.758359966762E+02    0.24116E-04   -0.14060E-03   512   0.249E-01    0.126E-02
DAV:   2    -0.758359998993E+02   -0.32232E-05   -0.38267E-05   640   0.359E-02    0.492E-03
DAV:   3    -0.758359998368E+02    0.62517E-07   -0.99230E-07   288   0.705E-03
 120 F= -.75836000E+02 E0= -.75836000E+02  d E =0.216500E-04
 BRION: g(F)=  0.718E-02 g(S)=  0.000E+00 retain N=  2 mean eig= 2.56
 eig:   0.768  4.358
 bond charge predicted
       N       E                     dE             d eps       ncg     rms          rms(c)
DAV:   1    -0.758359575419E+02    0.42357E-04   -0.27441E-03   512   0.371E-01    0.123E-02
DAV:   2    -0.758359619701E+02   -0.44282E-05   -0.68775E-05   640   0.486E-02    0.716E-03
DAV:   3    -0.758359612246E+02    0.74548E-06   -0.30732E-06   616   0.108E-02
 121 F= -.75835961E+02 E0= -.75835961E+02  d E =0.386122E-04
 BRION: g(F)=  0.718E-02 g(S)=  0.000E+00 retain N=  2 mean eig= 1.61
 eig:   0.277  2.946
 bond charge predicted
       N       E                     dE             d eps       ncg     rms          rms(c)
DAV:   1    -0.758359521646E+02    0.98055E-05   -0.98366E-05   520   0.688E-02    0.316E-03
DAV:   2    -0.758359523772E+02   -0.21255E-06   -0.25296E-06   416   0.929E-03
 122 F= -.75835952E+02 E0= -.75835952E+02  d E =0.884746E-05
 BRION: g(F)=  0.698E-02 g(S)=  0.000E+00 retain N=  2 mean eig= 0.36
 eig:   0.364  0.364
 bond charge predicted
       N       E                     dE             d eps       ncg     rms          rms(c)
DAV:   1    -0.758359183918E+02    0.33773E-04   -0.14881E-03   512   0.259E-01    0.125E-02
DAV:   2    -0.758359213960E+02   -0.30043E-05   -0.34680E-05   640   0.333E-02    0.484E-03
DAV:   3    -0.758359216446E+02   -0.24854E-06   -0.50545E-07   288   0.524E-03
 123 F= -.75835922E+02 E0= -.75835922E+02  d E =0.307326E-04
 BRION: g(F)=  0.700E-02 g(S)=  0.000E+00 retain N=  3 mean eig= 2.31
 eig:   6.260  0.331  0.331
 bond charge predicted
       N       E                     dE             d eps       ncg     rms          rms(c)
DAV:   1    -0.758359367740E+02   -0.15378E-04   -0.65846E-04   512   0.176E-01    0.755E-03
DAV:   2    -0.758359382676E+02   -0.14935E-05   -0.17052E-05   568   0.230E-02    0.351E-03
DAV:   3    -0.758359382369E+02    0.30689E-07   -0.24553E-07   264   0.373E-03
 124 F= -.75835938E+02 E0= -.75835938E+02  d E =-.165923E-04
 BRION: g(F)=  0.703E-02 g(S)=  0.000E+00 retain N=  4 mean eig= 2.37
 eig:   4.523  4.523  0.210  0.210
 bond charge predicted
       N       E                     dE             d eps       ncg     rms          rms(c)
DAV:   1    -0.758359214924E+02    0.16775E-04   -0.53906E-04   512   0.157E-01    0.704E-03
DAV:   2    -0.758359225956E+02   -0.11032E-05   -0.13279E-05   648   0.210E-02    0.272E-03
DAV:   3    -0.758359226143E+02   -0.18726E-07   -0.20777E-07   256   0.346E-03
 125 F= -.75835923E+02 E0= -.75835923E+02  d E =0.156226E-04
 BRION: g(F)=  0.709E-02 g(S)=  0.000E+00 retain N=  2 mean eig= 3.01
 eig:   0.531  5.490
 bond charge predicted
       N       E                     dE             d eps       ncg     rms          rms(c)
DAV:   1    -0.758358583891E+02    0.64207E-04   -0.42327E-03   512   0.443E-01    0.197E-02
DAV:   2    -0.758358670804E+02   -0.86914E-05   -0.97488E-05   608   0.549E-02    0.745E-03
DAV:   3    -0.758358674055E+02   -0.32505E-06   -0.16243E-06   504   0.868E-03
 126 F= -.75835867E+02 E0= -.75835867E+02  d E =0.552088E-04
 BRION: g(F)=  0.712E-02 g(S)=  0.000E+00 retain N=  3 mean eig= 3.92
 eig:   5.827  5.827  0.107
 bond charge predicted
       N       E                     dE             d eps       ncg     rms          rms(c)
DAV:   1    -0.758358593400E+02    0.77404E-05   -0.14519E-04   568   0.841E-02    0.387E-03
DAV:   2    -0.758358595560E+02   -0.21600E-06   -0.29790E-06   496   0.100E-02
 127 F= -.75835860E+02 E0= -.75835860E+02  d E =0.784946E-05
 BRION: g(F)=  0.703E-02 g(S)=  0.000E+00 retain N=  3 mean eig= 2.11
 eig:   5.835  0.396  0.086
 bond charge predicted
       N       E                     dE             d eps       ncg     rms          rms(c)
DAV:   1    -0.758358752009E+02   -0.15861E-04   -0.11875E-03   512   0.237E-01    0.959E-03
DAV:   2    -0.758358777005E+02   -0.24996E-05   -0.27197E-05   608   0.296E-02    0.338E-03
DAV:   3    -0.758358777241E+02   -0.23621E-07   -0.38664E-07   288   0.438E-03
 128 F= -.75835878E+02 E0= -.75835878E+02  d E =-.181681E-04
 BRION: g(F)=  0.706E-02 g(S)=  0.000E+00 retain N=  3 mean eig= 3.39
 eig:   0.015  2.696  7.452
 bond charge predicted
       N       E                     dE             d eps       ncg     rms          rms(c)
DAV:   1    -0.758357715433E+02    0.10616E-03   -0.15546E-02   512   0.857E-01    0.361E-02
DAV:   2    -0.758358046626E+02   -0.33119E-04   -0.37542E-04   552   0.109E-01    0.157E-02
DAV:   3    -0.758358047135E+02   -0.50878E-07   -0.81023E-06   744   0.179E-02
 129 F= -.75835805E+02 E0= -.75835805E+02  d E =0.730106E-04
 BRION: g(F)=  0.727E-02 g(S)=  0.000E+00 retain N=  2 mean eig= 2.02
 eig:   2.633  1.412
 bond charge predicted
       N       E                     dE             d eps       ncg     rms          rms(c)
DAV:   1    -0.758357499360E+02    0.54727E-04   -0.52078E-03   512   0.492E-01    0.229E-02
DAV:   2    -0.758357600362E+02   -0.10100E-04   -0.11473E-04   632   0.627E-02    0.911E-03
DAV:   3    -0.758357607957E+02   -0.75955E-06   -0.21767E-06   568   0.993E-03
 130 F= -.75835761E+02 E0= -.75835761E+02  d E =0.439178E-04
 BRION: g(F)=  0.710E-02 g(S)=  0.000E+00 retain N=  3 mean eig= 3.66
 eig:   5.334  5.334  0.315
 bond charge predicted
       N       E                     dE             d eps       ncg     rms          rms(c)
DAV:   1    -0.758357253105E+02    0.34726E-04   -0.29155E-03   512   0.372E-01    0.165E-02
DAV:   2    -0.758357311665E+02   -0.58560E-05   -0.65984E-05   608   0.463E-02    0.637E-03
DAV:   3    -0.758357314493E+02   -0.28278E-06   -0.99802E-07   384   0.722E-03
 131 F= -.75835731E+02 E0= -.75835731E+02  d E =0.293464E-04
 BRION: g(F)=  0.689E-02 g(S)=  0.000E+00 retain N=  3 mean eig= 2.66
 eig:   0.275  3.846  3.846
 bond charge predicted
       N       E                     dE             d eps       ncg     rms          rms(c)
DAV:   1    -0.758357084371E+02    0.22729E-04   -0.17536E-03   512   0.287E-01    0.137E-02
DAV:   2    -0.758357120734E+02   -0.36363E-05   -0.41949E-05   624   0.365E-02    0.583E-03
DAV:   3    -0.758357122220E+02   -0.14859E-06   -0.86809E-07   344   0.673E-03
 132 F= -.75835712E+02 E0= -.75835712E+02  d E =0.192273E-04
 BRION: g(F)=  0.689E-02 g(S)=  0.000E+00 retain N=  3 mean eig= 2.45
 eig:   3.015  0.550  3.795
 bond charge predicted
       N       E                     dE             d eps       ncg     rms          rms(c)
DAV:   1    -0.758356129923E+02    0.99081E-04   -0.14354E-02   512   0.812E-01    0.392E-02
DAV:   2    -0.758356437433E+02   -0.30751E-04   -0.34117E-04   656   0.110E-01    0.150E-02
DAV:   3    -0.758356450052E+02   -0.12619E-05   -0.84847E-06   728   0.193E-02    0.897E-03
DAV:   4    -0.758356469911E+02   -0.19859E-05   -0.27349E-06   544   0.108E-02    0.165E-03
DAV:   5    -0.758356472412E+02   -0.25014E-06   -0.66898E-07   344   0.501E-03
 133 F= -.75835647E+02 E0= -.75835647E+02  d E =0.649808E-04
 BRION: g(F)=  0.679E-02 g(S)=  0.000E+00 retain N=  3 mean eig= 3.11
 eig:   4.022  0.116  5.205
 bond charge predicted
       N       E                     dE             d eps       ncg     rms          rms(c)
DAV:   1    -0.758354013705E+02    0.24562E-03   -0.59813E-02   512   0.167E+00    0.783E-02
DAV:   2    -0.758355368088E+02   -0.13544E-03   -0.14710E-03   600   0.221E-01    0.323E-02
DAV:   3    -0.758355384637E+02   -0.16550E-05   -0.31803E-05   752   0.366E-02    0.205E-02
DAV:   4    -0.758355451645E+02   -0.67007E-05   -0.22077E-05   608   0.310E-02    0.580E-03
DAV:   5    -0.758355457757E+02   -0.61120E-06   -0.55692E-06   592   0.128E-02
 134 F= -.75835546E+02 E0= -.75835546E+02  d E =0.101466E-03
 BRION: g(F)=  0.598E-02 g(S)=  0.000E+00 retain N=  3 mean eig= 3.13
 eig:   3.741  3.741  1.918
 bond charge predicted
       N       E                     dE             d eps       ncg     rms          rms(c)
DAV:   1    -0.758354686804E+02    0.76484E-04   -0.13961E-02   512   0.784E-01    0.433E-02
DAV:   2    -0.758355007550E+02   -0.32075E-04   -0.34292E-04   656   0.112E-01    0.169E-02
DAV:   3    -0.758355031513E+02   -0.23963E-05   -0.97084E-06   720   0.206E-02    0.940E-03
DAV:   4    -0.758355055887E+02   -0.24375E-05   -0.23206E-06   472   0.950E-03    0.173E-03
DAV:   5    -0.758355060030E+02   -0.41424E-06   -0.49918E-07   360   0.465E-03
 135 F= -.75835506E+02 E0= -.75835506E+02  d E =0.397727E-04
 BRION: g(F)=  0.529E-02 g(S)=  0.000E+00 retain N=  4 mean eig= 5.72
 eig:   2.358  7.980  7.980  4.556
 bond charge predicted
       N       E                     dE             d eps       ncg     rms          rms(c)
DAV:   1    -0.758356061341E+02   -0.10055E-03   -0.12189E-02   512   0.742E-01    0.301E-02
DAV:   2    -0.758356260240E+02   -0.19890E-04   -0.29395E-04   632   0.921E-02    0.187E-02
DAV:   3    -0.758356253194E+02    0.70460E-06   -0.11817E-05   744   0.200E-02    0.129E-02
DAV:   4    -0.758356258475E+02   -0.52808E-06   -0.35538E-06   592   0.147E-02
 136 F= -.75835626E+02 E0= -.75835626E+02  d E =-.119845E-03
 BRION: g(F)=  0.626E-02 g(S)=  0.000E+00 retain N=  3 mean eig= 4.66
 eig:   7.410  6.458  0.113
 bond charge predicted
       N       E                     dE             d eps       ncg     rms          rms(c)
DAV:   1    -0.758353262603E+02    0.29906E-03   -0.75694E-02   512   0.185E+00    0.916E-02
DAV:   2    -0.758354971106E+02   -0.17085E-03   -0.18164E-03   656   0.252E-01    0.342E-02
DAV:   3    -0.758355028946E+02   -0.57840E-05   -0.40857E-05   728   0.416E-02    0.202E-02
DAV:   4    -0.758355115898E+02   -0.86952E-05   -0.17277E-05   592   0.253E-02    0.367E-03
DAV:   5    -0.758355121360E+02   -0.54613E-06   -0.44298E-06   552   0.134E-02
 137 F= -.75835512E+02 E0= -.75835512E+02  d E =0.113712E-03
 BRION: g(F)=  0.574E-02 g(S)=  0.000E+00 retain N=  3 mean eig= 3.96
 eig:   5.175  3.357  3.357
 bond charge predicted
       N       E                     dE             d eps       ncg     rms          rms(c)
DAV:   1    -0.758356052265E+02   -0.93637E-04   -0.58659E-03   512   0.544E-01    0.249E-02
DAV:   2    -0.758356158481E+02   -0.10622E-04   -0.12299E-04   656   0.678E-02    0.134E-02
DAV:   3    -0.758356163732E+02   -0.52512E-06   -0.32456E-06   616   0.123E-02
 138 F= -.75835616E+02 E0= -.75835616E+02  d E =-.104237E-03
 BRION: g(F)=  0.373E-02 g(S)=  0.000E+00 retain N=  3 mean eig= 4.17
 eig:   4.113  0.550  7.834
 bond charge predicted
       N       E                     dE             d eps       ncg     rms          rms(c)
DAV:   1    -0.758356609144E+02   -0.45066E-04   -0.18800E-03   512   0.296E-01    0.131E-02
DAV:   2    -0.758356650001E+02   -0.40857E-05   -0.44679E-05   584   0.372E-02    0.535E-03
DAV:   3    -0.758356651577E+02   -0.15763E-06   -0.61570E-07   392   0.592E-03
 139 F= -.75835665E+02 E0= -.75835665E+02  d E =-.487845E-04
 BRION: g(F)=  0.354E-02 g(S)=  0.000E+00 retain N=  2 mean eig= 1.74
 eig:   0.394  3.077
 bond charge predicted
       N       E                     dE             d eps       ncg     rms          rms(c)
DAV:   1    -0.758356584000E+02    0.66001E-05   -0.12537E-02   512   0.769E-01    0.331E-02
DAV:   2    -0.758356790275E+02   -0.20628E-04   -0.32943E-04   608   0.101E-01    0.234E-02
DAV:   3    -0.758356775618E+02    0.14658E-05   -0.13533E-05   664   0.216E-02    0.161E-02
DAV:   4    -0.758356777086E+02   -0.14684E-06   -0.59456E-06   624   0.173E-02
 140 F= -.75835678E+02 E0= -.75835678E+02  d E =-.125509E-04
 BRION: g(F)=  0.412E-02 g(S)=  0.000E+00 retain N=  3 mean eig= 1.56
 eig:   3.072  0.497  1.107
 bond charge predicted
       N       E                     dE             d eps       ncg     rms          rms(c)
DAV:   1    -0.758357404729E+02   -0.62911E-04   -0.33248E-03   528   0.376E-01    0.175E-02
DAV:   2    -0.758357450257E+02   -0.45528E-05   -0.90051E-05   576   0.511E-02    0.149E-02
DAV:   3    -0.758357444053E+02    0.62041E-06   -0.41549E-06   632   0.121E-02
 141 F= -.75835744E+02 E0= -.75835744E+02  d E =-.666967E-04
 BRION: g(F)=  0.281E-02 g(S)=  0.000E+00 retain N=  2 mean eig= 0.78
 eig:   0.780  0.780
 bond charge predicted
       N       E                     dE             d eps       ncg     rms          rms(c)
DAV:   1    -0.758357474343E+02   -0.24086E-05   -0.72202E-04   512   0.182E-01    0.860E-03
DAV:   2    -0.758357493678E+02   -0.19336E-05   -0.21094E-05   608   0.233E-02    0.415E-03
DAV:   3    -0.758357493483E+02    0.19543E-07   -0.46227E-07   304   0.461E-03
 142 F= -.75835749E+02 E0= -.75835749E+02  d E =-.494299E-05
 BRION: g(F)=  0.309E-02 g(S)=  0.000E+00 retain N=  3 mean eig= 0.83
 eig:   1.000  1.000  0.482
 bond charge predicted
       N       E                     dE             d eps       ncg     rms          rms(c)
DAV:   1    -0.758357678538E+02   -0.18486E-04   -0.41177E-04   512   0.142E-01    0.693E-03
DAV:   2    -0.758357685570E+02   -0.70321E-06   -0.89477E-06   640   0.182E-02
 143 F= -.75835769E+02 E0= -.75835769E+02  d E =-.192087E-04
 BRION: g(F)=  0.246E-02 g(S)=  0.000E+00 retain N=  3 mean eig= 2.32
 eig:   0.383  0.383  6.187
 bond charge predicted
       N       E                     dE             d eps       ncg     rms          rms(c)
DAV:   1    -0.758357955735E+02   -0.27720E-04   -0.84901E-04   512   0.201E-01    0.113E-02
DAV:   2    -0.758357970488E+02   -0.14753E-05   -0.19159E-05   680   0.274E-02    0.584E-03
DAV:   3    -0.758357973461E+02   -0.29723E-06   -0.47379E-07   296   0.524E-03
 144 F= -.75835797E+02 E0= -.75835797E+02  d E =-.287891E-04
 BRION: g(F)=  0.243E-02 g(S)=  0.000E+00 retain N=  2 mean eig= 0.27
 eig:   0.271  0.264
 bond charge predicted
       N       E                     dE             d eps       ncg     rms          rms(c)
DAV:   1    -0.758358113904E+02   -0.14342E-04   -0.32295E-04   512   0.118E-01    0.700E-03
DAV:   2    -0.758358120258E+02   -0.63537E-06   -0.84131E-06   640   0.184E-02
 145 F= -.75835812E+02 E0= -.75835812E+02  d E =-.146797E-04
 BRION: g(F)=  0.242E-02 g(S)=  0.000E+00 retain N=  3 mean eig= 0.42
 eig:   0.507  0.383  0.383
 bond charge predicted
       N       E                     dE             d eps       ncg     rms          rms(c)
DAV:   1    -0.758358272244E+02   -0.15834E-04   -0.79430E-04   512   0.196E-01    0.982E-03
DAV:   2    -0.758358286324E+02   -0.14080E-05   -0.20474E-05   584   0.248E-02    0.547E-03
DAV:   3    -0.758358286241E+02    0.83066E-08   -0.64623E-07   296   0.568E-03
 146 F= -.75835829E+02 E0= -.75835829E+02  d E =-.165983E-04
 BRION: g(F)=  0.234E-02 g(S)=  0.000E+00 retain N=  4 mean eig= 1.14
 eig:   3.336  0.506  0.366  0.366
 bond charge predicted
       N       E                     dE             d eps       ncg     rms          rms(c)
DAV:   1    -0.758358482027E+02   -0.19570E-04   -0.44576E-04   512   0.147E-01    0.757E-03
DAV:   2    -0.758358489691E+02   -0.76639E-06   -0.97102E-06   656   0.194E-02
 147 F= -.75835849E+02 E0= -.75835849E+02  d E =-.203450E-04
 BRION: g(F)=  0.233E-02 g(S)=  0.000E+00 retain N=  3 mean eig= 1.44
 eig:   0.711  0.410  3.194
 bond charge predicted
       N       E                     dE             d eps       ncg     rms          rms(c)
DAV:   1    -0.758358606471E+02   -0.12444E-04   -0.15275E-04   512   0.852E-02    0.571E-03
DAV:   2    -0.758358608990E+02   -0.25187E-06   -0.32728E-06   392   0.117E-02
 148 F= -.75835861E+02 E0= -.75835861E+02  d E =-.119299E-04
 BRION: g(F)=  0.233E-02 g(S)=  0.000E+00 retain N=  3 mean eig= 0.61
 eig:   0.293  0.770  0.770
 bond charge predicted
       N       E                     dE             d eps       ncg     rms          rms(c)
DAV:   1    -0.758358699099E+02   -0.92628E-05   -0.10166E-04   512   0.703E-02    0.441E-03
DAV:   2    -0.758358700712E+02   -0.16128E-06   -0.20929E-06   344   0.917E-03
 149 F= -.75835870E+02 E0= -.75835870E+02  d E =-.917218E-05
 BRION: g(F)=  0.235E-02 g(S)=  0.000E+00 retain N=  3 mean eig= 2.81
 eig:   6.677  1.492  0.258
 bond charge predicted
       N       E                     dE             d eps       ncg     rms          rms(c)
DAV:   1    -0.758358717619E+02   -0.18520E-05   -0.28510E-05   528   0.348E-02    0.251E-03
DAV:   2    -0.758358718618E+02   -0.99825E-07   -0.85556E-07   368   0.578E-03
 150 F= -.75835872E+02 E0= -.75835872E+02  d E =-.179057E-05
 BRION: g(F)=  0.235E-02 g(S)=  0.000E+00 retain N=  4 mean eig= 2.64
 eig:   7.267  2.470  0.540  0.271
 bond charge predicted
       N       E                     dE             d eps       ncg     rms          rms(c)
DAV:   1    -0.758358691245E+02    0.26374E-05   -0.66426E-05   520   0.527E-02    0.258E-03
DAV:   2    -0.758358692049E+02   -0.80309E-07   -0.17583E-06   392   0.809E-03
 151 F= -.75835869E+02 E0= -.75835869E+02  d E =0.265691E-05
 BRION: g(F)=  0.237E-02 g(S)=  0.000E+00 retain N=  4 mean eig= 1.57
 eig:   3.767  1.610  0.375  0.526
 bond charge predicted
       N       E                     dE             d eps       ncg     rms          rms(c)
DAV:   1    -0.758358643508E+02    0.47737E-05   -0.52301E-05   536   0.517E-02    0.242E-03
DAV:   2    -0.758358644142E+02   -0.63426E-07   -0.10053E-06   384   0.678E-03
 152 F= -.75835864E+02 E0= -.75835864E+02  d E =0.479063E-05
 BRION: g(F)=  0.243E-02 g(S)=  0.000E+00 retain N=  2 mean eig= 0.26
 eig:   0.258  0.258
 bond charge predicted
       N       E                     dE             d eps       ncg     rms          rms(c)
DAV:   1    -0.758358997800E+02   -0.35429E-04   -0.18344E-03   512   0.301E-01    0.133E-02
DAV:   2    -0.758359031254E+02   -0.33454E-05   -0.40792E-05   648   0.389E-02    0.697E-03
DAV:   3    -0.758359031677E+02   -0.42305E-07   -0.75325E-07   336   0.673E-03
 153 F= -.75835903E+02 E0= -.75835903E+02  d E =-.387535E-04
 BRION: g(F)=  0.245E-02 g(S)=  0.000E+00 retain N=  3 mean eig= 2.04
 eig:   0.482  0.482  5.164
 bond charge predicted
       N       E                     dE             d eps       ncg     rms          rms(c)
DAV:   1    -0.758359224754E+02   -0.19350E-04   -0.46969E-04   512   0.154E-01    0.669E-03
DAV:   2    -0.758359233450E+02   -0.86955E-06   -0.10364E-05   656   0.194E-02    0.263E-03
DAV:   3    -0.758359234225E+02   -0.77500E-07   -0.22846E-07   272   0.339E-03
 154 F= -.75835923E+02 E0= -.75835923E+02  d E =-.202547E-04
 BRION: g(F)=  0.247E-02 g(S)=  0.000E+00 retain N=  4 mean eig= 2.21
 eig:   7.444  0.415  0.415  0.569
 bond charge predicted
       N       E                     dE             d eps       ncg     rms          rms(c)
DAV:   1    -0.758359210413E+02    0.23037E-05   -0.64845E-06   528   0.172E-02    0.884E-04
DAV:   2    -0.758359210837E+02   -0.42438E-07   -0.19247E-07   264   0.288E-03
 155 F= -.75835921E+02 E0= -.75835921E+02  d E =0.233876E-05
 BRION: g(F)=  0.250E-02 g(S)=  0.000E+00 retain N=  4 mean eig= 2.58
 eig:   6.200  3.211  0.306  0.605
 bond charge predicted
       N       E                     dE             d eps       ncg     rms          rms(c)
DAV:   1    -0.758359210769E+02   -0.35600E-07   -0.39777E-04   512   0.142E-01    0.445E-03
DAV:   2    -0.758359215708E+02   -0.49389E-06   -0.88999E-06   648   0.181E-02
 156 F= -.75835922E+02 E0= -.75835922E+02  d E =-.487055E-06
 BRION: g(F)=  0.272E-02 g(S)=  0.000E+00 retain N=  5 mean eig= 2.76
 eig:   6.960  5.229  0.632  0.484  0.484
 bond charge predicted
       N       E                     dE             d eps       ncg     rms          rms(c)
DAV:   1    -0.758359469636E+02   -0.25887E-04   -0.25092E-03   512   0.355E-01    0.107E-02
DAV:   2    -0.758359500212E+02   -0.30576E-05   -0.49513E-05   608   0.419E-02    0.655E-03
DAV:   3    -0.758359497691E+02    0.25208E-06   -0.10212E-06   432   0.717E-03
 157 F= -.75835950E+02 E0= -.75835950E+02  d E =-.281984E-04
 BRION: g(F)=  0.276E-02 g(S)=  0.000E+00 retain N=  5 mean eig= 2.17
 eig:   6.378  2.995  0.136  0.675  0.675
 bond charge predicted
       N       E                     dE             d eps       ncg     rms          rms(c)
DAV:   1    -0.758360124514E+02   -0.62430E-04   -0.81677E-03   512   0.633E-01    0.248E-02
DAV:   2    -0.758360257227E+02   -0.13271E-04   -0.16876E-04   632   0.801E-02    0.118E-02
DAV:   3    -0.758360253519E+02    0.37074E-06   -0.48278E-06   672   0.154E-02
 158 F= -.75836025E+02 E0= -.75836025E+02  d E =-.755828E-04
 BRION: g(F)=  0.274E-02 g(S)=  0.000E+00 retain N=  6 mean eig= 2.72
 eig:   7.015  6.038  1.281  1.281  0.463  0.243
 bond charge predicted
       N       E                     dE             d eps       ncg     rms          rms(c)
DAV:   1    -0.758360396883E+02   -0.13966E-04   -0.56784E-03   512   0.535E-01    0.213E-02
DAV:   2    -0.758360477920E+02   -0.81038E-05   -0.14238E-04   616   0.693E-02    0.150E-02
DAV:   3    -0.758360472388E+02    0.55327E-06   -0.71211E-06   712   0.152E-02
 159 F= -.75836047E+02 E0= -.75836047E+02  d E =-.218868E-04
 BRION: g(F)=  0.277E-02 g(S)=  0.000E+00 retain N=  6 mean eig= 2.54
 eig:   6.727  3.272  2.056  2.056  0.572  0.572
 bond charge predicted
       N       E                     dE             d eps       ncg     rms          rms(c)
DAV:   1    -0.758361323906E+02   -0.84599E-04   -0.44549E-03   512   0.438E-01    0.252E-02
DAV:   2    -0.758361417521E+02   -0.93615E-05   -0.11932E-04   680   0.705E-02    0.141E-02
DAV:   3    -0.758361417871E+02   -0.34971E-07   -0.58350E-06   688   0.161E-02
 160 F= -.75836142E+02 E0= -.75836142E+02  d E =-.945483E-04
 BRION: g(F)=  0.318E-02 g(S)=  0.000E+00 retain N=  7 mean eig= 2.85
 eig:   6.315  7.429  2.246  2.246  0.397  0.767  0.538
 bond charge predicted
       N       E                     dE             d eps       ncg     rms          rms(c)
DAV:   1    -0.758362031205E+02   -0.61368E-04   -0.51053E-03   512   0.506E-01    0.209E-02
DAV:   2    -0.758362118344E+02   -0.87140E-05   -0.11029E-04   616   0.640E-02    0.959E-03
DAV:   3    -0.758362117940E+02    0.40460E-07   -0.25467E-06   560   0.111E-02
 161 F= -.75836212E+02 E0= -.75836212E+02  d E =-.700069E-04
 BRION: g(F)=  0.229E-02 g(S)=  0.000E+00 retain N=  7 mean eig= 2.15
 eig:   5.804  2.643  2.643  1.246  1.246  0.975  0.467
 bond charge predicted
       N       E                     dE             d eps       ncg     rms          rms(c)
DAV:   1    -0.758362495919E+02   -0.37758E-04   -0.11159E-03   512   0.236E-01    0.108E-02
DAV:   2    -0.758362514180E+02   -0.18261E-05   -0.23136E-05   648   0.288E-02    0.551E-03
DAV:   3    -0.758362516438E+02   -0.22577E-06   -0.66502E-07   320   0.586E-03
 162 F= -.75836252E+02 E0= -.75836252E+02  d E =-.398498E-04
 BRION: g(F)=  0.219E-02 g(S)=  0.000E+00 retain N=  8 mean eig= 2.82
 eig:   5.022  5.022  4.906  4.906  0.341  0.341  1.023  1.023
 bond charge predicted
       N       E                     dE             d eps       ncg     rms          rms(c)
DAV:   1    -0.758362417287E+02    0.96893E-05   -0.48805E-05   544   0.489E-02    0.218E-03
DAV:   2    -0.758362419255E+02   -0.19673E-06   -0.12099E-06   448   0.710E-03
 163 F= -.75836242E+02 E0= -.75836242E+02  d E =0.971832E-05
 BRION: g(F)=  0.225E-02 g(S)=  0.000E+00 retain N=  8 mean eig= 3.00
 eig:   6.281  6.281  5.302  1.824  1.824  1.279  0.603  0.603
 bond charge predicted
       N       E                     dE             d eps       ncg     rms          rms(c)
DAV:   1    -0.758363825219E+02   -0.14079E-03   -0.10250E-02   512   0.722E-01    0.297E-02
DAV:   2    -0.758363993305E+02   -0.16809E-04   -0.20127E-04   640   0.847E-02    0.172E-02
DAV:   3    -0.758363999752E+02   -0.64470E-06   -0.60977E-06   712   0.152E-02
 164 F= -.75836400E+02 E0= -.75836400E+02  d E =-.158050E-03
 BRION: g(F)=  0.213E-02 g(S)=  0.000E+00 retain N=  7 mean eig= 1.64
 eig:   3.561  3.561  0.678  0.678  0.711  1.061  1.262
 bond charge predicted
       N       E                     dE             d eps       ncg     rms          rms(c)
DAV:   1    -0.758364133275E+02   -0.13997E-04   -0.36387E-04   512   0.138E-01    0.414E-03
DAV:   2    -0.758364139205E+02   -0.59298E-06   -0.77578E-06   608   0.164E-02
 165 F= -.75836414E+02 E0= -.75836414E+02  d E =-.139453E-04
 BRION: g(F)=  0.194E-02 g(S)=  0.000E+00 retain N=  8 mean eig= 1.92
 eig:   3.996  3.996  1.078  1.078  1.547  1.547  0.888  1.250
 bond charge predicted
       N       E                     dE             d eps       ncg     rms          rms(c)
DAV:   1    -0.758364655619E+02   -0.52234E-04   -0.13610E-03   512   0.269E-01    0.104E-02
DAV:   2    -0.758364671691E+02   -0.16072E-05   -0.25029E-05   640   0.290E-02    0.637E-03
DAV:   3    -0.758364672369E+02   -0.67833E-07   -0.54345E-07   360   0.549E-03
 166 F= -.75836467E+02 E0= -.75836467E+02  d E =-.533164E-04
 BRION: g(F)=  0.180E-02 g(S)=  0.000E+00 retain N=  8 mean eig= 2.89
 eig:   7.153  7.153  2.504  2.504  0.386  0.847  1.377  1.203
 bond charge predicted
       N       E                     dE             d eps       ncg     rms          rms(c)
DAV:   1    -0.758365475924E+02   -0.80423E-04   -0.49387E-03   512   0.511E-01    0.139E-02
DAV:   2    -0.758365538824E+02   -0.62900E-05   -0.86756E-05   640   0.530E-02    0.105E-02
DAV:   3    -0.758365535345E+02    0.34788E-06   -0.18255E-06   544   0.941E-03
 167 F= -.75836554E+02 E0= -.75836554E+02  d E =-.862976E-04
 BRION: g(F)=  0.169E-02 g(S)=  0.000E+00 retain N=  8 mean eig= 3.02
 eig:   6.497  5.606  5.606  1.811  1.811  0.886  0.886  1.041
 bond charge predicted
       N       E                     dE             d eps       ncg     rms          rms(c)
DAV:   1    -0.758366368780E+02   -0.82996E-04   -0.72778E-03   512   0.625E-01    0.147E-02
DAV:   2    -0.758366457618E+02   -0.88838E-05   -0.12171E-04   632   0.634E-02    0.124E-02
DAV:   3    -0.758366453240E+02    0.43781E-06   -0.28368E-06   648   0.106E-02
 168 F= -.75836645E+02 E0= -.75836645E+02  d E =-.917895E-04
 BRION: g(F)=  0.154E-02 g(S)=  0.000E+00 retain N=  8 mean eig= 3.37
 eig:   7.432  7.432  5.949  1.174  1.222  1.222  1.275  1.275
 bond charge predicted
       N       E                     dE             d eps       ncg     rms          rms(c)
DAV:   1    -0.758367657622E+02   -0.12000E-03   -0.82412E-03   512   0.654E-01    0.213E-02
DAV:   2    -0.758367769452E+02   -0.11183E-04   -0.14832E-04   640   0.703E-02    0.143E-02
DAV:   3    -0.758367768615E+02    0.83677E-07   -0.41980E-06   672   0.127E-02
 169 F= -.75836777E+02 E0= -.75836777E+02  d E =-.131538E-03
 BRION: g(F)=  0.137E-02 g(S)=  0.000E+00 retain N=  8 mean eig= 3.41
 eig:   7.849  7.849  2.658  2.658  2.847  1.150  1.150  1.127
 bond charge predicted
       N       E                     dE             d eps       ncg     rms          rms(c)
DAV:   1    -0.758369595760E+02   -0.18263E-03   -0.19925E-02   512   0.102E+00    0.315E-02
DAV:   2    -0.758369880877E+02   -0.28512E-04   -0.35752E-04   624   0.110E-01    0.230E-02
DAV:   3    -0.758369882582E+02   -0.17052E-06   -0.10209E-05   800   0.190E-02    0.161E-02
DAV:   4    -0.758369912619E+02   -0.30037E-05   -0.10676E-05   600   0.205E-02    0.461E-03
DAV:   5    -0.758369914667E+02   -0.20479E-06   -0.24441E-06   552   0.854E-03
 170 F= -.75836991E+02 E0= -.75836991E+02  d E =-.214605E-03
 BRION: g(F)=  0.136E-02 g(S)=  0.000E+00 retain N=  3 mean eig= 4.44
 eig:   1.457  5.932  5.932
 bond charge predicted
       N       E                     dE             d eps       ncg     rms          rms(c)
DAV:   1    -0.758370954980E+02   -0.10424E-03   -0.11528E-02   512   0.762E-01    0.283E-02
DAV:   2    -0.758371140050E+02   -0.18507E-04   -0.25424E-04   584   0.898E-02    0.191E-02
DAV:   3    -0.758371133654E+02    0.63961E-06   -0.83584E-06   784   0.179E-02
 171 F= -.75837113E+02 E0= -.75837113E+02  d E =-.121899E-03
 BRION: g(F)=  0.132E-02 g(S)=  0.000E+00 retain N=  3 mean eig= 2.82
 eig:   4.208  4.208  0.045
 bond charge predicted
       N       E                     dE             d eps       ncg     rms          rms(c)
DAV:   1    -0.758372507021E+02   -0.13670E-03   -0.71831E-03   512   0.614E-01    0.250E-02
DAV:   2    -0.758372613189E+02   -0.10617E-04   -0.13575E-04   632   0.715E-02    0.163E-02
DAV:   3    -0.758372624316E+02   -0.11126E-05   -0.44627E-06   648   0.137E-02    0.948E-03
DAV:   4    -0.758372641755E+02   -0.17439E-05   -0.31295E-06   568   0.103E-02    0.198E-03
DAV:   5    -0.758372643747E+02   -0.19917E-06   -0.58404E-07   368   0.521E-03
 172 F= -.75837264E+02 E0= -.75837264E+02  d E =-.151009E-03
 BRION: g(F)=  0.125E-02 g(S)=  0.000E+00 retain N=  4 mean eig= 3.34
 eig:   5.537  5.537  1.806  0.493
 bond charge predicted
       N       E                     dE             d eps       ncg     rms          rms(c)
DAV:   1    -0.758375043313E+02   -0.24016E-03   -0.55220E-02   512   0.169E+00    0.596E-02
DAV:   2    -0.758375925119E+02   -0.88181E-04   -0.10762E-03   624   0.190E-01    0.383E-02
DAV:   3    -0.758375910246E+02    0.14873E-05   -0.28584E-05   784   0.334E-02    0.263E-02
DAV:   4    -0.758375975437E+02   -0.65191E-05   -0.34810E-05   600   0.370E-02    0.796E-03
DAV:   5    -0.758375979994E+02   -0.45572E-06   -0.79939E-06   616   0.148E-02
 173 F= -.75837598E+02 E0= -.75837598E+02  d E =-.333625E-03
 BRION: g(F)=  0.112E-02 g(S)=  0.000E+00 retain N=  3 mean eig= 3.26
 eig:   0.391  4.694  4.694
 bond charge predicted
       N       E                     dE             d eps       ncg     rms          rms(c)
DAV:   1    -0.758377948231E+02   -0.19728E-03   -0.42549E-02   512   0.149E+00    0.573E-02
DAV:   2    -0.758378702230E+02   -0.75400E-04   -0.90190E-04   608   0.176E-01    0.331E-02
DAV:   3    -0.758378696623E+02    0.56066E-06   -0.24765E-05   760   0.317E-02    0.225E-02
DAV:   4    -0.758378754866E+02   -0.58243E-05   -0.29865E-05   624   0.359E-02    0.835E-03
DAV:   5    -0.758378759595E+02   -0.47284E-06   -0.66350E-06   616   0.143E-02
 174 F= -.75837876E+02 E0= -.75837876E+02  d E =-.277960E-03
 BRION: g(F)=  0.111E-02 g(S)=  0.000E+00 retain N=  4 mean eig= 3.15
 eig:   5.603  5.603  0.374  1.015
 bond charge predicted
       N       E                     dE             d eps       ncg     rms          rms(c)
DAV:   1    -0.758380207206E+02   -0.14523E-03   -0.11740E-02   512   0.781E-01    0.305E-02
DAV:   2    -0.758380417988E+02   -0.21078E-04   -0.24401E-04   632   0.935E-02    0.177E-02
DAV:   3    -0.758380424549E+02   -0.65604E-06   -0.70185E-06   696   0.180E-02
 175 F= -.75838042E+02 E0= -.75838042E+02  d E =-.166495E-03
 BRION: g(F)=  0.951E-03 g(S)=  0.000E+00 retain N=  3 mean eig= 3.94
 eig:   5.065  5.065  1.693
 bond charge predicted
       N       E                     dE             d eps       ncg     rms          rms(c)
DAV:   1    -0.758383098061E+02   -0.26801E-03   -0.12258E-01   512   0.253E+00    0.978E-02
DAV:   2    -0.758385177118E+02   -0.20791E-03   -0.24545E-03   608   0.296E-01    0.555E-02
DAV:   3    -0.758385163968E+02    0.13149E-05   -0.70181E-05   768   0.537E-02    0.362E-02
DAV:   4    -0.758385296815E+02   -0.13285E-04   -0.76569E-05   616   0.542E-02    0.118E-02
DAV:   5    -0.758385304385E+02   -0.75701E-06   -0.17112E-05   608   0.223E-02    0.906E-03
DAV:   6    -0.758385298370E+02    0.60158E-06   -0.27598E-06   704   0.121E-02
 176 F= -.75838530E+02 E0= -.75838530E+02  d E =-.487382E-03
 BRION: g(F)=  0.852E-03 g(S)=  0.000E+00 retain N=  3 mean eig= 5.12
 eig:   6.982  6.982  1.409
 bond charge predicted
       N       E                     dE             d eps       ncg     rms          rms(c)
DAV:   1    -0.758386690398E+02   -0.13860E-03   -0.31349E-02   512   0.127E+00    0.502E-02
DAV:   2    -0.758387266062E+02   -0.57566E-04   -0.70354E-04   608   0.153E-01    0.305E-02
DAV:   3    -0.758387253863E+02    0.12199E-05   -0.19373E-05   760   0.283E-02    0.213E-02
DAV:   4    -0.758387298181E+02   -0.44318E-05   -0.22834E-05   624   0.319E-02    0.863E-03
DAV:   5    -0.758387308219E+02   -0.10038E-05   -0.52827E-06   592   0.125E-02    0.552E-03
DAV:   6    -0.758387309048E+02   -0.82875E-07   -0.14362E-06   520   0.100E-02
 177 F= -.75838731E+02 E0= -.75838731E+02  d E =-.201068E-03
 BRION: g(F)=  0.787E-03 g(S)=  0.000E+00 retain N=  3 mean eig= 2.20
 eig:   3.223  3.223  0.162
 bond charge predicted
       N       E                     dE             d eps       ncg     rms          rms(c)
DAV:   1    -0.758389055473E+02   -0.17473E-03   -0.20628E-02   512   0.102E+00    0.435E-02
DAV:   2    -0.758389422348E+02   -0.36687E-04   -0.43664E-04   632   0.129E-01    0.246E-02
DAV:   3    -0.758389430976E+02   -0.86280E-06   -0.15730E-05   768   0.269E-02    0.148E-02
DAV:   4    -0.758389465107E+02   -0.34131E-05   -0.82599E-06   528   0.161E-02    0.304E-03
DAV:   5    -0.758389470290E+02   -0.51825E-06   -0.18260E-06   480   0.102E-02
 178 F= -.75838947E+02 E0= -.75838947E+02  d E =-.216124E-03
 BRION: g(F)=  0.750E-03 g(S)=  0.000E+00 retain N=  4 mean eig= 3.79
 eig:   6.475  6.475  1.098  1.098
 bond charge predicted
       N       E                     dE             d eps       ncg     rms          rms(c)
DAV:   1    -0.758391000728E+02   -0.15356E-03   -0.29867E-02   512   0.124E+00    0.499E-02
DAV:   2    -0.758391519104E+02   -0.51838E-04   -0.63813E-04   608   0.147E-01    0.284E-02
DAV:   3    -0.758391509024E+02    0.10081E-05   -0.17463E-05   760   0.269E-02    0.192E-02
DAV:   4    -0.758391550073E+02   -0.41050E-05   -0.19961E-05   616   0.287E-02    0.677E-03
DAV:   5    -0.758391554859E+02   -0.47856E-06   -0.45566E-06   568   0.115E-02
 179 F= -.75839155E+02 E0= -.75839155E+02  d E =-.208457E-03
 BRION: g(F)=  0.616E-03 g(S)=  0.000E+00 retain N=  3 mean eig= 2.17
 eig:   2.952  2.952  0.619
 bond charge predicted
       N       E                     dE             d eps       ncg     rms          rms(c)
DAV:   1    -0.758393181254E+02   -0.16312E-03   -0.31479E-02   512   0.127E+00    0.532E-02
DAV:   2    -0.758393763104E+02   -0.58185E-04   -0.68578E-04   632   0.156E-01    0.282E-02
DAV:   3    -0.758393761295E+02    0.18091E-06   -0.18829E-05   768   0.286E-02    0.185E-02
DAV:   4    -0.758393811180E+02   -0.49886E-05   -0.23666E-05   624   0.305E-02    0.680E-03
DAV:   5    -0.758393813862E+02   -0.26820E-06   -0.52120E-06   584   0.123E-02
 180 F= -.75839381E+02 E0= -.75839381E+02  d E =-.225900E-03
 BRION: g(F)=  0.490E-03 g(S)=  0.000E+00 retain N=  3 mean eig= 4.24
 eig:   5.812  5.812  1.091
 bond charge predicted
       N       E                     dE             d eps       ncg     rms          rms(c)
DAV:   1    -0.758394798155E+02   -0.98697E-04   -0.76850E-03   512   0.627E-01    0.268E-02
DAV:   2    -0.758394951891E+02   -0.15374E-04   -0.17735E-04   632   0.800E-02    0.134E-02
DAV:   3    -0.758394956852E+02   -0.49608E-06   -0.50552E-06   656   0.151E-02
 181 F= -.75839496E+02 E0= -.75839496E+02  d E =-.114299E-03
 BRION: g(F)=  0.462E-03 g(S)=  0.000E+00 retain N=  3 mean eig= 4.21
 eig:   1.141  5.742  5.742
 reached required accuracy - stopping structural energy minimisation
