Al   C    S    H 
   1.0000000000000000     
   6.0191999999999997   0.0000000000000000   0.0000000000000000
   0.0000000000000000  10.1400000000000006   0.0000000000000000
   0.0000000000000000   0.0000000000000000  15.0000000000000000
Al   C    S    H 
8  4  1  2  
Selective dynamics
Direct
  0.3888133017662528  0.8700563212517981  0.2440128091006246 T T T
  0.8903322939097248  0.8699521139488117  0.2431713542134110 T T T
  0.4082271860161618  0.6203218485688671  0.2875940761746931 T T T
  0.8728719130870993  0.6203900279815582  0.2871309313042636 T T T
  0.3959690643774260  0.3713692279622182  0.2503777250205392 T T T
  0.8843266387627972  0.3712787580318057  0.2506624445961728 T T T
  0.3899457297830832  0.1142891977038592  0.2333479562974001 T T T
  0.8891291478956728  0.1142622305783022  0.2339544435335022 T T T
  0.1395425714560403  0.9937140003040250  0.2371734678185711 T T T
  0.6395600918125155  0.9928317247121520  0.2336650483067857 T T T
  0.1403438632039034  0.4899038291722622  0.2991444187055116 T T T
  0.6402768536264825  0.4926642907871641  0.2421727255804161 T T T
  0.6421109150029353  0.6358918845558033  0.4218811991950783 T T T
  0.6431566293409163  0.7656436336919747  0.4447980825110119 T T T
  0.1399264600769843  0.4602972111346129  0.3708383103671459 T T T
