Al   C    O    H                        
   1.0000000000000000     
     6.0191999999999997    0.0000000000000000    0.0000000000000000
     0.0000000000000000   10.1400000000000006    0.0000000000000000
     0.0000000000000000    0.0000000000000000   15.0000000000000000
   Al   C    O    H 
     8     4     1     2
Selective dynamics
Direct
  0.4445926977544077  0.8159639263877935  0.3082948637242057   T   T   T
  0.9591134743258285  0.8202494393595318  0.2538518920139146   T   T   T
  0.4539927407322298  0.5641574659622542  0.2638816681056643   T   T   T
  0.9546151224918219  0.5631107577322751  0.2367552281788345   T   T   T
  0.4558615621269887  0.3211009282728930  0.2327722353929833   T   T   T
  0.9563866946321217  0.3223662421767615  0.2597887109313003   T   T   T
  0.4565881259013209  0.0591289024016432  0.2472226083021356   T   T   T
  0.9709487144352905  0.0680559565746928  0.2778310875666688   T   T   T
  0.2085923644255577  0.9411414766465137  0.2631751738347317   T   T   T
  0.7123508832786718  0.9467066417847979  0.2847260608786518   T   T   T
  0.2056848124979448  0.4416608847138099  0.2429306981678018   T   T   T
  0.7047019791599577  0.4414925416773074  0.2475971077865638   T   T   T
  0.5035268591817145  0.8160637744315308  0.4250898155788081   T   T   T
  0.6934906276179116  0.9310319805301749  0.3593018626142875   T   T   T
  0.4357848623593835  0.8806847897841422  0.4642074289431039   T   T   T

  0.00000000E+00  0.00000000E+00  0.00000000E+00
  0.00000000E+00  0.00000000E+00  0.00000000E+00
  0.00000000E+00  0.00000000E+00  0.00000000E+00
  0.00000000E+00  0.00000000E+00  0.00000000E+00
  0.00000000E+00  0.00000000E+00  0.00000000E+00
  0.00000000E+00  0.00000000E+00  0.00000000E+00
  0.00000000E+00  0.00000000E+00  0.00000000E+00
  0.00000000E+00  0.00000000E+00  0.00000000E+00
  0.00000000E+00  0.00000000E+00  0.00000000E+00
  0.00000000E+00  0.00000000E+00  0.00000000E+00
  0.00000000E+00  0.00000000E+00  0.00000000E+00
  0.00000000E+00  0.00000000E+00  0.00000000E+00
  0.00000000E+00  0.00000000E+00  0.00000000E+00
  0.00000000E+00  0.00000000E+00  0.00000000E+00
  0.00000000E+00  0.00000000E+00  0.00000000E+00
