Al   C    O    H                        
   1.0000000000000000     
     6.0191999999999997    0.0000000000000000    0.0000000000000000
     0.0000000000000000   10.1400000000000006    0.0000000000000000
     0.0000000000000000    0.0000000000000000   15.0000000000000000
   Al   C    O    H 
     8     4     1     2
Selective dynamics
Direct
  0.4446974753414541  0.8156700262502404  0.3062098121564420   T   T   T
  0.9578963569146761  0.8204134482928787  0.2550373378974928   T   T   T
  0.4546195031230939  0.5639877146428890  0.2629697236963175   T   T   T
  0.9553946517066068  0.5631298213185810  0.2383083101751095   T   T   T
  0.4566207508776803  0.3207282738629243  0.2343891611911979   T   T   T
  0.9568182745117996  0.3218359037023745  0.2593358189072223   T   T   T
  0.4564877862130328  0.0592523349096066  0.2485350732998404   T   T   T
  0.9679422305295233  0.0673975902885539  0.2783477727532905   T   T   T
  0.2075362466792939  0.9414478279659954  0.2638804228125494   T   T   T
  0.7109716869338173  0.9459122359434916  0.2866473173753057   T   T   T
  0.2062327354325093  0.4414121116419182  0.2433912913963557   T   T   T
  0.7054389617133057  0.4414231330505531  0.2482203264326927   T   T   T
  0.5107422618104203  0.8203152964849078  0.4240936332519212   T   T   T
  0.6829014344272810  0.9247945260697774  0.3621223417267023   T   T   T
  0.4320474406425051  0.8814490640182329  0.4624915683233906   T   T   T

  0.00000000E+00  0.00000000E+00  0.00000000E+00
  0.00000000E+00  0.00000000E+00  0.00000000E+00
  0.00000000E+00  0.00000000E+00  0.00000000E+00
  0.00000000E+00  0.00000000E+00  0.00000000E+00
  0.00000000E+00  0.00000000E+00  0.00000000E+00
  0.00000000E+00  0.00000000E+00  0.00000000E+00
  0.00000000E+00  0.00000000E+00  0.00000000E+00
  0.00000000E+00  0.00000000E+00  0.00000000E+00
  0.00000000E+00  0.00000000E+00  0.00000000E+00
  0.00000000E+00  0.00000000E+00  0.00000000E+00
  0.00000000E+00  0.00000000E+00  0.00000000E+00
  0.00000000E+00  0.00000000E+00  0.00000000E+00
  0.00000000E+00  0.00000000E+00  0.00000000E+00
  0.00000000E+00  0.00000000E+00  0.00000000E+00
  0.00000000E+00  0.00000000E+00  0.00000000E+00
