Al   C    Te   H                        
   1.0000000000000000     
     6.0191999999999997    0.0000000000000000    0.0000000000000000
     0.0000000000000000   10.1400000000000006    0.0000000000000000
     0.0000000000000000    0.0000000000000000   15.0000000000000000
   Al   C    Te   H 
     8     4     1     2
Selective dynamics
Direct
  0.4041744907712057  0.8747506947452260  0.2517736644539163   T   T   T
  0.9050328642679657  0.8744195560047034  0.2412078307528816   T   T   T
  0.4042671978034016  0.6185544542951485  0.2554334426062713   T   T   T
  0.9055928685830785  0.6181743417107490  0.2478063137958599   T   T   T
  0.4054731799329653  0.3730419184644558  0.2426269840146945   T   T   T
  0.9037404444595707  0.3735688330473230  0.2534602153591490   T   T   T
  0.4054727564254291  0.1177386970538812  0.2371007338447595   T   T   T
  0.9032558240516466  0.1175970326529034  0.2497003527711490   T   T   T
  0.1545557832713424  0.9966905171213862  0.2459508312292313   T   T   T
  0.6544508016402748  0.9949911528005133  0.2438388528242679   T   T   T
  0.1550326945605363  0.4951271785212122  0.2553848829152214   T   T   T
  0.6543699612283851  0.4974838433861755  0.2505089737767187   T   T   T
  0.5673507204803890  0.3450527523282923  0.4510012992078101   T   T   T
  0.4117110629508169  0.2433720558212704  0.5153125230738836   T   T   T
  0.3308481781821776  0.4114848107278349  0.4090153805707239   T   T   T

  0.00000000E+00  0.00000000E+00  0.00000000E+00
  0.00000000E+00  0.00000000E+00  0.00000000E+00
  0.00000000E+00  0.00000000E+00  0.00000000E+00
  0.00000000E+00  0.00000000E+00  0.00000000E+00
  0.00000000E+00  0.00000000E+00  0.00000000E+00
  0.00000000E+00  0.00000000E+00  0.00000000E+00
  0.00000000E+00  0.00000000E+00  0.00000000E+00
  0.00000000E+00  0.00000000E+00  0.00000000E+00
  0.00000000E+00  0.00000000E+00  0.00000000E+00
  0.00000000E+00  0.00000000E+00  0.00000000E+00
  0.00000000E+00  0.00000000E+00  0.00000000E+00
  0.00000000E+00  0.00000000E+00  0.00000000E+00
  0.00000000E+00  0.00000000E+00  0.00000000E+00
  0.00000000E+00  0.00000000E+00  0.00000000E+00
  0.00000000E+00  0.00000000E+00  0.00000000E+00
