Al   C    Te   H                        
   1.0000000000000000     
     6.0191999999999997    0.0000000000000000    0.0000000000000000
     0.0000000000000000   10.1400000000000006    0.0000000000000000
     0.0000000000000000    0.0000000000000000   15.0000000000000000
   Al   C    Te   H 
     8     4     1     2
Selective dynamics
Direct
  0.4045638691489049  0.8746597563428413  0.2517441125680890   T   T   T
  0.9054348451060420  0.8743354844421332  0.2411859552708553   T   T   T
  0.4045260245876191  0.6184733296721199  0.2553436802320204   T   T   T
  0.9058623069432790  0.6180854490972114  0.2477549236914204   T   T   T
  0.4057563559725507  0.3729427850585094  0.2426745650781173   T   T   T
  0.9039806542966058  0.3734943711346683  0.2535024497381160   T   T   T
  0.4058592225024925  0.1176570516261425  0.2371524963041300   T   T   T
  0.9036390428397835  0.1175016556680344  0.2497754284557447   T   T   T
  0.1549481139677946  0.9966040357574485  0.2460270465322326   T   T   T
  0.6548413466572870  0.9949031618890558  0.2438180894714861   T   T   T
  0.1553051701340946  0.4950461371653334  0.2553763421209180   T   T   T
  0.6546329343431729  0.4973973091050545  0.2504663824546181   T   T   T
  0.5660957665176600  0.3450364659527156  0.4512284489101790   T   T   T
  0.4089341973338518  0.2438604114769267  0.5152859682339171   T   T   T
  0.3305411322847591  0.4119685201968324  0.4087047367146279   T   T   T

  0.00000000E+00  0.00000000E+00  0.00000000E+00
  0.00000000E+00  0.00000000E+00  0.00000000E+00
  0.00000000E+00  0.00000000E+00  0.00000000E+00
  0.00000000E+00  0.00000000E+00  0.00000000E+00
  0.00000000E+00  0.00000000E+00  0.00000000E+00
  0.00000000E+00  0.00000000E+00  0.00000000E+00
  0.00000000E+00  0.00000000E+00  0.00000000E+00
  0.00000000E+00  0.00000000E+00  0.00000000E+00
  0.00000000E+00  0.00000000E+00  0.00000000E+00
  0.00000000E+00  0.00000000E+00  0.00000000E+00
  0.00000000E+00  0.00000000E+00  0.00000000E+00
  0.00000000E+00  0.00000000E+00  0.00000000E+00
  0.00000000E+00  0.00000000E+00  0.00000000E+00
  0.00000000E+00  0.00000000E+00  0.00000000E+00
  0.00000000E+00  0.00000000E+00  0.00000000E+00
