Al   C    O    H 
   1.0000000000000000     
   6.0191999999999997   0.0000000000000000   0.0000000000000000
   0.0000000000000000  10.1400000000000006   0.0000000000000000
   0.0000000000000000   0.0000000000000000  15.0000000000000000
Al   C    O    H 
8  4  1  2  
Selective dynamics
Direct
  0.4595601742045122  0.8169954941079811  0.2924774962400285 T T T
  0.9622850465469740  0.8195220521612923  0.2512770315974214 T T T
  0.4614708732203602  0.5605136918588405  0.2664888048792916 T T T
  0.9618252109261902  0.5608703204881479  0.2398497426686423 T T T
  0.4623239290224586  0.3180926477687575  0.2366573518439901 T T T
  0.9621221399281774  0.3188683980379737  0.2632621846120734 T T T
  0.4634614197716974  0.0574661161408580  0.2454131544433577 T T T
  0.9644481170391072  0.0619514893430224  0.2766709219819925 T T T
  0.2131332844484406  0.9396967307253178  0.2664971027386736 T T T
  0.7132662547141416  0.9406327783337894  0.2727210443802016 T T T
  0.2121594550642334  0.4391981672931511  0.2488323060397191 T T T
  0.7117396692519660  0.4393668084755795  0.2502280535986356 T T T
  0.5082226694714124  0.8400708794883750  0.4305638418232430 T T T
  0.6227889003015927  0.9063675088283436  0.4114878264968855 T T T
  0.3819637226490765  0.8922804080728308  0.4517731366558320 T T T
