Al2C                                    
   1.0000000000000000     
     6.0191999999999997    0.0000000000000000    0.0000000000000000
     0.0000000000000000   10.1400000000000006    0.0000000000000000
     0.0000000000000000    0.0000000000000000   15.0000000000000000
   Al   C    O    H 
     8     4     1     2
Selective dynamics
Direct
  0.4522447202200155  0.8176674797880352  0.3049036369162081   T   T   T
  0.9727784400022230  0.8218676343656668  0.2699848188492524   T   T   T
  0.4752105968439366  0.5710007087542621  0.2503096489140262   T   T   T
  0.9742451680850550  0.5676124734699428  0.2466835620432946   T   T   T
  0.4738841648380756  0.3255182542351278  0.2360197200490148   T   T   T
  0.9756518566454346  0.3257005929656103  0.2397574854937403   T   T   T
  0.4669592750545561  0.0656242270293319  0.2538551422407025   T   T   T
  0.9823565975095150  0.0726205239361519  0.2616510223010877   T   T   T
  0.2199457087599725  0.9450009272061521  0.2545958028058024   T   T   T
  0.7232173637423287  0.9527893948206625  0.2987019119519303   T   T   T
  0.2250456758322272  0.4468166560904976  0.2359234556120171   T   T   T
  0.7242864028797840  0.4453542168101023  0.2432893684599691   T   T   T
  0.3935466358387885  0.7752482145952868  0.4163002818056327   T   T   T
  0.7371736383781808  0.9720549633873290  0.3717917598374640   T   T   T
  0.3547146219302419  0.8413172236700959  0.4604323827198300   T   T   T

  0.00000000E+00  0.00000000E+00  0.00000000E+00
  0.00000000E+00  0.00000000E+00  0.00000000E+00
  0.00000000E+00  0.00000000E+00  0.00000000E+00
  0.00000000E+00  0.00000000E+00  0.00000000E+00
  0.00000000E+00  0.00000000E+00  0.00000000E+00
  0.00000000E+00  0.00000000E+00  0.00000000E+00
  0.00000000E+00  0.00000000E+00  0.00000000E+00
  0.00000000E+00  0.00000000E+00  0.00000000E+00
  0.00000000E+00  0.00000000E+00  0.00000000E+00
  0.00000000E+00  0.00000000E+00  0.00000000E+00
  0.00000000E+00  0.00000000E+00  0.00000000E+00
  0.00000000E+00  0.00000000E+00  0.00000000E+00
  0.00000000E+00  0.00000000E+00  0.00000000E+00
  0.00000000E+00  0.00000000E+00  0.00000000E+00
  0.00000000E+00  0.00000000E+00  0.00000000E+00
