  15  15   0   0
  0.6103469E+02  0.6019200E-09  0.1014000E-08  0.1500000E-08  0.3500000E-15
   1.0000000000000000E-004
  CAR 
 Al2C                                    
      3.89232909    -25.24707950  301     -2.31800737      1.00000000
    -25.247  0.0000E+00  0.0000E+00
    -25.150  0.0000E+00  0.0000E+00
    -25.053  0.0000E+00  0.0000E+00
    -24.956  0.0000E+00  0.0000E+00
    -24.859  0.0000E+00  0.0000E+00
    -24.761  0.0000E+00  0.0000E+00
    -24.664  0.0000E+00  0.0000E+00
    -24.567  0.0000E+00  0.0000E+00
    -24.470  0.0000E+00  0.0000E+00
    -24.373  0.0000E+00  0.0000E+00
    -24.276  0.0000E+00  0.0000E+00
    -24.179  0.4313E-11  0.4190E-12
    -24.082  0.6930E-04  0.6731E-05
    -23.984  0.8164E+00  0.7930E-01
    -23.887  0.1647E+02  0.1679E+01
    -23.790  0.3302E+01  0.2000E+01
    -23.693  0.1896E-02  0.2000E+01
    -23.596  0.9011E-09  0.2000E+01
    -23.499  0.0000E+00  0.2000E+01
    -23.402  0.0000E+00  0.2000E+01
    -23.304  0.0000E+00  0.2000E+01
    -23.207  0.0000E+00  0.2000E+01
    -23.110  0.0000E+00  0.2000E+01
    -23.013  0.0000E+00  0.2000E+01
    -22.916  0.0000E+00  0.2000E+01
    -22.819  0.0000E+00  0.2000E+01
    -22.722  0.0000E+00  0.2000E+01
    -22.625  0.0000E+00  0.2000E+01
    -22.527  0.0000E+00  0.2000E+01
    -22.430  0.0000E+00  0.2000E+01
    -22.333  0.0000E+00  0.2000E+01
    -22.236  0.0000E+00  0.2000E+01
    -22.139  0.0000E+00  0.2000E+01
    -22.042  0.0000E+00  0.2000E+01
    -21.945  0.0000E+00  0.2000E+01
    -21.847  0.0000E+00  0.2000E+01
    -21.750  0.0000E+00  0.2000E+01
    -21.653  0.0000E+00  0.2000E+01
    -21.556  0.0000E+00  0.2000E+01
    -21.459  0.0000E+00  0.2000E+01
    -21.362  0.0000E+00  0.2000E+01
    -21.265  0.0000E+00  0.2000E+01
    -21.168  0.0000E+00  0.2000E+01
    -21.070  0.0000E+00  0.2000E+01
    -20.973  0.0000E+00  0.2000E+01
    -20.876  0.0000E+00  0.2000E+01
    -20.779  0.0000E+00  0.2000E+01
    -20.682  0.0000E+00  0.2000E+01
    -20.585  0.0000E+00  0.2000E+01
    -20.488  0.0000E+00  0.2000E+01
    -20.391  0.0000E+00  0.2000E+01
    -20.293  0.0000E+00  0.2000E+01
    -20.196  0.0000E+00  0.2000E+01
    -20.099  0.0000E+00  0.2000E+01
    -20.002  0.0000E+00  0.2000E+01
    -19.905  0.0000E+00  0.2000E+01
    -19.808  0.0000E+00  0.2000E+01
    -19.711  0.0000E+00  0.2000E+01
    -19.613  0.0000E+00  0.2000E+01
    -19.516  0.0000E+00  0.2000E+01
    -19.419  0.0000E+00  0.2000E+01
    -19.322  0.0000E+00  0.2000E+01
    -19.225  0.0000E+00  0.2000E+01
    -19.128  0.0000E+00  0.2000E+01
    -19.031  0.0000E+00  0.2000E+01
    -18.934  0.0000E+00  0.2000E+01
    -18.836  0.0000E+00  0.2000E+01
    -18.739  0.0000E+00  0.2000E+01
    -18.642  0.0000E+00  0.2000E+01
    -18.545  0.0000E+00  0.2000E+01
    -18.448  0.0000E+00  0.2000E+01
    -18.351  0.0000E+00  0.2000E+01
    -18.254  0.0000E+00  0.2000E+01
    -18.156  0.0000E+00  0.2000E+01
    -18.059  0.0000E+00  0.2000E+01
    -17.962  0.0000E+00  0.2000E+01
    -17.865  0.0000E+00  0.2000E+01
    -17.768  0.0000E+00  0.2000E+01
    -17.671  0.0000E+00  0.2000E+01
    -17.574  0.0000E+00  0.2000E+01
    -17.477  0.0000E+00  0.2000E+01
    -17.379  0.0000E+00  0.2000E+01
    -17.282  0.0000E+00  0.2000E+01
    -17.185  0.0000E+00  0.2000E+01
    -17.088  0.0000E+00  0.2000E+01
    -16.991  0.0000E+00  0.2000E+01
    -16.894  0.0000E+00  0.2000E+01
    -16.797  0.5414E-08  0.2000E+01
    -16.700  0.2763E-02  0.2000E+01
    -16.602  0.1351E+01  0.2132E+01
    -16.505  0.6880E+01  0.2800E+01
    -16.408  0.4322E+01  0.3220E+01
    -16.311  0.6352E+01  0.3837E+01
    -16.214  0.1682E+01  0.4000E+01
    -16.117  0.1452E-02  0.4000E+01
    -16.020  0.1074E-08  0.4000E+01
    -15.922  0.0000E+00  0.4000E+01
    -15.825  0.1524E-15  0.4000E+01
    -15.728  0.5621E-07  0.4000E+01
    -15.631  0.1007E-01  0.4001E+01
    -15.534  0.1933E+01  0.4189E+01
    -15.437  0.3170E+01  0.4497E+01
    -15.340  0.6775E+01  0.5155E+01
    -15.243  0.4665E+00  0.5200E+01
    -15.145  0.2212E-02  0.5200E+01
    -15.048  0.1678E+01  0.5363E+01
    -14.951  0.9743E+01  0.6309E+01
    -14.854  0.4986E+01  0.6794E+01
    -14.757  0.6372E-01  0.6800E+01
    -14.660  0.6491E+00  0.6863E+01
    -14.563  0.6836E+01  0.7527E+01
    -14.465  0.8785E+00  0.7612E+01
    -14.368  0.7061E+01  0.8298E+01
    -14.271  0.5135E+01  0.8797E+01
    -14.174  0.3042E-01  0.8800E+01
    -14.077  0.2348E-06  0.8800E+01
    -13.980  0.1219E-14  0.8800E+01
    -13.883  0.7899E-10  0.8800E+01
    -13.786  0.3014E-03  0.8800E+01
    -13.688  0.9170E+00  0.8889E+01
    -13.591  0.6797E+01  0.9549E+01
    -13.494  0.5218E+00  0.9600E+01
    -13.397  0.1217E-03  0.9600E+01
    -13.300  0.2693E+00  0.9626E+01
    -13.203  0.3403E+01  0.9957E+01
    -13.106  0.4455E+00  0.1000E+02
    -13.009  0.1400E-03  0.1000E+02
    -12.911  0.3488E-10  0.1000E+02
    -12.814  0.0000E+00  0.1000E+02
    -12.717  0.0000E+00  0.1000E+02
    -12.620  0.0000E+00  0.1000E+02
    -12.523  0.0000E+00  0.1000E+02
    -12.426  0.0000E+00  0.1000E+02
    -12.329  0.0000E+00  0.1000E+02
    -12.231  0.0000E+00  0.1000E+02
    -12.134  0.0000E+00  0.1000E+02
    -12.037  0.0000E+00  0.1000E+02
    -11.940  0.0000E+00  0.1000E+02
    -11.843  0.0000E+00  0.1000E+02
    -11.746  0.0000E+00  0.1000E+02
    -11.649  0.0000E+00  0.1000E+02
    -11.552  0.0000E+00  0.1000E+02
    -11.454  0.0000E+00  0.1000E+02
    -11.357  0.0000E+00  0.1000E+02
    -11.260  0.0000E+00  0.1000E+02
    -11.163  0.3429E-14  0.1000E+02
    -11.066  0.2695E-06  0.1000E+02
    -10.969  0.1711E-01  0.1000E+02
    -10.872  0.3046E+01  0.1030E+02
    -10.775  0.1359E+02  0.1162E+02
    -10.677  0.3920E+01  0.1200E+02
    -10.580  0.1336E-01  0.1200E+02
    -10.483  0.5676E-07  0.1200E+02
    -10.386  0.0000E+00  0.1200E+02
    -10.289  0.7087E-14  0.1200E+02
    -10.192  0.4203E-06  0.1200E+02
    -10.095  0.1722E-01  0.1200E+02
     -9.997  0.9992E+00  0.1210E+02
     -9.900  0.2484E+01  0.1234E+02
     -9.803  0.8621E+00  0.1242E+02
     -9.706  0.6360E+01  0.1304E+02
     -9.609  0.5326E+01  0.1356E+02
     -9.512  0.1486E+01  0.1370E+02
     -9.415  0.3348E+01  0.1403E+02
     -9.318  0.1071E+02  0.1507E+02
     -9.220  0.4136E+01  0.1547E+02
     -9.123  0.5099E+01  0.1597E+02
     -9.026  0.7085E+01  0.1665E+02
     -8.929  0.4707E+00  0.1670E+02
     -8.832  0.2997E+01  0.1699E+02
     -8.735  0.2724E+01  0.1726E+02
     -8.638  0.2160E+01  0.1747E+02
     -8.540  0.3130E+01  0.1777E+02
     -8.443  0.3578E+01  0.1812E+02
     -8.346  0.1783E+01  0.1829E+02
     -8.249  0.5484E+01  0.1882E+02
     -8.152  0.6691E+01  0.1947E+02
     -8.055  0.5252E+01  0.1998E+02
     -7.958  0.1936E+01  0.2017E+02
     -7.861  0.3161E+01  0.2048E+02
     -7.763  0.1454E+01  0.2062E+02
     -7.666  0.6524E+01  0.2125E+02
     -7.569  0.1087E+02  0.2231E+02
     -7.472  0.2496E+01  0.2255E+02
     -7.375  0.2275E+01  0.2277E+02
     -7.278  0.1482E+01  0.2292E+02
     -7.181  0.1082E+02  0.2397E+02
     -7.084  0.1720E+01  0.2413E+02
     -6.986  0.1143E-01  0.2413E+02
     -6.889  0.8520E+00  0.2422E+02
     -6.792  0.3067E+01  0.2451E+02
     -6.695  0.9430E+01  0.2543E+02
     -6.598  0.1118E+02  0.2652E+02
     -6.501  0.5800E+01  0.2708E+02
     -6.404  0.6452E+01  0.2771E+02
     -6.306  0.1614E+01  0.2786E+02
     -6.209  0.2107E+01  0.2807E+02
     -6.112  0.2893E+01  0.2835E+02
     -6.015  0.7758E+01  0.2910E+02
     -5.918  0.7683E+01  0.2985E+02
     -5.821  0.8654E+01  0.3069E+02
     -5.724  0.9955E+01  0.3166E+02
     -5.627  0.3698E+01  0.3202E+02
     -5.529  0.3880E+01  0.3239E+02
     -5.432  0.3250E+01  0.3271E+02
     -5.335  0.5736E+01  0.3327E+02
     -5.238  0.3095E+01  0.3357E+02
     -5.141  0.8623E+01  0.3440E+02
     -5.044  0.3986E+01  0.3479E+02
     -4.947  0.4514E+01  0.3523E+02
     -4.849  0.8292E+01  0.3603E+02
     -4.752  0.4761E+01  0.3650E+02
     -4.655  0.5810E+01  0.3706E+02
     -4.558  0.2889E+01  0.3734E+02
     -4.461  0.5400E+01  0.3787E+02
     -4.364  0.8233E+01  0.3867E+02
     -4.267  0.1077E+02  0.3971E+02
     -4.170  0.1198E+02  0.4088E+02
     -4.072  0.1056E+02  0.4190E+02
     -3.975  0.8971E+01  0.4277E+02
     -3.878  0.6997E+01  0.4345E+02
     -3.781  0.4537E+01  0.4389E+02
     -3.684  0.1966E+01  0.4408E+02
     -3.587  0.4587E+01  0.4453E+02
     -3.490  0.7638E+01  0.4527E+02
     -3.393  0.5589E+01  0.4581E+02
     -3.295  0.3238E+01  0.4613E+02
     -3.198  0.6657E-01  0.4614E+02
     -3.101  0.3830E+01  0.4651E+02
     -3.004  0.4502E+01  0.4694E+02
     -2.907  0.4764E+01  0.4741E+02
     -2.810  0.1979E+01  0.4760E+02
     -2.713  0.8806E-02  0.4760E+02
     -2.615  0.1473E+01  0.4774E+02
     -2.518  0.2606E+01  0.4800E+02
     -2.421  0.3527E-01  0.4800E+02
     -2.324  0.5968E-06  0.4800E+02
     -2.227  0.7010E-14  0.4800E+02
     -2.130  0.0000E+00  0.4800E+02
     -2.033  0.0000E+00  0.4800E+02
     -1.936  0.0000E+00  0.4800E+02
     -1.838  0.0000E+00  0.4800E+02
     -1.741  0.0000E+00  0.4800E+02
     -1.644  0.7742E-13  0.4800E+02
     -1.547  0.1991E-05  0.4800E+02
     -1.450  0.3676E-01  0.4800E+02
     -1.353  0.1052E+01  0.4811E+02
     -1.256  0.8299E+00  0.4819E+02
     -1.159  0.2451E+01  0.4842E+02
     -1.061  0.3360E+01  0.4875E+02
     -0.964  0.2416E+01  0.4899E+02
     -0.867  0.3407E+01  0.4932E+02
     -0.770  0.5038E+01  0.4981E+02
     -0.673  0.3025E+01  0.5010E+02
     -0.576  0.3480E+00  0.5013E+02
     -0.479  0.2126E+00  0.5015E+02
     -0.381  0.4444E+01  0.5059E+02
     -0.284  0.6178E+01  0.5119E+02
     -0.187  0.4993E+00  0.5123E+02
     -0.090  0.7046E+01  0.5192E+02
      0.007  0.4852E+01  0.5239E+02
      0.104  0.7584E+01  0.5313E+02
      0.201  0.8593E+00  0.5321E+02
      0.298  0.6758E+01  0.5387E+02
      0.396  0.1054E+02  0.5489E+02
      0.493  0.4471E+01  0.5532E+02
      0.590  0.2158E+00  0.5535E+02
      0.687  0.2668E+01  0.5560E+02
      0.784  0.3195E+01  0.5591E+02
      0.881  0.5130E+01  0.5641E+02
      0.978  0.6425E+01  0.5704E+02
      1.076  0.8148E+01  0.5783E+02
      1.173  0.5825E+01  0.5839E+02
      1.270  0.7845E+01  0.5916E+02
      1.367  0.5490E+01  0.5969E+02
      1.464  0.8381E+01  0.6050E+02
      1.561  0.4201E+01  0.6091E+02
      1.658  0.5237E+01  0.6142E+02
      1.755  0.9721E+00  0.6151E+02
      1.853  0.5024E+01  0.6200E+02
      1.950  0.3519E+01  0.6234E+02
      2.047  0.8534E+01  0.6317E+02
      2.144  0.3181E+01  0.6348E+02
      2.241  0.2330E+01  0.6371E+02
      2.338  0.2508E+00  0.6373E+02
      2.435  0.3083E-03  0.6373E+02
      2.532  0.4360E+00  0.6378E+02
      2.630  0.2199E+01  0.6399E+02
      2.727  0.1104E+00  0.6400E+02
      2.824  0.9525E-05  0.6400E+02
      2.921  0.6029E-12  0.6400E+02
      3.018  0.0000E+00  0.6400E+02
      3.115  0.0000E+00  0.6400E+02
      3.212  0.0000E+00  0.6400E+02
      3.310  0.0000E+00  0.6400E+02
      3.407  0.0000E+00  0.6400E+02
      3.504  0.0000E+00  0.6400E+02
      3.601  0.0000E+00  0.6400E+02
      3.698  0.0000E+00  0.6400E+02
      3.795  0.0000E+00  0.6400E+02
      3.892  0.0000E+00  0.6400E+02
