   15   15    1    1
  0.6103469E+02  0.6019200E-09  0.1014000E-08  0.1500000E-08  0.3500000E-15
   1.0000000000000000E-004
  CAR 
 Al2C                                    
     48      8     32

  0.3742002E-15  0.3742002E-15  0.1262379E-14  0.6666667E-01
    1      -23.922505   1.000000
    2      -16.587408   1.000000
    3      -15.528722   1.000000
    4      -14.395283   1.000000
    5      -13.245878   1.000000
    6      -10.886351   1.000000
    7      -10.015391   1.000000
    8       -9.699139   1.000000
    9       -9.537668   1.000000
   10       -8.555910   1.000000
   11       -7.673642   1.000000
   12       -6.899988   1.000000
   13       -6.747468   1.000000
   14       -6.492958   1.000000
   15       -5.989260   1.000000
   16       -5.626800   1.000000
   17       -5.359876   1.000000
   18       -5.052338   1.000000
   19       -4.375463   1.000000
   20       -4.119107   1.000000
   21       -3.688897   1.000000
   22       -3.521182   1.000000
   23       -2.917097   1.000000
   24       -2.604251   1.000000
   25       -1.381646   0.000000
   26       -0.778309   0.000000
   27        0.012676   0.000000
   28        0.316676   0.000000
   29        0.368318   0.000000
   30        0.858620   0.000000
   31        1.276795   0.000000
   32        1.837062   0.000000

  0.2000000E+00  0.3742002E-15  0.1262379E-14  0.1333333E+00
    1      -23.922415   1.000000
    2      -16.506844   1.000000
    3      -15.393805   1.000000
    4      -14.608462   1.000000
    5      -13.644053   1.000000
    6      -10.844303   1.000000
    7       -9.734537   1.000000
    8       -9.410707   1.000000
    9       -9.102176   1.000000
   10       -8.344864   1.000000
   11       -7.579202   1.000000
   12       -7.418768   1.000000
   13       -6.713356   1.000000
   14       -6.471443   1.000000
   15       -6.186452   1.000000
   16       -5.780980   1.000000
   17       -5.214280   1.000000
   18       -4.876177   1.000000
   19       -4.500300   1.000000
   20       -4.279187   1.000000
   21       -4.139074   1.000000
   22       -4.016903   1.000000
   23       -3.101592   1.000000
   24       -2.917824   1.000000
   25       -1.225752   0.000000
   26       -0.053504   0.000000
   27        0.045612   0.000000
   28        0.419740   0.000000
   29        0.649727   0.000000
   30        1.031803   0.000000
   31        1.262743   0.000000
   32        2.070271   0.000000

  0.4000000E+00  0.3742002E-15  0.1262379E-14  0.1333333E+00
    1      -23.922228   1.000000
    2      -16.340795   1.000000
    3      -15.031617   1.000000
    4      -14.928912   1.000000
    5      -14.363125   1.000000
    6      -10.789294   1.000000
    7       -9.348363   1.000000
    8       -9.104429   1.000000
    9       -8.300228   1.000000
   10       -7.745384   1.000000
   11       -7.630154   1.000000
   12       -7.241777   1.000000
   13       -6.777702   1.000000
   14       -6.581494   1.000000
   15       -6.305376   1.000000
   16       -5.986274   1.000000
   17       -5.774333   1.000000
   18       -5.609122   1.000000
   19       -5.171829   1.000000
   20       -4.741059   1.000000
   21       -4.250176   1.000000
   22       -3.926802   1.000000
   23       -3.461826   1.000000
   24       -2.943308   1.000000
   25       -0.821821   0.000000
   26       -0.357326   0.000000
   27        0.279848   0.000000
   28        0.986609   0.000000
   29        1.419080   0.000000
   30        1.558845   0.000000
   31        1.941767   0.000000
   32        2.193994   0.000000

  0.3742002E-15  0.3333333E+00  0.1262379E-14  0.1333333E+00
    1      -23.922561   1.000000
    2      -16.585445   1.000000
    3      -15.532794   1.000000
    4      -14.397287   1.000000
    5      -13.246805   1.000000
    6      -10.859918   1.000000
    7       -9.927049   1.000000
    8       -9.748106   1.000000
    9       -9.399923   1.000000
   10       -8.707854   1.000000
   11       -8.255943   1.000000
   12       -6.793904   1.000000
   13       -6.639764   1.000000
   14       -6.064482   1.000000
   15       -5.714340   1.000000
   16       -5.527705   1.000000
   17       -5.330283   1.000000
   18       -4.852142   1.000000
   19       -4.411954   1.000000
   20       -4.207358   1.000000
   21       -4.081467   1.000000
   22       -3.618026   1.000000
   23       -3.521273   1.000000
   24       -2.601876   1.000000
   25       -1.116790   0.000000
   26       -0.427996   0.000000
   27       -0.125111   0.000000
   28        0.320526   0.000000
   29        0.721751   0.000000
   30        0.993804   0.000000
   31        1.444065   0.000000
   32        1.790384   0.000000

  0.2000000E+00  0.3333333E+00  0.1262379E-14  0.1333333E+00
    1      -23.922330   1.000000
    2      -16.505181   1.000000
    3      -15.396573   1.000000
    4      -14.610603   1.000000
    5      -13.645903   1.000000
    6      -10.824928   1.000000
    7       -9.644238   1.000000
    8       -9.307220   1.000000
    9       -9.126358   1.000000
   10       -8.497047   1.000000
   11       -8.121616   1.000000
   12       -7.209787   1.000000
   13       -6.695178   1.000000
   14       -6.505145   1.000000
   15       -5.887061   1.000000
   16       -5.385373   1.000000
   17       -5.175533   1.000000
   18       -4.899825   1.000000
   19       -4.399162   1.000000
   20       -4.309846   1.000000
   21       -4.173232   1.000000
   22       -4.071919   1.000000
   23       -3.523053   1.000000
   24       -3.094348   1.000000
   25       -0.934771   0.000000
   26       -0.355452   0.000000
   27        0.050585   0.000000
   28        0.414752   0.000000
   29        0.875687   0.000000
   30        1.181936   0.000000
   31        1.317737   0.000000
   32        1.998650   0.000000

  0.4000000E+00  0.3333333E+00  0.1262379E-14  0.1333333E+00
    1      -23.922184   1.000000
    2      -16.339924   1.000000
    3      -15.008800   1.000000
    4      -14.953115   1.000000
    5      -14.368010   1.000000
    6      -10.779394   1.000000
    7       -9.353434   1.000000
    8       -8.887961   1.000000
    9       -8.193084   1.000000
   10       -7.889287   1.000000
   11       -7.670878   1.000000
   12       -7.591729   1.000000
   13       -7.230752   1.000000
   14       -6.662060   1.000000
   15       -6.067853   1.000000
   16       -5.930088   1.000000
   17       -5.784621   1.000000
   18       -4.996280   1.000000
   19       -4.724261   1.000000
   20       -4.587747   1.000000
   21       -4.256349   1.000000
   22       -3.950724   1.000000
   23       -3.820058   1.000000
   24       -3.372175   1.000000
   25       -0.713330   0.000000
   26       -0.364090   0.000000
   27        0.273403   0.000000
   28        1.017570   0.000000
   29        1.204773   0.000000
   30        1.436251   0.000000
   31        1.623473   0.000000
   32        2.014987   0.000000

 -0.4000000E+00  0.3333333E+00  0.1262379E-14  0.1333333E+00
    1      -23.922167   1.000000
    2      -16.339901   1.000000
    3      -15.012343   1.000000
    4      -14.949250   1.000000
    5      -14.368339   1.000000
    6      -10.778583   1.000000
    7       -9.389647   1.000000
    8       -8.810318   1.000000
    9       -8.181519   1.000000
   10       -7.967860   1.000000
   11       -7.679481   1.000000
   12       -7.605983   1.000000
   13       -7.203997   1.000000
   14       -6.624094   1.000000
   15       -6.072961   1.000000
   16       -5.915718   1.000000
   17       -5.800069   1.000000
   18       -5.050653   1.000000
   19       -4.731578   1.000000
   20       -4.526003   1.000000
   21       -4.256347   1.000000
   22       -3.953868   1.000000
   23       -3.802836   1.000000
   24       -3.396627   1.000000
   25       -0.854557   0.000000
   26       -0.126748   0.000000
   27        0.298541   0.000000
   28        0.919098   0.000000
   29        1.162551   0.000000
   30        1.574368   0.000000
   31        1.997362   0.000000
   32        2.567811   0.000000

 -0.2000000E+00  0.3333333E+00  0.1262379E-14  0.1333333E+00
    1      -23.922351   1.000000
    2      -16.505153   1.000000
    3      -15.396752   1.000000
    4      -14.610289   1.000000
    5      -13.646024   1.000000
    6      -10.822734   1.000000
    7       -9.704443   1.000000
    8       -9.221800   1.000000
    9       -9.101236   1.000000
   10       -8.558034   1.000000
   11       -8.115552   1.000000
   12       -7.239718   1.000000
   13       -6.690902   1.000000
   14       -6.455740   1.000000
   15       -5.884238   1.000000
   16       -5.437133   1.000000
   17       -5.182041   1.000000
   18       -4.894868   1.000000
   19       -4.398268   1.000000
   20       -4.290897   1.000000
   21       -4.136049   1.000000
   22       -4.025248   1.000000
   23       -3.594942   1.000000
   24       -3.098752   1.000000
   25       -1.049991   0.000000
   26       -0.127229   0.000000
   27        0.069000   0.000000
   28        0.342314   0.000000
   29        0.813114   0.000000
   30        1.145042   0.000000
   31        1.384117   0.000000
   32        1.833070   0.000000
