       N       E                     dE             d eps       ncg     rms          ort
DAV:   1     0.605639364841E+03    0.60564E+03   -0.11568E+04   256   0.962E+02
DAV:   2     0.295590226802E+03   -0.31005E+03   -0.29083E+03   256   0.271E+02
DAV:   3     0.144783184142E+03   -0.15081E+03   -0.14247E+03   256   0.214E+02
DAV:   4     0.687356339294E+02   -0.76048E+02   -0.72142E+02   256   0.159E+02
DAV:   5     0.292806590290E+02   -0.39455E+02   -0.37757E+02   256   0.108E+02
DAV:   6     0.841654045781E+01   -0.20864E+02   -0.20081E+02   256   0.773E+01
DAV:   7    -0.272407025236E+01   -0.11141E+02   -0.10721E+02   256   0.530E+01
SDA:   8    -0.681291313442E+02   -0.65405E+02   -0.26333E+02   256   0.658E+02 0.000E+00
DMP:   9    -0.817660588292E+02   -0.13637E+02   -0.49209E+01   256   0.117E+02 0.162E+01
DMP:  10    -0.844320340476E+02   -0.26660E+01   -0.34367E+01   256   0.834E+01 0.658E+00
DMP:  11    -0.864516337251E+02   -0.20196E+01   -0.94598E+00   256   0.187E+01 0.129E+01
DMP:  12    -0.870023097301E+02   -0.55068E+00   -0.57818E+00   256   0.136E+01 0.222E+00
DMP:  13    -0.874310058384E+02   -0.42870E+00   -0.29795E+00   256   0.512E+00 0.611E+00
DMP:  14    -0.876241744151E+02   -0.19317E+00   -0.10510E+00   256   0.194E+00 0.180E+00
DMP:  15    -0.877019772391E+02   -0.77803E-01   -0.55254E-01   256   0.954E-01 0.112E+00
DMP:  16    -0.877423311207E+02   -0.40354E-01   -0.22161E-01   256   0.329E-01 0.589E-01
DMP:  17    -0.877588420258E+02   -0.16511E-01   -0.10604E-01   256   0.168E-01 0.255E-01
DMP:  18    -0.877669460623E+02   -0.81040E-02   -0.47516E-02   256   0.676E-02 0.134E-01
DMP:  19    -0.877704426853E+02   -0.34966E-02   -0.18301E-02   256   0.252E-02 0.538E-02
DMP:  20    -0.877718424417E+02   -0.13998E-02   -0.79318E-03   256   0.109E-02 0.235E-02
DMP:  21    -0.877724521004E+02   -0.60966E-03   -0.32189E-03   256   0.408E-03 0.104E-02
DMP:  22    -0.877726985626E+02   -0.24646E-03   -0.13369E-03   256   0.174E-03 0.419E-03
DMP:  23    -0.877728013877E+02   -0.10283E-03   -0.56229E-04   256   0.726E-04 0.178E-03
DMP:  24    -0.877728438547E+02   -0.42467E-04   -0.21781E-04   256   0.271E-04 0.715E-04
DMP:  25    -0.877728604435E+02   -0.16589E-04   -0.87028E-05   256   0.109E-04 0.284E-04
DMP:  26    -0.877728672050E+02   -0.67615E-05   -0.36323E-05   256   0.448E-05 0.120E-04
   1 F= -.87772867E+02 E0= -.87772867E+02  d E =-.301023E-12
