<?xml version="1.0" encoding="ISO-8859-1"?>
<modeling>
 <generator>
  <i name="program" type="string">vasp </i>
  <i name="version" type="string">5.4.4.18Apr17-6-g9f103f2a35  </i>
  <i name="subversion" type="string">(build Dec  6 2019 17:49:40) complex            parallel </i>
  <i name="platform" type="string">LinuxGNU </i>
  <i name="date" type="string">2022 05 24 </i>
  <i name="time" type="string">15:19:31 </i>
 </generator>
 <incar>
  <i type="string" name="SYSTEM"> Al2C</i>
  <i type="int" name="ISTART">     0</i>
  <i type="string" name="PREC">accurate</i>
  <i type="string" name="ALGO">Damped</i>
  <i type="int" name="NSIM">     4</i>
  <i type="int" name="NELM">   300</i>
  <i type="int" name="NELMDL">    -7</i>
  <i type="int" name="IBRION">    -1</i>
  <i name="EDIFF">      0.00001000</i>
  <i name="EDIFFG">     -0.01000000</i>
  <i type="int" name="NSW">     0</i>
  <i type="int" name="ISIF">     2</i>
  <i type="int" name="ISYM">     0</i>
  <i name="ENCUT">    450.00000000</i>
  <i name="POTIM">      0.35000000</i>
  <i type="string" name="LREAL"> auto</i>
  <v name="ROPT">     -0.00020000     -0.00020000     -0.00020000     -0.00020000</v>
  <i type="logical" name="LPLANE"> T  </i>
  <i name="TIME">      0.40000000</i>
  <i type="int" name="ISMEAR">     0</i>
  <i name="SIGMA">      0.05000000</i>
  <i type="int" name="NWRITE">     2</i>
  <i type="logical" name="LWAVE"> F  </i>
  <i type="logical" name="LCHARG"> T  </i>
  <i type="logical" name="LSCALU"> F  </i>
  <v type="int" name="KPOINT_BSE">    -1     0     0     0</v>
  <i type="int" name="NELM">   300</i>
  <i type="logical" name="LHFCALC"> T  </i>
  <i type="string" name="GGA"> PE</i>
  <i name="HFSCREEN">      0.20000000</i>
 </incar>
 <structure name="primitive_cell" >
  <crystal>
   <varray name="basis" >
    <v>       6.01920000       0.00000000       0.00000000 </v>
    <v>       0.00000000      10.14000000       0.00000000 </v>
    <v>       0.00000000       0.00000000      15.00000000 </v>
   </varray>
   <i name="volume">    915.52032000 </i>
   <varray name="rec_basis" >
    <v>       0.16613503       0.00000000       0.00000000 </v>
    <v>       0.00000000       0.09861933       0.00000000 </v>
    <v>       0.00000000       0.00000000       0.06666667 </v>
   </varray>
  </crystal>
  <varray name="positions" >
   <v>       0.45224472      -0.18233252       0.30490364 </v>
   <v>       0.39354664      -0.22475179       0.41630028 </v>
   <v>       0.21994571      -0.05499907       0.25459580 </v>
   <v>      -0.27678264      -0.04721061       0.29870191 </v>
   <v>       0.35471462      -0.15868278       0.46043238 </v>
   <v>      -0.26282636      -0.02794504       0.37179176 </v>
   <v>       0.46695928       0.06562423       0.25385514 </v>
   <v>       0.47521060      -0.42899929       0.25030965 </v>
   <v>      -0.02722156      -0.17813237       0.26998482 </v>
   <v>      -0.01764340       0.07262052       0.26165102 </v>
   <v>      -0.02575483      -0.43238753       0.24668356 </v>
   <v>       0.22504568       0.44681666       0.23592346 </v>
   <v>      -0.27571360       0.44535422       0.24328937 </v>
   <v>       0.47388416       0.32551825       0.23601972 </v>
   <v>      -0.02434814       0.32570059       0.23975749 </v>
  </varray>
 </structure>
 <varray name="primitive_index" >
  <v type="int" >        1 </v>
  <v type="int" >       13 </v>
  <v type="int" >        9 </v>
  <v type="int" >       10 </v>
  <v type="int" >       15 </v>
  <v type="int" >       14 </v>
  <v type="int" >        7 </v>
  <v type="int" >        3 </v>
  <v type="int" >        2 </v>
  <v type="int" >        8 </v>
  <v type="int" >        4 </v>
  <v type="int" >       11 </v>
  <v type="int" >       12 </v>
  <v type="int" >        5 </v>
  <v type="int" >        6 </v>
 </varray>
 <kpoints>
  <generation param="Gamma">
   <v type="int" name="divisions">       5        3        1 </v>
   <v name="usershift">      0.00000000       0.00000000       0.00000000 </v>
   <v name="genvec1">      0.20000000       0.00000000       0.00000000 </v>
   <v name="genvec2">      0.00000000       0.33333333       0.00000000 </v>
   <v name="genvec3">      0.00000000       0.00000000       1.00000000 </v>
   <v name="shift">      0.00000000       0.00000000       0.00000000 </v>
  </generation>
  <varray name="kpointlist" >
   <v>       0.00000000       0.00000000       0.00000000 </v>
   <v>       0.20000000       0.00000000       0.00000000 </v>
   <v>       0.40000000       0.00000000       0.00000000 </v>
   <v>       0.00000000       0.33333333       0.00000000 </v>
   <v>       0.20000000       0.33333333       0.00000000 </v>
   <v>       0.40000000       0.33333333       0.00000000 </v>
   <v>      -0.40000000       0.33333333       0.00000000 </v>
   <v>      -0.20000000       0.33333333       0.00000000 </v>
  </varray>
  <varray name="weights" >
   <v>       0.06666667 </v>
   <v>       0.13333333 </v>
   <v>       0.13333333 </v>
   <v>       0.13333333 </v>
   <v>       0.13333333 </v>
   <v>       0.13333333 </v>
   <v>       0.13333333 </v>
   <v>       0.13333333 </v>
  </varray>
 </kpoints>
 <parameters>
  <separator name="general" >
   <i type="string" name="SYSTEM">Al2C</i>
   <i type="logical" name="LCOMPAT"> F  </i>
  </separator>
  <separator name="electronic" >
   <i type="string" name="PREC">accura</i>
   <i name="ENMAX">    450.00000000</i>
   <i name="ENAUG">   1139.60900000</i>
   <i name="EDIFF">      0.00001000</i>
   <i type="int" name="IALGO">    53</i>
   <i type="int" name="IWAVPR">    10</i>
   <i type="int" name="NBANDS">    32</i>
   <i name="NELECT">     48.00000000</i>
   <i type="int" name="TURBO">     0</i>
   <i type="int" name="IRESTART">     0</i>
   <i type="int" name="NREBOOT">     0</i>
   <i type="int" name="NMIN">     0</i>
   <i name="EREF">      0.00000000</i>
   <separator name="electronic smearing" >
    <i type="int" name="ISMEAR">     0</i>
    <i name="SIGMA">      0.05000000</i>
    <i name="KSPACING">      0.50000000</i>
    <i type="logical" name="KGAMMA"> T  </i>
   </separator>
   <separator name="electronic projectors" >
    <i type="logical" name="LREAL"> T  </i>
    <v name="ROPT">     -0.00020000     -0.00020000     -0.00020000     -0.00020000</v>
    <i type="int" name="LMAXPAW">  -100</i>
    <i type="int" name="LMAXMIX">     2</i>
    <i type="logical" name="NLSPLINE"> F  </i>
   </separator>
   <separator name="electronic startup" >
    <i type="int" name="ISTART">     0</i>
    <i type="int" name="ICHARG">     2</i>
    <i type="int" name="INIWAV">     1</i>
   </separator>
   <separator name="electronic spin" >
    <i type="int" name="ISPIN">     1</i>
    <i type="logical" name="LNONCOLLINEAR"> F  </i>
    <v name="MAGMOM">      1.00000000      1.00000000      1.00000000      1.00000000      1.00000000      1.00000000      1.00000000      1.00000000      1.00000000      1.00000000      1.00000000      1.00000000      1.00000000      1.00000000      1.00000000</v>
    <i name="NUPDOWN">     -1.00000000</i>
    <i type="logical" name="LSORBIT"> F  </i>
    <v name="SAXIS">      0.00000000      0.00000000      1.00000000</v>
    <i type="logical" name="LSPIRAL"> F  </i>
    <v name="QSPIRAL">      0.00000000      0.00000000      0.00000000</v>
    <i type="logical" name="LZEROZ"> F  </i>
   </separator>
   <separator name="electronic exchange-correlation" >
    <i type="logical" name="LASPH"> F  </i>
    <i type="logical" name="LMETAGGA"> F  </i>
   </separator>
   <separator name="electronic convergence" >
    <i type="int" name="NELM">   300</i>
    <i type="int" name="NELMDL">    -7</i>
    <i type="int" name="NELMIN">     2</i>
    <i name="ENINI">    450.00000000</i>
    <separator name="electronic convergence detail" >
     <i type="logical" name="LDIAG"> T  </i>
     <i type="logical" name="LSUBROT"> F  </i>
     <i name="WEIMIN">      0.00000000</i>
     <i name="EBREAK">      0.00000008</i>
     <i name="DEPER">      0.30000000</i>
     <i type="int" name="NRMM">     4</i>
     <i name="TIME">      0.40000000</i>
    </separator>
   </separator>
   <separator name="electronic mixer" >
    <i name="AMIX">      0.40000000</i>
    <i name="BMIX">      1.00000000</i>
    <i name="AMIN">      0.10000000</i>
    <i name="AMIX_MAG">      1.60000000</i>
    <i name="BMIX_MAG">      1.00000000</i>
    <separator name="electronic mixer details" >
     <i type="int" name="IMIX">     4</i>
     <i type="logical" name="MIXFIRST"> F  </i>
     <i type="int" name="MAXMIX">   -45</i>
     <i name="WC">    100.00000000</i>
     <i type="int" name="INIMIX">     1</i>
     <i type="int" name="MIXPRE">     1</i>
     <i type="int" name="MREMOVE">     5</i>
    </separator>
   </separator>
   <separator name="electronic dipolcorrection" >
    <i type="logical" name="LDIPOL"> F  </i>
    <i type="logical" name="LMONO"> F  </i>
    <i type="int" name="IDIPOL">     0</i>
    <i name="EPSILON">      1.00000000</i>
    <v name="DIPOL">   -100.00000000   -100.00000000   -100.00000000</v>
    <i name="EFIELD">      0.00000000</i>
   </separator>
  </separator>
  <separator name="grids" >
   <i type="int" name="NGX">    42</i>
   <i type="int" name="NGY">    70</i>
   <i type="int" name="NGZ">   108</i>
   <i type="int" name="NGXF">    84</i>
   <i type="int" name="NGYF">   140</i>
   <i type="int" name="NGZF">   216</i>
   <i type="logical" name="ADDGRID"> F  </i>
  </separator>
  <separator name="ionic" >
   <i type="int" name="NSW">     0</i>
   <i type="int" name="IBRION">    -1</i>
   <i type="int" name="MDALGO">     0</i>
   <i type="int" name="ISIF">     2</i>
   <i name="PSTRESS">      0.00000000</i>
   <i name="EDIFFG">     -0.01000000</i>
   <i type="int" name="NFREE">     0</i>
   <i name="POTIM">      0.35000000</i>
   <i name="SMASS">     -3.00000000</i>
   <i name="SCALEE">      1.00000000</i>
  </separator>
  <separator name="ionic md" >
   <i name="TEBEG">      0.00010000</i>
   <i name="TEEND">      0.00010000</i>
   <i type="int" name="NBLOCK">     1</i>
   <i type="int" name="KBLOCK">     1</i>
   <i type="int" name="NPACO">   256</i>
   <i name="APACO">     16.00000000</i>
  </separator>
  <separator name="symmetry" >
   <i type="int" name="ISYM">     0</i>
   <i name="SYMPREC">      0.00001000</i>
  </separator>
  <separator name="dos" >
   <i type="int" name="LORBIT">     0</i>
   <v name="RWIGS">     -1.00000000     -1.00000000     -1.00000000     -1.00000000</v>
   <i type="int" name="NEDOS">   301</i>
   <i name="EMIN">     10.00000000</i>
   <i name="EMAX">    -10.00000000</i>
   <i name="EFERMI">      0.00000000</i>
  </separator>
  <separator name="writing" >
   <i type="int" name="NWRITE">     2</i>
   <i type="logical" name="LWAVE"> F  </i>
   <i type="logical" name="LDOWNSAMPLE"> F  </i>
   <i type="logical" name="LCHARG"> T  </i>
   <i type="logical" name="LPARD"> F  </i>
   <i type="logical" name="LVTOT"> F  </i>
   <i type="logical" name="LVHAR"> F  </i>
   <i type="logical" name="LELF"> F  </i>
   <i type="logical" name="LOPTICS"> F  </i>
   <v name="STM">      0.00000000      0.00000000      0.00000000      0.00000000      0.00000000      0.00000000      0.00000000</v>
  </separator>
  <separator name="performance" >
   <i type="int" name="NPAR">     4</i>
   <i type="int" name="NSIM">     4</i>
   <i type="int" name="NBLK">    -1</i>
   <i type="logical" name="LPLANE"> T  </i>
   <i type="logical" name="LSCALAPACK"> T  </i>
   <i type="logical" name="LSCAAWARE"> F  </i>
   <i type="logical" name="LSCALU"> F  </i>
   <i type="logical" name="LASYNC"> F  </i>
   <i type="logical" name="LORBITALREAL"> F  </i>
  </separator>
  <separator name="miscellaneous" >
   <i type="int" name="IDIOT">     3</i>
   <i type="int" name="ISPECIAL">     0</i>
   <i type="logical" name="LMUSIC"> F  </i>
   <v name="POMASS">     26.98200000     12.01100000     16.00000000      1.00000000</v>
   <v name="DARWINR">      0.00000000      0.00000000      0.00000000      0.00000000</v>
   <v name="DARWINV">      1.00000000      1.00000000      1.00000000      1.00000000</v>
   <i type="logical" name="LCORR"> T  </i>
  </separator>
  <i type="logical" name="GGA_COMPAT"> T  </i>
  <i type="logical" name="LBERRY"> F  </i>
  <i type="int" name="ICORELEVEL">     0</i>
  <i type="logical" name="LDAU"> F  </i>
  <i type="int" name="I_CONSTRAINED_M">     0</i>
  <separator name="electronic exchange-correlation" >
   <i type="string" name="GGA">PE</i>
   <i type="int" name="VOSKOWN">     0</i>
   <i type="logical" name="LHFCALC"> T  </i>
   <i type="string" name="PRECFOCK">normal</i>
   <i type="logical" name="LSYMGRAD"> F  </i>
   <i type="logical" name="LHFONE"> F  </i>
   <i type="logical" name="LRHFCALC"> F  </i>
   <i type="logical" name="LTHOMAS"> F  </i>
   <i type="logical" name="LMODELHF"> F  </i>
   <i name="ENCUT4O">     -1.00000000</i>
   <i type="int" name="EXXOEP">     0</i>
   <i type="int" name="FOURORBIT">     0</i>
   <i name="AEXX">      0.25000000</i>
   <i name="HFALPHA">     -1.00000000</i>
   <i name="MCALPHA">      0.00000000</i>
   <i name="ALDAX">      0.75000000</i>
   <i name="AGGAX">      0.75000000</i>
   <i name="ALDAC">      1.00000000</i>
   <i name="AGGAC">      1.00000000</i>
   <i type="int" name="NKREDX">     1</i>
   <i type="int" name="NKREDY">     1</i>
   <i type="int" name="NKREDZ">     1</i>
   <i type="logical" name="SHIFTRED"> F  </i>
   <i type="logical" name="ODDONLY"> F  </i>
   <i type="logical" name="EVENONLY"> F  </i>
   <i type="int" name="LMAXFOCK">     4</i>
   <i type="int" name="NMAXFOCKAE">     1</i>
   <i type="logical" name="LFOCKAEDFT"> F  </i>
   <i name="HFSCREEN">      0.20000000</i>
   <i name="HFSCREENC">      0.20000000</i>
   <i type="int" name="NBANDSGWLOW">     1</i>
  </separator>
  <separator name="vdW DFT" >
   <i type="logical" name="LUSE_VDW"> F  </i>
   <i name="Zab_VDW">     -0.84910000</i>
   <i name="PARAM1">      0.12340000</i>
   <i name="PARAM2">      1.00000000</i>
   <i name="PARAM3">      0.00000000</i>
  </separator>
  <separator name="model GW" >
   <i type="int" name="MODEL_GW">     0</i>
   <i name="MODEL_EPS0">     36.62081280</i>
   <i name="MODEL_ALPHA">      1.00000000</i>
  </separator>
  <separator name="linear response parameters" >
   <i type="logical" name="LEPSILON"> F  </i>
   <i type="logical" name="LRPA"> F  </i>
   <i type="logical" name="LNABLA"> F  </i>
   <i type="logical" name="LVEL"> F  </i>
   <i type="int" name="KINTER">     0</i>
   <i name="CSHIFT">      0.10000000</i>
   <i name="OMEGAMAX">     -1.00000000</i>
   <i name="DEG_THRESHOLD">      0.00200000</i>
   <i name="RTIME">     -0.10000000</i>
   <i name="WPLASMAI">      0.00000000</i>
   <v name="DFIELD">      0.00000000      0.00000000      0.00000000</v>
   <v name="WPLASMA">      0.00000000      0.00000000      0.00000000      0.00000000      0.00000000      0.00000000      0.00000000      0.00000000      0.00000000</v>
  </separator>
  <separator name="orbital magnetization" >
   <i type="logical" name="NUCIND"> F  </i>
   <v name="MAGPOS">      0.00000000      0.00000000      0.00000000</v>
   <i type="logical" name="LNICSALL"> T  </i>
   <i type="logical" name="ORBITALMAG"> F  </i>
   <i type="logical" name="LMAGBLOCH"> F  </i>
   <i type="logical" name="LCHIMAG"> F  </i>
   <i type="logical" name="LGAUGE"> T  </i>
   <i type="int" name="MAGATOM">     0</i>
   <v name="MAGDIPOL">      0.00000000      0.00000000      0.00000000</v>
   <v name="AVECCONST">      0.00000000      0.00000000      0.00000000</v>
  </separator>
  <separator name="response functions" >
   <i type="logical" name="LADDER"> F  </i>
   <i type="logical" name="LRPAFORCE"> F  </i>
   <i type="logical" name="LFXC"> F  </i>
   <i type="logical" name="LHARTREE"> T  </i>
   <i type="int" name="IBSE">     0</i>
   <v type="int" name="KPOINT">    -1     0     0     0</v>
   <i type="logical" name="LTCTE"> F  </i>
   <i type="logical" name="LTETE"> F  </i>
   <i type="logical" name="LTRIPLET"> F  </i>
   <i type="logical" name="LFXCEPS"> F  </i>
   <i type="logical" name="LFXHEG"> F  </i>
   <i type="int" name="NATURALO">     2</i>
   <i type="logical" name="L2ORDER"> F  </i>
   <i type="logical" name="LMP2LT"> F  </i>
   <i type="logical" name="LUSEW"> F  </i>
   <i name="ENCUTGW">     -2.00000000</i>
   <i name="ENCUTGWSOFT">     -2.00000000</i>
   <i name="ENCUTLF">     -1.00000000</i>
   <i type="int" name="LMAXMP2">    -1</i>
   <i name="SCISSOR">      0.00000000</i>
   <i type="int" name="NOMEGA">     0</i>
   <i type="int" name="NOMEGAR">     0</i>
   <i type="int" name="NBANDSGW">    -1</i>
   <i type="int" name="NBANDSO">    -1</i>
   <i type="int" name="NBANDSV">    -1</i>
   <i type="int" name="NELM">   300</i>
   <i type="int" name="NELMHF">     1</i>
   <i type="int" name="DIM">     3</i>
   <i type="int" name="ANTIRES">     0</i>
   <i name="OMEGAMAX">    -30.00000000</i>
   <i name="OMEGAMIN">    -30.00000000</i>
   <i name="OMEGATL">   -200.00000000</i>
   <i type="int" name="OMEGAGRID">   140</i>
   <i name="CSHIFT">     -0.10000000</i>
   <i type="logical" name="SELFENERGY"> F  </i>
   <i type="logical" name="LSPECTRAL"> F  </i>
   <i type="logical" name="LSPECTRALGW"> F  </i>
   <i type="logical" name="LSINGLES"> F  </i>
   <i type="logical" name="LFERMIGW"> F  </i>
   <i type="logical" name="ODDONLYGW"> F  </i>
   <i type="logical" name="EVENONLYGW"> F  </i>
   <i type="int" name="NKREDLFX">     1</i>
   <i type="int" name="NKREDLFY">     1</i>
   <i type="int" name="NKREDLFZ">     1</i>
   <i type="int" name="MAXMEM">  2800</i>
   <i type="int" name="TELESCOPE">     0</i>
   <i type="int" name="TAUPAR">     1</i>
   <i type="int" name="OMEGAPAR">    -1</i>
   <i name="LAMBDA">      1.00000000</i>
  </separator>
  <separator name="External order field" >
   <i name="OFIELD_KAPPA">      0.00000000</i>
   <v name="OFIELD_K">      0.00000000      0.00000000      0.00000000</v>
   <i name="OFIELD_Q6_NEAR">      0.00000000</i>
   <i name="OFIELD_Q6_FAR">      0.00000000</i>
   <i name="OFIELD_A">      0.00000000</i>
  </separator>
 </parameters>
 <atominfo>
  <atoms>      15 </atoms>
  <types>       4 </types>
  <array name="atoms" >
   <dimension dim="1">ion</dimension>
   <field type="string">element</field>
   <field type="int">atomtype</field>
   <set>
    <rc><c>Al</c><c>   1</c></rc>
    <rc><c>Al</c><c>   1</c></rc>
    <rc><c>Al</c><c>   1</c></rc>
    <rc><c>Al</c><c>   1</c></rc>
    <rc><c>Al</c><c>   1</c></rc>
    <rc><c>Al</c><c>   1</c></rc>
    <rc><c>Al</c><c>   1</c></rc>
    <rc><c>Al</c><c>   1</c></rc>
    <rc><c>C </c><c>   2</c></rc>
    <rc><c>C </c><c>   2</c></rc>
    <rc><c>C </c><c>   2</c></rc>
    <rc><c>C </c><c>   2</c></rc>
    <rc><c>O </c><c>   3</c></rc>
    <rc><c>H </c><c>   4</c></rc>
    <rc><c>H </c><c>   4</c></rc>
   </set>
  </array>
  <array name="atomtypes" >
   <dimension dim="1">type</dimension>
   <field type="int">atomspertype</field>
   <field type="string">element</field>
   <field>mass</field>
   <field>valence</field>
   <field type="string">pseudopotential</field>
   <set>
    <rc><c>   8</c><c>Al</c><c>     26.98200000</c><c>      3.00000000</c><c>  PAW Al_GW 19Mar2012                   </c></rc>
    <rc><c>   4</c><c>C </c><c>     12.01100000</c><c>      4.00000000</c><c>  PAW C_GW 28Sep2005                    </c></rc>
    <rc><c>   1</c><c>O </c><c>     16.00000000</c><c>      6.00000000</c><c>  PAW O_GW 19Mar2012                    </c></rc>
    <rc><c>   2</c><c>H </c><c>      1.00000000</c><c>      1.00000000</c><c>  PAW H_GW 21Apr2008                    </c></rc>
   </set>
  </array>
 </atominfo>
 <structure name="initialpos" >
  <crystal>
   <varray name="basis" >
    <v>       6.01920000       0.00000000       0.00000000 </v>
    <v>       0.00000000      10.14000000       0.00000000 </v>
    <v>       0.00000000       0.00000000      15.00000000 </v>
   </varray>
   <i name="volume">    915.52032000 </i>
   <varray name="rec_basis" >
    <v>       0.16613503       0.00000000       0.00000000 </v>
    <v>       0.00000000       0.09861933       0.00000000 </v>
    <v>       0.00000000       0.00000000       0.06666667 </v>
   </varray>
  </crystal>
  <varray name="positions" >
   <v>       0.45224472       0.81766748       0.30490364 </v>
   <v>       0.97277844       0.82186763       0.26998482 </v>
   <v>       0.47521060       0.57100071       0.25030965 </v>
   <v>       0.97424517       0.56761247       0.24668356 </v>
   <v>       0.47388416       0.32551825       0.23601972 </v>
   <v>       0.97565186       0.32570059       0.23975749 </v>
   <v>       0.46695928       0.06562423       0.25385514 </v>
   <v>       0.98235660       0.07262052       0.26165102 </v>
   <v>       0.21994571       0.94500093       0.25459580 </v>
   <v>       0.72321736       0.95278939       0.29870191 </v>
   <v>       0.22504568       0.44681666       0.23592346 </v>
   <v>       0.72428640       0.44535422       0.24328937 </v>
   <v>       0.39354664       0.77524821       0.41630028 </v>
   <v>       0.73717364       0.97205496       0.37179176 </v>
   <v>       0.35471462       0.84131722       0.46043238 </v>
  </varray>
  <varray name="selective"  type="logical" >
   <v type="logical" >  T  T  T </v>
   <v type="logical" >  T  T  T </v>
   <v type="logical" >  T  T  T </v>
   <v type="logical" >  T  T  T </v>
   <v type="logical" >  T  T  T </v>
   <v type="logical" >  T  T  T </v>
   <v type="logical" >  T  T  T </v>
   <v type="logical" >  T  T  T </v>
   <v type="logical" >  T  T  T </v>
   <v type="logical" >  T  T  T </v>
   <v type="logical" >  T  T  T </v>
   <v type="logical" >  T  T  T </v>
   <v type="logical" >  T  T  T </v>
   <v type="logical" >  T  T  T </v>
   <v type="logical" >  T  T  T </v>
  </varray>
  <nose>
   <v>      -3.00000000       0.00000000       0.00010000       0.00010000 </v>
  </nose>
 </structure>
 <calculation>
  <scstep>
   <time name="total">   14.30   14.34</time>
   <energy>
    <i name="alphaZ">     13.47190266 </i>
    <i name="ewald">   1673.62626242 </i>
    <i name="hartreedc">  -2809.68085649 </i>
    <i name="XCdc">   -105.15803748 </i>
    <i name="pawpsdc">   1284.24795186 </i>
    <i name="pawaedc">  -1084.14519572 </i>
    <i name="eentropy">     -0.01210130 </i>
    <i name="bandstr">    174.47498104 </i>
    <i name="atom">   1458.81445786 </i>
    <i name="e_fr_energy">    605.63936484 </i>
    <i name="e_wo_entrp">    605.65146614 </i>
    <i name="e_0_energy">    605.64541549 </i>
   </energy>
  </scstep>
  <scstep>
   <time name="total">   15.45   15.47</time>
   <energy>
    <i name="e_fr_energy">    295.59022680 </i>
    <i name="e_wo_entrp">    295.59760252 </i>
    <i name="e_0_energy">    295.59391466 </i>
   </energy>
  </scstep>
  <scstep>
   <time name="total">   15.40   15.43</time>
   <energy>
    <i name="e_fr_energy">    144.78318414 </i>
    <i name="e_wo_entrp">    144.79545333 </i>
    <i name="e_0_energy">    144.78931873 </i>
   </energy>
  </scstep>
  <scstep>
   <time name="total">   15.44   15.48</time>
   <energy>
    <i name="e_fr_energy">     68.73563393 </i>
    <i name="e_wo_entrp">     68.73740696 </i>
    <i name="e_0_energy">     68.73652044 </i>
   </energy>
  </scstep>
  <scstep>
   <time name="total">   15.50   15.54</time>
   <energy>
    <i name="e_fr_energy">     29.28065903 </i>
    <i name="e_wo_entrp">     29.28397962 </i>
    <i name="e_0_energy">     29.28231933 </i>
   </energy>
  </scstep>
  <scstep>
   <time name="total">   15.40   15.45</time>
   <energy>
    <i name="e_fr_energy">      8.41654046 </i>
    <i name="e_wo_entrp">      8.41846797 </i>
    <i name="e_0_energy">      8.41750421 </i>
   </energy>
  </scstep>
  <scstep>
   <time name="total">   16.02   16.09</time>
   <energy>
    <i name="e_fr_energy">     -2.72407025 </i>
    <i name="e_wo_entrp">     -2.72407025 </i>
    <i name="e_0_energy">     -2.72407025 </i>
   </energy>
  </scstep>
  <scstep>
   <time name="total">  290.55  291.45</time>
   <energy>
    <i name="e_fr_energy">    -68.12913134 </i>
    <i name="e_wo_entrp">    -68.12913134 </i>
    <i name="e_0_energy">    -68.12913134 </i>
   </energy>
  </scstep>
  <scstep>
   <time name="total">  291.61  291.73</time>
   <energy>
    <i name="e_fr_energy">    -81.76605883 </i>
    <i name="e_wo_entrp">    -81.76605883 </i>
    <i name="e_0_energy">    -81.76605883 </i>
   </energy>
  </scstep>
  <scstep>
   <time name="total">  291.40  292.37</time>
   <energy>
    <i name="e_fr_energy">    -84.43203405 </i>
    <i name="e_wo_entrp">    -84.43203405 </i>
    <i name="e_0_energy">    -84.43203405 </i>
   </energy>
  </scstep>
  <scstep>
   <time name="total">  291.32  292.18</time>
   <energy>
    <i name="e_fr_energy">    -86.45163373 </i>
    <i name="e_wo_entrp">    -86.45163373 </i>
    <i name="e_0_energy">    -86.45163373 </i>
   </energy>
  </scstep>
  <scstep>
   <time name="total">  291.01  291.83</time>
   <energy>
    <i name="e_fr_energy">    -87.00230973 </i>
    <i name="e_wo_entrp">    -87.00230973 </i>
    <i name="e_0_energy">    -87.00230973 </i>
   </energy>
  </scstep>
  <scstep>
   <time name="total">  291.07  291.86</time>
   <energy>
    <i name="e_fr_energy">    -87.43100584 </i>
    <i name="e_wo_entrp">    -87.43100584 </i>
    <i name="e_0_energy">    -87.43100584 </i>
   </energy>
  </scstep>
  <scstep>
   <time name="total">  290.94  291.53</time>
   <energy>
    <i name="e_fr_energy">    -87.62417442 </i>
    <i name="e_wo_entrp">    -87.62417442 </i>
    <i name="e_0_energy">    -87.62417442 </i>
   </energy>
  </scstep>
  <scstep>
   <time name="total">  291.43  291.81</time>
   <energy>
    <i name="e_fr_energy">    -87.70197724 </i>
    <i name="e_wo_entrp">    -87.70197724 </i>
    <i name="e_0_energy">    -87.70197724 </i>
   </energy>
  </scstep>
  <scstep>
   <time name="total">  291.63  292.00</time>
   <energy>
    <i name="e_fr_energy">    -87.74233112 </i>
    <i name="e_wo_entrp">    -87.74233112 </i>
    <i name="e_0_energy">    -87.74233112 </i>
   </energy>
  </scstep>
  <scstep>
   <time name="total">  291.04  291.88</time>
   <energy>
    <i name="e_fr_energy">    -87.75884203 </i>
    <i name="e_wo_entrp">    -87.75884203 </i>
    <i name="e_0_energy">    -87.75884203 </i>
   </energy>
  </scstep>
  <scstep>
   <time name="total">  291.46  291.73</time>
   <energy>
    <i name="e_fr_energy">    -87.76694606 </i>
    <i name="e_wo_entrp">    -87.76694606 </i>
    <i name="e_0_energy">    -87.76694606 </i>
   </energy>
  </scstep>
  <scstep>
   <time name="total">  292.02  292.27</time>
   <energy>
    <i name="e_fr_energy">    -87.77044269 </i>
    <i name="e_wo_entrp">    -87.77044269 </i>
    <i name="e_0_energy">    -87.77044269 </i>
   </energy>
  </scstep>
  <scstep>
   <time name="total">  291.49  291.82</time>
   <energy>
    <i name="e_fr_energy">    -87.77184244 </i>
    <i name="e_wo_entrp">    -87.77184244 </i>
    <i name="e_0_energy">    -87.77184244 </i>
   </energy>
  </scstep>
  <scstep>
   <time name="total">  291.12  291.92</time>
   <energy>
    <i name="e_fr_energy">    -87.77245210 </i>
    <i name="e_wo_entrp">    -87.77245210 </i>
    <i name="e_0_energy">    -87.77245210 </i>
   </energy>
  </scstep>
  <scstep>
   <time name="total">  290.64  291.53</time>
   <energy>
    <i name="e_fr_energy">    -87.77269856 </i>
    <i name="e_wo_entrp">    -87.77269856 </i>
    <i name="e_0_energy">    -87.77269856 </i>
   </energy>
  </scstep>
  <scstep>
   <time name="total">  291.05  291.79</time>
   <energy>
    <i name="e_fr_energy">    -87.77280139 </i>
    <i name="e_wo_entrp">    -87.77280139 </i>
    <i name="e_0_energy">    -87.77280139 </i>
   </energy>
  </scstep>
  <scstep>
   <time name="total">  291.64  292.39</time>
   <energy>
    <i name="e_fr_energy">    -87.77284385 </i>
    <i name="e_wo_entrp">    -87.77284385 </i>
    <i name="e_0_energy">    -87.77284385 </i>
   </energy>
  </scstep>
  <scstep>
   <time name="total">  291.19  291.62</time>
   <energy>
    <i name="e_fr_energy">    -87.77286044 </i>
    <i name="e_wo_entrp">    -87.77286044 </i>
    <i name="e_0_energy">    -87.77286044 </i>
   </energy>
  </scstep>
  <scstep>
   <time name="total">  575.77  577.15</time>
   <energy>
    <i name="alphaZ">     13.47190266 </i>
    <i name="ewald">   1673.62626242 </i>
    <i name="hartreedc">  -3011.10028898 </i>
    <i name="XCdc">    -98.21108618 </i>
    <i name="pawpsdc">   2115.80747985 </i>
    <i name="pawaedc">  -1916.63874684 </i>
    <i name="eentropy">     -0.00000000 </i>
    <i name="bandstr">   -410.45265913 </i>
    <i name="atom">   1458.81445786 </i>
    <i name="e_fr_energy">    -87.77286721 </i>
    <i name="e_wo_entrp">    -87.77286721 </i>
    <i name="e_0_energy">    -87.77286721 </i>
   </energy>
  </scstep>
  <structure>
   <crystal>
    <varray name="basis" >
     <v>       6.01920000       0.00000000       0.00000000 </v>
     <v>       0.00000000      10.14000000       0.00000000 </v>
     <v>       0.00000000       0.00000000      15.00000000 </v>
    </varray>
    <i name="volume">    915.52032000 </i>
    <varray name="rec_basis" >
     <v>       0.16613503       0.00000000       0.00000000 </v>
     <v>       0.00000000       0.09861933       0.00000000 </v>
     <v>       0.00000000       0.00000000       0.06666667 </v>
    </varray>
   </crystal>
   <varray name="positions" >
    <v>       0.45224472       0.81766748       0.30490364 </v>
    <v>       0.97277844       0.82186763       0.26998482 </v>
    <v>       0.47521060       0.57100071       0.25030965 </v>
    <v>       0.97424517       0.56761247       0.24668356 </v>
    <v>       0.47388416       0.32551825       0.23601972 </v>
    <v>       0.97565186       0.32570059       0.23975749 </v>
    <v>       0.46695928       0.06562423       0.25385514 </v>
    <v>       0.98235660       0.07262052       0.26165102 </v>
    <v>       0.21994571       0.94500093       0.25459580 </v>
    <v>       0.72321736       0.95278939       0.29870191 </v>
    <v>       0.22504568       0.44681666       0.23592346 </v>
    <v>       0.72428640       0.44535422       0.24328937 </v>
    <v>       0.39354664       0.77524821       0.41630028 </v>
    <v>       0.73717364       0.97205496       0.37179176 </v>
    <v>       0.35471462       0.84131722       0.46043238 </v>
   </varray>
  </structure>
  <varray name="forces" >
   <v>      -0.07737508       0.03335565       0.26305190 </v>
   <v>       0.05164374       0.24048047      -0.00947673 </v>
   <v>       0.00006408      -0.21847637      -0.01741007 </v>
   <v>       0.00128525      -0.28400377      -0.00100623 </v>
   <v>       0.00515184       0.30681004       0.03610413 </v>
   <v>      -0.00637083       0.31923866       0.02437811 </v>
   <v>      -0.08079890      -0.25890046       0.07865360 </v>
   <v>       0.07183799      -0.28541359       0.05309222 </v>
   <v>      -0.07237349       0.11905323       0.10576370 </v>
   <v>       0.02923925       0.03802874       0.01002829 </v>
   <v>      -0.03339625      -0.05163186       0.04239489 </v>
   <v>       0.03401034      -0.04210831      -0.02717881 </v>
   <v>      -0.05967798       0.51173447       0.04163060 </v>
   <v>      -0.01251196      -0.02662652      -0.19124424 </v>
   <v>       0.14927199      -0.40154038      -0.40878137 </v>
  </varray>
  <varray name="stress" >
   <v>      -6.55895829      -0.19845997       0.46100112 </v>
   <v>      -0.19845983     -13.23059260      -0.05378179 </v>
   <v>       0.46100112      -0.05378183      -4.15171994 </v>
  </varray>
  <energy>
   <i name="e_fr_energy">    -87.77286721 </i>
   <i name="e_wo_entrp">    -87.77286721 </i>
   <i name="e_0_energy">     -0.00000000 </i>
  </energy>
  <time name="totalsc"> 6421.74 6441.96</time>
  <eigenvalues>
   <array>
    <dimension dim="1">band</dimension>
    <dimension dim="2">kpoint</dimension>
    <dimension dim="3">spin</dimension>
    <field>eigene</field>
    <field>occ</field>
    <set>
     <set comment="spin 1">
      <set comment="kpoint 1">
       <r>  -23.9225    1.0000 </r>
       <r>  -16.5874    1.0000 </r>
       <r>  -15.5287    1.0000 </r>
       <r>  -14.3953    1.0000 </r>
       <r>  -13.2459    1.0000 </r>
       <r>  -10.8864    1.0000 </r>
       <r>  -10.0154    1.0000 </r>
       <r>   -9.6991    1.0000 </r>
       <r>   -9.5377    1.0000 </r>
       <r>   -8.5559    1.0000 </r>
       <r>   -7.6736    1.0000 </r>
       <r>   -6.9000    1.0000 </r>
       <r>   -6.7475    1.0000 </r>
       <r>   -6.4930    1.0000 </r>
       <r>   -5.9893    1.0000 </r>
       <r>   -5.6268    1.0000 </r>
       <r>   -5.3599    1.0000 </r>
       <r>   -5.0523    1.0000 </r>
       <r>   -4.3755    1.0000 </r>
       <r>   -4.1191    1.0000 </r>
       <r>   -3.6889    1.0000 </r>
       <r>   -3.5212    1.0000 </r>
       <r>   -2.9171    1.0000 </r>
       <r>   -2.6043    1.0000 </r>
       <r>   -1.3816    0.0000 </r>
       <r>   -0.7783    0.0000 </r>
       <r>    0.0127    0.0000 </r>
       <r>    0.3167    0.0000 </r>
       <r>    0.3683    0.0000 </r>
       <r>    0.8586    0.0000 </r>
       <r>    1.2768    0.0000 </r>
       <r>    1.8371    0.0000 </r>
      </set>
      <set comment="kpoint 2">
       <r>  -23.9224    1.0000 </r>
       <r>  -16.5068    1.0000 </r>
       <r>  -15.3938    1.0000 </r>
       <r>  -14.6085    1.0000 </r>
       <r>  -13.6441    1.0000 </r>
       <r>  -10.8443    1.0000 </r>
       <r>   -9.7345    1.0000 </r>
       <r>   -9.4107    1.0000 </r>
       <r>   -9.1022    1.0000 </r>
       <r>   -8.3449    1.0000 </r>
       <r>   -7.5792    1.0000 </r>
       <r>   -7.4188    1.0000 </r>
       <r>   -6.7134    1.0000 </r>
       <r>   -6.4714    1.0000 </r>
       <r>   -6.1865    1.0000 </r>
       <r>   -5.7810    1.0000 </r>
       <r>   -5.2143    1.0000 </r>
       <r>   -4.8762    1.0000 </r>
       <r>   -4.5003    1.0000 </r>
       <r>   -4.2792    1.0000 </r>
       <r>   -4.1391    1.0000 </r>
       <r>   -4.0169    1.0000 </r>
       <r>   -3.1016    1.0000 </r>
       <r>   -2.9178    1.0000 </r>
       <r>   -1.2258    0.0000 </r>
       <r>   -0.0535    0.0000 </r>
       <r>    0.0456    0.0000 </r>
       <r>    0.4197    0.0000 </r>
       <r>    0.6497    0.0000 </r>
       <r>    1.0318    0.0000 </r>
       <r>    1.2627    0.0000 </r>
       <r>    2.0703    0.0000 </r>
      </set>
      <set comment="kpoint 3">
       <r>  -23.9222    1.0000 </r>
       <r>  -16.3408    1.0000 </r>
       <r>  -15.0316    1.0000 </r>
       <r>  -14.9289    1.0000 </r>
       <r>  -14.3631    1.0000 </r>
       <r>  -10.7893    1.0000 </r>
       <r>   -9.3484    1.0000 </r>
       <r>   -9.1044    1.0000 </r>
       <r>   -8.3002    1.0000 </r>
       <r>   -7.7454    1.0000 </r>
       <r>   -7.6302    1.0000 </r>
       <r>   -7.2418    1.0000 </r>
       <r>   -6.7777    1.0000 </r>
       <r>   -6.5815    1.0000 </r>
       <r>   -6.3054    1.0000 </r>
       <r>   -5.9863    1.0000 </r>
       <r>   -5.7743    1.0000 </r>
       <r>   -5.6091    1.0000 </r>
       <r>   -5.1718    1.0000 </r>
       <r>   -4.7411    1.0000 </r>
       <r>   -4.2502    1.0000 </r>
       <r>   -3.9268    1.0000 </r>
       <r>   -3.4618    1.0000 </r>
       <r>   -2.9433    1.0000 </r>
       <r>   -0.8218    0.0000 </r>
       <r>   -0.3573    0.0000 </r>
       <r>    0.2798    0.0000 </r>
       <r>    0.9866    0.0000 </r>
       <r>    1.4191    0.0000 </r>
       <r>    1.5588    0.0000 </r>
       <r>    1.9418    0.0000 </r>
       <r>    2.1940    0.0000 </r>
      </set>
      <set comment="kpoint 4">
       <r>  -23.9226    1.0000 </r>
       <r>  -16.5854    1.0000 </r>
       <r>  -15.5328    1.0000 </r>
       <r>  -14.3973    1.0000 </r>
       <r>  -13.2468    1.0000 </r>
       <r>  -10.8599    1.0000 </r>
       <r>   -9.9270    1.0000 </r>
       <r>   -9.7481    1.0000 </r>
       <r>   -9.3999    1.0000 </r>
       <r>   -8.7079    1.0000 </r>
       <r>   -8.2559    1.0000 </r>
       <r>   -6.7939    1.0000 </r>
       <r>   -6.6398    1.0000 </r>
       <r>   -6.0645    1.0000 </r>
       <r>   -5.7143    1.0000 </r>
       <r>   -5.5277    1.0000 </r>
       <r>   -5.3303    1.0000 </r>
       <r>   -4.8521    1.0000 </r>
       <r>   -4.4120    1.0000 </r>
       <r>   -4.2074    1.0000 </r>
       <r>   -4.0815    1.0000 </r>
       <r>   -3.6180    1.0000 </r>
       <r>   -3.5213    1.0000 </r>
       <r>   -2.6019    1.0000 </r>
       <r>   -1.1168    0.0000 </r>
       <r>   -0.4280    0.0000 </r>
       <r>   -0.1251    0.0000 </r>
       <r>    0.3205    0.0000 </r>
       <r>    0.7218    0.0000 </r>
       <r>    0.9938    0.0000 </r>
       <r>    1.4441    0.0000 </r>
       <r>    1.7904    0.0000 </r>
      </set>
      <set comment="kpoint 5">
       <r>  -23.9223    1.0000 </r>
       <r>  -16.5052    1.0000 </r>
       <r>  -15.3966    1.0000 </r>
       <r>  -14.6106    1.0000 </r>
       <r>  -13.6459    1.0000 </r>
       <r>  -10.8249    1.0000 </r>
       <r>   -9.6442    1.0000 </r>
       <r>   -9.3072    1.0000 </r>
       <r>   -9.1264    1.0000 </r>
       <r>   -8.4970    1.0000 </r>
       <r>   -8.1216    1.0000 </r>
       <r>   -7.2098    1.0000 </r>
       <r>   -6.6952    1.0000 </r>
       <r>   -6.5051    1.0000 </r>
       <r>   -5.8871    1.0000 </r>
       <r>   -5.3854    1.0000 </r>
       <r>   -5.1755    1.0000 </r>
       <r>   -4.8998    1.0000 </r>
       <r>   -4.3992    1.0000 </r>
       <r>   -4.3098    1.0000 </r>
       <r>   -4.1732    1.0000 </r>
       <r>   -4.0719    1.0000 </r>
       <r>   -3.5231    1.0000 </r>
       <r>   -3.0943    1.0000 </r>
       <r>   -0.9348    0.0000 </r>
       <r>   -0.3555    0.0000 </r>
       <r>    0.0506    0.0000 </r>
       <r>    0.4148    0.0000 </r>
       <r>    0.8757    0.0000 </r>
       <r>    1.1819    0.0000 </r>
       <r>    1.3177    0.0000 </r>
       <r>    1.9986    0.0000 </r>
      </set>
      <set comment="kpoint 6">
       <r>  -23.9222    1.0000 </r>
       <r>  -16.3399    1.0000 </r>
       <r>  -15.0088    1.0000 </r>
       <r>  -14.9531    1.0000 </r>
       <r>  -14.3680    1.0000 </r>
       <r>  -10.7794    1.0000 </r>
       <r>   -9.3534    1.0000 </r>
       <r>   -8.8880    1.0000 </r>
       <r>   -8.1931    1.0000 </r>
       <r>   -7.8893    1.0000 </r>
       <r>   -7.6709    1.0000 </r>
       <r>   -7.5917    1.0000 </r>
       <r>   -7.2308    1.0000 </r>
       <r>   -6.6621    1.0000 </r>
       <r>   -6.0679    1.0000 </r>
       <r>   -5.9301    1.0000 </r>
       <r>   -5.7846    1.0000 </r>
       <r>   -4.9963    1.0000 </r>
       <r>   -4.7243    1.0000 </r>
       <r>   -4.5877    1.0000 </r>
       <r>   -4.2563    1.0000 </r>
       <r>   -3.9507    1.0000 </r>
       <r>   -3.8201    1.0000 </r>
       <r>   -3.3722    1.0000 </r>
       <r>   -0.7133    0.0000 </r>
       <r>   -0.3641    0.0000 </r>
       <r>    0.2734    0.0000 </r>
       <r>    1.0176    0.0000 </r>
       <r>    1.2048    0.0000 </r>
       <r>    1.4363    0.0000 </r>
       <r>    1.6235    0.0000 </r>
       <r>    2.0150    0.0000 </r>
      </set>
      <set comment="kpoint 7">
       <r>  -23.9222    1.0000 </r>
       <r>  -16.3399    1.0000 </r>
       <r>  -15.0123    1.0000 </r>
       <r>  -14.9492    1.0000 </r>
       <r>  -14.3683    1.0000 </r>
       <r>  -10.7786    1.0000 </r>
       <r>   -9.3896    1.0000 </r>
       <r>   -8.8103    1.0000 </r>
       <r>   -8.1815    1.0000 </r>
       <r>   -7.9679    1.0000 </r>
       <r>   -7.6795    1.0000 </r>
       <r>   -7.6060    1.0000 </r>
       <r>   -7.2040    1.0000 </r>
       <r>   -6.6241    1.0000 </r>
       <r>   -6.0730    1.0000 </r>
       <r>   -5.9157    1.0000 </r>
       <r>   -5.8001    1.0000 </r>
       <r>   -5.0507    1.0000 </r>
       <r>   -4.7316    1.0000 </r>
       <r>   -4.5260    1.0000 </r>
       <r>   -4.2563    1.0000 </r>
       <r>   -3.9539    1.0000 </r>
       <r>   -3.8028    1.0000 </r>
       <r>   -3.3966    1.0000 </r>
       <r>   -0.8546    0.0000 </r>
       <r>   -0.1267    0.0000 </r>
       <r>    0.2985    0.0000 </r>
       <r>    0.9191    0.0000 </r>
       <r>    1.1626    0.0000 </r>
       <r>    1.5744    0.0000 </r>
       <r>    1.9974    0.0000 </r>
       <r>    2.5678    0.0000 </r>
      </set>
      <set comment="kpoint 8">
       <r>  -23.9224    1.0000 </r>
       <r>  -16.5052    1.0000 </r>
       <r>  -15.3968    1.0000 </r>
       <r>  -14.6103    1.0000 </r>
       <r>  -13.6460    1.0000 </r>
       <r>  -10.8227    1.0000 </r>
       <r>   -9.7044    1.0000 </r>
       <r>   -9.2218    1.0000 </r>
       <r>   -9.1012    1.0000 </r>
       <r>   -8.5580    1.0000 </r>
       <r>   -8.1156    1.0000 </r>
       <r>   -7.2397    1.0000 </r>
       <r>   -6.6909    1.0000 </r>
       <r>   -6.4557    1.0000 </r>
       <r>   -5.8842    1.0000 </r>
       <r>   -5.4371    1.0000 </r>
       <r>   -5.1820    1.0000 </r>
       <r>   -4.8949    1.0000 </r>
       <r>   -4.3983    1.0000 </r>
       <r>   -4.2909    1.0000 </r>
       <r>   -4.1360    1.0000 </r>
       <r>   -4.0252    1.0000 </r>
       <r>   -3.5949    1.0000 </r>
       <r>   -3.0988    1.0000 </r>
       <r>   -1.0500    0.0000 </r>
       <r>   -0.1272    0.0000 </r>
       <r>    0.0690    0.0000 </r>
       <r>    0.3423    0.0000 </r>
       <r>    0.8131    0.0000 </r>
       <r>    1.1450    0.0000 </r>
       <r>    1.3841    0.0000 </r>
       <r>    1.8331    0.0000 </r>
      </set>
     </set>
    </set>
   </array>
  </eigenvalues>
  <separator name="orbital magnetization" >
   <v name="MAGDIPOLOUT">      0.00000000      0.00000000      0.00000000</v>
  </separator>
  <dos>
   <i name="efermi">     -2.31800737 </i>
   <total>
    <array>
     <dimension dim="1">gridpoints</dimension>
     <dimension dim="2">spin</dimension>
     <field>energy</field>
     <field>total</field>
     <field>integrated</field>
     <set>
      <set comment="spin 1">
       <r>   -25.2471     0.0000     0.0000 </r>
       <r>   -25.1499     0.0000     0.0000 </r>
       <r>   -25.0528     0.0000     0.0000 </r>
       <r>   -24.9557     0.0000     0.0000 </r>
       <r>   -24.8586     0.0000     0.0000 </r>
       <r>   -24.7614     0.0000     0.0000 </r>
       <r>   -24.6643     0.0000     0.0000 </r>
       <r>   -24.5672     0.0000     0.0000 </r>
       <r>   -24.4700     0.0000     0.0000 </r>
       <r>   -24.3729     0.0000     0.0000 </r>
       <r>   -24.2758     0.0000     0.0000 </r>
       <r>   -24.1786     0.0000     0.0000 </r>
       <r>   -24.0815     0.0001     0.0000 </r>
       <r>   -23.9844     0.8164     0.0793 </r>
       <r>   -23.8872    16.4700     1.6791 </r>
       <r>   -23.7901     3.3023     1.9998 </r>
       <r>   -23.6930     0.0019     2.0000 </r>
       <r>   -23.5958     0.0000     2.0000 </r>
       <r>   -23.4987     0.0000     2.0000 </r>
       <r>   -23.4016     0.0000     2.0000 </r>
       <r>   -23.3045     0.0000     2.0000 </r>
       <r>   -23.2073     0.0000     2.0000 </r>
       <r>   -23.1102     0.0000     2.0000 </r>
       <r>   -23.0131     0.0000     2.0000 </r>
       <r>   -22.9159     0.0000     2.0000 </r>
       <r>   -22.8188     0.0000     2.0000 </r>
       <r>   -22.7217     0.0000     2.0000 </r>
       <r>   -22.6245     0.0000     2.0000 </r>
       <r>   -22.5274     0.0000     2.0000 </r>
       <r>   -22.4303     0.0000     2.0000 </r>
       <r>   -22.3331     0.0000     2.0000 </r>
       <r>   -22.2360     0.0000     2.0000 </r>
       <r>   -22.1389     0.0000     2.0000 </r>
       <r>   -22.0417     0.0000     2.0000 </r>
       <r>   -21.9446     0.0000     2.0000 </r>
       <r>   -21.8475     0.0000     2.0000 </r>
       <r>   -21.7504     0.0000     2.0000 </r>
       <r>   -21.6532     0.0000     2.0000 </r>
       <r>   -21.5561     0.0000     2.0000 </r>
       <r>   -21.4590     0.0000     2.0000 </r>
       <r>   -21.3618     0.0000     2.0000 </r>
       <r>   -21.2647     0.0000     2.0000 </r>
       <r>   -21.1676     0.0000     2.0000 </r>
       <r>   -21.0704     0.0000     2.0000 </r>
       <r>   -20.9733     0.0000     2.0000 </r>
       <r>   -20.8762     0.0000     2.0000 </r>
       <r>   -20.7790     0.0000     2.0000 </r>
       <r>   -20.6819     0.0000     2.0000 </r>
       <r>   -20.5848     0.0000     2.0000 </r>
       <r>   -20.4876     0.0000     2.0000 </r>
       <r>   -20.3905     0.0000     2.0000 </r>
       <r>   -20.2934     0.0000     2.0000 </r>
       <r>   -20.1962     0.0000     2.0000 </r>
       <r>   -20.0991     0.0000     2.0000 </r>
       <r>   -20.0020     0.0000     2.0000 </r>
       <r>   -19.9049     0.0000     2.0000 </r>
       <r>   -19.8077     0.0000     2.0000 </r>
       <r>   -19.7106     0.0000     2.0000 </r>
       <r>   -19.6135     0.0000     2.0000 </r>
       <r>   -19.5163     0.0000     2.0000 </r>
       <r>   -19.4192     0.0000     2.0000 </r>
       <r>   -19.3221     0.0000     2.0000 </r>
       <r>   -19.2249     0.0000     2.0000 </r>
       <r>   -19.1278     0.0000     2.0000 </r>
       <r>   -19.0307     0.0000     2.0000 </r>
       <r>   -18.9335     0.0000     2.0000 </r>
       <r>   -18.8364     0.0000     2.0000 </r>
       <r>   -18.7393     0.0000     2.0000 </r>
       <r>   -18.6421     0.0000     2.0000 </r>
       <r>   -18.5450     0.0000     2.0000 </r>
       <r>   -18.4479     0.0000     2.0000 </r>
       <r>   -18.3508     0.0000     2.0000 </r>
       <r>   -18.2536     0.0000     2.0000 </r>
       <r>   -18.1565     0.0000     2.0000 </r>
       <r>   -18.0594     0.0000     2.0000 </r>
       <r>   -17.9622     0.0000     2.0000 </r>
       <r>   -17.8651     0.0000     2.0000 </r>
       <r>   -17.7680     0.0000     2.0000 </r>
       <r>   -17.6708     0.0000     2.0000 </r>
       <r>   -17.5737     0.0000     2.0000 </r>
       <r>   -17.4766     0.0000     2.0000 </r>
       <r>   -17.3794     0.0000     2.0000 </r>
       <r>   -17.2823     0.0000     2.0000 </r>
       <r>   -17.1852     0.0000     2.0000 </r>
       <r>   -17.0880     0.0000     2.0000 </r>
       <r>   -16.9909     0.0000     2.0000 </r>
       <r>   -16.8938     0.0000     2.0000 </r>
       <r>   -16.7967     0.0000     2.0000 </r>
       <r>   -16.6995     0.0028     2.0003 </r>
       <r>   -16.6024     1.3514     2.1315 </r>
       <r>   -16.5053     6.8799     2.7998 </r>
       <r>   -16.4081     4.3220     3.2196 </r>
       <r>   -16.3110     6.3516     3.8365 </r>
       <r>   -16.2139     1.6816     3.9999 </r>
       <r>   -16.1167     0.0015     4.0000 </r>
       <r>   -16.0196     0.0000     4.0000 </r>
       <r>   -15.9225     0.0000     4.0000 </r>
       <r>   -15.8253     0.0000     4.0000 </r>
       <r>   -15.7282     0.0000     4.0000 </r>
       <r>   -15.6311     0.0101     4.0010 </r>
       <r>   -15.5339     1.9332     4.1888 </r>
       <r>   -15.4368     3.1698     4.4966 </r>
       <r>   -15.3397     6.7748     5.1547 </r>
       <r>   -15.2425     0.4665     5.2000 </r>
       <r>   -15.1454     0.0022     5.2002 </r>
       <r>   -15.0483     1.6775     5.3631 </r>
       <r>   -14.9512     9.7428     6.3095 </r>
       <r>   -14.8540     4.9865     6.7938 </r>
       <r>   -14.7569     0.0637     6.8000 </r>
       <r>   -14.6598     0.6491     6.8631 </r>
       <r>   -14.5626     6.8358     7.5270 </r>
       <r>   -14.4655     0.8785     7.6124 </r>
       <r>   -14.3684     7.0614     8.2982 </r>
       <r>   -14.2712     5.1353     8.7970 </r>
       <r>   -14.1741     0.0304     8.8000 </r>
       <r>   -14.0770     0.0000     8.8000 </r>
       <r>   -13.9798     0.0000     8.8000 </r>
       <r>   -13.8827     0.0000     8.8000 </r>
       <r>   -13.7856     0.0003     8.8000 </r>
       <r>   -13.6884     0.9170     8.8891 </r>
       <r>   -13.5913     6.7971     9.5493 </r>
       <r>   -13.4942     0.5218     9.6000 </r>
       <r>   -13.3971     0.0001     9.6000 </r>
       <r>   -13.2999     0.2693     9.6262 </r>
       <r>   -13.2028     3.4032     9.9567 </r>
       <r>   -13.1057     0.4455    10.0000 </r>
       <r>   -13.0085     0.0001    10.0000 </r>
       <r>   -12.9114     0.0000    10.0000 </r>
       <r>   -12.8143     0.0000    10.0000 </r>
       <r>   -12.7171     0.0000    10.0000 </r>
       <r>   -12.6200     0.0000    10.0000 </r>
       <r>   -12.5229     0.0000    10.0000 </r>
       <r>   -12.4257     0.0000    10.0000 </r>
       <r>   -12.3286     0.0000    10.0000 </r>
       <r>   -12.2315     0.0000    10.0000 </r>
       <r>   -12.1343     0.0000    10.0000 </r>
       <r>   -12.0372     0.0000    10.0000 </r>
       <r>   -11.9401     0.0000    10.0000 </r>
       <r>   -11.8430     0.0000    10.0000 </r>
       <r>   -11.7458     0.0000    10.0000 </r>
       <r>   -11.6487     0.0000    10.0000 </r>
       <r>   -11.5516     0.0000    10.0000 </r>
       <r>   -11.4544     0.0000    10.0000 </r>
       <r>   -11.3573     0.0000    10.0000 </r>
       <r>   -11.2602     0.0000    10.0000 </r>
       <r>   -11.1630     0.0000    10.0000 </r>
       <r>   -11.0659     0.0000    10.0000 </r>
       <r>   -10.9688     0.0171    10.0017 </r>
       <r>   -10.8716     3.0462    10.2975 </r>
       <r>   -10.7745    13.5943    11.6180 </r>
       <r>   -10.6774     3.9198    11.9987 </r>
       <r>   -10.5802     0.0134    12.0000 </r>
       <r>   -10.4831     0.0000    12.0000 </r>
       <r>   -10.3860     0.0000    12.0000 </r>
       <r>   -10.2888     0.0000    12.0000 </r>
       <r>   -10.1917     0.0000    12.0000 </r>
       <r>   -10.0946     0.0172    12.0017 </r>
       <r>    -9.9975     0.9992    12.0987 </r>
       <r>    -9.9003     2.4836    12.3400 </r>
       <r>    -9.8032     0.8621    12.4237 </r>
       <r>    -9.7061     6.3605    13.0415 </r>
       <r>    -9.6089     5.3261    13.5588 </r>
       <r>    -9.5118     1.4863    13.7032 </r>
       <r>    -9.4147     3.3477    14.0284 </r>
       <r>    -9.3175    10.7095    15.0686 </r>
       <r>    -9.2204     4.1359    15.4703 </r>
       <r>    -9.1233     5.0991    15.9656 </r>
       <r>    -9.0261     7.0853    16.6538 </r>
       <r>    -8.9290     0.4707    16.6995 </r>
       <r>    -8.8319     2.9971    16.9906 </r>
       <r>    -8.7347     2.7242    17.2552 </r>
       <r>    -8.6376     2.1601    17.4651 </r>
       <r>    -8.5405     3.1302    17.7691 </r>
       <r>    -8.4434     3.5778    18.1166 </r>
       <r>    -8.3462     1.7827    18.2898 </r>
       <r>    -8.2491     5.4842    18.8225 </r>
       <r>    -8.1520     6.6909    19.4724 </r>
       <r>    -8.0548     5.2520    19.9825 </r>
       <r>    -7.9577     1.9362    20.1706 </r>
       <r>    -7.8606     3.1612    20.4776 </r>
       <r>    -7.7634     1.4541    20.6189 </r>
       <r>    -7.6663     6.5236    21.2525 </r>
       <r>    -7.5692    10.8670    22.3080 </r>
       <r>    -7.4720     2.4961    22.5505 </r>
       <r>    -7.3749     2.2746    22.7714 </r>
       <r>    -7.2778     1.4819    22.9153 </r>
       <r>    -7.1806    10.8186    23.9662 </r>
       <r>    -7.0835     1.7196    24.1332 </r>
       <r>    -6.9864     0.0114    24.1343 </r>
       <r>    -6.8893     0.8520    24.2171 </r>
       <r>    -6.7921     3.0670    24.5150 </r>
       <r>    -6.6950     9.4298    25.4309 </r>
       <r>    -6.5979    11.1788    26.5167 </r>
       <r>    -6.5007     5.7998    27.0800 </r>
       <r>    -6.4036     6.4519    27.7067 </r>
       <r>    -6.3065     1.6139    27.8635 </r>
       <r>    -6.2093     2.1072    28.0682 </r>
       <r>    -6.1122     2.8932    28.3492 </r>
       <r>    -6.0151     7.7582    29.1027 </r>
       <r>    -5.9179     7.6834    29.8490 </r>
       <r>    -5.8208     8.6536    30.6896 </r>
       <r>    -5.7237     9.9546    31.6565 </r>
       <r>    -5.6265     3.6975    32.0156 </r>
       <r>    -5.5294     3.8797    32.3925 </r>
       <r>    -5.4323     3.2499    32.7081 </r>
       <r>    -5.3352     5.7361    33.2653 </r>
       <r>    -5.2380     3.0950    33.5659 </r>
       <r>    -5.1409     8.6229    34.4035 </r>
       <r>    -5.0438     3.9856    34.7906 </r>
       <r>    -4.9466     4.5141    35.2290 </r>
       <r>    -4.8495     8.2924    36.0345 </r>
       <r>    -4.7524     4.7612    36.4970 </r>
       <r>    -4.6552     5.8099    37.0613 </r>
       <r>    -4.5581     2.8892    37.3419 </r>
       <r>    -4.4610     5.3996    37.8664 </r>
       <r>    -4.3638     8.2335    38.6661 </r>
       <r>    -4.2667    10.7670    39.7119 </r>
       <r>    -4.1696    11.9849    40.8760 </r>
       <r>    -4.0724    10.5554    41.9013 </r>
       <r>    -3.9753     8.9707    42.7726 </r>
       <r>    -3.8782     6.9965    43.4522 </r>
       <r>    -3.7810     4.5372    43.8929 </r>
       <r>    -3.6839     1.9663    44.0839 </r>
       <r>    -3.5868     4.5873    44.5295 </r>
       <r>    -3.4897     7.6379    45.2714 </r>
       <r>    -3.3925     5.5891    45.8142 </r>
       <r>    -3.2954     3.2385    46.1288 </r>
       <r>    -3.1983     0.0666    46.1353 </r>
       <r>    -3.1011     3.8303    46.5073 </r>
       <r>    -3.0040     4.5016    46.9445 </r>
       <r>    -2.9069     4.7639    47.4073 </r>
       <r>    -2.8097     1.9792    47.5995 </r>
       <r>    -2.7126     0.0088    47.6004 </r>
       <r>    -2.6155     1.4732    47.7435 </r>
       <r>    -2.5183     2.6058    47.9966 </r>
       <r>    -2.4212     0.0353    48.0000 </r>
       <r>    -2.3241     0.0000    48.0000 </r>
       <r>    -2.2269     0.0000    48.0000 </r>
       <r>    -2.1298     0.0000    48.0000 </r>
       <r>    -2.0327     0.0000    48.0000 </r>
       <r>    -1.9356     0.0000    48.0000 </r>
       <r>    -1.8384     0.0000    48.0000 </r>
       <r>    -1.7413     0.0000    48.0000 </r>
       <r>    -1.6442     0.0000    48.0000 </r>
       <r>    -1.5470     0.0000    48.0000 </r>
       <r>    -1.4499     0.0368    48.0036 </r>
       <r>    -1.3528     1.0523    48.1058 </r>
       <r>    -1.2556     0.8299    48.1864 </r>
       <r>    -1.1585     2.4505    48.4244 </r>
       <r>    -1.0614     3.3602    48.7508 </r>
       <r>    -0.9642     2.4164    48.9855 </r>
       <r>    -0.8671     3.4070    49.3164 </r>
       <r>    -0.7700     5.0376    49.8057 </r>
       <r>    -0.6728     3.0246    50.0995 </r>
       <r>    -0.5757     0.3480    50.1333 </r>
       <r>    -0.4786     0.2126    50.1540 </r>
       <r>    -0.3815     4.4445    50.5857 </r>
       <r>    -0.2843     6.1775    51.1857 </r>
       <r>    -0.1872     0.4993    51.2342 </r>
       <r>    -0.0901     7.0458    51.9186 </r>
       <r>     0.0071     4.8520    52.3899 </r>
       <r>     0.1042     7.5843    53.1265 </r>
       <r>     0.2013     0.8593    53.2100 </r>
       <r>     0.2985     6.7581    53.8664 </r>
       <r>     0.3956    10.5403    54.8902 </r>
       <r>     0.4927     4.4705    55.3245 </r>
       <r>     0.5899     0.2158    55.3454 </r>
       <r>     0.6870     2.6678    55.6045 </r>
       <r>     0.7841     3.1952    55.9149 </r>
       <r>     0.8813     5.1305    56.4132 </r>
       <r>     0.9784     6.4254    57.0373 </r>
       <r>     1.0755     8.1481    57.8288 </r>
       <r>     1.1727     5.8246    58.3945 </r>
       <r>     1.2698     7.8448    59.1565 </r>
       <r>     1.3669     5.4895    59.6897 </r>
       <r>     1.4640     8.3809    60.5037 </r>
       <r>     1.5612     4.2008    60.9118 </r>
       <r>     1.6583     5.2367    61.4204 </r>
       <r>     1.7554     0.9721    61.5148 </r>
       <r>     1.8526     5.0242    62.0029 </r>
       <r>     1.9497     3.5194    62.3447 </r>
       <r>     2.0468     8.5339    63.1736 </r>
       <r>     2.1440     3.1813    63.4826 </r>
       <r>     2.2411     2.3304    63.7090 </r>
       <r>     2.3382     0.2508    63.7333 </r>
       <r>     2.4354     0.0003    63.7334 </r>
       <r>     2.5325     0.4360    63.7757 </r>
       <r>     2.6296     2.1988    63.9893 </r>
       <r>     2.7268     0.1104    64.0000 </r>
       <r>     2.8239     0.0000    64.0000 </r>
       <r>     2.9210     0.0000    64.0000 </r>
       <r>     3.0181     0.0000    64.0000 </r>
       <r>     3.1153     0.0000    64.0000 </r>
       <r>     3.2124     0.0000    64.0000 </r>
       <r>     3.3095     0.0000    64.0000 </r>
       <r>     3.4067     0.0000    64.0000 </r>
       <r>     3.5038     0.0000    64.0000 </r>
       <r>     3.6009     0.0000    64.0000 </r>
       <r>     3.6981     0.0000    64.0000 </r>
       <r>     3.7952     0.0000    64.0000 </r>
       <r>     3.8923     0.0000    64.0000 </r>
      </set>
     </set>
    </array>
   </total>
  </dos>
 </calculation>
 <structure name="finalpos" >
  <crystal>
   <varray name="basis" >
    <v>       6.01920000       0.00000000       0.00000000 </v>
    <v>       0.00000000      10.14000000       0.00000000 </v>
    <v>       0.00000000       0.00000000      15.00000000 </v>
   </varray>
   <i name="volume">    915.52032000 </i>
   <varray name="rec_basis" >
    <v>       0.16613503       0.00000000       0.00000000 </v>
    <v>       0.00000000       0.09861933       0.00000000 </v>
    <v>       0.00000000       0.00000000       0.06666667 </v>
   </varray>
  </crystal>
  <varray name="positions" >
   <v>       0.45224472       0.81766748       0.30490364 </v>
   <v>       0.97277844       0.82186763       0.26998482 </v>
   <v>       0.47521060       0.57100071       0.25030965 </v>
   <v>       0.97424517       0.56761247       0.24668356 </v>
   <v>       0.47388416       0.32551825       0.23601972 </v>
   <v>       0.97565186       0.32570059       0.23975749 </v>
   <v>       0.46695928       0.06562423       0.25385514 </v>
   <v>       0.98235660       0.07262052       0.26165102 </v>
   <v>       0.21994571       0.94500093       0.25459580 </v>
   <v>       0.72321736       0.95278939       0.29870191 </v>
   <v>       0.22504568       0.44681666       0.23592346 </v>
   <v>       0.72428640       0.44535422       0.24328937 </v>
   <v>       0.39354664       0.77524821       0.41630028 </v>
   <v>       0.73717364       0.97205496       0.37179176 </v>
   <v>       0.35471462       0.84131722       0.46043238 </v>
  </varray>
  <varray name="selective"  type="logical" >
   <v type="logical" >  T  T  T </v>
   <v type="logical" >  T  T  T </v>
   <v type="logical" >  T  T  T </v>
   <v type="logical" >  T  T  T </v>
   <v type="logical" >  T  T  T </v>
   <v type="logical" >  T  T  T </v>
   <v type="logical" >  T  T  T </v>
   <v type="logical" >  T  T  T </v>
   <v type="logical" >  T  T  T </v>
   <v type="logical" >  T  T  T </v>
   <v type="logical" >  T  T  T </v>
   <v type="logical" >  T  T  T </v>
   <v type="logical" >  T  T  T </v>
   <v type="logical" >  T  T  T </v>
   <v type="logical" >  T  T  T </v>
  </varray>
  <nose>
   <v>      -3.00000000       0.00000000       0.00010000       0.00010000 </v>
  </nose>
 </structure>
</modeling>
