Al   C    O    H                        
   1.0000000000000000     
     6.0191999999999997    0.0000000000000000    0.0000000000000000
     0.0000000000000000   10.1400000000000006    0.0000000000000000
     0.0000000000000000    0.0000000000000000   15.0000000000000000
   Al   C    O    H 
     8     4     1     2
Selective dynamics
Direct
  0.4479988521154823  0.8170625412715182  0.2975462822657846   T   T   T
  0.9563605767389518  0.8219288518779848  0.2524223798510477   T   T   T
  0.4535600868553118  0.5629074360178308  0.2634153986784469   T   T   T
  0.9545444217106578  0.5634157858248514  0.2368511070107999   T   T   T
  0.4558570155806052  0.3202965331681185  0.2335445298345178   T   T   T
  0.9555363812093702  0.3216433264988083  0.2603074174114042   T   T   T
  0.4596466921082225  0.0589769659651154  0.2464435351869483   T   T   T
  0.9636246982584211  0.0655650293689760  0.2781412829397496   T   T   T
  0.2084786966546872  0.9416596914174491  0.2641361237792097   T   T   T
  0.7099568959712528  0.9444743964940230  0.2814175722915095   T   T   T
  0.2051712599039988  0.4414359627169517  0.2435771747482107   T   T   T
  0.7045926751928278  0.4417776870398100  0.2477891813830695   T   T   T
  0.5430270958662078  0.8365855276346608  0.4219473380331564   T   T   T
  0.6529710020694068  0.9092016644423637  0.3783132811634786   T   T   T
  0.4449305888144223  0.8859939433734921  0.4608903171153864   T   T   T

  0.00000000E+00  0.00000000E+00  0.00000000E+00
  0.00000000E+00  0.00000000E+00  0.00000000E+00
  0.00000000E+00  0.00000000E+00  0.00000000E+00
  0.00000000E+00  0.00000000E+00  0.00000000E+00
  0.00000000E+00  0.00000000E+00  0.00000000E+00
  0.00000000E+00  0.00000000E+00  0.00000000E+00
  0.00000000E+00  0.00000000E+00  0.00000000E+00
  0.00000000E+00  0.00000000E+00  0.00000000E+00
  0.00000000E+00  0.00000000E+00  0.00000000E+00
  0.00000000E+00  0.00000000E+00  0.00000000E+00
  0.00000000E+00  0.00000000E+00  0.00000000E+00
  0.00000000E+00  0.00000000E+00  0.00000000E+00
  0.00000000E+00  0.00000000E+00  0.00000000E+00
  0.00000000E+00  0.00000000E+00  0.00000000E+00
  0.00000000E+00  0.00000000E+00  0.00000000E+00
