  15  15   0   0
  0.6103469E+02  0.6019200E-09  0.1014000E-08  0.1500000E-08  0.1000000E-16
   1.0000000000000000E-004
  CAR 
 Al2C                                    
      2.97635136    -24.55324940  301     -1.88147611      1.00000000
    -24.553  0.0000E+00  0.0000E+00
    -24.461  0.0000E+00  0.0000E+00
    -24.370  0.0000E+00  0.0000E+00
    -24.278  0.0000E+00  0.0000E+00
    -24.186  0.0000E+00  0.0000E+00
    -24.094  0.0000E+00  0.0000E+00
    -24.003  0.0000E+00  0.0000E+00
    -23.911  0.0000E+00  0.0000E+00
    -23.819  0.0000E+00  0.0000E+00
    -23.727  0.0000E+00  0.0000E+00
    -23.636  0.0000E+00  0.0000E+00
    -23.544  0.3644E-12  0.3344E-13
    -23.452  0.1040E-05  0.9545E-07
    -23.360  0.4850E-02  0.4451E-03
    -23.269  0.7799E-01  0.7602E-02
    -23.177  0.1757E-01  0.9215E-02
    -23.085  0.2092E-04  0.9217E-02
    -22.993  0.4559E-10  0.9217E-02
    -22.901  0.0000E+00  0.9217E-02
    -22.810  0.0000E+00  0.9217E-02
    -22.718  0.0000E+00  0.9217E-02
    -22.626  0.0000E+00  0.9217E-02
    -22.534  0.0000E+00  0.9217E-02
    -22.443  0.0000E+00  0.9217E-02
    -22.351  0.0000E+00  0.9217E-02
    -22.259  0.0000E+00  0.9217E-02
    -22.167  0.0000E+00  0.9217E-02
    -22.076  0.0000E+00  0.9217E-02
    -21.984  0.0000E+00  0.9217E-02
    -21.892  0.0000E+00  0.9217E-02
    -21.800  0.0000E+00  0.9217E-02
    -21.709  0.0000E+00  0.9217E-02
    -21.617  0.0000E+00  0.9217E-02
    -21.525  0.0000E+00  0.9217E-02
    -21.433  0.0000E+00  0.9217E-02
    -21.341  0.0000E+00  0.9217E-02
    -21.250  0.0000E+00  0.9217E-02
    -21.158  0.0000E+00  0.9217E-02
    -21.066  0.0000E+00  0.9217E-02
    -20.974  0.0000E+00  0.9217E-02
    -20.883  0.0000E+00  0.9217E-02
    -20.791  0.0000E+00  0.9217E-02
    -20.699  0.0000E+00  0.9217E-02
    -20.607  0.0000E+00  0.9217E-02
    -20.516  0.0000E+00  0.9217E-02
    -20.424  0.0000E+00  0.9217E-02
    -20.332  0.0000E+00  0.9217E-02
    -20.240  0.0000E+00  0.9217E-02
    -20.149  0.0000E+00  0.9217E-02
    -20.057  0.0000E+00  0.9217E-02
    -19.965  0.0000E+00  0.9217E-02
    -19.873  0.0000E+00  0.9217E-02
    -19.781  0.0000E+00  0.9217E-02
    -19.690  0.0000E+00  0.9217E-02
    -19.598  0.0000E+00  0.9217E-02
    -19.506  0.0000E+00  0.9217E-02
    -19.414  0.0000E+00  0.9217E-02
    -19.323  0.0000E+00  0.9217E-02
    -19.231  0.0000E+00  0.9217E-02
    -19.139  0.0000E+00  0.9217E-02
    -19.047  0.0000E+00  0.9217E-02
    -18.956  0.0000E+00  0.9217E-02
    -18.864  0.0000E+00  0.9217E-02
    -18.772  0.0000E+00  0.9217E-02
    -18.680  0.0000E+00  0.9217E-02
    -18.589  0.0000E+00  0.9217E-02
    -18.497  0.0000E+00  0.9217E-02
    -18.405  0.0000E+00  0.9217E-02
    -18.313  0.0000E+00  0.9217E-02
    -18.221  0.0000E+00  0.9217E-02
    -18.130  0.0000E+00  0.9217E-02
    -18.038  0.0000E+00  0.9217E-02
    -17.946  0.0000E+00  0.9217E-02
    -17.854  0.0000E+00  0.9217E-02
    -17.763  0.0000E+00  0.9217E-02
    -17.671  0.0000E+00  0.9217E-02
    -17.579  0.0000E+00  0.9217E-02
    -17.487  0.0000E+00  0.9217E-02
    -17.396  0.0000E+00  0.9217E-02
    -17.304  0.0000E+00  0.9217E-02
    -17.212  0.0000E+00  0.9217E-02
    -17.120  0.0000E+00  0.9217E-02
    -17.028  0.0000E+00  0.9217E-02
    -16.937  0.0000E+00  0.9217E-02
    -16.845  0.0000E+00  0.9217E-02
    -16.753  0.0000E+00  0.9217E-02
    -16.661  0.0000E+00  0.9217E-02
    -16.570  0.0000E+00  0.9217E-02
    -16.478  0.0000E+00  0.9217E-02
    -16.386  0.0000E+00  0.9217E-02
    -16.294  0.0000E+00  0.9217E-02
    -16.203  0.0000E+00  0.9217E-02
    -16.111  0.0000E+00  0.9217E-02
    -16.019  0.0000E+00  0.9217E-02
    -15.927  0.0000E+00  0.9217E-02
    -15.836  0.0000E+00  0.9217E-02
    -15.744  0.0000E+00  0.9217E-02
    -15.652  0.0000E+00  0.9217E-02
    -15.560  0.0000E+00  0.9217E-02
    -15.468  0.0000E+00  0.9217E-02
    -15.377  0.0000E+00  0.9217E-02
    -15.285  0.0000E+00  0.9217E-02
    -15.193  0.0000E+00  0.9217E-02
    -15.101  0.0000E+00  0.9217E-02
    -15.010  0.0000E+00  0.9217E-02
    -14.918  0.0000E+00  0.9217E-02
    -14.826  0.0000E+00  0.9217E-02
    -14.734  0.0000E+00  0.9217E-02
    -14.643  0.0000E+00  0.9217E-02
    -14.551  0.0000E+00  0.9217E-02
    -14.459  0.0000E+00  0.9217E-02
    -14.367  0.0000E+00  0.9217E-02
    -14.276  0.2454E-14  0.9217E-02
    -14.184  0.2170E-07  0.9217E-02
    -14.092  0.3140E-03  0.9245E-02
    -14.000  0.1350E-01  0.1048E-01
    -13.908  0.3078E-01  0.1331E-01
    -13.817  0.1559E-01  0.1474E-01
    -13.725  0.5777E-02  0.1527E-01
    -13.633  0.3223E-01  0.1823E-01
    -13.541  0.1576E-01  0.1967E-01
    -13.450  0.1924E-01  0.2144E-01
    -13.358  0.2678E-01  0.2390E-01
    -13.266  0.7210E-03  0.2396E-01
    -13.174  0.6178E-04  0.2397E-01
    -13.083  0.1430E-01  0.2528E-01
    -12.991  0.2529E-01  0.2760E-01
    -12.899  0.1224E-02  0.2771E-01
    -12.807  0.2692E-01  0.3019E-01
    -12.716  0.1250E-01  0.3133E-01
    -12.624  0.4301E-04  0.3134E-01
    -12.532  0.3983E-02  0.3170E-01
    -12.440  0.4539E-01  0.3587E-01
    -12.348  0.3034E-01  0.3865E-01
    -12.257  0.3371E-02  0.3896E-01
    -12.165  0.1600E-01  0.4043E-01
    -12.073  0.1347E-02  0.4055E-01
    -11.981  0.4626E-06  0.4055E-01
    -11.890  0.5854E-03  0.4061E-01
    -11.798  0.2593E-01  0.4299E-01
    -11.706  0.1360E-01  0.4423E-01
    -11.614  0.5300E-04  0.4424E-01
    -11.523  0.9638E-04  0.4425E-01
    -11.431  0.9990E-02  0.4517E-01
    -11.339  0.9907E-02  0.4607E-01
    -11.247  0.9342E-04  0.4608E-01
    -11.156  0.8281E-07  0.4608E-01
    -11.064  0.8820E-03  0.4616E-01
    -10.972  0.2866E-01  0.4879E-01
    -10.880  0.3785E-01  0.5227E-01
    -10.788  0.2345E-01  0.5442E-01
    -10.697  0.9515E-02  0.5529E-01
    -10.605  0.7923E-04  0.5530E-01
    -10.513  0.1513E-08  0.5530E-01
    -10.421  0.4386E-16  0.5530E-01
    -10.330  0.0000E+00  0.5530E-01
    -10.238  0.0000E+00  0.5530E-01
    -10.146  0.0000E+00  0.5530E-01
    -10.054  0.0000E+00  0.5530E-01
     -9.963  0.0000E+00  0.5530E-01
     -9.871  0.0000E+00  0.5530E-01
     -9.779  0.0000E+00  0.5530E-01
     -9.687  0.0000E+00  0.5530E-01
     -9.595  0.0000E+00  0.5530E-01
     -9.504  0.0000E+00  0.5530E-01
     -9.412  0.0000E+00  0.5530E-01
     -9.320  0.0000E+00  0.5530E-01
     -9.228  0.0000E+00  0.5530E-01
     -9.137  0.0000E+00  0.5530E-01
     -9.045  0.0000E+00  0.5530E-01
     -8.953  0.3717E-18  0.5530E-01
     -8.861  0.4351E-10  0.5530E-01
     -8.770  0.6732E-05  0.5530E-01
     -8.678  0.2450E-02  0.5552E-01
     -8.586  0.1426E-01  0.5683E-01
     -8.494  0.1123E-01  0.5786E-01
     -8.403  0.4175E-01  0.6170E-01
     -8.311  0.5319E-01  0.6658E-01
     -8.219  0.1846E-01  0.6827E-01
     -8.127  0.1082E-01  0.6926E-01
     -8.035  0.1402E-01  0.7055E-01
     -7.944  0.3966E-01  0.7419E-01
     -7.852  0.3162E-01  0.7709E-01
     -7.760  0.4646E-01  0.8135E-01
     -7.668  0.1087E-01  0.8235E-01
     -7.577  0.1047E-01  0.8331E-01
     -7.485  0.1507E-01  0.8470E-01
     -7.393  0.1136E-02  0.8480E-01
     -7.301  0.8138E-02  0.8555E-01
     -7.210  0.3624E-01  0.8887E-01
     -7.118  0.3402E-01  0.9199E-01
     -7.026  0.3240E-02  0.9229E-01
     -6.934  0.1657E-01  0.9381E-01
     -6.843  0.2137E-01  0.9577E-01
     -6.751  0.2968E-01  0.9850E-01
     -6.659  0.2145E-01  0.1005E+00
     -6.567  0.4025E-01  0.1042E+00
     -6.475  0.3382E-01  0.1073E+00
     -6.384  0.2950E-02  0.1075E+00
     -6.292  0.8944E-02  0.1084E+00
     -6.200  0.4153E-01  0.1122E+00
     -6.108  0.1014E-01  0.1131E+00
     -6.017  0.1022E-01  0.1140E+00
     -5.925  0.2435E-01  0.1163E+00
     -5.833  0.4184E-01  0.1201E+00
     -5.741  0.1194E-01  0.1212E+00
     -5.650  0.1082E-01  0.1222E+00
     -5.558  0.7561E-02  0.1229E+00
     -5.466  0.7679E-02  0.1236E+00
     -5.374  0.1208E-01  0.1247E+00
     -5.283  0.3652E-01  0.1281E+00
     -5.191  0.1053E-01  0.1290E+00
     -5.099  0.7188E-03  0.1291E+00
     -5.007  0.1774E-01  0.1307E+00
     -4.915  0.4320E-01  0.1347E+00
     -4.824  0.4851E-01  0.1391E+00
     -4.732  0.1848E-01  0.1408E+00
     -4.640  0.5375E-01  0.1458E+00
     -4.548  0.2506E-01  0.1481E+00
     -4.457  0.2293E-01  0.1502E+00
     -4.365  0.2965E-01  0.1529E+00
     -4.273  0.4572E-01  0.1571E+00
     -4.181  0.2610E-01  0.1595E+00
     -4.090  0.2684E-01  0.1619E+00
     -3.998  0.1948E-01  0.1637E+00
     -3.906  0.3225E-01  0.1667E+00
     -3.814  0.7022E-02  0.1673E+00
     -3.723  0.2656E-01  0.1698E+00
     -3.631  0.1901E-01  0.1715E+00
     -3.539  0.5255E-01  0.1763E+00
     -3.447  0.5772E-01  0.1816E+00
     -3.355  0.7626E-01  0.1886E+00
     -3.264  0.4749E-01  0.1930E+00
     -3.172  0.6398E-02  0.1936E+00
     -3.080  0.1303E-01  0.1948E+00
     -2.988  0.2683E-01  0.1972E+00
     -2.897  0.4412E-01  0.2013E+00
     -2.805  0.5456E-01  0.2063E+00
     -2.713  0.1979E-01  0.2081E+00
     -2.621  0.6123E-01  0.2137E+00
     -2.530  0.2776E-01  0.2163E+00
     -2.438  0.1823E-03  0.2163E+00
     -2.346  0.1720E-04  0.2163E+00
     -2.254  0.5748E-02  0.2168E+00
     -2.163  0.3285E-01  0.2198E+00
     -2.071  0.1485E-01  0.2212E+00
     -1.979  0.1006E-03  0.2212E+00
     -1.887  0.1719E-08  0.2212E+00
     -1.795  0.4609E-16  0.2212E+00
     -1.704  0.0000E+00  0.2212E+00
     -1.612  0.1565E-15  0.2212E+00
     -1.520  0.3229E-08  0.2212E+00
     -1.428  0.1046E-03  0.2212E+00
     -1.337  0.9458E-02  0.2221E+00
     -1.245  0.1036E-01  0.2230E+00
     -1.153  0.2700E-02  0.2233E+00
     -1.061  0.1900E-01  0.2250E+00
     -0.970  0.2331E-01  0.2272E+00
     -0.878  0.8678E-02  0.2280E+00
     -0.786  0.4807E-02  0.2284E+00
     -0.694  0.1558E-01  0.2298E+00
     -0.602  0.1125E-01  0.2309E+00
     -0.511  0.2070E-02  0.2310E+00
     -0.419  0.8874E-02  0.2319E+00
     -0.327  0.1811E-01  0.2335E+00
     -0.235  0.3756E-01  0.2370E+00
     -0.144  0.2171E-01  0.2390E+00
     -0.052  0.1954E-01  0.2408E+00
      0.040  0.3601E-01  0.2441E+00
      0.132  0.4980E-01  0.2486E+00
      0.223  0.4156E-01  0.2524E+00
      0.315  0.1767E-01  0.2541E+00
      0.407  0.2238E-01  0.2561E+00
      0.499  0.2062E-01  0.2580E+00
      0.590  0.4074E-01  0.2617E+00
      0.682  0.3209E-01  0.2647E+00
      0.774  0.2896E-01  0.2674E+00
      0.866  0.4975E-01  0.2719E+00
      0.958  0.4994E-01  0.2765E+00
      1.049  0.4426E-01  0.2806E+00
      1.141  0.4890E-01  0.2850E+00
      1.233  0.2718E-01  0.2875E+00
      1.325  0.2602E-01  0.2899E+00
      1.416  0.2717E-01  0.2924E+00
      1.508  0.1384E-01  0.2937E+00
      1.600  0.1015E-03  0.2937E+00
      1.692  0.2309E-02  0.2939E+00
      1.783  0.1042E-01  0.2949E+00
      1.875  0.6600E-03  0.2949E+00
      1.967  0.1449E-06  0.2949E+00
      2.059  0.5203E-13  0.2949E+00
      2.150  0.0000E+00  0.2949E+00
      2.242  0.0000E+00  0.2949E+00
      2.334  0.0000E+00  0.2949E+00
      2.426  0.0000E+00  0.2949E+00
      2.518  0.0000E+00  0.2949E+00
      2.609  0.0000E+00  0.2949E+00
      2.701  0.0000E+00  0.2949E+00
      2.793  0.0000E+00  0.2949E+00
      2.885  0.0000E+00  0.2949E+00
      2.976  0.0000E+00  0.2949E+00
