   15   15  217    1
  0.6103469E+02  0.6019200E-09  0.1014000E-08  0.1500000E-08  0.1000000E-16
   1.0000000000000000E-004
  CAR 
 Al2C                                    
     48      8     32

  0.3742002E-15  0.3742002E-15  0.1262379E-14  0.6666667E-01
    1      -23.301748   1.000000
    2      -14.020012   1.000000
    3      -13.550330   1.000000
    4      -12.217555   1.000000
    5      -11.430510   1.000000
    6      -10.791674   1.000000
    7       -8.660341   1.000000
    8       -8.493444   1.000000
    9       -8.375614   1.000000
   10       -8.055162   1.000000
   11       -6.782199   1.000000
   12       -6.244718   1.000000
   13       -5.838196   1.000000
   14       -5.430229   1.000000
   15       -4.970017   1.000000
   16       -4.656072   1.000000
   17       -4.410425   1.000000
   18       -4.116003   1.000000
   19       -3.256122   1.000000
   20       -2.884180   1.000000
   21       -2.679156   1.000000
   22       -2.653814   1.000000
   23       -2.218861   1.000000
   24       -2.164089   1.000000
   25       -1.318544   0.000000
   26       -0.761828   0.000000
   27       -0.178172   0.000000
   28        0.140549   0.000000
   29        0.212480   0.000000
   30        0.460176   0.000000
   31        0.754477   0.000000
   32        0.953365   0.000000

  0.2000000E+00  0.3742002E-15  0.1262379E-14  0.1333333E+00
    1      -23.301698   1.000000
    2      -13.922304   1.000000
    3      -13.426690   1.000000
    4      -12.424643   1.000000
    5      -11.810934   1.000000
    6      -10.897121   1.000000
    7       -8.466381   1.000000
    8       -8.164059   1.000000
    9       -7.938093   1.000000
   10       -7.768360   1.000000
   11       -6.756502   1.000000
   12       -6.243576   1.000000
   13       -6.043216   1.000000
   14       -5.702050   1.000000
   15       -4.900605   1.000000
   16       -4.720904   1.000000
   17       -4.302264   1.000000
   18       -3.764147   1.000000
   19       -3.522273   1.000000
   20       -3.426554   1.000000
   21       -3.374752   1.000000
   22       -2.958824   1.000000
   23       -2.625519   1.000000
   24       -2.175368   1.000000
   25       -1.342115   0.000000
   26        0.028112   0.000000
   27        0.120962   0.000000
   28        0.223367   0.000000
   29        0.457754   0.000000
   30        0.603861   0.000000
   31        1.060729   0.000000
   32        1.179193   0.000000

  0.4000000E+00  0.3742002E-15  0.1262379E-14  0.1333333E+00
    1      -23.301385   1.000000
    2      -13.689007   1.000000
    3      -13.069322   1.000000
    4      -12.824270   1.000000
    5      -12.480814   1.000000
    6      -10.993068   1.000000
    7       -8.333862   1.000000
    8       -7.800824   1.000000
    9       -7.248171   1.000000
   10       -6.980765   1.000000
   11       -6.559854   1.000000
   12       -6.291684   1.000000
   13       -5.835874   1.000000
   14       -5.557853   1.000000
   15       -5.351599   1.000000
   16       -4.887739   1.000000
   17       -4.675616   1.000000
   18       -4.461599   1.000000
   19       -4.300168   1.000000
   20       -3.943905   1.000000
   21       -3.623713   1.000000
   22       -3.304161   1.000000
   23       -2.628099   1.000000
   24       -2.238734   1.000000
   25       -1.001587   0.000000
   26       -0.296645   0.000000
   27        0.370370   0.000000
   28        0.779395   0.000000
   29        0.948910   0.000000
   30        1.276127   0.000000
   31        1.404547   0.000000
   32        1.725006   0.000000

  0.3742002E-15  0.3333333E+00  0.1262379E-14  0.1333333E+00
    1      -23.301904   1.000000
    2      -14.013312   1.000000
    3      -13.560608   1.000000
    4      -12.218067   1.000000
    5      -11.431239   1.000000
    6      -10.790118   1.000000
    7       -8.610445   1.000000
    8       -8.450856   1.000000
    9       -8.320192   1.000000
   10       -7.973363   1.000000
   11       -7.303315   1.000000
   12       -6.620941   1.000000
   13       -5.272731   1.000000
   14       -4.927566   1.000000
   15       -4.851054   1.000000
   16       -4.701854   1.000000
   17       -4.464203   1.000000
   18       -3.934068   1.000000
   19       -3.479009   1.000000
   20       -3.100851   1.000000
   21       -2.865466   1.000000
   22       -2.677146   1.000000
   23       -2.657679   1.000000
   24       -2.164827   1.000000
   25       -1.120700   0.000000
   26       -0.432763   0.000000
   27       -0.228037   0.000000
   28       -0.057785   0.000000
   29        0.345939   0.000000
   30        0.614968   0.000000
   31        0.850500   0.000000
   32        0.912336   0.000000

  0.2000000E+00  0.3333333E+00  0.1262379E-14  0.1333333E+00
    1      -23.301574   1.000000
    2      -13.916497   1.000000
    3      -13.435592   1.000000
    4      -12.424375   1.000000
    5      -11.813044   1.000000
    6      -10.896069   1.000000
    7       -8.415634   1.000000
    8       -8.015240   1.000000
    9       -7.854676   1.000000
   10       -7.811865   1.000000
   11       -7.205606   1.000000
   12       -6.602484   1.000000
   13       -5.896903   1.000000
   14       -5.327318   1.000000
   15       -4.699453   1.000000
   16       -4.575984   1.000000
   17       -4.365671   1.000000
   18       -3.571706   1.000000
   19       -3.461911   1.000000
   20       -3.408181   1.000000
   21       -3.351278   1.000000
   22       -3.054357   1.000000
   23       -2.868404   1.000000
   24       -2.618730   1.000000
   25       -0.972522   0.000000
   26       -0.349149   0.000000
   27        0.017065   0.000000
   28        0.162458   0.000000
   29        0.562876   0.000000
   30        0.806813   0.000000
   31        0.878882   0.000000
   32        1.096496   0.000000

  0.4000000E+00  0.3333333E+00  0.1262379E-14  0.1333333E+00
    1      -23.301280   1.000000
    2      -13.685981   1.000000
    3      -13.069987   1.000000
    4      -12.824736   1.000000
    5      -12.488493   1.000000
    6      -10.992257   1.000000
    7       -8.331319   1.000000
    8       -7.535013   1.000000
    9       -7.229700   1.000000
   10       -6.923488   1.000000
   11       -6.732203   1.000000
   12       -6.523633   1.000000
   13       -6.219584   1.000000
   14       -5.924436   1.000000
   15       -5.036866   1.000000
   16       -4.903007   1.000000
   17       -4.250014   1.000000
   18       -4.144909   1.000000
   19       -4.000232   1.000000
   20       -3.765275   1.000000
   21       -3.562805   1.000000
   22       -3.341263   1.000000
   23       -2.913708   1.000000
   24       -2.804275   1.000000
   25       -0.640534   0.000000
   26       -0.280892   0.000000
   27        0.073284   0.000000
   28        0.689644   0.000000
   29        0.972059   0.000000
   30        1.091976   0.000000
   31        1.204013   0.000000
   32        1.418296   0.000000

 -0.4000000E+00  0.3333333E+00  0.1262379E-14  0.1333333E+00
    1      -23.301314   1.000000
    2      -13.686039   1.000000
    3      -13.069728   1.000000
    4      -12.824788   1.000000
    5      -12.488786   1.000000
    6      -10.992178   1.000000
    7       -8.322679   1.000000
    8       -7.592827   1.000000
    9       -7.165786   1.000000
   10       -6.877351   1.000000
   11       -6.792415   1.000000
   12       -6.516957   1.000000
   13       -6.222077   1.000000
   14       -5.939756   1.000000
   15       -5.004928   1.000000
   16       -4.919633   1.000000
   17       -4.273765   1.000000
   18       -4.142332   1.000000
   19       -4.007074   1.000000
   20       -3.711327   1.000000
   21       -3.553114   1.000000
   22       -3.385244   1.000000
   23       -2.908940   1.000000
   24       -2.801904   1.000000
   25       -0.760171   0.000000
   26       -0.082370   0.000000
   27        0.096094   0.000000
   28        0.569528   0.000000
   29        0.966319   0.000000
   30        1.060377   0.000000
   31        1.269564   0.000000
   32        1.379573   0.000000

 -0.2000000E+00  0.3333333E+00  0.1262379E-14  0.1333333E+00
    1      -23.301619   1.000000
    2      -13.916528   1.000000
    3      -13.435503   1.000000
    4      -12.424368   1.000000
    5      -11.813424   1.000000
    6      -10.895722   1.000000
    7       -8.402798   1.000000
    8       -8.009155   1.000000
    9       -7.911804   1.000000
   10       -7.791391   1.000000
   11       -7.177699   1.000000
   12       -6.608630   1.000000
   13       -5.898867   1.000000
   14       -5.337675   1.000000
   15       -4.711204   1.000000
   16       -4.565336   1.000000
   17       -4.353717   1.000000
   18       -3.577517   1.000000
   19       -3.472398   1.000000
   20       -3.402035   1.000000
   21       -3.337040   1.000000
   22       -3.017084   1.000000
   23       -2.889203   1.000000
   24       -2.634394   1.000000
   25       -1.070574   0.000000
   26       -0.238233   0.000000
   27        0.040348   0.000000
   28        0.208513   0.000000
   29        0.546337   0.000000
   30        0.768698   0.000000
   31        0.847385   0.000000
   32        1.060086   0.000000
