Al   C    O    H                        
   1.0000000000000000     
     6.0191999999999997    0.0000000000000000    0.0000000000000000
     0.0000000000000000   10.1400000000000006    0.0000000000000000
     0.0000000000000000    0.0000000000000000   15.0000000000000000
   Al   C    O    H 
     8     4     1     2
Selective dynamics
Direct
  0.4479988521154858  0.8170625412715167  0.2975462822657847   T   T   T
  0.9563605767389499  0.8219288518779877  0.2524223798510453   T   T   T
  0.4535600868553113  0.5629074360178334  0.2634153986784466   T   T   T
  0.9545444217106588  0.5634157858248495  0.2368511070107978   T   T   T
  0.4558570155806023  0.3202965331681187  0.2335445298345213   T   T   T
  0.9555363812093733  0.3216433264988098  0.2603074174114012   T   T   T
  0.4596466921082211  0.0589769659651162  0.2464435351869467   T   T   T
  0.9636246982584222  0.0655650293689752  0.2781412829397476   T   T   T
  0.2084786966546872  0.9416596914174460  0.2641361237792096   T   T   T
  0.7099568959712526  0.9444743964940203  0.2814175722915088   T   T   T
  0.2051712599039992  0.4414359627169488  0.2435771747482132   T   T   T
  0.7045926751928288  0.4417776870398068  0.2477891813830702   T   T   T
  0.5430270958662065  0.8365855276346634  0.4219473380331551   T   T   T
  0.6529710020694056  0.9092016644423633  0.3783132811634763   T   T   T
  0.4449305888144237  0.8859939433734937  0.4615569837820533   T   T   T

  0.00000000E+00  0.00000000E+00  0.00000000E+00
  0.00000000E+00  0.00000000E+00  0.00000000E+00
  0.00000000E+00  0.00000000E+00  0.00000000E+00
  0.00000000E+00  0.00000000E+00  0.00000000E+00
  0.00000000E+00  0.00000000E+00  0.00000000E+00
  0.00000000E+00  0.00000000E+00  0.00000000E+00
  0.00000000E+00  0.00000000E+00  0.00000000E+00
  0.00000000E+00  0.00000000E+00  0.00000000E+00
  0.00000000E+00  0.00000000E+00  0.00000000E+00
  0.00000000E+00  0.00000000E+00  0.00000000E+00
  0.00000000E+00  0.00000000E+00  0.00000000E+00
  0.00000000E+00  0.00000000E+00  0.00000000E+00
  0.00000000E+00  0.00000000E+00  0.00000000E+00
  0.00000000E+00  0.00000000E+00  0.00000000E+00
  0.00000000E+00  0.00000000E+00  0.00000000E+00
