--------------------------------------------------------------------------
[[691,1],2]: A high-performance Open MPI point-to-point messaging module
was unable to find any relevant network interfaces:

Module: OpenFabrics (openib)
  Host: compute-0-0

Another transport will be used instead, although this may result in
lower performance.
--------------------------------------------------------------------------
 running on    4 total cores
 distrk:  each k-point on    4 cores,    1 groups
 distr:  one band on    1 cores,    4 groups
 using from now: INCAR     
 vasp.5.4.4.18Apr17-6-g9f103f2a35 (build Dec  6 2019 17:49:40) complex           
 POSCAR found type information on POSCAR  Al C  O  H 
 POSCAR found :  4 types and      15 ions
 scaLAPACK will be used
 LDA part: xc-table for Pade appr. of Perdew
 POSCAR found type information on POSCAR  Al C  O  H 
 POSCAR found :  4 types and      15 ions
 POSCAR, INCAR and KPOINTS ok, starting setup
 FFT: planning ...
 WAVECAR not read
 entering main loop
[compute-0-0.cluster.gsc.inifta.unlp.edu.ar:25913] 3 more processes have sent help message help-mpi-btl-base.txt / btl:no-nics
[compute-0-0.cluster.gsc.inifta.unlp.edu.ar:25913] Set MCA parameter "orte_base_help_aggregate" to 0 to see all help / error messages
       N       E                     dE             d eps       ncg     rms          rms(c)
DAV:   1     0.332474997385E+03    0.33247E+03   -0.13599E+04   520   0.925E+02
DAV:   2     0.801415867403E+01   -0.32446E+03   -0.30758E+03   752   0.226E+02
DAV:   3    -0.903670695207E+02   -0.98381E+02   -0.96802E+02   800   0.115E+02
DAV:   4    -0.949396309615E+02   -0.45726E+01   -0.45607E+01   656   0.307E+01
DAV:   5    -0.951116892344E+02   -0.17206E+00   -0.17202E+00   784   0.617E+00
DAV:   6    -0.951144827064E+02   -0.27935E-02   -0.27930E-02   664   0.991E-01
DAV:   7    -0.951146826451E+02   -0.19994E-03   -0.19993E-03   800   0.192E-01    0.216E+01
DAV:   8    -0.759134762203E+02    0.19201E+02   -0.80242E+01   600   0.445E+01    0.105E+01
DAV:   9    -0.755499208569E+02    0.36356E+00   -0.51823E+00   656   0.108E+01    0.659E+00
DAV:  10    -0.749238880404E+02    0.62603E+00   -0.10675E+00   672   0.672E+00    0.793E-01
DAV:  11    -0.748794836721E+02    0.44404E-01   -0.14432E-01   744   0.178E+00    0.531E-01
DAV:  12    -0.748601783601E+02    0.19305E-01   -0.39443E-02   792   0.108E+00    0.338E-01
DAV:  13    -0.748487885957E+02    0.11390E-01   -0.13911E-02   688   0.643E-01    0.173E-01
DAV:  14    -0.748442198197E+02    0.45688E-02   -0.10642E-02   648   0.584E-01    0.139E-01
DAV:  15    -0.748472063104E+02   -0.29865E-02   -0.68632E-03   712   0.510E-01    0.114E-01
DAV:  16    -0.748479727014E+02   -0.76639E-03   -0.27310E-03   656   0.331E-01    0.777E-02
DAV:  17    -0.748477780139E+02    0.19469E-03   -0.93680E-04   704   0.153E-01    0.528E-02
DAV:  18    -0.748508709174E+02   -0.30929E-02   -0.97633E-04   696   0.166E-01    0.331E-02
DAV:  19    -0.748530985220E+02   -0.22276E-02   -0.26516E-04   632   0.899E-02    0.257E-02
DAV:  20    -0.748546561125E+02   -0.15576E-02   -0.31109E-04   672   0.744E-02    0.124E-02
DAV:  21    -0.748555505390E+02   -0.89443E-03   -0.14798E-04   576   0.502E-02    0.106E-02
DAV:  22    -0.748559035287E+02   -0.35299E-03   -0.61323E-05   600   0.349E-02    0.480E-03
DAV:  23    -0.748559728425E+02   -0.69314E-04   -0.18524E-05   792   0.206E-02    0.347E-03
DAV:  24    -0.748559991300E+02   -0.26288E-04   -0.26296E-06   448   0.107E-02    0.153E-03
DAV:  25    -0.748560139137E+02   -0.14784E-04   -0.13155E-06   440   0.528E-03    0.107E-03
DAV:  26    -0.748560199952E+02   -0.60815E-05   -0.59002E-07   376   0.329E-03    0.627E-04
DAV:  27    -0.748560228994E+02   -0.29042E-05   -0.37108E-07   384   0.263E-03    0.382E-04
DAV:  28    -0.748560241101E+02   -0.12107E-05   -0.21040E-07   384   0.250E-03    0.403E-04
DAV:  29    -0.748560244656E+02   -0.35547E-06   -0.11750E-07   440   0.201E-03
   1 F= -.74856024E+02 E0= -.74856024E+02  d E =-.284295E-16
 Finite differences POTIM= 0.01000 DOF=  45
 bond charge predicted
       N       E                     dE             d eps       ncg     rms          rms(c)
DAV:   1    -0.748553810732E+02    0.64304E-03   -0.13778E-02   512   0.605E-01    0.394E-02
DAV:   2    -0.748554588029E+02   -0.77730E-04   -0.89182E-04   664   0.149E-01    0.336E-02
DAV:   3    -0.748554409612E+02    0.17842E-04   -0.55899E-05   760   0.488E-02    0.214E-02
DAV:   4    -0.748554391288E+02    0.18324E-05   -0.79498E-05   656   0.475E-02    0.893E-03
DAV:   5    -0.748554375910E+02    0.15378E-05   -0.18385E-05   760   0.274E-02    0.345E-03
DAV:   6    -0.748554380247E+02   -0.43372E-06   -0.28913E-06   568   0.890E-03
   2 F= -.74855438E+02 E0= -.74855438E+02  d E =-.411345E-16
 Finite differences progress:
  Degree of freedom:   1/ 45
  Displacement:        1/  2
  Total:               1/ 90
 bond charge predicted
       N       E                     dE             d eps       ncg     rms          rms(c)
DAV:   1    -0.748551745340E+02    0.26306E-03   -0.55116E-02   512   0.121E+00    0.787E-02
DAV:   2    -0.748554826123E+02   -0.30808E-03   -0.35582E-03   664   0.300E-01    0.673E-02
DAV:   3    -0.748554102916E+02    0.72321E-04   -0.22446E-04   760   0.977E-02    0.426E-02
DAV:   4    -0.748554026149E+02    0.76767E-05   -0.31039E-04   656   0.938E-02    0.176E-02
DAV:   5    -0.748553968387E+02    0.57762E-05   -0.69307E-05   768   0.535E-02    0.673E-03
DAV:   6    -0.748553984735E+02   -0.16348E-05   -0.11347E-05   584   0.172E-02    0.284E-03
DAV:   7    -0.748553984713E+02    0.21705E-08   -0.83404E-07   456   0.631E-03
   3 F= -.74855398E+02 E0= -.74855398E+02  d E =-.204236E-16
 Finite differences progress:
  Degree of freedom:   1/ 45
  Displacement:        2/  2
  Total:               2/ 90
 bond charge predicted
       N       E                     dE             d eps       ncg     rms          rms(c)
DAV:   1    -0.748550245917E+02    0.37388E-03   -0.27999E-02   512   0.863E-01    0.512E-02
DAV:   2    -0.748551427897E+02   -0.11820E-03   -0.15954E-03   688   0.191E-01    0.419E-02
DAV:   3    -0.748551166254E+02    0.26164E-04   -0.10274E-04   752   0.619E-02    0.255E-02
DAV:   4    -0.748551163760E+02    0.24937E-06   -0.97063E-05   648   0.498E-02    0.107E-02
DAV:   5    -0.748551140089E+02    0.23671E-05   -0.17818E-05   768   0.259E-02    0.354E-03
DAV:   6    -0.748551144168E+02   -0.40796E-06   -0.48907E-06   616   0.106E-02
   4 F= -.74855114E+02 E0= -.74855114E+02  d E =-.232657E-16
 Finite differences progress:
  Degree of freedom:   2/ 45
  Displacement:        1/  2
  Total:               3/ 90
 bond charge predicted
       N       E                     dE             d eps       ncg     rms          rms(c)
DAV:   1    -0.748551120985E+02    0.19104E-05   -0.59334E-02   528   0.123E+00    0.725E-02
DAV:   2    -0.748552404847E+02   -0.12839E-03   -0.26697E-03   672   0.269E-01    0.543E-02
DAV:   3    -0.748552015236E+02    0.38961E-04   -0.22996E-04   696   0.900E-02    0.259E-02
DAV:   4    -0.748552023671E+02   -0.84350E-06   -0.65735E-05   632   0.406E-02    0.115E-02
DAV:   5    -0.748551999355E+02    0.24315E-05   -0.76381E-06   680   0.209E-02    0.503E-03
DAV:   6    -0.748551992031E+02    0.73248E-06   -0.77339E-06   656   0.138E-02
   5 F= -.74855199E+02 E0= -.74855199E+02  d E =-.391270E-16
 Finite differences progress:
  Degree of freedom:   2/ 45
  Displacement:        2/  2
  Total:               4/ 90
 bond charge predicted
       N       E                     dE             d eps       ncg     rms          rms(c)
DAV:   1    -0.748554981749E+02   -0.29824E-03   -0.25859E-02   512   0.831E-01    0.763E-02
DAV:   2    -0.748555721827E+02   -0.74008E-04   -0.13450E-03   672   0.187E-01    0.508E-02
DAV:   3    -0.748555619428E+02    0.10240E-04   -0.93392E-05   744   0.648E-02    0.356E-02
DAV:   4    -0.748555577282E+02    0.42146E-05   -0.59863E-05   784   0.477E-02    0.172E-02
DAV:   5    -0.748555547331E+02    0.29951E-05   -0.12888E-05   800   0.355E-02    0.438E-03
DAV:   6    -0.748555545940E+02    0.13911E-06   -0.59597E-06   608   0.130E-02
   6 F= -.74855555E+02 E0= -.74855555E+02  d E =-.126333E-15
 Finite differences progress:
  Degree of freedom:   3/ 45
  Displacement:        1/  2
  Total:               5/ 90
 bond charge predicted
       N       E                     dE             d eps       ncg     rms          rms(c)
DAV:   1    -0.748554073218E+02    0.14741E-03   -0.45482E-02   512   0.110E+00    0.117E-01
DAV:   2    -0.748556312796E+02   -0.22396E-03   -0.33262E-03   680   0.293E-01    0.900E-02
DAV:   3    -0.748555935823E+02    0.37697E-04   -0.17034E-04   728   0.101E-01    0.685E-02
DAV:   4    -0.748555751857E+02    0.18397E-04   -0.34592E-04   784   0.119E-01    0.360E-02
DAV:   5    -0.748555603828E+02    0.14803E-04   -0.10135E-04   896   0.931E-02    0.115E-02
DAV:   6    -0.748555573990E+02    0.29838E-05   -0.24395E-05   640   0.246E-02    0.579E-03
DAV:   7    -0.748555584025E+02   -0.10035E-05   -0.20819E-06   536   0.128E-02    0.400E-03
DAV:   8    -0.748555627713E+02   -0.43688E-05   -0.36970E-06   560   0.104E-02    0.147E-03
DAV:   9    -0.748555659761E+02   -0.32048E-05   -0.45948E-07   408   0.398E-03    0.165E-03
DAV:  10    -0.748555713828E+02   -0.54067E-05   -0.68447E-07   376   0.582E-03    0.687E-04
DAV:  11    -0.748555742459E+02   -0.28631E-05   -0.61696E-07   432   0.400E-03    0.518E-04
DAV:  12    -0.748555764236E+02   -0.21776E-05   -0.35309E-07   400   0.315E-03    0.495E-04
DAV:  13    -0.748555774775E+02   -0.10539E-05   -0.22994E-07   432   0.207E-03    0.326E-04
DAV:  14    -0.748555779510E+02   -0.47343E-06   -0.11212E-07   416   0.170E-03
   7 F= -.74855578E+02 E0= -.74855578E+02  d E =-.659281E-17
 Finite differences progress:
  Degree of freedom:   3/ 45
  Displacement:        2/  2
  Total:               6/ 90
 bond charge predicted
       N       E                     dE             d eps       ncg     rms          rms(c)
DAV:   1    -0.748552355789E+02    0.34190E-03   -0.25514E-02   512   0.841E-01    0.691E-02
DAV:   2    -0.748553929816E+02   -0.15740E-03   -0.19658E-03   680   0.215E-01    0.602E-02
DAV:   3    -0.748553588704E+02    0.34111E-04   -0.12008E-04   768   0.738E-02    0.455E-02
DAV:   4    -0.748553492343E+02    0.96361E-05   -0.17735E-04   784   0.854E-02    0.222E-02
DAV:   5    -0.748553452660E+02    0.39683E-05   -0.19087E-05   784   0.407E-02    0.886E-03
DAV:   6    -0.748553447186E+02    0.54740E-06   -0.20580E-05   824   0.290E-02    0.509E-03
DAV:   7    -0.748553447540E+02   -0.35386E-07   -0.24603E-06   544   0.988E-03
   8 F= -.74855345E+02 E0= -.74855345E+02  d E =-.241782E-16
 Finite differences progress:
  Degree of freedom:   4/ 45
  Displacement:        1/  2
  Total:               7/ 90
 bond charge predicted
       N       E                     dE             d eps       ncg     rms          rms(c)
DAV:   1    -0.748552262925E+02    0.11843E-03   -0.58000E-02   512   0.120E+00    0.669E-02
DAV:   2    -0.748555054459E+02   -0.27915E-03   -0.35674E-03   680   0.291E-01    0.719E-02
DAV:   3    -0.748554691205E+02    0.36325E-04   -0.13837E-04   752   0.641E-02    0.621E-02
DAV:   4    -0.748554451864E+02    0.23934E-04   -0.13351E-03   656   0.192E-01    0.381E-02
DAV:   5    -0.748554183200E+02    0.26866E-04   -0.20415E-04   616   0.796E-02    0.299E-02
DAV:   6    -0.748553930052E+02    0.25315E-04   -0.28866E-04   752   0.874E-02    0.849E-03
DAV:   7    -0.748553961782E+02   -0.31730E-05   -0.42543E-05   568   0.346E-02    0.804E-03
DAV:   8    -0.748553953824E+02    0.79578E-06   -0.45922E-06   664   0.130E-02
   9 F= -.74855395E+02 E0= -.74855395E+02  d E =-.354763E-16
 Finite differences progress:
  Degree of freedom:   4/ 45
  Displacement:        2/  2
  Total:               8/ 90
 bond charge predicted
       N       E                     dE             d eps       ncg     rms          rms(c)
DAV:   1    -0.748549837538E+02    0.41242E-03   -0.30200E-02   512   0.866E-01    0.483E-02
DAV:   2    -0.748550806913E+02   -0.96938E-04   -0.16545E-03   672   0.191E-01    0.472E-02
DAV:   3    -0.748550449134E+02    0.35778E-04   -0.13899E-04   760   0.684E-02    0.281E-02
DAV:   4    -0.748550399019E+02    0.50116E-05   -0.11450E-04   648   0.552E-02    0.100E-02
DAV:   5    -0.748550380558E+02    0.18460E-05   -0.13699E-05   736   0.231E-02    0.520E-03
DAV:   6    -0.748550383217E+02   -0.26591E-06   -0.58055E-06   632   0.122E-02
  10 F= -.74855038E+02 E0= -.74855038E+02  d E =-.184672E-16
 Finite differences progress:
  Degree of freedom:   5/ 45
  Displacement:        1/  2
  Total:               9/ 90
 bond charge predicted
       N       E                     dE             d eps       ncg     rms          rms(c)
DAV:   1    -0.748550146570E+02    0.23399E-04   -0.60784E-02   520   0.122E+00    0.676E-02
DAV:   2    -0.748551257839E+02   -0.11113E-03   -0.26457E-03   688   0.260E-01    0.605E-02
DAV:   3    -0.748550695173E+02    0.56267E-04   -0.23938E-04   712   0.100E-01    0.303E-02
DAV:   4    -0.748550695717E+02   -0.54445E-07   -0.12114E-04   680   0.563E-02    0.138E-02
DAV:   5    -0.748550653214E+02    0.42503E-05   -0.14478E-05   824   0.279E-02    0.682E-03
DAV:   6    -0.748550647198E+02    0.60169E-06   -0.12218E-05   664   0.187E-02    0.376E-03
DAV:   7    -0.748550644084E+02    0.31132E-06   -0.23168E-06   488   0.132E-02
  11 F= -.74855064E+02 E0= -.74855064E+02  d E =-.527963E-16
 Finite differences progress:
  Degree of freedom:   5/ 45
  Displacement:        2/  2
  Total:              10/ 90
 bond charge predicted
       N       E                     dE             d eps       ncg     rms          rms(c)
DAV:   1    -0.748558972737E+02   -0.83255E-03   -0.26694E-02   512   0.796E-01    0.455E-02
DAV:   2    -0.748559504785E+02   -0.53205E-04   -0.10310E-03   688   0.164E-01    0.374E-02
DAV:   3    -0.748559341944E+02    0.16284E-04   -0.13059E-04   752   0.705E-02    0.158E-02
DAV:   4    -0.748559392349E+02   -0.50404E-05   -0.32145E-05   648   0.279E-02    0.849E-03
DAV:   5    -0.748559393121E+02   -0.77270E-07   -0.46291E-06   664   0.173E-02
  12 F= -.74855939E+02 E0= -.74855939E+02  d E =-.310721E-16
 Finite differences progress:
  Degree of freedom:   6/ 45
  Displacement:        1/  2
  Total:              11/ 90
 bond charge predicted
       N       E                     dE             d eps       ncg     rms          rms(c)
DAV:   1    -0.748556475833E+02    0.29165E-03   -0.38034E-02   520   0.897E-01    0.524E-02
DAV:   2    -0.748557289115E+02   -0.81328E-04   -0.83849E-04   640   0.131E-01    0.335E-02
DAV:   3    -0.748557488097E+02   -0.19898E-04   -0.11002E-04   664   0.542E-02    0.103E-02
DAV:   4    -0.748557523170E+02   -0.35073E-05   -0.12409E-05   656   0.176E-02    0.589E-03
DAV:   5    -0.748557532438E+02   -0.92676E-06   -0.74888E-06   584   0.133E-02
  13 F= -.74855753E+02 E0= -.74855753E+02  d E =-.248856E-16
 Finite differences progress:
  Degree of freedom:   6/ 45
  Displacement:        2/  2
  Total:              12/ 90
 bond charge predicted
       N       E                     dE             d eps       ncg     rms          rms(c)
DAV:   1    -0.748552929819E+02    0.45934E-03   -0.23856E-02   536   0.789E-01    0.394E-02
DAV:   2    -0.748554299558E+02   -0.13697E-03   -0.15127E-03   688   0.178E-01    0.439E-02
DAV:   3    -0.748554129347E+02    0.17021E-04   -0.55735E-05   744   0.411E-02    0.365E-02
DAV:   4    -0.748554065936E+02    0.63411E-05   -0.42599E-04   688   0.106E-01    0.178E-02
DAV:   5    -0.748553961812E+02    0.10412E-04   -0.88944E-05   664   0.478E-02    0.120E-02
DAV:   6    -0.748553945387E+02    0.16425E-05   -0.55877E-05   680   0.348E-02    0.322E-03
DAV:   7    -0.748553949302E+02   -0.39153E-06   -0.74082E-06   624   0.136E-02
  14 F= -.74855395E+02 E0= -.74855395E+02  d E =-.284396E-16
 Finite differences progress:
  Degree of freedom:   7/ 45
  Displacement:        1/  2
  Total:              13/ 90
 bond charge predicted
       N       E                     dE             d eps       ncg     rms          rms(c)
DAV:   1    -0.748551328822E+02    0.26166E-03   -0.58415E-02   512   0.117E+00    0.641E-02
DAV:   2    -0.748554446080E+02   -0.31173E-03   -0.39764E-03   680   0.295E-01    0.757E-02
DAV:   3    -0.748554619401E+02   -0.17332E-04   -0.14645E-04   744   0.549E-02    0.766E-02
DAV:   4    -0.748555259776E+02   -0.64037E-04   -0.66904E-05   840   0.417E-02    0.842E-02
DAV:   5    -0.748554526375E+02    0.73340E-04   -0.48487E-05   704   0.374E-02    0.780E-02
DAV:   6    -0.748569971032E+02   -0.15445E-02   -0.80091E-03   736   0.468E-01    0.181E-01
DAV:   7    -0.748661747812E+02   -0.91777E-02   -0.14984E-02   720   0.626E-01    0.463E-01
DAV:   8    -0.748552867064E+02    0.10888E-01   -0.22285E-02   632   0.834E-01    0.114E-01
DAV:   9    -0.748552383787E+02    0.48328E-04   -0.79551E-03   696   0.345E-01    0.311E-02
DAV:  10    -0.748554637097E+02   -0.22533E-03   -0.12477E-03   576   0.194E-01    0.485E-02
DAV:  11    -0.748552985916E+02    0.16512E-03   -0.39805E-04   576   0.133E-01    0.217E-02
DAV:  12    -0.748553244974E+02   -0.25906E-04   -0.27244E-04   712   0.600E-02    0.216E-02
DAV:  13    -0.748553307720E+02   -0.62746E-05   -0.26944E-04   616   0.872E-02    0.196E-02
DAV:  14    -0.748553173820E+02    0.13390E-04   -0.44202E-05   560   0.362E-02    0.955E-03
DAV:  15    -0.748553125814E+02    0.48006E-05   -0.93814E-06   592   0.161E-02    0.392E-03
DAV:  16    -0.748553143360E+02   -0.17546E-05   -0.24970E-06   488   0.871E-03    0.682E-03
DAV:  17    -0.748553124765E+02    0.18596E-05   -0.12910E-06   352   0.776E-03    0.368E-03
DAV:  18    -0.748553120448E+02    0.43170E-06   -0.38714E-06   568   0.811E-03
  15 F= -.74855312E+02 E0= -.74855312E+02  d E =-.295093E-16
 Finite differences progress:
  Degree of freedom:   7/ 45
  Displacement:        2/  2
  Total:              14/ 90
 bond charge predicted
       N       E                     dE             d eps       ncg     rms          rms(c)
DAV:   1    -0.748549177768E+02    0.39470E-03   -0.29647E-02   512   0.835E-01    0.460E-02
DAV:   2    -0.748550381802E+02   -0.12040E-03   -0.17998E-03   704   0.187E-01    0.478E-02
DAV:   3    -0.748550078249E+02    0.30355E-04   -0.89960E-05   752   0.513E-02    0.340E-02
DAV:   4    -0.748549922318E+02    0.15593E-04   -0.20662E-04   648   0.711E-02    0.113E-02
DAV:   5    -0.748549891546E+02    0.30772E-05   -0.36181E-05   688   0.324E-02    0.644E-03
DAV:   6    -0.748549892113E+02   -0.56684E-07   -0.13362E-05   696   0.163E-02    0.285E-03
DAV:   7    -0.748549892967E+02   -0.85393E-07   -0.10319E-06   368   0.711E-03
  16 F= -.74854989E+02 E0= -.74854989E+02  d E =-.129575E-14
 Finite differences progress:
  Degree of freedom:   8/ 45
  Displacement:        1/  2
  Total:              15/ 90
 bond charge predicted
       N       E                     dE             d eps       ncg     rms          rms(c)
DAV:   1    -0.748549886303E+02    0.58094E-06   -0.60989E-02   520   0.117E+00    0.685E-02
DAV:   2    -0.748551221253E+02   -0.13350E-03   -0.29220E-03   696   0.261E-01    0.583E-02
DAV:   3    -0.748550689222E+02    0.53203E-04   -0.30738E-04   680   0.923E-02    0.259E-02
DAV:   4    -0.748550723604E+02   -0.34382E-05   -0.70708E-05   640   0.392E-02    0.116E-02
DAV:   5    -0.748550707836E+02    0.15768E-05   -0.10129E-05   744   0.207E-02    0.394E-03
DAV:   6    -0.748550706139E+02    0.16967E-06   -0.63420E-06   624   0.113E-02
  17 F= -.74855071E+02 E0= -.74855071E+02  d E =-.156231E-17
 Finite differences progress:
  Degree of freedom:   8/ 45
  Displacement:        2/  2
  Total:              16/ 90
 bond charge predicted
       N       E                     dE             d eps       ncg     rms          rms(c)
DAV:   1    -0.748558531667E+02   -0.78238E-03   -0.27190E-02   512   0.776E-01    0.448E-02
DAV:   2    -0.748559191710E+02   -0.66004E-04   -0.12203E-03   696   0.164E-01    0.376E-02
DAV:   3    -0.748559004744E+02    0.18697E-04   -0.13019E-04   720   0.615E-02    0.167E-02
DAV:   4    -0.748559037187E+02   -0.32443E-05   -0.30818E-05   640   0.252E-02    0.758E-03
DAV:   5    -0.748559038359E+02   -0.11717E-06   -0.42130E-06   608   0.141E-02
  18 F= -.74855904E+02 E0= -.74855904E+02  d E =-.247183E-16
 Finite differences progress:
  Degree of freedom:   9/ 45
  Displacement:        1/  2
  Total:              17/ 90
 bond charge predicted
       N       E                     dE             d eps       ncg     rms          rms(c)
DAV:   1    -0.748556570757E+02    0.24664E-03   -0.38181E-02   544   0.881E-01    0.502E-02
DAV:   2    -0.748557701283E+02   -0.11305E-03   -0.10034E-03   608   0.135E-01    0.337E-02
DAV:   3    -0.748557891943E+02   -0.19066E-04   -0.99455E-05   632   0.557E-02    0.114E-02
DAV:   4    -0.748557952738E+02   -0.60796E-05   -0.15830E-05   640   0.191E-02    0.653E-03
DAV:   5    -0.748557955270E+02   -0.25324E-06   -0.48722E-06   592   0.148E-02
  19 F= -.74855796E+02 E0= -.74855796E+02  d E =-.304238E-16
 Finite differences progress:
  Degree of freedom:   9/ 45
  Displacement:        2/  2
  Total:              18/ 90
 bond charge predicted
       N       E                     dE             d eps       ncg     rms          rms(c)
DAV:   1    -0.748552666699E+02    0.52860E-03   -0.24119E-02   568   0.751E-01    0.392E-02
DAV:   2    -0.748554047386E+02   -0.13807E-03   -0.15114E-03   648   0.167E-01    0.438E-02
DAV:   3    -0.748553904330E+02    0.14306E-04   -0.53764E-05   776   0.382E-02    0.370E-02
DAV:   4    -0.748553784072E+02    0.12026E-04   -0.36947E-04   600   0.979E-02    0.151E-02
DAV:   5    -0.748553740428E+02    0.43645E-05   -0.72355E-05   632   0.428E-02    0.132E-02
DAV:   6    -0.748553704003E+02    0.36425E-05   -0.53537E-05   680   0.366E-02    0.403E-03
DAV:   7    -0.748553709925E+02   -0.59225E-06   -0.87694E-06   544   0.155E-02
  20 F= -.74855371E+02 E0= -.74855371E+02  d E =-.288491E-16
 Finite differences progress:
  Degree of freedom:  10/ 45
  Displacement:        1/  2
  Total:              19/ 90
 bond charge predicted
       N       E                     dE             d eps       ncg     rms          rms(c)
DAV:   1    -0.748551152906E+02    0.25511E-03   -0.59386E-02   512   0.119E+00    0.658E-02
DAV:   2    -0.748554240885E+02   -0.30880E-03   -0.40048E-03   688   0.300E-01    0.758E-02
DAV:   3    -0.748554340271E+02   -0.99386E-05   -0.14792E-04   752   0.565E-02    0.751E-02
DAV:   4    -0.748554608779E+02   -0.26851E-04   -0.15150E-05   768   0.189E-02    0.801E-02
DAV:   5    -0.748554305428E+02    0.30335E-04   -0.26228E-03   696   0.266E-01    0.461E-02
DAV:   6    -0.748553369588E+02    0.93584E-04   -0.54763E-04   600   0.120E-01    0.322E-02
DAV:   7    -0.748552975270E+02    0.39432E-04   -0.20188E-04   712   0.649E-02    0.136E-02
DAV:   8    -0.748552996645E+02   -0.21375E-05   -0.34626E-05   616   0.266E-02    0.107E-02
DAV:   9    -0.748552925996E+02    0.70649E-05   -0.32879E-05   816   0.280E-02    0.586E-03
DAV:  10    -0.748552939635E+02   -0.13639E-05   -0.75310E-06   616   0.158E-02    0.668E-03
DAV:  11    -0.748552938376E+02    0.12592E-06   -0.22145E-06   528   0.674E-03
  21 F= -.74855294E+02 E0= -.74855294E+02  d E =-.283267E-16
 Finite differences progress:
  Degree of freedom:  10/ 45
  Displacement:        2/  2
  Total:              20/ 90
 bond charge predicted
       N       E                     dE             d eps       ncg     rms          rms(c)
DAV:   1    -0.748549480649E+02    0.34590E-03   -0.30184E-02   520   0.841E-01    0.492E-02
DAV:   2    -0.748550315851E+02   -0.83520E-04   -0.15529E-03   688   0.186E-01    0.456E-02
DAV:   3    -0.748549921263E+02    0.39459E-04   -0.19196E-04   704   0.749E-02    0.228E-02
DAV:   4    -0.748549926700E+02   -0.54369E-06   -0.10592E-04   632   0.480E-02    0.121E-02
DAV:   5    -0.748549875743E+02    0.50957E-05   -0.16640E-05   792   0.239E-02    0.499E-03
DAV:   6    -0.748549877270E+02   -0.15269E-06   -0.91086E-06   664   0.135E-02
  22 F= -.74854988E+02 E0= -.74854988E+02  d E =-.146769E-14
 Finite differences progress:
  Degree of freedom:  11/ 45
  Displacement:        1/  2
  Total:              21/ 90
 bond charge predicted
       N       E                     dE             d eps       ncg     rms          rms(c)
DAV:   1    -0.748549477018E+02    0.39873E-04   -0.61104E-02   520   0.118E+00    0.671E-02
DAV:   2    -0.748550619309E+02   -0.11423E-03   -0.26728E-03   672   0.256E-01    0.559E-02
DAV:   3    -0.748550144666E+02    0.47464E-04   -0.36581E-04   664   0.988E-02    0.226E-02
DAV:   4    -0.748550162615E+02   -0.17949E-05   -0.55866E-05   640   0.343E-02    0.111E-02
DAV:   5    -0.748550143699E+02    0.18916E-05   -0.98934E-06   704   0.198E-02    0.386E-03
DAV:   6    -0.748550141938E+02    0.17615E-06   -0.61858E-06   616   0.110E-02
  23 F= -.74855014E+02 E0= -.74855014E+02  d E =-.104076E-17
 Finite differences progress:
  Degree of freedom:  11/ 45
  Displacement:        2/  2
  Total:              22/ 90
 bond charge predicted
       N       E                     dE             d eps       ncg     rms          rms(c)
DAV:   1    -0.748558502416E+02   -0.83587E-03   -0.24447E-02   528   0.733E-01    0.410E-02
DAV:   2    -0.748559089793E+02   -0.58738E-04   -0.84328E-04   680   0.134E-01    0.316E-02
DAV:   3    -0.748559028487E+02    0.61306E-05   -0.12190E-04   696   0.556E-02    0.119E-02
DAV:   4    -0.748559045185E+02   -0.16698E-05   -0.17259E-05   648   0.192E-02    0.660E-03
DAV:   5    -0.748559045418E+02   -0.23294E-07   -0.63195E-06   656   0.141E-02
  24 F= -.74855905E+02 E0= -.74855905E+02  d E =-.409937E-16
 Finite differences progress:
  Degree of freedom:  12/ 45
  Displacement:        1/  2
  Total:              23/ 90
 bond charge predicted
       N       E                     dE             d eps       ncg     rms          rms(c)
DAV:   1    -0.748557485670E+02    0.15595E-03   -0.38353E-02   528   0.873E-01    0.515E-02
DAV:   2    -0.748558459894E+02   -0.97422E-04   -0.93361E-04   640   0.125E-01    0.317E-02
DAV:   3    -0.748558645120E+02   -0.18523E-04   -0.87893E-05   648   0.451E-02    0.912E-03
DAV:   4    -0.748558688149E+02   -0.43029E-05   -0.10177E-05   656   0.138E-02    0.496E-03
DAV:   5    -0.748558693876E+02   -0.57271E-06   -0.43446E-06   608   0.966E-03
  25 F= -.74855869E+02 E0= -.74855869E+02  d E =-.224667E-16
 Finite differences progress:
  Degree of freedom:  12/ 45
  Displacement:        2/  2
  Total:              24/ 90
 bond charge predicted
       N       E                     dE             d eps       ncg     rms          rms(c)
DAV:   1    -0.748552500481E+02    0.61877E-03   -0.24144E-02   536   0.746E-01    0.403E-02
DAV:   2    -0.748553887373E+02   -0.13869E-03   -0.15172E-03   672   0.167E-01    0.436E-02
DAV:   3    -0.748553709061E+02    0.17831E-04   -0.65295E-05   792   0.418E-02    0.352E-02
DAV:   4    -0.748553715998E+02   -0.69367E-06   -0.45559E-04   640   0.106E-01    0.202E-02
DAV:   5    -0.748553594642E+02    0.12136E-04   -0.84866E-05   680   0.455E-02    0.153E-02
DAV:   6    -0.748553542630E+02    0.52012E-05   -0.80488E-05   712   0.422E-02    0.341E-03
DAV:   7    -0.748553548991E+02   -0.63611E-06   -0.10110E-05   616   0.155E-02    0.213E-03
DAV:   8    -0.748553551516E+02   -0.25247E-06   -0.27592E-06   544   0.737E-03
  26 F= -.74855355E+02 E0= -.74855355E+02  d E =-.265529E-16
 Finite differences progress:
  Degree of freedom:  13/ 45
  Displacement:        1/  2
  Total:              25/ 90
 bond charge predicted
       N       E                     dE             d eps       ncg     rms          rms(c)
DAV:   1    -0.748551139917E+02    0.24091E-03   -0.59373E-02   512   0.118E+00    0.667E-02
DAV:   2    -0.748554021447E+02   -0.28815E-03   -0.38061E-03   672   0.291E-01    0.745E-02
DAV:   3    -0.748553988501E+02    0.32946E-05   -0.16151E-04   760   0.574E-02    0.715E-02
DAV:   4    -0.748552872164E+02    0.11163E-03   -0.73098E-04   768   0.141E-01    0.286E-02
DAV:   5    -0.748553887915E+02   -0.10158E-03   -0.71392E-04   648   0.122E-01    0.463E-02
DAV:   6    -0.748552659362E+02    0.12286E-03   -0.36194E-04   680   0.102E-01    0.139E-02
DAV:   7    -0.748552754897E+02   -0.95535E-05   -0.20875E-04   736   0.600E-02    0.696E-03
DAV:   8    -0.748552751784E+02    0.31133E-06   -0.11802E-05   616   0.178E-02    0.449E-03
DAV:   9    -0.748552754533E+02   -0.27495E-06   -0.89712E-06   680   0.132E-02
  27 F= -.74855275E+02 E0= -.74855275E+02  d E =-.306679E-16
 Finite differences progress:
  Degree of freedom:  13/ 45
  Displacement:        2/  2
  Total:              26/ 90
 bond charge predicted
       N       E                     dE             d eps       ncg     rms          rms(c)
DAV:   1    -0.748549780249E+02    0.29715E-03   -0.30060E-02   512   0.840E-01    0.492E-02
DAV:   2    -0.748550663018E+02   -0.88277E-04   -0.15615E-03   688   0.184E-01    0.463E-02
DAV:   3    -0.748550279123E+02    0.38390E-04   -0.18606E-04   720   0.729E-02    0.236E-02
DAV:   4    -0.748550282884E+02   -0.37610E-06   -0.11006E-04   640   0.489E-02    0.118E-02
DAV:   5    -0.748550237217E+02    0.45667E-05   -0.17351E-05   784   0.236E-02    0.510E-03
DAV:   6    -0.748550239143E+02   -0.19259E-06   -0.91579E-06   640   0.136E-02
  28 F= -.74855024E+02 E0= -.74855024E+02  d E =-.110876E-17
 Finite differences progress:
  Degree of freedom:  14/ 45
  Displacement:        1/  2
  Total:              27/ 90
 bond charge predicted
       N       E                     dE             d eps       ncg     rms          rms(c)
DAV:   1    -0.748550243817E+02   -0.66000E-06   -0.60905E-02   520   0.117E+00    0.689E-02
DAV:   2    -0.748551169702E+02   -0.92589E-04   -0.25889E-03   672   0.255E-01    0.552E-02
DAV:   3    -0.748550692736E+02    0.47697E-04   -0.40841E-04   624   0.101E-01    0.210E-02
DAV:   4    -0.748550664542E+02    0.28195E-05   -0.55562E-05   640   0.360E-02    0.113E-02
DAV:   5    -0.748550621939E+02    0.42602E-05   -0.13971E-05   696   0.218E-02    0.360E-03
DAV:   6    -0.748550622073E+02   -0.13361E-07   -0.47735E-06   608   0.102E-02
  29 F= -.74855062E+02 E0= -.74855062E+02  d E =-.151858E-14
 Finite differences progress:
  Degree of freedom:  14/ 45
  Displacement:        2/  2
  Total:              28/ 90
 bond charge predicted
       N       E                     dE             d eps       ncg     rms          rms(c)
DAV:   1    -0.748558006741E+02   -0.73848E-03   -0.25715E-02   512   0.750E-01    0.443E-02
DAV:   2    -0.748558523218E+02   -0.51648E-04   -0.97111E-04   688   0.152E-01    0.342E-02
DAV:   3    -0.748558438336E+02    0.84881E-05   -0.16180E-04   648   0.643E-02    0.128E-02
DAV:   4    -0.748558461533E+02   -0.23196E-05   -0.23477E-05   656   0.229E-02    0.719E-03
DAV:   5    -0.748558475370E+02   -0.13837E-05   -0.63615E-06   624   0.142E-02    0.241E-03
DAV:   6    -0.748558478019E+02   -0.26496E-06   -0.15702E-06   456   0.645E-03
  30 F= -.74855848E+02 E0= -.74855848E+02  d E =-.375416E-16
 Finite differences progress:
  Degree of freedom:  15/ 45
  Displacement:        1/  2
  Total:              29/ 90
 bond charge predicted
       N       E                     dE             d eps       ncg     rms          rms(c)
DAV:   1    -0.748557827646E+02    0.64772E-04   -0.38300E-02   536   0.872E-01    0.508E-02
DAV:   2    -0.748558794419E+02   -0.96677E-04   -0.90888E-04   640   0.123E-01    0.318E-02
DAV:   3    -0.748558982171E+02   -0.18775E-04   -0.93796E-05   664   0.490E-02    0.945E-03
DAV:   4    -0.748559022081E+02   -0.39910E-05   -0.11778E-05   656   0.155E-02    0.542E-03
DAV:   5    -0.748559024497E+02   -0.24156E-06   -0.53071E-06   584   0.120E-02
  31 F= -.74855902E+02 E0= -.74855902E+02  d E =-.255693E-16
 Finite differences progress:
  Degree of freedom:  15/ 45
  Displacement:        2/  2
  Total:              30/ 90
 bond charge predicted
       N       E                     dE             d eps       ncg     rms          rms(c)
DAV:   1    -0.748552591966E+02    0.64301E-03   -0.24306E-02   520   0.750E-01    0.404E-02
DAV:   2    -0.748553814361E+02   -0.12224E-03   -0.13873E-03   672   0.163E-01    0.423E-02
DAV:   3    -0.748553631145E+02    0.18322E-04   -0.67783E-05   776   0.433E-02    0.325E-02
DAV:   4    -0.748553610950E+02    0.20195E-05   -0.30896E-04   632   0.872E-02    0.157E-02
DAV:   5    -0.748553520745E+02    0.90205E-05   -0.62786E-05   720   0.402E-02    0.932E-03
DAV:   6    -0.748553522548E+02   -0.18039E-06   -0.34552E-05   632   0.259E-02    0.290E-03
DAV:   7    -0.748553524410E+02   -0.18618E-06   -0.38488E-06   656   0.105E-02
  32 F= -.74855352E+02 E0= -.74855352E+02  d E =-.321149E-16
 Finite differences progress:
  Degree of freedom:  16/ 45
  Displacement:        1/  2
  Total:              31/ 90
 bond charge predicted
       N       E                     dE             d eps       ncg     rms          rms(c)
DAV:   1    -0.748550913546E+02    0.26090E-03   -0.59709E-02   512   0.118E+00    0.669E-02
DAV:   2    -0.748553926538E+02   -0.30130E-03   -0.39489E-03   672   0.298E-01    0.758E-02
DAV:   3    -0.748553995687E+02   -0.69149E-05   -0.16407E-04   768   0.571E-02    0.745E-02
DAV:   4    -0.748553791724E+02    0.20396E-04   -0.63603E-06   680   0.167E-02    0.716E-02
DAV:   5    -0.748554651297E+02   -0.85957E-04   -0.28402E-03   720   0.273E-01    0.557E-02
DAV:   6    -0.748552923120E+02    0.17282E-03   -0.68095E-04   672   0.141E-01    0.340E-02
DAV:   7    -0.748552560553E+02    0.36257E-04   -0.52266E-04   752   0.103E-01    0.542E-03
DAV:   8    -0.748552632153E+02   -0.71600E-05   -0.75278E-05   552   0.436E-02    0.565E-03
DAV:   9    -0.748552631045E+02    0.11080E-06   -0.55660E-06   608   0.122E-02
  33 F= -.74855263E+02 E0= -.74855263E+02  d E =-.257455E-16
 Finite differences progress:
  Degree of freedom:  16/ 45
  Displacement:        2/  2
  Total:              32/ 90
 bond charge predicted
       N       E                     dE             d eps       ncg     rms          rms(c)
DAV:   1    -0.748549158676E+02    0.34735E-03   -0.30453E-02   512   0.847E-01    0.496E-02
DAV:   2    -0.748550082918E+02   -0.92424E-04   -0.16215E-03   688   0.189E-01    0.466E-02
DAV:   3    -0.748549694648E+02    0.38827E-04   -0.19495E-04   728   0.739E-02    0.238E-02
DAV:   4    -0.748549707562E+02   -0.12914E-05   -0.10713E-04   648   0.479E-02    0.118E-02
DAV:   5    -0.748549669278E+02    0.38284E-05   -0.15969E-05   776   0.229E-02    0.505E-03
DAV:   6    -0.748549671734E+02   -0.24562E-06   -0.88275E-06   656   0.133E-02
  34 F= -.74854967E+02 E0= -.74854967E+02  d E =-.123392E-17
 Finite differences progress:
  Degree of freedom:  17/ 45
  Displacement:        1/  2
  Total:              33/ 90
 bond charge predicted
       N       E                     dE             d eps       ncg     rms          rms(c)
DAV:   1    -0.748549546917E+02    0.12236E-04   -0.61613E-02   520   0.118E+00    0.693E-02
DAV:   2    -0.748550427104E+02   -0.88019E-04   -0.25333E-03   672   0.252E-01    0.557E-02
DAV:   3    -0.748549955026E+02    0.47208E-04   -0.41960E-04   648   0.104E-01    0.212E-02
DAV:   4    -0.748549942905E+02    0.12122E-05   -0.57638E-05   640   0.361E-02    0.114E-02
DAV:   5    -0.748549910462E+02    0.32442E-05   -0.13368E-05   696   0.212E-02    0.362E-03
DAV:   6    -0.748549910585E+02   -0.12279E-07   -0.53280E-06   640   0.107E-02
  35 F= -.74854991E+02 E0= -.74854991E+02  d E =-.143248E-14
 Finite differences progress:
  Degree of freedom:  17/ 45
  Displacement:        2/  2
  Total:              34/ 90
 bond charge predicted
       N       E                     dE             d eps       ncg     rms          rms(c)
DAV:   1    -0.748558747676E+02   -0.88372E-03   -0.23261E-02   512   0.713E-01    0.409E-02
DAV:   2    -0.748559259609E+02   -0.51193E-04   -0.71366E-04   664   0.124E-01    0.298E-02
DAV:   3    -0.748559251062E+02    0.85462E-06   -0.11580E-04   632   0.535E-02    0.106E-02
DAV:   4    -0.748559272773E+02   -0.21711E-05   -0.16367E-05   672   0.190E-02    0.619E-03
DAV:   5    -0.748559282474E+02   -0.97001E-06   -0.57612E-06   624   0.129E-02
  36 F= -.74855928E+02 E0= -.74855928E+02  d E =-.229272E-16
 Finite differences progress:
  Degree of freedom:  18/ 45
  Displacement:        1/  2
  Total:              35/ 90
 bond charge predicted
       N       E                     dE             d eps       ncg     rms          rms(c)
DAV:   1    -0.748557169058E+02    0.21037E-03   -0.38715E-02   528   0.877E-01    0.521E-02
DAV:   2    -0.748558100754E+02   -0.93170E-04   -0.91053E-04   624   0.126E-01    0.329E-02
DAV:   3    -0.748558294570E+02   -0.19382E-04   -0.10989E-04   640   0.514E-02    0.102E-02
DAV:   4    -0.748558333505E+02   -0.38936E-05   -0.12671E-05   648   0.164E-02    0.602E-03
DAV:   5    -0.748558341909E+02   -0.84034E-06   -0.78108E-06   632   0.138E-02
  37 F= -.74855834E+02 E0= -.74855834E+02  d E =-.341068E-16
 Finite differences progress:
  Degree of freedom:  18/ 45
  Displacement:        2/  2
  Total:              36/ 90
 bond charge predicted
       N       E                     dE             d eps       ncg     rms          rms(c)
DAV:   1    -0.748552438975E+02    0.58945E-03   -0.24384E-02   520   0.801E-01    0.442E-02
DAV:   2    -0.748553525057E+02   -0.10861E-03   -0.12708E-03   664   0.175E-01    0.419E-02
DAV:   3    -0.748553284054E+02    0.24100E-04   -0.83715E-05   752   0.559E-02    0.270E-02
DAV:   4    -0.748553335134E+02   -0.51081E-05   -0.20483E-04   648   0.726E-02    0.156E-02
DAV:   5    -0.748553250910E+02    0.84225E-05   -0.38331E-05   736   0.348E-02    0.730E-03
DAV:   6    -0.748553258422E+02   -0.75127E-06   -0.23657E-05   688   0.223E-02    0.297E-03
DAV:   7    -0.748553257683E+02    0.73946E-07   -0.15529E-06   480   0.808E-03
  38 F= -.74855326E+02 E0= -.74855326E+02  d E =-.322798E-16
 Finite differences progress:
  Degree of freedom:  19/ 45
  Displacement:        1/  2
  Total:              37/ 90
 bond charge predicted
       N       E                     dE             d eps       ncg     rms          rms(c)
DAV:   1    -0.748551517010E+02    0.17414E-03   -0.59355E-02   512   0.121E+00    0.724E-02
DAV:   2    -0.748554225600E+02   -0.27086E-03   -0.35970E-03   664   0.301E-01    0.750E-02
DAV:   3    -0.748553730901E+02    0.49470E-04   -0.16946E-04   752   0.732E-02    0.622E-02
DAV:   4    -0.748553836072E+02   -0.10517E-04   -0.16162E-03   688   0.209E-01    0.466E-02
DAV:   5    -0.748553295753E+02    0.54032E-04   -0.23649E-04   632   0.881E-02    0.331E-02
DAV:   6    -0.748553031037E+02    0.26472E-04   -0.41569E-04   736   0.101E-01    0.104E-02
DAV:   7    -0.748553055473E+02   -0.24436E-05   -0.48228E-05   560   0.370E-02    0.949E-03
DAV:   8    -0.748553039372E+02    0.16101E-05   -0.96328E-06   736   0.165E-02    0.380E-03
DAV:   9    -0.748553040758E+02   -0.13865E-06   -0.76439E-06   696   0.141E-02
  39 F= -.74855304E+02 E0= -.74855304E+02  d E =-.263482E-16
 Finite differences progress:
  Degree of freedom:  19/ 45
  Displacement:        2/  2
  Total:              38/ 90
 bond charge predicted
       N       E                     dE             d eps       ncg     rms          rms(c)
DAV:   1    -0.748550773321E+02    0.22661E-03   -0.29931E-02   512   0.859E-01    0.500E-02
DAV:   2    -0.748551620614E+02   -0.84729E-04   -0.15364E-03   696   0.186E-01    0.478E-02
DAV:   3    -0.748551216560E+02    0.40405E-04   -0.15564E-04   736   0.706E-02    0.258E-02
DAV:   4    -0.748551190451E+02    0.26109E-05   -0.12221E-04   656   0.551E-02    0.120E-02
DAV:   5    -0.748551138299E+02    0.52152E-05   -0.18840E-05   760   0.257E-02    0.530E-03
DAV:   6    -0.748551139461E+02   -0.11625E-06   -0.81502E-06   656   0.136E-02
  40 F= -.74855114E+02 E0= -.74855114E+02  d E =-.467858E-16
 Finite differences progress:
  Degree of freedom:  20/ 45
  Displacement:        1/  2
  Total:              39/ 90
 bond charge predicted
       N       E                     dE             d eps       ncg     rms          rms(c)
DAV:   1    -0.748550902541E+02    0.23576E-04   -0.58877E-02   512   0.119E+00    0.666E-02
DAV:   2    -0.748551988944E+02   -0.10864E-03   -0.23628E-03   672   0.253E-01    0.561E-02
DAV:   3    -0.748551496218E+02    0.49273E-04   -0.31423E-04   688   0.109E-01    0.237E-02
DAV:   4    -0.748551538199E+02   -0.41982E-05   -0.77480E-05   624   0.438E-02    0.135E-02
DAV:   5    -0.748551513559E+02    0.24640E-05   -0.93332E-06   824   0.243E-02    0.737E-03
DAV:   6    -0.748551506110E+02    0.74494E-06   -0.12194E-05   696   0.173E-02    0.324E-03
DAV:   7    -0.748551502810E+02    0.32998E-06   -0.12206E-06   432   0.909E-03
  41 F= -.74855150E+02 E0= -.74855150E+02  d E =-.178490E-16
 Finite differences progress:
  Degree of freedom:  20/ 45
  Displacement:        2/  2
  Total:              40/ 90
 bond charge predicted
       N       E                     dE             d eps       ncg     rms          rms(c)
DAV:   1    -0.748557867996E+02   -0.63619E-03   -0.21941E-02   512   0.703E-01    0.390E-02
DAV:   2    -0.748558316749E+02   -0.44875E-04   -0.56452E-04   672   0.112E-01    0.293E-02
DAV:   3    -0.748558319556E+02   -0.28072E-06   -0.10557E-04   712   0.611E-02    0.109E-02
DAV:   4    -0.748558335365E+02   -0.15809E-05   -0.16637E-05   632   0.211E-02    0.756E-03
DAV:   5    -0.748558334076E+02    0.12886E-06   -0.66374E-06   656   0.170E-02
  42 F= -.74855833E+02 E0= -.74855833E+02  d E =-.321587E-16
 Finite differences progress:
  Degree of freedom:  21/ 45
  Displacement:        1/  2
  Total:              41/ 90
 bond charge predicted
       N       E                     dE             d eps       ncg     rms          rms(c)
DAV:   1    -0.748556906235E+02    0.14291E-03   -0.38834E-02   512   0.911E-01    0.519E-02
DAV:   2    -0.748557722698E+02   -0.81646E-04   -0.93129E-04   640   0.141E-01    0.344E-02
DAV:   3    -0.748557862272E+02   -0.13957E-04   -0.14671E-04   720   0.665E-02    0.118E-02
DAV:   4    -0.748557883732E+02   -0.21461E-05   -0.16834E-05   664   0.213E-02    0.754E-03
DAV:   5    -0.748557889866E+02   -0.61336E-06   -0.12218E-05   712   0.195E-02    0.298E-03
DAV:   6    -0.748557889742E+02    0.12440E-07   -0.10175E-06   448   0.707E-03
  43 F= -.74855789E+02 E0= -.74855789E+02  d E =-.267799E-16
 Finite differences progress:
  Degree of freedom:  21/ 45
  Displacement:        2/  2
  Total:              42/ 90
 bond charge predicted
       N       E                     dE             d eps       ncg     rms          rms(c)
DAV:   1    -0.748552954713E+02    0.49352E-03   -0.24508E-02   512   0.769E-01    0.432E-02
DAV:   2    -0.748554038860E+02   -0.10841E-03   -0.12543E-03   680   0.161E-01    0.421E-02
DAV:   3    -0.748553820778E+02    0.21808E-04   -0.72526E-05   736   0.495E-02    0.289E-02
DAV:   4    -0.748553870753E+02   -0.49974E-05   -0.21912E-04   656   0.744E-02    0.155E-02
DAV:   5    -0.748553781474E+02    0.89279E-05   -0.40053E-05   704   0.352E-02    0.762E-03
DAV:   6    -0.748553788271E+02   -0.67972E-06   -0.25767E-05   680   0.226E-02    0.309E-03
DAV:   7    -0.748553787560E+02    0.71068E-07   -0.16568E-06   464   0.818E-03
  44 F= -.74855379E+02 E0= -.74855379E+02  d E =-.275873E-16
 Finite differences progress:
  Degree of freedom:  22/ 45
  Displacement:        1/  2
  Total:              43/ 90
 bond charge predicted
       N       E                     dE             d eps       ncg     rms          rms(c)
DAV:   1    -0.748550849244E+02    0.29390E-03   -0.59628E-02   512   0.122E+00    0.725E-02
DAV:   2    -0.748553669775E+02   -0.28205E-03   -0.36101E-03   672   0.296E-01    0.754E-02
DAV:   3    -0.748553211288E+02    0.45849E-04   -0.16373E-04   760   0.712E-02    0.637E-02
DAV:   4    -0.748553365834E+02   -0.15455E-04   -0.17255E-03   664   0.218E-01    0.496E-02
DAV:   5    -0.748552807170E+02    0.55866E-04   -0.26229E-04   632   0.921E-02    0.362E-02
DAV:   6    -0.748552449705E+02    0.35746E-04   -0.38910E-04   736   0.986E-02    0.839E-03
DAV:   7    -0.748552495662E+02   -0.45957E-05   -0.53073E-05   576   0.388E-02    0.863E-03
DAV:   8    -0.748552481455E+02    0.14207E-05   -0.47262E-06   680   0.140E-02    0.500E-03
DAV:   9    -0.748552478587E+02    0.28679E-06   -0.97660E-06   664   0.155E-02
  45 F= -.74855248E+02 E0= -.74855248E+02  d E =-.305414E-16
 Finite differences progress:
  Degree of freedom:  22/ 45
  Displacement:        2/  2
  Total:              44/ 90
 bond charge predicted
       N       E                     dE             d eps       ncg     rms          rms(c)
DAV:   1    -0.748549433303E+02    0.30482E-03   -0.30146E-02   512   0.867E-01    0.519E-02
DAV:   2    -0.748550381357E+02   -0.94805E-04   -0.15241E-03   696   0.184E-01    0.500E-02
DAV:   3    -0.748550018325E+02    0.36303E-04   -0.11149E-04   752   0.652E-02    0.310E-02
DAV:   4    -0.748549973443E+02    0.44882E-05   -0.21078E-04   664   0.769E-02    0.150E-02
DAV:   5    -0.748549900634E+02    0.72809E-05   -0.36288E-05   744   0.339E-02    0.813E-03
DAV:   6    -0.748549896763E+02    0.38704E-06   -0.17284E-05   712   0.214E-02    0.318E-03
DAV:   7    -0.748549896846E+02   -0.82227E-08   -0.11793E-06   456   0.682E-03
  46 F= -.74854990E+02 E0= -.74854990E+02  d E =-.507905E-16
 Finite differences progress:
  Degree of freedom:  23/ 45
  Displacement:        1/  2
  Total:              45/ 90
 bond charge predicted
       N       E                     dE             d eps       ncg     rms          rms(c)
DAV:   1    -0.748549502772E+02    0.39399E-04   -0.61822E-02   520   0.123E+00    0.707E-02
DAV:   2    -0.748550554202E+02   -0.10514E-03   -0.25336E-03   680   0.265E-01    0.600E-02
DAV:   3    -0.748549961596E+02    0.59261E-04   -0.33703E-04   704   0.114E-01    0.250E-02
DAV:   4    -0.748550007691E+02   -0.46095E-05   -0.92940E-05   656   0.480E-02    0.142E-02
DAV:   5    -0.748549972498E+02    0.35193E-05   -0.12580E-05   808   0.277E-02    0.754E-03
DAV:   6    -0.748549965601E+02    0.68966E-06   -0.13266E-05   632   0.181E-02    0.344E-03
DAV:   7    -0.748549962141E+02    0.34603E-06   -0.15324E-06   416   0.102E-02
  47 F= -.74854996E+02 E0= -.74854996E+02  d E =-.165314E-16
 Finite differences progress:
  Degree of freedom:  23/ 45
  Displacement:        2/  2
  Total:              46/ 90
 bond charge predicted
       N       E                     dE             d eps       ncg     rms          rms(c)
DAV:   1    -0.748559161301E+02   -0.91957E-03   -0.25249E-02   512   0.772E-01    0.448E-02
DAV:   2    -0.748559562097E+02   -0.40080E-04   -0.82755E-04   680   0.151E-01    0.362E-02
DAV:   3    -0.748559414485E+02    0.14761E-04   -0.13783E-04   712   0.764E-02    0.146E-02
DAV:   4    -0.748559456389E+02   -0.41904E-05   -0.33413E-05   624   0.283E-02    0.905E-03
DAV:   5    -0.748559452213E+02    0.41763E-06   -0.45972E-06   648   0.178E-02
  48 F= -.74855945E+02 E0= -.74855945E+02  d E =-.288752E-16
 Finite differences progress:
  Degree of freedom:  24/ 45
  Displacement:        1/  2
  Total:              47/ 90
 bond charge predicted
       N       E                     dE             d eps       ncg     rms          rms(c)
DAV:   1    -0.748557017167E+02    0.24392E-03   -0.37929E-02   520   0.895E-01    0.519E-02
DAV:   2    -0.748557762809E+02   -0.74564E-04   -0.75649E-04   640   0.120E-01    0.325E-02
DAV:   3    -0.748557949522E+02   -0.18671E-04   -0.99564E-05   680   0.565E-02    0.993E-03
DAV:   4    -0.748557981751E+02   -0.32229E-05   -0.13013E-05   640   0.193E-02    0.628E-03
DAV:   5    -0.748557988834E+02   -0.70830E-06   -0.68390E-06   648   0.171E-02
  49 F= -.74855799E+02 E0= -.74855799E+02  d E =-.311483E-16
 Finite differences progress:
  Degree of freedom:  24/ 45
  Displacement:        2/  2
  Total:              48/ 90
 bond charge predicted
       N       E                     dE             d eps       ncg     rms          rms(c)
DAV:   1    -0.748548160170E+02    0.98216E-03   -0.30905E-01   512   0.327E+00    0.874E-02
DAV:   2    -0.748546866598E+02    0.12936E-03   -0.35267E-03   688   0.304E-01    0.520E-02
DAV:   3    -0.748545803044E+02    0.10636E-03   -0.68579E-04   680   0.119E-01    0.116E-02
DAV:   4    -0.748545872098E+02   -0.69054E-05   -0.11376E-04   608   0.463E-02    0.972E-03
DAV:   5    -0.748545883997E+02   -0.11900E-05   -0.66857E-06   672   0.162E-02    0.435E-03
DAV:   6    -0.748545883468E+02    0.52950E-07   -0.13894E-06   424   0.635E-03
  50 F= -.74854588E+02 E0= -.74854588E+02  d E =-.263064E-16
 Finite differences progress:
  Degree of freedom:  25/ 45
  Displacement:        1/  2
  Total:              49/ 90
 bond charge predicted
       N       E                     dE             d eps       ncg     rms          rms(c)
DAV:   1    -0.748558669911E+02   -0.12786E-02   -0.11890E+00   512   0.648E+00    0.172E-01
DAV:   2    -0.748548623696E+02    0.10046E-02   -0.98484E-03   664   0.558E-01    0.929E-02
DAV:   3    -0.748545021709E+02    0.36020E-03   -0.24665E-03   672   0.220E-01    0.224E-02
DAV:   4    -0.748545205124E+02   -0.18342E-04   -0.37262E-04   616   0.845E-02    0.182E-02
DAV:   5    -0.748545216959E+02   -0.11834E-05   -0.20280E-05   776   0.255E-02    0.824E-03
DAV:   6    -0.748545217675E+02   -0.71600E-07   -0.29555E-06   552   0.976E-03
  51 F= -.74854522E+02 E0= -.74854522E+02  d E =-.314306E-16
 Finite differences progress:
  Degree of freedom:  25/ 45
  Displacement:        2/  2
  Total:              50/ 90
 bond charge predicted
       N       E                     dE             d eps       ncg     rms          rms(c)
DAV:   1    -0.748558512586E+02   -0.13296E-02   -0.58311E-01   512   0.463E+00    0.119E-01
DAV:   2    -0.748552450735E+02    0.60619E-03   -0.44402E-03   640   0.370E-01    0.647E-02
DAV:   3    -0.748550635057E+02    0.18157E-03   -0.13594E-03   680   0.156E-01    0.147E-02
DAV:   4    -0.748550709006E+02   -0.73950E-05   -0.19389E-04   624   0.613E-02    0.110E-02
DAV:   5    -0.748550716015E+02   -0.70082E-06   -0.99942E-06   672   0.146E-02
  52 F= -.74855072E+02 E0= -.74855072E+02  d E =-.337933E-16
 Finite differences progress:
  Degree of freedom:  26/ 45
  Displacement:        1/  2
  Total:              51/ 90
 bond charge predicted
       N       E                     dE             d eps       ncg     rms          rms(c)
DAV:   1    -0.748566558495E+02   -0.15849E-02   -0.11378E+00   512   0.644E+00    0.162E-01
DAV:   2    -0.748555063469E+02    0.11495E-02   -0.86139E-03   664   0.515E-01    0.860E-02
DAV:   3    -0.748551447504E+02    0.36160E-03   -0.25451E-03   672   0.214E-01    0.205E-02
DAV:   4    -0.748551641362E+02   -0.19386E-04   -0.41458E-04   624   0.882E-02    0.155E-02
DAV:   5    -0.748551643656E+02   -0.22947E-06   -0.14883E-05   688   0.209E-02    0.852E-03
DAV:   6    -0.748551642559E+02    0.10971E-06   -0.19680E-06   464   0.790E-03
  53 F= -.74855164E+02 E0= -.74855164E+02  d E =-.271135E-16
 Finite differences progress:
  Degree of freedom:  26/ 45
  Displacement:        2/  2
  Total:              52/ 90
 bond charge predicted
       N       E                     dE             d eps       ncg     rms          rms(c)
DAV:   1    -0.748563658487E+02   -0.12015E-02   -0.54795E-01   512   0.446E+00    0.103E-01
DAV:   2    -0.748559703360E+02    0.39551E-03   -0.32310E-03   664   0.305E-01    0.572E-02
DAV:   3    -0.748558173538E+02    0.15298E-03   -0.96965E-04   704   0.133E-01    0.128E-02
DAV:   4    -0.748558261397E+02   -0.87859E-05   -0.14149E-04   624   0.520E-02    0.932E-03
DAV:   5    -0.748558269483E+02   -0.80861E-06   -0.76373E-06   656   0.129E-02
  54 F= -.74855827E+02 E0= -.74855827E+02  d E =-.207505E-16
 Finite differences progress:
  Degree of freedom:  27/ 45
  Displacement:        1/  2
  Total:              53/ 90
 bond charge predicted
       N       E                     dE             d eps       ncg     rms          rms(c)
DAV:   1    -0.748566636239E+02   -0.83748E-03   -0.10627E+00   512   0.601E+00    0.134E-01
DAV:   2    -0.748561238482E+02    0.53978E-03   -0.48402E-03   624   0.384E-01    0.760E-02
DAV:   3    -0.748558652682E+02    0.25858E-03   -0.15085E-03   728   0.166E-01    0.170E-02
DAV:   4    -0.748558830512E+02   -0.17783E-04   -0.20905E-04   648   0.640E-02    0.148E-02
DAV:   5    -0.748558840184E+02   -0.96725E-06   -0.81020E-06   736   0.187E-02
  55 F= -.74855884E+02 E0= -.74855884E+02  d E =-.382277E-16
 Finite differences progress:
  Degree of freedom:  27/ 45
  Displacement:        2/  2
  Total:              54/ 90
 bond charge predicted
       N       E                     dE             d eps       ncg     rms          rms(c)
DAV:   1    -0.748550220258E+02    0.86103E-03   -0.56052E-01   512   0.456E+00    0.101E-01
DAV:   2    -0.748548816472E+02    0.14038E-03   -0.49964E-03   688   0.383E-01    0.659E-02
DAV:   3    -0.748546994773E+02    0.18217E-03   -0.94668E-04   576   0.146E-01    0.149E-02
DAV:   4    -0.748547131587E+02   -0.13681E-04   -0.18137E-04   640   0.592E-02    0.105E-02
DAV:   5    -0.748547143764E+02   -0.12177E-05   -0.11311E-05   704   0.187E-02    0.503E-03
DAV:   6    -0.748547144848E+02   -0.10841E-06   -0.13137E-06   416   0.776E-03
  56 F= -.74854714E+02 E0= -.74854714E+02  d E =-.382920E-16
 Finite differences progress:
  Degree of freedom:  28/ 45
  Displacement:        1/  2
  Total:              55/ 90
 bond charge predicted
       N       E                     dE             d eps       ncg     rms          rms(c)
DAV:   1    -0.748559015557E+02   -0.11872E-02   -0.11869E+00   512   0.651E+00    0.168E-01
DAV:   2    -0.748550233907E+02    0.87817E-03   -0.97929E-03   672   0.573E-01    0.944E-02
DAV:   3    -0.748546705131E+02    0.35288E-03   -0.21759E-03   672   0.221E-01    0.241E-02
DAV:   4    -0.748546846571E+02   -0.14144E-04   -0.30131E-04   648   0.836E-02    0.175E-02
DAV:   5    -0.748546852067E+02   -0.54964E-06   -0.22314E-05   792   0.303E-02    0.928E-03
DAV:   6    -0.748546851185E+02    0.88210E-07   -0.22294E-06   560   0.124E-02
  57 F= -.74854685E+02 E0= -.74854685E+02  d E =-.225791E-16
 Finite differences progress:
  Degree of freedom:  28/ 45
  Displacement:        2/  2
  Total:              56/ 90
 bond charge predicted
       N       E                     dE             d eps       ncg     rms          rms(c)
DAV:   1    -0.748559223690E+02   -0.12372E-02   -0.58260E-01   512   0.470E+00    0.118E-01
DAV:   2    -0.748554372068E+02    0.48516E-03   -0.44679E-03   656   0.396E-01    0.720E-02
DAV:   3    -0.748552591024E+02    0.17810E-03   -0.11957E-03   664   0.165E-01    0.175E-02
DAV:   4    -0.748552705736E+02   -0.11471E-04   -0.18673E-04   656   0.667E-02    0.133E-02
DAV:   5    -0.748552707613E+02   -0.18764E-06   -0.19685E-05   824   0.300E-02    0.774E-03
DAV:   6    -0.748552703584E+02    0.40282E-06   -0.19050E-06   528   0.101E-02
  58 F= -.74855270E+02 E0= -.74855270E+02  d E =-.384951E-16
 Finite differences progress:
  Degree of freedom:  29/ 45
  Displacement:        1/  2
  Total:              57/ 90
 bond charge predicted
       N       E                     dE             d eps       ncg     rms          rms(c)
DAV:   1    -0.748565755127E+02   -0.13048E-02   -0.11370E+00   512   0.656E+00    0.163E-01
DAV:   2    -0.748555248557E+02    0.10507E-02   -0.84066E-03   688   0.532E-01    0.949E-02
DAV:   3    -0.748551619199E+02    0.36294E-03   -0.23281E-03   696   0.218E-01    0.229E-02
DAV:   4    -0.748551786199E+02   -0.16700E-04   -0.32614E-04   624   0.880E-02    0.153E-02
DAV:   5    -0.748551780799E+02    0.53998E-06   -0.21462E-05   784   0.288E-02    0.861E-03
DAV:   6    -0.748551776815E+02    0.39838E-06   -0.19457E-06   520   0.968E-03
  59 F= -.74855178E+02 E0= -.74855178E+02  d E =-.235041E-16
 Finite differences progress:
  Degree of freedom:  29/ 45
  Displacement:        2/  2
  Total:              58/ 90
 bond charge predicted
       N       E                     dE             d eps       ncg     rms          rms(c)
DAV:   1    -0.748563170069E+02   -0.11389E-02   -0.55055E-01   512   0.457E+00    0.105E-01
DAV:   2    -0.748559313483E+02    0.38566E-03   -0.35554E-03   696   0.341E-01    0.608E-02
DAV:   3    -0.748557625899E+02    0.16876E-03   -0.95594E-04   648   0.151E-01    0.165E-02
DAV:   4    -0.748557735512E+02   -0.10961E-04   -0.15983E-04   616   0.645E-02    0.126E-02
DAV:   5    -0.748557741043E+02   -0.55315E-06   -0.13705E-05   816   0.220E-02    0.761E-03
DAV:   6    -0.748557744001E+02   -0.29575E-06   -0.10224E-06   424   0.103E-02
  60 F= -.74855774E+02 E0= -.74855774E+02  d E =-.130644E-16
 Finite differences progress:
  Degree of freedom:  30/ 45
  Displacement:        1/  2
  Total:              59/ 90
 bond charge predicted
       N       E                     dE             d eps       ncg     rms          rms(c)
DAV:   1    -0.748565075285E+02   -0.73342E-03   -0.10853E+00   512   0.631E+00    0.149E-01
DAV:   2    -0.748558875649E+02    0.61996E-03   -0.73613E-03   648   0.542E-01    0.111E-01
DAV:   3    -0.748555934195E+02    0.29415E-03   -0.12222E-03   736   0.207E-01    0.486E-02
DAV:   4    -0.748555842735E+02    0.91460E-05   -0.34144E-04   672   0.902E-02    0.179E-02
DAV:   5    -0.748555829830E+02    0.12904E-05   -0.24127E-05   728   0.279E-02    0.111E-02
DAV:   6    -0.748555827754E+02    0.20766E-06   -0.79795E-06   664   0.150E-02
  61 F= -.74855583E+02 E0= -.74855583E+02  d E =-.612819E-16
 Finite differences progress:
  Degree of freedom:  30/ 45
  Displacement:        2/  2
  Total:              60/ 90
 bond charge predicted
       N       E                     dE             d eps       ncg     rms          rms(c)
DAV:   1    -0.748548831753E+02    0.69981E-03   -0.56657E-01   512   0.483E+00    0.106E-01
DAV:   2    -0.748547846408E+02    0.98535E-04   -0.62390E-03   696   0.446E-01    0.780E-02
DAV:   3    -0.748545775808E+02    0.20706E-03   -0.87195E-04   656   0.184E-01    0.274E-02
DAV:   4    -0.748545930511E+02   -0.15470E-04   -0.23795E-04   664   0.777E-02    0.146E-02
DAV:   5    -0.748545949640E+02   -0.19129E-05   -0.22594E-05   744   0.271E-02    0.882E-03
DAV:   6    -0.748545948005E+02    0.16348E-06   -0.49706E-06   632   0.132E-02
  62 F= -.74854595E+02 E0= -.74854595E+02  d E =-.287829E-16
 Finite differences progress:
  Degree of freedom:  31/ 45
  Displacement:        1/  2
  Total:              61/ 90
 bond charge predicted
       N       E                     dE             d eps       ncg     rms          rms(c)
DAV:   1    -0.748557869232E+02   -0.11920E-02   -0.11907E+00   512   0.604E+00    0.172E-01
DAV:   2    -0.748548435455E+02    0.94338E-03   -0.10335E-02   664   0.535E-01    0.941E-02
DAV:   3    -0.748544774669E+02    0.36608E-03   -0.23819E-03   648   0.211E-01    0.215E-02
DAV:   4    -0.748545079740E+02   -0.30507E-04   -0.48905E-04   616   0.827E-02    0.175E-02
DAV:   5    -0.748545095540E+02   -0.15800E-05   -0.18919E-05   760   0.189E-02    0.877E-03
DAV:   6    -0.748545096189E+02   -0.64945E-07   -0.25697E-06   528   0.806E-03
  63 F= -.74854510E+02 E0= -.74854510E+02  d E =-.307837E-16
 Finite differences progress:
  Degree of freedom:  31/ 45
  Displacement:        2/  2
  Total:              62/ 90
 bond charge predicted
       N       E                     dE             d eps       ncg     rms          rms(c)
DAV:   1    -0.748558288497E+02   -0.13193E-02   -0.58346E-01   512   0.447E+00    0.118E-01
DAV:   2    -0.748552709557E+02    0.55789E-03   -0.45676E-03   648   0.359E-01    0.648E-02
DAV:   3    -0.748550864672E+02    0.18449E-03   -0.13063E-03   648   0.154E-01    0.145E-02
DAV:   4    -0.748551038464E+02   -0.17379E-04   -0.28501E-04   632   0.637E-02    0.117E-02
DAV:   5    -0.748551044526E+02   -0.60618E-06   -0.81748E-06   688   0.136E-02
  64 F= -.74855104E+02 E0= -.74855104E+02  d E =-.279763E-16
 Finite differences progress:
  Degree of freedom:  32/ 45
  Displacement:        1/  2
  Total:              63/ 90
 bond charge predicted
       N       E                     dE             d eps       ncg     rms          rms(c)
DAV:   1    -0.748567532466E+02   -0.16494E-02   -0.11393E+00   512   0.636E+00    0.166E-01
DAV:   2    -0.748554892233E+02    0.12640E-02   -0.86500E-03   680   0.508E-01    0.872E-02
DAV:   3    -0.748551152724E+02    0.37395E-03   -0.25482E-03   648   0.214E-01    0.196E-02
DAV:   4    -0.748551494714E+02   -0.34199E-04   -0.52963E-04   616   0.880E-02    0.149E-02
DAV:   5    -0.748551501134E+02   -0.64202E-06   -0.15079E-05   760   0.180E-02    0.900E-03
DAV:   6    -0.748551501184E+02   -0.49965E-08   -0.19444E-06   432   0.822E-03
  65 F= -.74855150E+02 E0= -.74855150E+02  d E =-.310465E-16
 Finite differences progress:
  Degree of freedom:  32/ 45
  Displacement:        2/  2
  Total:              64/ 90
 bond charge predicted
       N       E                     dE             d eps       ncg     rms          rms(c)
DAV:   1    -0.748564604815E+02   -0.13104E-02   -0.55099E-01   512   0.439E+00    0.106E-01
DAV:   2    -0.748560382701E+02    0.42221E-03   -0.34700E-03   680   0.310E-01    0.585E-02
DAV:   3    -0.748558781272E+02    0.16014E-03   -0.10368E-03   672   0.136E-01    0.125E-02
DAV:   4    -0.748558918876E+02   -0.13760E-04   -0.21157E-04   600   0.565E-02    0.945E-03
DAV:   5    -0.748558927853E+02   -0.89767E-06   -0.68608E-06   656   0.121E-02
  66 F= -.74855893E+02 E0= -.74855893E+02  d E =-.306332E-16
 Finite differences progress:
  Degree of freedom:  33/ 45
  Displacement:        1/  2
  Total:              65/ 90
 bond charge predicted
       N       E                     dE             d eps       ncg     rms          rms(c)
DAV:   1    -0.748565855654E+02   -0.69368E-03   -0.10595E+00   512   0.575E+00    0.132E-01
DAV:   2    -0.748561198648E+02    0.46570E-03   -0.49112E-03   600   0.374E-01    0.749E-02
DAV:   3    -0.748558743085E+02    0.24556E-03   -0.14172E-03   688   0.151E-01    0.151E-02
DAV:   4    -0.748558976730E+02   -0.23364E-04   -0.26102E-04   608   0.614E-02    0.121E-02
DAV:   5    -0.748558988483E+02   -0.11753E-05   -0.88730E-06   656   0.123E-02    0.620E-03
DAV:   6    -0.748558996428E+02   -0.79447E-06   -0.21149E-06   496   0.635E-03
  67 F= -.74855900E+02 E0= -.74855900E+02  d E =-.263077E-16
 Finite differences progress:
  Degree of freedom:  33/ 45
  Displacement:        2/  2
  Total:              66/ 90
 bond charge predicted
       N       E                     dE             d eps       ncg     rms          rms(c)
DAV:   1    -0.748549041355E+02    0.99471E-03   -0.56102E-01   512   0.430E+00    0.103E-01
DAV:   2    -0.748547569089E+02    0.14723E-03   -0.51466E-03   664   0.360E-01    0.635E-02
DAV:   3    -0.748545821760E+02    0.17473E-03   -0.10100E-03   664   0.139E-01    0.130E-02
DAV:   4    -0.748545984199E+02   -0.16244E-04   -0.22296E-04   584   0.570E-02    0.106E-02
DAV:   5    -0.748545998002E+02   -0.13803E-05   -0.11102E-05   728   0.133E-02    0.551E-03
DAV:   6    -0.748546001446E+02   -0.34438E-06   -0.14137E-06   432   0.574E-03
  68 F= -.74854600E+02 E0= -.74854600E+02  d E =-.295604E-16
 Finite differences progress:
  Degree of freedom:  34/ 45
  Displacement:        1/  2
  Total:              67/ 90
 bond charge predicted
       N       E                     dE             d eps       ncg     rms          rms(c)
DAV:   1    -0.748558887341E+02   -0.12889E-02   -0.11919E+00   512   0.609E+00    0.174E-01
DAV:   2    -0.748548346186E+02    0.10541E-02   -0.96746E-03   664   0.513E-01    0.920E-02
DAV:   3    -0.748544792377E+02    0.35538E-03   -0.22406E-03   648   0.201E-01    0.217E-02
DAV:   4    -0.748544955156E+02   -0.16278E-04   -0.33041E-04   632   0.771E-02    0.160E-02
DAV:   5    -0.748544965740E+02   -0.10583E-05   -0.17119E-05   712   0.186E-02    0.653E-03
DAV:   6    -0.748544967915E+02   -0.21756E-06   -0.15983E-06   504   0.701E-03
  69 F= -.74854497E+02 E0= -.74854497E+02  d E =-.282917E-16
 Finite differences progress:
  Degree of freedom:  34/ 45
  Displacement:        2/  2
  Total:              68/ 90
 bond charge predicted
       N       E                     dE             d eps       ncg     rms          rms(c)
DAV:   1    -0.748558674549E+02   -0.13709E-02   -0.58308E-01   512   0.449E+00    0.119E-01
DAV:   2    -0.748552740250E+02    0.59343E-03   -0.43952E-03   632   0.353E-01    0.635E-02
DAV:   3    -0.748550968381E+02    0.17719E-03   -0.13181E-03   688   0.151E-01    0.147E-02
DAV:   4    -0.748551059465E+02   -0.91084E-05   -0.21080E-04   648   0.608E-02    0.107E-02
DAV:   5    -0.748551068598E+02   -0.91328E-06   -0.10889E-05   656   0.147E-02    0.372E-03
DAV:   6    -0.748551069963E+02   -0.13647E-06   -0.17121E-06   512   0.607E-03
  70 F= -.74855107E+02 E0= -.74855107E+02  d E =-.326372E-16
 Finite differences progress:
  Degree of freedom:  35/ 45
  Displacement:        1/  2
  Total:              69/ 90
 bond charge predicted
       N       E                     dE             d eps       ncg     rms          rms(c)
DAV:   1    -0.748567943738E+02   -0.16875E-02   -0.11399E+00   512   0.642E+00    0.167E-01
DAV:   2    -0.748555049268E+02    0.12894E-02   -0.84642E-03   680   0.501E-01    0.860E-02
DAV:   3    -0.748551351934E+02    0.36973E-03   -0.24772E-03   688   0.209E-01    0.197E-02
DAV:   4    -0.748551565429E+02   -0.21350E-04   -0.37670E-04   640   0.827E-02    0.143E-02
DAV:   5    -0.748551570790E+02   -0.53606E-06   -0.17526E-05   784   0.197E-02    0.752E-03
DAV:   6    -0.748551572903E+02   -0.21131E-06   -0.13893E-06   440   0.740E-03
  71 F= -.74855157E+02 E0= -.74855157E+02  d E =-.257263E-16
 Finite differences progress:
  Degree of freedom:  35/ 45
  Displacement:        2/  2
  Total:              70/ 90
 bond charge predicted
       N       E                     dE             d eps       ncg     rms          rms(c)
DAV:   1    -0.748564831972E+02   -0.13261E-02   -0.55123E-01   512   0.443E+00    0.106E-01
DAV:   2    -0.748560503629E+02    0.43283E-03   -0.33204E-03   680   0.302E-01    0.578E-02
DAV:   3    -0.748558942066E+02    0.15616E-03   -0.10730E-03   688   0.136E-01    0.129E-02
DAV:   4    -0.748559021173E+02   -0.79107E-05   -0.16638E-04   592   0.551E-02    0.903E-03
DAV:   5    -0.748559032653E+02   -0.11480E-05   -0.77430E-06   624   0.133E-02    0.395E-03
DAV:   6    -0.748559038251E+02   -0.55976E-06   -0.88249E-07   376   0.510E-03
  72 F= -.74855904E+02 E0= -.74855904E+02  d E =-.232920E-16
 Finite differences progress:
  Degree of freedom:  36/ 45
  Displacement:        1/  2
  Total:              71/ 90
 bond charge predicted
       N       E                     dE             d eps       ncg     rms          rms(c)
DAV:   1    -0.748566152057E+02   -0.71194E-03   -0.10610E+00   512   0.582E+00    0.133E-01
DAV:   2    -0.748561220567E+02    0.49315E-03   -0.46492E-03   616   0.368E-01    0.737E-02
DAV:   3    -0.748558808832E+02    0.24117E-03   -0.13720E-03   688   0.149E-01    0.156E-02
DAV:   4    -0.748558977684E+02   -0.16885E-04   -0.19122E-04   600   0.588E-02    0.117E-02
DAV:   5    -0.748558995429E+02   -0.17745E-05   -0.10062E-05   648   0.147E-02    0.508E-03
DAV:   6    -0.748559004056E+02   -0.86279E-06   -0.16878E-06   480   0.623E-03
  73 F= -.74855900E+02 E0= -.74855900E+02  d E =-.343831E-16
 Finite differences progress:
  Degree of freedom:  36/ 45
  Displacement:        2/  2
  Total:              72/ 90
 bond charge predicted
       N       E                     dE             d eps       ncg     rms          rms(c)
DAV:   1    -0.748538475661E+02    0.20520E-02   -0.97754E-01   512   0.749E+00    0.202E-01
DAV:   2    -0.748549289140E+02   -0.10813E-02   -0.15896E-02   640   0.746E-01    0.135E-01
DAV:   3    -0.748548387206E+02    0.90193E-04   -0.57043E-04   760   0.153E-01    0.875E-02
DAV:   4    -0.748548212937E+02    0.17427E-04   -0.29850E-04   608   0.120E-01    0.423E-02
DAV:   5    -0.748548357209E+02   -0.14427E-04   -0.85852E-05   664   0.544E-02    0.190E-02
DAV:   6    -0.748548316156E+02    0.41053E-05   -0.35120E-05   800   0.434E-02    0.719E-03
DAV:   7    -0.748548330340E+02   -0.14184E-05   -0.64747E-06   584   0.150E-02    0.474E-03
DAV:   8    -0.748548331567E+02   -0.12272E-06   -0.57692E-07   440   0.658E-03
  74 F= -.74854833E+02 E0= -.74854833E+02  d E =-.350717E-16
 Finite differences progress:
  Degree of freedom:  37/ 45
  Displacement:        1/  2
  Total:              73/ 90
 bond charge predicted
       N       E                     dE             d eps       ncg     rms          rms(c)
DAV:   1    -0.748517169580E+02    0.31161E-02   -0.28702E+00   512   0.122E+01    0.344E-01
DAV:   2    -0.748552576972E+02   -0.35407E-02   -0.45251E-02   592   0.106E+00    0.263E-01
DAV:   3    -0.748550353371E+02    0.22236E-03   -0.12921E-03   760   0.232E-01    0.162E-01
DAV:   4    -0.748550436954E+02   -0.83583E-05   -0.51262E-04   632   0.138E-01    0.673E-02
DAV:   5    -0.748550885196E+02   -0.44824E-04   -0.20023E-04   680   0.724E-02    0.187E-02
DAV:   6    -0.748550875029E+02    0.10167E-05   -0.42522E-05   592   0.399E-02    0.977E-03
DAV:   7    -0.748550892904E+02   -0.17875E-05   -0.49483E-06   608   0.117E-02    0.639E-03
DAV:   8    -0.748550899961E+02   -0.70572E-06   -0.84190E-07   416   0.994E-03
  75 F= -.74855090E+02 E0= -.74855090E+02  d E =-.249260E-16
 Finite differences progress:
  Degree of freedom:  37/ 45
  Displacement:        2/  2
  Total:              74/ 90
 bond charge predicted
       N       E                     dE             d eps       ncg     rms          rms(c)
DAV:   1    -0.748535248809E+02    0.15644E-02   -0.14313E+00   512   0.864E+00    0.246E-01
DAV:   2    -0.748551149000E+02   -0.15900E-02   -0.19067E-02   568   0.744E-01    0.140E-01
DAV:   3    -0.748550678794E+02    0.47021E-04   -0.46462E-04   744   0.137E-01    0.851E-02
DAV:   4    -0.748550993962E+02   -0.31517E-04   -0.21338E-04   584   0.100E-01    0.166E-02
DAV:   5    -0.748551089086E+02   -0.95125E-05   -0.85405E-05   648   0.479E-02    0.179E-02
DAV:   6    -0.748551078888E+02    0.10199E-05   -0.29188E-06   608   0.135E-02    0.137E-02
DAV:   7    -0.748551077194E+02    0.16936E-06   -0.70519E-06   648   0.190E-02
  76 F= -.74855108E+02 E0= -.74855108E+02  d E =-.990811E-16
 Finite differences progress:
  Degree of freedom:  38/ 45
  Displacement:        1/  2
  Total:              75/ 90
 bond charge predicted
       N       E                     dE             d eps       ncg     rms          rms(c)
DAV:   1    -0.748512818613E+02    0.38260E-02   -0.28415E+00   512   0.121E+01    0.392E-01
DAV:   2    -0.748549333215E+02   -0.36515E-02   -0.49345E-02   616   0.131E+00    0.224E-01
DAV:   3    -0.748548596421E+02    0.73679E-04   -0.13518E-03   744   0.217E-01    0.142E-01
DAV:   4    -0.748549042489E+02   -0.44607E-04   -0.92667E-04   744   0.241E-01    0.636E-02
DAV:   5    -0.748549292013E+02   -0.24952E-04   -0.24703E-04   624   0.877E-02    0.445E-02
DAV:   6    -0.748549122521E+02    0.16949E-04   -0.63255E-05   824   0.623E-02    0.238E-02
DAV:   7    -0.748549090145E+02    0.32376E-05   -0.37052E-05   776   0.393E-02    0.424E-03
DAV:   8    -0.748549111704E+02   -0.21558E-05   -0.28278E-06   544   0.106E-02    0.159E-03
DAV:   9    -0.748549138605E+02   -0.26902E-05   -0.49664E-07   384   0.505E-03    0.140E-03
DAV:  10    -0.748549179651E+02   -0.41046E-05   -0.52886E-07   384   0.598E-03    0.476E-04
DAV:  11    -0.748549207793E+02   -0.28142E-05   -0.54826E-07   392   0.374E-03    0.696E-04
DAV:  12    -0.748549230617E+02   -0.22824E-05   -0.34615E-07   376   0.278E-03    0.778E-04
DAV:  13    -0.748549243579E+02   -0.12962E-05   -0.24346E-07   400   0.233E-03    0.352E-04
DAV:  14    -0.748549249521E+02   -0.59425E-06   -0.13833E-07   392   0.182E-03
  77 F= -.74854925E+02 E0= -.74854925E+02  d E =-.765809E-17
 Finite differences progress:
  Degree of freedom:  38/ 45
  Displacement:        2/  2
  Total:              76/ 90
 bond charge predicted
       N       E                     dE             d eps       ncg     rms          rms(c)
DAV:   1    -0.748534734503E+02    0.14509E-02   -0.14378E+00   512   0.856E+00    0.221E-01
DAV:   2    -0.748546860963E+02   -0.12126E-02   -0.19655E-02   624   0.704E-01    0.184E-01
DAV:   3    -0.748545810966E+02    0.10500E-03   -0.72710E-04   792   0.168E-01    0.116E-01
DAV:   4    -0.748545621208E+02    0.18976E-04   -0.24663E-04   648   0.992E-02    0.657E-02
DAV:   5    -0.748545754271E+02   -0.13306E-04   -0.12050E-04   688   0.623E-02    0.246E-02
DAV:   6    -0.748545766986E+02   -0.12714E-05   -0.56761E-05   744   0.521E-02    0.890E-03
DAV:   7    -0.748545811558E+02   -0.44572E-05   -0.78762E-06   608   0.157E-02    0.789E-03
DAV:   8    -0.748545831019E+02   -0.19461E-05   -0.10256E-06   472   0.920E-03    0.503E-03
DAV:   9    -0.748545870296E+02   -0.39277E-05   -0.31739E-06   544   0.110E-02    0.154E-03
DAV:  10    -0.748545884642E+02   -0.14346E-05   -0.32718E-07   448   0.502E-03    0.117E-03
DAV:  11    -0.748545928875E+02   -0.44232E-05   -0.60947E-07   360   0.353E-03    0.102E-03
DAV:  12    -0.748545949370E+02   -0.20495E-05   -0.30112E-07   432   0.292E-03    0.940E-04
DAV:  13    -0.748545966092E+02   -0.16722E-05   -0.27765E-07   384   0.247E-03    0.642E-04
DAV:  14    -0.748545972309E+02   -0.62168E-06   -0.15362E-07   448   0.237E-03
  78 F= -.74854597E+02 E0= -.74854597E+02  d E =-.630724E-17
 Finite differences progress:
  Degree of freedom:  39/ 45
  Displacement:        1/  2
  Total:              77/ 90
 bond charge predicted
       N       E                     dE             d eps       ncg     rms          rms(c)
DAV:   1    -0.748514510285E+02    0.31456E-02   -0.28886E+00   512   0.122E+01    0.460E-01
DAV:   2    -0.748549370903E+02   -0.34861E-02   -0.48119E-02   640   0.127E+00    0.236E-01
DAV:   3    -0.748545865707E+02    0.35052E-03   -0.11833E-03   712   0.229E-01    0.148E-01
DAV:   4    -0.748544802825E+02    0.10629E-03   -0.10137E-03   640   0.186E-01    0.498E-02
DAV:   5    -0.748544983048E+02   -0.18022E-04   -0.32842E-04   680   0.929E-02    0.318E-02
DAV:   6    -0.748544923184E+02    0.59864E-05   -0.41676E-05   616   0.411E-02    0.151E-02
DAV:   7    -0.748544946605E+02   -0.23421E-05   -0.11951E-05   608   0.179E-02    0.603E-03
DAV:   8    -0.748545056367E+02   -0.10976E-04   -0.32771E-06   576   0.942E-03    0.318E-03
DAV:   9    -0.748545166417E+02   -0.11005E-04   -0.50020E-07   408   0.437E-03    0.142E-03
DAV:  10    -0.748545306172E+02   -0.13975E-04   -0.21286E-06   472   0.585E-03    0.270E-03
DAV:  11    -0.748545379903E+02   -0.73731E-05   -0.59688E-07   440   0.405E-03    0.737E-04
DAV:  12    -0.748545460243E+02   -0.80340E-05   -0.96496E-07   432   0.331E-03    0.793E-04
DAV:  13    -0.748545478137E+02   -0.17894E-05   -0.22712E-07   448   0.289E-03    0.808E-04
DAV:  14    -0.748545497330E+02   -0.19193E-05   -0.18824E-07   392   0.258E-03    0.658E-04
DAV:  15    -0.748545500836E+02   -0.35056E-06   -0.68956E-08   440   0.169E-03
  79 F= -.74854550E+02 E0= -.74854550E+02  d E =-.143750E-15
 Finite differences progress:
  Degree of freedom:  39/ 45
  Displacement:        2/  2
  Total:              78/ 90
 bond charge predicted
       N       E                     dE             d eps       ncg     rms          rms(c)
DAV:   1    -0.748548482412E+02   -0.29851E-03   -0.77808E-01   512   0.622E+00    0.280E-01
DAV:   2    -0.748557782992E+02   -0.93006E-03   -0.13690E-02   640   0.618E-01    0.155E-01
DAV:   3    -0.748556431997E+02    0.13510E-03   -0.55818E-04   768   0.161E-01    0.977E-02
DAV:   4    -0.748555983809E+02    0.44819E-04   -0.27511E-04   672   0.104E-01    0.352E-02
DAV:   5    -0.748555963083E+02    0.20725E-05   -0.78564E-05   696   0.506E-02    0.159E-02
DAV:   6    -0.748556097182E+02   -0.13410E-04   -0.37509E-05   648   0.353E-02    0.112E-02
DAV:   7    -0.748556169231E+02   -0.72049E-05   -0.64082E-06   616   0.176E-02    0.426E-03
DAV:   8    -0.748556299681E+02   -0.13045E-04   -0.44722E-06   600   0.118E-02    0.195E-03
DAV:   9    -0.748556416356E+02   -0.11667E-04   -0.13421E-06   480   0.676E-03    0.187E-03
DAV:  10    -0.748556469607E+02   -0.53250E-05   -0.66452E-07   440   0.382E-03    0.104E-03
DAV:  11    -0.748556558667E+02   -0.89061E-05   -0.19604E-06   480   0.416E-03    0.712E-04
DAV:  12    -0.748556580518E+02   -0.21850E-05   -0.30341E-07   440   0.265E-03    0.571E-04
DAV:  13    -0.748556588708E+02   -0.81903E-06   -0.13838E-07   416   0.196E-03
  80 F= -.74855659E+02 E0= -.74855659E+02  d E =-.633100E-17
 Finite differences progress:
  Degree of freedom:  40/ 45
  Displacement:        1/  2
  Total:              79/ 90
 bond charge predicted
       N       E                     dE             d eps       ncg     rms          rms(c)
DAV:   1    -0.748557393732E+02   -0.81321E-04   -0.12210E-01   512   0.178E+00    0.196E-01
DAV:   2    -0.748558458398E+02   -0.10647E-03   -0.20244E-03   664   0.293E-01    0.101E-01
DAV:   3    -0.748558483490E+02   -0.25093E-05   -0.16217E-04   696   0.786E-02    0.422E-02
DAV:   4    -0.748558455677E+02    0.27813E-05   -0.35749E-05   760   0.379E-02    0.142E-02
DAV:   5    -0.748558465505E+02   -0.98276E-06   -0.58900E-06   624   0.148E-02
  81 F= -.74855847E+02 E0= -.74855847E+02  d E =-.119845E-15
 Finite differences progress:
  Degree of freedom:  40/ 45
  Displacement:        2/  2
  Total:              80/ 90
 bond charge predicted
       N       E                     dE             d eps       ncg     rms          rms(c)
DAV:   1    -0.748557671870E+02    0.78381E-04   -0.62192E-02   512   0.128E+00    0.180E-01
DAV:   2    -0.748558447542E+02   -0.77567E-04   -0.16299E-03   680   0.245E-01    0.922E-02
DAV:   3    -0.748558360045E+02    0.87497E-05   -0.12001E-04   704   0.716E-02    0.438E-02
DAV:   4    -0.748558329052E+02    0.30993E-05   -0.22978E-05   752   0.292E-02    0.166E-02
DAV:   5    -0.748558335858E+02   -0.68058E-06   -0.19398E-05   744   0.250E-02    0.905E-03
DAV:   6    -0.748558311807E+02    0.24051E-05   -0.23188E-06   536   0.112E-02    0.410E-03
DAV:   7    -0.748558316450E+02   -0.46426E-06   -0.19033E-06   456   0.842E-03
  82 F= -.74855832E+02 E0= -.74855832E+02  d E =-.786889E-17
 Finite differences progress:
  Degree of freedom:  41/ 45
  Displacement:        1/  2
  Total:              81/ 90
 bond charge predicted
       N       E                     dE             d eps       ncg     rms          rms(c)
DAV:   1    -0.748555044328E+02    0.32675E-03   -0.12294E-01   512   0.175E+00    0.191E-01
DAV:   2    -0.748556287692E+02   -0.12434E-03   -0.19348E-03   640   0.268E-01    0.104E-01
DAV:   3    -0.748556260073E+02    0.27619E-05   -0.14417E-04   688   0.796E-02    0.398E-02
DAV:   4    -0.748556235911E+02    0.24162E-05   -0.23705E-05   752   0.303E-02    0.168E-02
DAV:   5    -0.748556223801E+02    0.12111E-05   -0.13684E-05   656   0.204E-02    0.559E-03
DAV:   6    -0.748556216492E+02    0.73088E-06   -0.18097E-06   464   0.109E-02
  83 F= -.74855622E+02 E0= -.74855622E+02  d E =-.103024E-15
 Finite differences progress:
  Degree of freedom:  41/ 45
  Displacement:        2/  2
  Total:              82/ 90
 bond charge predicted
       N       E                     dE             d eps       ncg     rms          rms(c)
DAV:   1    -0.748558784642E+02   -0.25608E-03   -0.60995E-02   512   0.122E+00    0.934E-02
DAV:   2    -0.748559010403E+02   -0.22576E-04   -0.62813E-04   664   0.180E-01    0.468E-02
DAV:   3    -0.748559134281E+02   -0.12388E-04   -0.75192E-05   728   0.486E-02    0.209E-02
DAV:   4    -0.748559167999E+02   -0.33717E-05   -0.99719E-06   704   0.269E-02    0.108E-02
DAV:   5    -0.748559178490E+02   -0.10492E-05   -0.97102E-07   416   0.854E-03    0.422E-03
DAV:   6    -0.748559187718E+02   -0.92274E-06   -0.81087E-07   384   0.542E-03
  84 F= -.74855919E+02 E0= -.74855919E+02  d E =-.194145E-15
 Finite differences progress:
  Degree of freedom:  42/ 45
  Displacement:        1/  2
  Total:              83/ 90
 bond charge predicted
       N       E                     dE             d eps       ncg     rms          rms(c)
DAV:   1    -0.748562140594E+02   -0.29621E-03   -0.12347E-01   512   0.183E+00    0.181E-01
DAV:   2    -0.748562248832E+02   -0.10824E-04   -0.39391E-03   664   0.443E-01    0.838E-02
DAV:   3    -0.748561886561E+02    0.36227E-04   -0.51959E-04   728   0.129E-01    0.625E-02
DAV:   4    -0.748561658662E+02    0.22790E-04   -0.72006E-05   664   0.597E-02    0.423E-02
DAV:   5    -0.748561528670E+02    0.12999E-04   -0.17821E-05   752   0.255E-02    0.208E-02
DAV:   6    -0.748561515664E+02    0.13006E-05   -0.63352E-06   632   0.147E-02    0.480E-03
DAV:   7    -0.748561582597E+02   -0.66933E-05   -0.22221E-06   432   0.105E-02    0.179E-03
DAV:   8    -0.748561667514E+02   -0.84918E-05   -0.17070E-06   456   0.620E-03    0.207E-03
DAV:   9    -0.748561752624E+02   -0.85110E-05   -0.10994E-06   448   0.542E-03    0.849E-04
DAV:  10    -0.748561801259E+02   -0.48635E-05   -0.74105E-07   432   0.374E-03    0.393E-04
DAV:  11    -0.748561838351E+02   -0.37091E-05   -0.58402E-07   408   0.326E-03    0.234E-04
DAV:  12    -0.748561856008E+02   -0.17658E-05   -0.34976E-07   440   0.222E-03    0.156E-04
DAV:  13    -0.748561864210E+02   -0.82018E-06   -0.19934E-07   392   0.173E-03
  85 F= -.74856186E+02 E0= -.74856186E+02  d E =-.408772E-17
 Finite differences progress:
  Degree of freedom:  42/ 45
  Displacement:        2/  2
  Total:              84/ 90
 bond charge predicted
       N       E                     dE             d eps       ncg     rms          rms(c)
DAV:   1    -0.748549325267E+02    0.12531E-02   -0.69090E-02   528   0.135E+00    0.151E-01
DAV:   2    -0.748550462490E+02   -0.11372E-03   -0.19729E-03   600   0.285E-01    0.892E-02
DAV:   3    -0.748550282189E+02    0.18030E-04   -0.20571E-04   752   0.105E-01    0.339E-02
DAV:   4    -0.748550214659E+02    0.67530E-05   -0.18909E-05   752   0.388E-02    0.197E-02
DAV:   5    -0.748550197267E+02    0.17391E-05   -0.29700E-05   784   0.365E-02    0.110E-02
DAV:   6    -0.748550198388E+02   -0.11212E-06   -0.39178E-06   640   0.109E-02
  86 F= -.74855020E+02 E0= -.74855020E+02  d E =-.714724E-16
 Finite differences progress:
  Degree of freedom:  43/ 45
  Displacement:        1/  2
  Total:              85/ 90
 bond charge predicted
       N       E                     dE             d eps       ncg     rms          rms(c)
DAV:   1    -0.748552975926E+02   -0.27787E-03   -0.15172E-01   576   0.183E+00    0.245E-01
DAV:   2    -0.748551723687E+02    0.12522E-03   -0.28393E-03   592   0.424E-01    0.118E-01
DAV:   3    -0.748552233187E+02   -0.50950E-04   -0.57662E-04   792   0.148E-01    0.489E-02
DAV:   4    -0.748552176278E+02    0.56909E-05   -0.11652E-04   824   0.104E-01    0.243E-02
DAV:   5    -0.748552265584E+02   -0.89306E-05   -0.19823E-05   592   0.281E-02    0.388E-03
DAV:   6    -0.748552284147E+02   -0.18563E-05   -0.15905E-06   528   0.770E-03    0.316E-03
DAV:   7    -0.748552300871E+02   -0.16724E-05   -0.35320E-07   376   0.420E-03    0.133E-03
DAV:   8    -0.748552316779E+02   -0.15908E-05   -0.25235E-07   384   0.267E-03    0.406E-04
DAV:   9    -0.748552324891E+02   -0.81124E-06   -0.11687E-07   368   0.182E-03
  87 F= -.74855232E+02 E0= -.74855232E+02  d E =-.118320E-16
 Finite differences progress:
  Degree of freedom:  43/ 45
  Displacement:        2/  2
  Total:              86/ 90
 bond charge predicted
       N       E                     dE             d eps       ncg     rms          rms(c)
DAV:   1    -0.748552562296E+02   -0.24552E-04   -0.71043E-02   512   0.124E+00    0.113E-01
DAV:   2    -0.748553528591E+02   -0.96630E-04   -0.75547E-04   584   0.200E-01    0.580E-02
DAV:   3    -0.748553852621E+02   -0.32403E-04   -0.33058E-05   624   0.330E-02    0.167E-02
DAV:   4    -0.748553882040E+02   -0.29419E-05   -0.27768E-06   544   0.133E-02    0.292E-03
DAV:   5    -0.748553898266E+02   -0.16226E-05   -0.71893E-07   368   0.499E-03    0.155E-03
DAV:   6    -0.748553921131E+02   -0.22866E-05   -0.36718E-07   344   0.482E-03    0.652E-04
DAV:   7    -0.748553934708E+02   -0.13577E-05   -0.17621E-07   392   0.201E-03    0.387E-04
DAV:   8    -0.748553946333E+02   -0.11625E-05   -0.96685E-08   376   0.147E-03    0.229E-04
DAV:   9    -0.748553960692E+02   -0.14359E-05   -0.16809E-07   368   0.140E-03    0.159E-04
DAV:  10    -0.748553965024E+02   -0.43318E-06   -0.55146E-08   432   0.136E-03
  88 F= -.74855397E+02 E0= -.74855397E+02  d E =-.169590E-16
 Finite differences progress:
  Degree of freedom:  44/ 45
  Displacement:        1/  2
  Total:              87/ 90
 bond charge predicted
       N       E                     dE             d eps       ncg     rms          rms(c)
DAV:   1    -0.748553445134E+02    0.51556E-04   -0.15062E-01   568   0.181E+00    0.227E-01
DAV:   2    -0.748552598793E+02    0.84634E-04   -0.21536E-03   576   0.383E-01    0.110E-01
DAV:   3    -0.748553111281E+02   -0.51249E-04   -0.45225E-04   760   0.132E-01    0.438E-02
DAV:   4    -0.748553068714E+02    0.42567E-05   -0.11174E-04   864   0.101E-01    0.205E-02
DAV:   5    -0.748553112724E+02   -0.44010E-05   -0.16782E-05   600   0.301E-02    0.392E-03
DAV:   6    -0.748553132665E+02   -0.19941E-05   -0.19029E-06   536   0.738E-03    0.332E-03
DAV:   7    -0.748553175857E+02   -0.43192E-05   -0.58958E-07   352   0.607E-03    0.114E-03
DAV:   8    -0.748553199189E+02   -0.23331E-05   -0.32622E-07   384   0.341E-03    0.834E-04
DAV:   9    -0.748553232580E+02   -0.33392E-05   -0.28062E-07   368   0.207E-03    0.287E-04
DAV:  10    -0.748553264703E+02   -0.32122E-05   -0.44205E-07   376   0.228E-03    0.590E-04
DAV:  11    -0.748553272449E+02   -0.77463E-06   -0.12402E-07   432   0.293E-03
  89 F= -.74855327E+02 E0= -.74855327E+02  d E =-.502364E-16
 Finite differences progress:
  Degree of freedom:  44/ 45
  Displacement:        2/  2
  Total:              88/ 90
 bond charge predicted
       N       E                     dE             d eps       ncg     rms          rms(c)
DAV:   1    -0.748550501426E+02    0.27633E-03   -0.79227E-02   600   0.133E+00    0.190E-01
DAV:   2    -0.748548753309E+02    0.17481E-03   -0.18522E-03   648   0.366E-01    0.976E-02
DAV:   3    -0.748548887008E+02   -0.13370E-04   -0.40070E-04   792   0.130E-01    0.374E-02
DAV:   4    -0.748548842129E+02    0.44879E-05   -0.12769E-04   856   0.109E-01    0.218E-02
DAV:   5    -0.748548851743E+02   -0.96144E-06   -0.24874E-05   752   0.455E-02    0.384E-03
DAV:   6    -0.748548861503E+02   -0.97598E-06   -0.28311E-06   600   0.889E-03
  90 F= -.74854886E+02 E0= -.74854886E+02  d E =-.125496E-16
 Finite differences progress:
  Degree of freedom:  45/ 45
  Displacement:        1/  2
  Total:              89/ 90
 bond charge predicted
       N       E                     dE             d eps       ncg     rms          rms(c)
DAV:   1    -0.748553435520E+02   -0.45838E-03   -0.15178E-01   576   0.185E+00    0.220E-01
DAV:   2    -0.748552448298E+02    0.98722E-04   -0.29227E-03   656   0.415E-01    0.119E-01
DAV:   3    -0.748552774671E+02   -0.32637E-04   -0.49172E-04   752   0.137E-01    0.443E-02
DAV:   4    -0.748552775148E+02   -0.47703E-07   -0.12097E-04   848   0.108E-01    0.193E-02
DAV:   5    -0.748552834019E+02   -0.58871E-05   -0.20480E-05   672   0.388E-02    0.436E-03
DAV:   6    -0.748552873047E+02   -0.39028E-05   -0.36700E-06   608   0.100E-02    0.372E-03
DAV:   7    -0.748552930438E+02   -0.57390E-05   -0.65853E-07   376   0.546E-03    0.120E-03
DAV:   8    -0.748552972388E+02   -0.41950E-05   -0.52952E-07   400   0.353E-03    0.964E-04
DAV:   9    -0.748553022975E+02   -0.50587E-05   -0.67709E-07   376   0.409E-03    0.447E-04
DAV:  10    -0.748553069239E+02   -0.46265E-05   -0.13569E-06   504   0.397E-03    0.109E-03
DAV:  11    -0.748553076806E+02   -0.75665E-06   -0.12015E-07   448   0.324E-03
  91 F= -.74855308E+02 E0= -.74855308E+02  d E =-.712612E-16
 Finite differences progress:
  Degree of freedom:  45/ 45
  Displacement:        2/  2
  Total:              90/ 90
 Finite differences POTIM=   1.0000000000000000E-002
