Al2C                                    
           1
     6.019200    0.000000    0.000000
     0.000000   10.140000    0.000000
     0.000000    0.000000   15.000000
   Al   C    O    H 
   8   4   1   2
Direct configuration=     1
   0.44799885  0.81706254  0.29754628
   0.95636058  0.82192885  0.25242238
   0.45356009  0.56290744  0.26341540
   0.95454442  0.56341579  0.23685111
   0.45585702  0.32029653  0.23354453
   0.95553638  0.32164333  0.26030742
   0.45964669  0.05897697  0.24644354
   0.96362470  0.06556503  0.27814128
   0.20847870  0.94165969  0.26413612
   0.70995690  0.94447440  0.28141757
   0.20517126  0.44143596  0.24357717
   0.70459268  0.44177769  0.24778918
   0.54302710  0.83658553  0.42194734
   0.65297100  0.90920166  0.37831328
   0.44493059  0.88599394  0.46155698
Direct configuration=     2
   0.44966020  0.81706254  0.29754628
   0.95636058  0.82192885  0.25242238
   0.45356009  0.56290744  0.26341540
   0.95454442  0.56341579  0.23685111
   0.45585702  0.32029653  0.23354453
   0.95553638  0.32164333  0.26030742
   0.45964669  0.05897697  0.24644354
   0.96362470  0.06556503  0.27814128
   0.20847870  0.94165969  0.26413612
   0.70995690  0.94447440  0.28141757
   0.20517126  0.44143596  0.24357717
   0.70459268  0.44177769  0.24778918
   0.54302710  0.83658553  0.42194734
   0.65297100  0.90920166  0.37831328
   0.44493059  0.88599394  0.46155698
Direct configuration=     3
   0.44633750  0.81706254  0.29754628
   0.95636058  0.82192885  0.25242238
   0.45356009  0.56290744  0.26341540
   0.95454442  0.56341579  0.23685111
   0.45585702  0.32029653  0.23354453
   0.95553638  0.32164333  0.26030742
   0.45964669  0.05897697  0.24644354
   0.96362470  0.06556503  0.27814128
   0.20847870  0.94165969  0.26413612
   0.70995690  0.94447440  0.28141757
   0.20517126  0.44143596  0.24357717
   0.70459268  0.44177769  0.24778918
   0.54302710  0.83658553  0.42194734
   0.65297100  0.90920166  0.37831328
   0.44493059  0.88599394  0.46155698
Direct configuration=     4
   0.44799885  0.81804873  0.29754628
   0.95636058  0.82192885  0.25242238
   0.45356009  0.56290744  0.26341540
   0.95454442  0.56341579  0.23685111
   0.45585702  0.32029653  0.23354453
   0.95553638  0.32164333  0.26030742
   0.45964669  0.05897697  0.24644354
   0.96362470  0.06556503  0.27814128
   0.20847870  0.94165969  0.26413612
   0.70995690  0.94447440  0.28141757
   0.20517126  0.44143596  0.24357717
   0.70459268  0.44177769  0.24778918
   0.54302710  0.83658553  0.42194734
   0.65297100  0.90920166  0.37831328
   0.44493059  0.88599394  0.46155698
Direct configuration=     5
   0.44799885  0.81607635  0.29754628
   0.95636058  0.82192885  0.25242238
   0.45356009  0.56290744  0.26341540
   0.95454442  0.56341579  0.23685111
   0.45585702  0.32029653  0.23354453
   0.95553638  0.32164333  0.26030742
   0.45964669  0.05897697  0.24644354
   0.96362470  0.06556503  0.27814128
   0.20847870  0.94165969  0.26413612
   0.70995690  0.94447440  0.28141757
   0.20517126  0.44143596  0.24357717
   0.70459268  0.44177769  0.24778918
   0.54302710  0.83658553  0.42194734
   0.65297100  0.90920166  0.37831328
   0.44493059  0.88599394  0.46155698
Direct configuration=     6
   0.44799885  0.81706254  0.29821295
   0.95636058  0.82192885  0.25242238
   0.45356009  0.56290744  0.26341540
   0.95454442  0.56341579  0.23685111
   0.45585702  0.32029653  0.23354453
   0.95553638  0.32164333  0.26030742
   0.45964669  0.05897697  0.24644354
   0.96362470  0.06556503  0.27814128
   0.20847870  0.94165969  0.26413612
   0.70995690  0.94447440  0.28141757
   0.20517126  0.44143596  0.24357717
   0.70459268  0.44177769  0.24778918
   0.54302710  0.83658553  0.42194734
   0.65297100  0.90920166  0.37831328
   0.44493059  0.88599394  0.46155698
Direct configuration=     7
   0.44799885  0.81706254  0.29687962
   0.95636058  0.82192885  0.25242238
   0.45356009  0.56290744  0.26341540
   0.95454442  0.56341579  0.23685111
   0.45585702  0.32029653  0.23354453
   0.95553638  0.32164333  0.26030742
   0.45964669  0.05897697  0.24644354
   0.96362470  0.06556503  0.27814128
   0.20847870  0.94165969  0.26413612
   0.70995690  0.94447440  0.28141757
   0.20517126  0.44143596  0.24357717
   0.70459268  0.44177769  0.24778918
   0.54302710  0.83658553  0.42194734
   0.65297100  0.90920166  0.37831328
   0.44493059  0.88599394  0.46155698
Direct configuration=     8
   0.44799885  0.81706254  0.29754628
   0.95802193  0.82192885  0.25242238
   0.45356009  0.56290744  0.26341540
   0.95454442  0.56341579  0.23685111
   0.45585702  0.32029653  0.23354453
   0.95553638  0.32164333  0.26030742
   0.45964669  0.05897697  0.24644354
   0.96362470  0.06556503  0.27814128
   0.20847870  0.94165969  0.26413612
   0.70995690  0.94447440  0.28141757
   0.20517126  0.44143596  0.24357717
   0.70459268  0.44177769  0.24778918
   0.54302710  0.83658553  0.42194734
   0.65297100  0.90920166  0.37831328
   0.44493059  0.88599394  0.46155698
Direct configuration=     9
   0.44799885  0.81706254  0.29754628
   0.95469923  0.82192885  0.25242238
   0.45356009  0.56290744  0.26341540
   0.95454442  0.56341579  0.23685111
   0.45585702  0.32029653  0.23354453
   0.95553638  0.32164333  0.26030742
   0.45964669  0.05897697  0.24644354
   0.96362470  0.06556503  0.27814128
   0.20847870  0.94165969  0.26413612
   0.70995690  0.94447440  0.28141757
   0.20517126  0.44143596  0.24357717
   0.70459268  0.44177769  0.24778918
   0.54302710  0.83658553  0.42194734
   0.65297100  0.90920166  0.37831328
   0.44493059  0.88599394  0.46155698
Direct configuration=    10
   0.44799885  0.81706254  0.29754628
   0.95636058  0.82291505  0.25242238
   0.45356009  0.56290744  0.26341540
   0.95454442  0.56341579  0.23685111
   0.45585702  0.32029653  0.23354453
   0.95553638  0.32164333  0.26030742
   0.45964669  0.05897697  0.24644354
   0.96362470  0.06556503  0.27814128
   0.20847870  0.94165969  0.26413612
   0.70995690  0.94447440  0.28141757
   0.20517126  0.44143596  0.24357717
   0.70459268  0.44177769  0.24778918
   0.54302710  0.83658553  0.42194734
   0.65297100  0.90920166  0.37831328
   0.44493059  0.88599394  0.46155698
Direct configuration=    11
   0.44799885  0.81706254  0.29754628
   0.95636058  0.82094266  0.25242238
   0.45356009  0.56290744  0.26341540
   0.95454442  0.56341579  0.23685111
   0.45585702  0.32029653  0.23354453
   0.95553638  0.32164333  0.26030742
   0.45964669  0.05897697  0.24644354
   0.96362470  0.06556503  0.27814128
   0.20847870  0.94165969  0.26413612
   0.70995690  0.94447440  0.28141757
   0.20517126  0.44143596  0.24357717
   0.70459268  0.44177769  0.24778918
   0.54302710  0.83658553  0.42194734
   0.65297100  0.90920166  0.37831328
   0.44493059  0.88599394  0.46155698
Direct configuration=    12
   0.44799885  0.81706254  0.29754628
   0.95636058  0.82192885  0.25308905
   0.45356009  0.56290744  0.26341540
   0.95454442  0.56341579  0.23685111
   0.45585702  0.32029653  0.23354453
   0.95553638  0.32164333  0.26030742
   0.45964669  0.05897697  0.24644354
   0.96362470  0.06556503  0.27814128
   0.20847870  0.94165969  0.26413612
   0.70995690  0.94447440  0.28141757
   0.20517126  0.44143596  0.24357717
   0.70459268  0.44177769  0.24778918
   0.54302710  0.83658553  0.42194734
   0.65297100  0.90920166  0.37831328
   0.44493059  0.88599394  0.46155698
Direct configuration=    13
   0.44799885  0.81706254  0.29754628
   0.95636058  0.82192885  0.25175571
   0.45356009  0.56290744  0.26341540
   0.95454442  0.56341579  0.23685111
   0.45585702  0.32029653  0.23354453
   0.95553638  0.32164333  0.26030742
   0.45964669  0.05897697  0.24644354
   0.96362470  0.06556503  0.27814128
   0.20847870  0.94165969  0.26413612
   0.70995690  0.94447440  0.28141757
   0.20517126  0.44143596  0.24357717
   0.70459268  0.44177769  0.24778918
   0.54302710  0.83658553  0.42194734
   0.65297100  0.90920166  0.37831328
   0.44493059  0.88599394  0.46155698
Direct configuration=    14
   0.44799885  0.81706254  0.29754628
   0.95636058  0.82192885  0.25242238
   0.45522144  0.56290744  0.26341540
   0.95454442  0.56341579  0.23685111
   0.45585702  0.32029653  0.23354453
   0.95553638  0.32164333  0.26030742
   0.45964669  0.05897697  0.24644354
   0.96362470  0.06556503  0.27814128
   0.20847870  0.94165969  0.26413612
   0.70995690  0.94447440  0.28141757
   0.20517126  0.44143596  0.24357717
   0.70459268  0.44177769  0.24778918
   0.54302710  0.83658553  0.42194734
   0.65297100  0.90920166  0.37831328
   0.44493059  0.88599394  0.46155698
Direct configuration=    15
   0.44799885  0.81706254  0.29754628
   0.95636058  0.82192885  0.25242238
   0.45189874  0.56290744  0.26341540
   0.95454442  0.56341579  0.23685111
   0.45585702  0.32029653  0.23354453
   0.95553638  0.32164333  0.26030742
   0.45964669  0.05897697  0.24644354
   0.96362470  0.06556503  0.27814128
   0.20847870  0.94165969  0.26413612
   0.70995690  0.94447440  0.28141757
   0.20517126  0.44143596  0.24357717
   0.70459268  0.44177769  0.24778918
   0.54302710  0.83658553  0.42194734
   0.65297100  0.90920166  0.37831328
   0.44493059  0.88599394  0.46155698
Direct configuration=    16
   0.44799885  0.81706254  0.29754628
   0.95636058  0.82192885  0.25242238
   0.45356009  0.56389363  0.26341540
   0.95454442  0.56341579  0.23685111
   0.45585702  0.32029653  0.23354453
   0.95553638  0.32164333  0.26030742
   0.45964669  0.05897697  0.24644354
   0.96362470  0.06556503  0.27814128
   0.20847870  0.94165969  0.26413612
   0.70995690  0.94447440  0.28141757
   0.20517126  0.44143596  0.24357717
   0.70459268  0.44177769  0.24778918
   0.54302710  0.83658553  0.42194734
   0.65297100  0.90920166  0.37831328
   0.44493059  0.88599394  0.46155698
Direct configuration=    17
   0.44799885  0.81706254  0.29754628
   0.95636058  0.82192885  0.25242238
   0.45356009  0.56192124  0.26341540
   0.95454442  0.56341579  0.23685111
   0.45585702  0.32029653  0.23354453
   0.95553638  0.32164333  0.26030742
   0.45964669  0.05897697  0.24644354
   0.96362470  0.06556503  0.27814128
   0.20847870  0.94165969  0.26413612
   0.70995690  0.94447440  0.28141757
   0.20517126  0.44143596  0.24357717
   0.70459268  0.44177769  0.24778918
   0.54302710  0.83658553  0.42194734
   0.65297100  0.90920166  0.37831328
   0.44493059  0.88599394  0.46155698
Direct configuration=    18
   0.44799885  0.81706254  0.29754628
   0.95636058  0.82192885  0.25242238
   0.45356009  0.56290744  0.26408207
   0.95454442  0.56341579  0.23685111
   0.45585702  0.32029653  0.23354453
   0.95553638  0.32164333  0.26030742
   0.45964669  0.05897697  0.24644354
   0.96362470  0.06556503  0.27814128
   0.20847870  0.94165969  0.26413612
   0.70995690  0.94447440  0.28141757
   0.20517126  0.44143596  0.24357717
   0.70459268  0.44177769  0.24778918
   0.54302710  0.83658553  0.42194734
   0.65297100  0.90920166  0.37831328
   0.44493059  0.88599394  0.46155698
Direct configuration=    19
   0.44799885  0.81706254  0.29754628
   0.95636058  0.82192885  0.25242238
   0.45356009  0.56290744  0.26274873
   0.95454442  0.56341579  0.23685111
   0.45585702  0.32029653  0.23354453
   0.95553638  0.32164333  0.26030742
   0.45964669  0.05897697  0.24644354
   0.96362470  0.06556503  0.27814128
   0.20847870  0.94165969  0.26413612
   0.70995690  0.94447440  0.28141757
   0.20517126  0.44143596  0.24357717
   0.70459268  0.44177769  0.24778918
   0.54302710  0.83658553  0.42194734
   0.65297100  0.90920166  0.37831328
   0.44493059  0.88599394  0.46155698
Direct configuration=    20
   0.44799885  0.81706254  0.29754628
   0.95636058  0.82192885  0.25242238
   0.45356009  0.56290744  0.26341540
   0.95620577  0.56341579  0.23685111
   0.45585702  0.32029653  0.23354453
   0.95553638  0.32164333  0.26030742
   0.45964669  0.05897697  0.24644354
   0.96362470  0.06556503  0.27814128
   0.20847870  0.94165969  0.26413612
   0.70995690  0.94447440  0.28141757
   0.20517126  0.44143596  0.24357717
   0.70459268  0.44177769  0.24778918
   0.54302710  0.83658553  0.42194734
   0.65297100  0.90920166  0.37831328
   0.44493059  0.88599394  0.46155698
Direct configuration=    21
   0.44799885  0.81706254  0.29754628
   0.95636058  0.82192885  0.25242238
   0.45356009  0.56290744  0.26341540
   0.95288307  0.56341579  0.23685111
   0.45585702  0.32029653  0.23354453
   0.95553638  0.32164333  0.26030742
   0.45964669  0.05897697  0.24644354
   0.96362470  0.06556503  0.27814128
   0.20847870  0.94165969  0.26413612
   0.70995690  0.94447440  0.28141757
   0.20517126  0.44143596  0.24357717
   0.70459268  0.44177769  0.24778918
   0.54302710  0.83658553  0.42194734
   0.65297100  0.90920166  0.37831328
   0.44493059  0.88599394  0.46155698
Direct configuration=    22
   0.44799885  0.81706254  0.29754628
   0.95636058  0.82192885  0.25242238
   0.45356009  0.56290744  0.26341540
   0.95454442  0.56440198  0.23685111
   0.45585702  0.32029653  0.23354453
   0.95553638  0.32164333  0.26030742
   0.45964669  0.05897697  0.24644354
   0.96362470  0.06556503  0.27814128
   0.20847870  0.94165969  0.26413612
   0.70995690  0.94447440  0.28141757
   0.20517126  0.44143596  0.24357717
   0.70459268  0.44177769  0.24778918
   0.54302710  0.83658553  0.42194734
   0.65297100  0.90920166  0.37831328
   0.44493059  0.88599394  0.46155698
Direct configuration=    23
   0.44799885  0.81706254  0.29754628
   0.95636058  0.82192885  0.25242238
   0.45356009  0.56290744  0.26341540
   0.95454442  0.56242959  0.23685111
   0.45585702  0.32029653  0.23354453
   0.95553638  0.32164333  0.26030742
   0.45964669  0.05897697  0.24644354
   0.96362470  0.06556503  0.27814128
   0.20847870  0.94165969  0.26413612
   0.70995690  0.94447440  0.28141757
   0.20517126  0.44143596  0.24357717
   0.70459268  0.44177769  0.24778918
   0.54302710  0.83658553  0.42194734
   0.65297100  0.90920166  0.37831328
   0.44493059  0.88599394  0.46155698
Direct configuration=    24
   0.44799885  0.81706254  0.29754628
   0.95636058  0.82192885  0.25242238
   0.45356009  0.56290744  0.26341540
   0.95454442  0.56341579  0.23751777
   0.45585702  0.32029653  0.23354453
   0.95553638  0.32164333  0.26030742
   0.45964669  0.05897697  0.24644354
   0.96362470  0.06556503  0.27814128
   0.20847870  0.94165969  0.26413612
   0.70995690  0.94447440  0.28141757
   0.20517126  0.44143596  0.24357717
   0.70459268  0.44177769  0.24778918
   0.54302710  0.83658553  0.42194734
   0.65297100  0.90920166  0.37831328
   0.44493059  0.88599394  0.46155698
Direct configuration=    25
   0.44799885  0.81706254  0.29754628
   0.95636058  0.82192885  0.25242238
   0.45356009  0.56290744  0.26341540
   0.95454442  0.56341579  0.23618444
   0.45585702  0.32029653  0.23354453
   0.95553638  0.32164333  0.26030742
   0.45964669  0.05897697  0.24644354
   0.96362470  0.06556503  0.27814128
   0.20847870  0.94165969  0.26413612
   0.70995690  0.94447440  0.28141757
   0.20517126  0.44143596  0.24357717
   0.70459268  0.44177769  0.24778918
   0.54302710  0.83658553  0.42194734
   0.65297100  0.90920166  0.37831328
   0.44493059  0.88599394  0.46155698
Direct configuration=    26
   0.44799885  0.81706254  0.29754628
   0.95636058  0.82192885  0.25242238
   0.45356009  0.56290744  0.26341540
   0.95454442  0.56341579  0.23685111
   0.45751837  0.32029653  0.23354453
   0.95553638  0.32164333  0.26030742
   0.45964669  0.05897697  0.24644354
   0.96362470  0.06556503  0.27814128
   0.20847870  0.94165969  0.26413612
   0.70995690  0.94447440  0.28141757
   0.20517126  0.44143596  0.24357717
   0.70459268  0.44177769  0.24778918
   0.54302710  0.83658553  0.42194734
   0.65297100  0.90920166  0.37831328
   0.44493059  0.88599394  0.46155698
Direct configuration=    27
   0.44799885  0.81706254  0.29754628
   0.95636058  0.82192885  0.25242238
   0.45356009  0.56290744  0.26341540
   0.95454442  0.56341579  0.23685111
   0.45419567  0.32029653  0.23354453
   0.95553638  0.32164333  0.26030742
   0.45964669  0.05897697  0.24644354
   0.96362470  0.06556503  0.27814128
   0.20847870  0.94165969  0.26413612
   0.70995690  0.94447440  0.28141757
   0.20517126  0.44143596  0.24357717
   0.70459268  0.44177769  0.24778918
   0.54302710  0.83658553  0.42194734
   0.65297100  0.90920166  0.37831328
   0.44493059  0.88599394  0.46155698
Direct configuration=    28
   0.44799885  0.81706254  0.29754628
   0.95636058  0.82192885  0.25242238
   0.45356009  0.56290744  0.26341540
   0.95454442  0.56341579  0.23685111
   0.45585702  0.32128273  0.23354453
   0.95553638  0.32164333  0.26030742
   0.45964669  0.05897697  0.24644354
   0.96362470  0.06556503  0.27814128
   0.20847870  0.94165969  0.26413612
   0.70995690  0.94447440  0.28141757
   0.20517126  0.44143596  0.24357717
   0.70459268  0.44177769  0.24778918
   0.54302710  0.83658553  0.42194734
   0.65297100  0.90920166  0.37831328
   0.44493059  0.88599394  0.46155698
Direct configuration=    29
   0.44799885  0.81706254  0.29754628
   0.95636058  0.82192885  0.25242238
   0.45356009  0.56290744  0.26341540
   0.95454442  0.56341579  0.23685111
   0.45585702  0.31931034  0.23354453
   0.95553638  0.32164333  0.26030742
   0.45964669  0.05897697  0.24644354
   0.96362470  0.06556503  0.27814128
   0.20847870  0.94165969  0.26413612
   0.70995690  0.94447440  0.28141757
   0.20517126  0.44143596  0.24357717
   0.70459268  0.44177769  0.24778918
   0.54302710  0.83658553  0.42194734
   0.65297100  0.90920166  0.37831328
   0.44493059  0.88599394  0.46155698
Direct configuration=    30
   0.44799885  0.81706254  0.29754628
   0.95636058  0.82192885  0.25242238
   0.45356009  0.56290744  0.26341540
   0.95454442  0.56341579  0.23685111
   0.45585702  0.32029653  0.23421120
   0.95553638  0.32164333  0.26030742
   0.45964669  0.05897697  0.24644354
   0.96362470  0.06556503  0.27814128
   0.20847870  0.94165969  0.26413612
   0.70995690  0.94447440  0.28141757
   0.20517126  0.44143596  0.24357717
   0.70459268  0.44177769  0.24778918
   0.54302710  0.83658553  0.42194734
   0.65297100  0.90920166  0.37831328
   0.44493059  0.88599394  0.46155698
Direct configuration=    31
   0.44799885  0.81706254  0.29754628
   0.95636058  0.82192885  0.25242238
   0.45356009  0.56290744  0.26341540
   0.95454442  0.56341579  0.23685111
   0.45585702  0.32029653  0.23287786
   0.95553638  0.32164333  0.26030742
   0.45964669  0.05897697  0.24644354
   0.96362470  0.06556503  0.27814128
   0.20847870  0.94165969  0.26413612
   0.70995690  0.94447440  0.28141757
   0.20517126  0.44143596  0.24357717
   0.70459268  0.44177769  0.24778918
   0.54302710  0.83658553  0.42194734
   0.65297100  0.90920166  0.37831328
   0.44493059  0.88599394  0.46155698
Direct configuration=    32
   0.44799885  0.81706254  0.29754628
   0.95636058  0.82192885  0.25242238
   0.45356009  0.56290744  0.26341540
   0.95454442  0.56341579  0.23685111
   0.45585702  0.32029653  0.23354453
   0.95719773  0.32164333  0.26030742
   0.45964669  0.05897697  0.24644354
   0.96362470  0.06556503  0.27814128
   0.20847870  0.94165969  0.26413612
   0.70995690  0.94447440  0.28141757
   0.20517126  0.44143596  0.24357717
   0.70459268  0.44177769  0.24778918
   0.54302710  0.83658553  0.42194734
   0.65297100  0.90920166  0.37831328
   0.44493059  0.88599394  0.46155698
Direct configuration=    33
   0.44799885  0.81706254  0.29754628
   0.95636058  0.82192885  0.25242238
   0.45356009  0.56290744  0.26341540
   0.95454442  0.56341579  0.23685111
   0.45585702  0.32029653  0.23354453
   0.95387503  0.32164333  0.26030742
   0.45964669  0.05897697  0.24644354
   0.96362470  0.06556503  0.27814128
   0.20847870  0.94165969  0.26413612
   0.70995690  0.94447440  0.28141757
   0.20517126  0.44143596  0.24357717
   0.70459268  0.44177769  0.24778918
   0.54302710  0.83658553  0.42194734
   0.65297100  0.90920166  0.37831328
   0.44493059  0.88599394  0.46155698
Direct configuration=    34
   0.44799885  0.81706254  0.29754628
   0.95636058  0.82192885  0.25242238
   0.45356009  0.56290744  0.26341540
   0.95454442  0.56341579  0.23685111
   0.45585702  0.32029653  0.23354453
   0.95553638  0.32262952  0.26030742
   0.45964669  0.05897697  0.24644354
   0.96362470  0.06556503  0.27814128
   0.20847870  0.94165969  0.26413612
   0.70995690  0.94447440  0.28141757
   0.20517126  0.44143596  0.24357717
   0.70459268  0.44177769  0.24778918
   0.54302710  0.83658553  0.42194734
   0.65297100  0.90920166  0.37831328
   0.44493059  0.88599394  0.46155698
Direct configuration=    35
   0.44799885  0.81706254  0.29754628
   0.95636058  0.82192885  0.25242238
   0.45356009  0.56290744  0.26341540
   0.95454442  0.56341579  0.23685111
   0.45585702  0.32029653  0.23354453
   0.95553638  0.32065713  0.26030742
   0.45964669  0.05897697  0.24644354
   0.96362470  0.06556503  0.27814128
   0.20847870  0.94165969  0.26413612
   0.70995690  0.94447440  0.28141757
   0.20517126  0.44143596  0.24357717
   0.70459268  0.44177769  0.24778918
   0.54302710  0.83658553  0.42194734
   0.65297100  0.90920166  0.37831328
   0.44493059  0.88599394  0.46155698
Direct configuration=    36
   0.44799885  0.81706254  0.29754628
   0.95636058  0.82192885  0.25242238
   0.45356009  0.56290744  0.26341540
   0.95454442  0.56341579  0.23685111
   0.45585702  0.32029653  0.23354453
   0.95553638  0.32164333  0.26097408
   0.45964669  0.05897697  0.24644354
   0.96362470  0.06556503  0.27814128
   0.20847870  0.94165969  0.26413612
   0.70995690  0.94447440  0.28141757
   0.20517126  0.44143596  0.24357717
   0.70459268  0.44177769  0.24778918
   0.54302710  0.83658553  0.42194734
   0.65297100  0.90920166  0.37831328
   0.44493059  0.88599394  0.46155698
Direct configuration=    37
   0.44799885  0.81706254  0.29754628
   0.95636058  0.82192885  0.25242238
   0.45356009  0.56290744  0.26341540
   0.95454442  0.56341579  0.23685111
   0.45585702  0.32029653  0.23354453
   0.95553638  0.32164333  0.25964075
   0.45964669  0.05897697  0.24644354
   0.96362470  0.06556503  0.27814128
   0.20847870  0.94165969  0.26413612
   0.70995690  0.94447440  0.28141757
   0.20517126  0.44143596  0.24357717
   0.70459268  0.44177769  0.24778918
   0.54302710  0.83658553  0.42194734
   0.65297100  0.90920166  0.37831328
   0.44493059  0.88599394  0.46155698
Direct configuration=    38
   0.44799885  0.81706254  0.29754628
   0.95636058  0.82192885  0.25242238
   0.45356009  0.56290744  0.26341540
   0.95454442  0.56341579  0.23685111
   0.45585702  0.32029653  0.23354453
   0.95553638  0.32164333  0.26030742
   0.46130804  0.05897697  0.24644354
   0.96362470  0.06556503  0.27814128
   0.20847870  0.94165969  0.26413612
   0.70995690  0.94447440  0.28141757
   0.20517126  0.44143596  0.24357717
   0.70459268  0.44177769  0.24778918
   0.54302710  0.83658553  0.42194734
   0.65297100  0.90920166  0.37831328
   0.44493059  0.88599394  0.46155698
Direct configuration=    39
   0.44799885  0.81706254  0.29754628
   0.95636058  0.82192885  0.25242238
   0.45356009  0.56290744  0.26341540
   0.95454442  0.56341579  0.23685111
   0.45585702  0.32029653  0.23354453
   0.95553638  0.32164333  0.26030742
   0.45798534  0.05897697  0.24644354
   0.96362470  0.06556503  0.27814128
   0.20847870  0.94165969  0.26413612
   0.70995690  0.94447440  0.28141757
   0.20517126  0.44143596  0.24357717
   0.70459268  0.44177769  0.24778918
   0.54302710  0.83658553  0.42194734
   0.65297100  0.90920166  0.37831328
   0.44493059  0.88599394  0.46155698
Direct configuration=    40
   0.44799885  0.81706254  0.29754628
   0.95636058  0.82192885  0.25242238
   0.45356009  0.56290744  0.26341540
   0.95454442  0.56341579  0.23685111
   0.45585702  0.32029653  0.23354453
   0.95553638  0.32164333  0.26030742
   0.45964669  0.05996316  0.24644354
   0.96362470  0.06556503  0.27814128
   0.20847870  0.94165969  0.26413612
   0.70995690  0.94447440  0.28141757
   0.20517126  0.44143596  0.24357717
   0.70459268  0.44177769  0.24778918
   0.54302710  0.83658553  0.42194734
   0.65297100  0.90920166  0.37831328
   0.44493059  0.88599394  0.46155698
Direct configuration=    41
   0.44799885  0.81706254  0.29754628
   0.95636058  0.82192885  0.25242238
   0.45356009  0.56290744  0.26341540
   0.95454442  0.56341579  0.23685111
   0.45585702  0.32029653  0.23354453
   0.95553638  0.32164333  0.26030742
   0.45964669  0.05799077  0.24644354
   0.96362470  0.06556503  0.27814128
   0.20847870  0.94165969  0.26413612
   0.70995690  0.94447440  0.28141757
   0.20517126  0.44143596  0.24357717
   0.70459268  0.44177769  0.24778918
   0.54302710  0.83658553  0.42194734
   0.65297100  0.90920166  0.37831328
   0.44493059  0.88599394  0.46155698
Direct configuration=    42
   0.44799885  0.81706254  0.29754628
   0.95636058  0.82192885  0.25242238
   0.45356009  0.56290744  0.26341540
   0.95454442  0.56341579  0.23685111
   0.45585702  0.32029653  0.23354453
   0.95553638  0.32164333  0.26030742
   0.45964669  0.05897697  0.24711020
   0.96362470  0.06556503  0.27814128
   0.20847870  0.94165969  0.26413612
   0.70995690  0.94447440  0.28141757
   0.20517126  0.44143596  0.24357717
   0.70459268  0.44177769  0.24778918
   0.54302710  0.83658553  0.42194734
   0.65297100  0.90920166  0.37831328
   0.44493059  0.88599394  0.46155698
Direct configuration=    43
   0.44799885  0.81706254  0.29754628
   0.95636058  0.82192885  0.25242238
   0.45356009  0.56290744  0.26341540
   0.95454442  0.56341579  0.23685111
   0.45585702  0.32029653  0.23354453
   0.95553638  0.32164333  0.26030742
   0.45964669  0.05897697  0.24577687
   0.96362470  0.06556503  0.27814128
   0.20847870  0.94165969  0.26413612
   0.70995690  0.94447440  0.28141757
   0.20517126  0.44143596  0.24357717
   0.70459268  0.44177769  0.24778918
   0.54302710  0.83658553  0.42194734
   0.65297100  0.90920166  0.37831328
   0.44493059  0.88599394  0.46155698
Direct configuration=    44
   0.44799885  0.81706254  0.29754628
   0.95636058  0.82192885  0.25242238
   0.45356009  0.56290744  0.26341540
   0.95454442  0.56341579  0.23685111
   0.45585702  0.32029653  0.23354453
   0.95553638  0.32164333  0.26030742
   0.45964669  0.05897697  0.24644354
   0.96528605  0.06556503  0.27814128
   0.20847870  0.94165969  0.26413612
   0.70995690  0.94447440  0.28141757
   0.20517126  0.44143596  0.24357717
   0.70459268  0.44177769  0.24778918
   0.54302710  0.83658553  0.42194734
   0.65297100  0.90920166  0.37831328
   0.44493059  0.88599394  0.46155698
Direct configuration=    45
   0.44799885  0.81706254  0.29754628
   0.95636058  0.82192885  0.25242238
   0.45356009  0.56290744  0.26341540
   0.95454442  0.56341579  0.23685111
   0.45585702  0.32029653  0.23354453
   0.95553638  0.32164333  0.26030742
   0.45964669  0.05897697  0.24644354
   0.96196335  0.06556503  0.27814128
   0.20847870  0.94165969  0.26413612
   0.70995690  0.94447440  0.28141757
   0.20517126  0.44143596  0.24357717
   0.70459268  0.44177769  0.24778918
   0.54302710  0.83658553  0.42194734
   0.65297100  0.90920166  0.37831328
   0.44493059  0.88599394  0.46155698
Direct configuration=    46
   0.44799885  0.81706254  0.29754628
   0.95636058  0.82192885  0.25242238
   0.45356009  0.56290744  0.26341540
   0.95454442  0.56341579  0.23685111
   0.45585702  0.32029653  0.23354453
   0.95553638  0.32164333  0.26030742
   0.45964669  0.05897697  0.24644354
   0.96362470  0.06655122  0.27814128
   0.20847870  0.94165969  0.26413612
   0.70995690  0.94447440  0.28141757
   0.20517126  0.44143596  0.24357717
   0.70459268  0.44177769  0.24778918
   0.54302710  0.83658553  0.42194734
   0.65297100  0.90920166  0.37831328
   0.44493059  0.88599394  0.46155698
Direct configuration=    47
   0.44799885  0.81706254  0.29754628
   0.95636058  0.82192885  0.25242238
   0.45356009  0.56290744  0.26341540
   0.95454442  0.56341579  0.23685111
   0.45585702  0.32029653  0.23354453
   0.95553638  0.32164333  0.26030742
   0.45964669  0.05897697  0.24644354
   0.96362470  0.06457884  0.27814128
   0.20847870  0.94165969  0.26413612
   0.70995690  0.94447440  0.28141757
   0.20517126  0.44143596  0.24357717
   0.70459268  0.44177769  0.24778918
   0.54302710  0.83658553  0.42194734
   0.65297100  0.90920166  0.37831328
   0.44493059  0.88599394  0.46155698
Direct configuration=    48
   0.44799885  0.81706254  0.29754628
   0.95636058  0.82192885  0.25242238
   0.45356009  0.56290744  0.26341540
   0.95454442  0.56341579  0.23685111
   0.45585702  0.32029653  0.23354453
   0.95553638  0.32164333  0.26030742
   0.45964669  0.05897697  0.24644354
   0.96362470  0.06556503  0.27880795
   0.20847870  0.94165969  0.26413612
   0.70995690  0.94447440  0.28141757
   0.20517126  0.44143596  0.24357717
   0.70459268  0.44177769  0.24778918
   0.54302710  0.83658553  0.42194734
   0.65297100  0.90920166  0.37831328
   0.44493059  0.88599394  0.46155698
Direct configuration=    49
   0.44799885  0.81706254  0.29754628
   0.95636058  0.82192885  0.25242238
   0.45356009  0.56290744  0.26341540
   0.95454442  0.56341579  0.23685111
   0.45585702  0.32029653  0.23354453
   0.95553638  0.32164333  0.26030742
   0.45964669  0.05897697  0.24644354
   0.96362470  0.06556503  0.27747462
   0.20847870  0.94165969  0.26413612
   0.70995690  0.94447440  0.28141757
   0.20517126  0.44143596  0.24357717
   0.70459268  0.44177769  0.24778918
   0.54302710  0.83658553  0.42194734
   0.65297100  0.90920166  0.37831328
   0.44493059  0.88599394  0.46155698
Direct configuration=    50
   0.44799885  0.81706254  0.29754628
   0.95636058  0.82192885  0.25242238
   0.45356009  0.56290744  0.26341540
   0.95454442  0.56341579  0.23685111
   0.45585702  0.32029653  0.23354453
   0.95553638  0.32164333  0.26030742
   0.45964669  0.05897697  0.24644354
   0.96362470  0.06556503  0.27814128
   0.21014005  0.94165969  0.26413612
   0.70995690  0.94447440  0.28141757
   0.20517126  0.44143596  0.24357717
   0.70459268  0.44177769  0.24778918
   0.54302710  0.83658553  0.42194734
   0.65297100  0.90920166  0.37831328
   0.44493059  0.88599394  0.46155698
Direct configuration=    51
   0.44799885  0.81706254  0.29754628
   0.95636058  0.82192885  0.25242238
   0.45356009  0.56290744  0.26341540
   0.95454442  0.56341579  0.23685111
   0.45585702  0.32029653  0.23354453
   0.95553638  0.32164333  0.26030742
   0.45964669  0.05897697  0.24644354
   0.96362470  0.06556503  0.27814128
   0.20681735  0.94165969  0.26413612
   0.70995690  0.94447440  0.28141757
   0.20517126  0.44143596  0.24357717
   0.70459268  0.44177769  0.24778918
   0.54302710  0.83658553  0.42194734
   0.65297100  0.90920166  0.37831328
   0.44493059  0.88599394  0.46155698
Direct configuration=    52
   0.44799885  0.81706254  0.29754628
   0.95636058  0.82192885  0.25242238
   0.45356009  0.56290744  0.26341540
   0.95454442  0.56341579  0.23685111
   0.45585702  0.32029653  0.23354453
   0.95553638  0.32164333  0.26030742
   0.45964669  0.05897697  0.24644354
   0.96362470  0.06556503  0.27814128
   0.20847870  0.94264588  0.26413612
   0.70995690  0.94447440  0.28141757
   0.20517126  0.44143596  0.24357717
   0.70459268  0.44177769  0.24778918
   0.54302710  0.83658553  0.42194734
   0.65297100  0.90920166  0.37831328
   0.44493059  0.88599394  0.46155698
Direct configuration=    53
   0.44799885  0.81706254  0.29754628
   0.95636058  0.82192885  0.25242238
   0.45356009  0.56290744  0.26341540
   0.95454442  0.56341579  0.23685111
   0.45585702  0.32029653  0.23354453
   0.95553638  0.32164333  0.26030742
   0.45964669  0.05897697  0.24644354
   0.96362470  0.06556503  0.27814128
   0.20847870  0.94067350  0.26413612
   0.70995690  0.94447440  0.28141757
   0.20517126  0.44143596  0.24357717
   0.70459268  0.44177769  0.24778918
   0.54302710  0.83658553  0.42194734
   0.65297100  0.90920166  0.37831328
   0.44493059  0.88599394  0.46155698
Direct configuration=    54
   0.44799885  0.81706254  0.29754628
   0.95636058  0.82192885  0.25242238
   0.45356009  0.56290744  0.26341540
   0.95454442  0.56341579  0.23685111
   0.45585702  0.32029653  0.23354453
   0.95553638  0.32164333  0.26030742
   0.45964669  0.05897697  0.24644354
   0.96362470  0.06556503  0.27814128
   0.20847870  0.94165969  0.26480279
   0.70995690  0.94447440  0.28141757
   0.20517126  0.44143596  0.24357717
   0.70459268  0.44177769  0.24778918
   0.54302710  0.83658553  0.42194734
   0.65297100  0.90920166  0.37831328
   0.44493059  0.88599394  0.46155698
Direct configuration=    55
   0.44799885  0.81706254  0.29754628
   0.95636058  0.82192885  0.25242238
   0.45356009  0.56290744  0.26341540
   0.95454442  0.56341579  0.23685111
   0.45585702  0.32029653  0.23354453
   0.95553638  0.32164333  0.26030742
   0.45964669  0.05897697  0.24644354
   0.96362470  0.06556503  0.27814128
   0.20847870  0.94165969  0.26346946
   0.70995690  0.94447440  0.28141757
   0.20517126  0.44143596  0.24357717
   0.70459268  0.44177769  0.24778918
   0.54302710  0.83658553  0.42194734
   0.65297100  0.90920166  0.37831328
   0.44493059  0.88599394  0.46155698
Direct configuration=    56
   0.44799885  0.81706254  0.29754628
   0.95636058  0.82192885  0.25242238
   0.45356009  0.56290744  0.26341540
   0.95454442  0.56341579  0.23685111
   0.45585702  0.32029653  0.23354453
   0.95553638  0.32164333  0.26030742
   0.45964669  0.05897697  0.24644354
   0.96362470  0.06556503  0.27814128
   0.20847870  0.94165969  0.26413612
   0.71161825  0.94447440  0.28141757
   0.20517126  0.44143596  0.24357717
   0.70459268  0.44177769  0.24778918
   0.54302710  0.83658553  0.42194734
   0.65297100  0.90920166  0.37831328
   0.44493059  0.88599394  0.46155698
Direct configuration=    57
   0.44799885  0.81706254  0.29754628
   0.95636058  0.82192885  0.25242238
   0.45356009  0.56290744  0.26341540
   0.95454442  0.56341579  0.23685111
   0.45585702  0.32029653  0.23354453
   0.95553638  0.32164333  0.26030742
   0.45964669  0.05897697  0.24644354
   0.96362470  0.06556503  0.27814128
   0.20847870  0.94165969  0.26413612
   0.70829555  0.94447440  0.28141757
   0.20517126  0.44143596  0.24357717
   0.70459268  0.44177769  0.24778918
   0.54302710  0.83658553  0.42194734
   0.65297100  0.90920166  0.37831328
   0.44493059  0.88599394  0.46155698
Direct configuration=    58
   0.44799885  0.81706254  0.29754628
   0.95636058  0.82192885  0.25242238
   0.45356009  0.56290744  0.26341540
   0.95454442  0.56341579  0.23685111
   0.45585702  0.32029653  0.23354453
   0.95553638  0.32164333  0.26030742
   0.45964669  0.05897697  0.24644354
   0.96362470  0.06556503  0.27814128
   0.20847870  0.94165969  0.26413612
   0.70995690  0.94546059  0.28141757
   0.20517126  0.44143596  0.24357717
   0.70459268  0.44177769  0.24778918
   0.54302710  0.83658553  0.42194734
   0.65297100  0.90920166  0.37831328
   0.44493059  0.88599394  0.46155698
Direct configuration=    59
   0.44799885  0.81706254  0.29754628
   0.95636058  0.82192885  0.25242238
   0.45356009  0.56290744  0.26341540
   0.95454442  0.56341579  0.23685111
   0.45585702  0.32029653  0.23354453
   0.95553638  0.32164333  0.26030742
   0.45964669  0.05897697  0.24644354
   0.96362470  0.06556503  0.27814128
   0.20847870  0.94165969  0.26413612
   0.70995690  0.94348820  0.28141757
   0.20517126  0.44143596  0.24357717
   0.70459268  0.44177769  0.24778918
   0.54302710  0.83658553  0.42194734
   0.65297100  0.90920166  0.37831328
   0.44493059  0.88599394  0.46155698
Direct configuration=    60
   0.44799885  0.81706254  0.29754628
   0.95636058  0.82192885  0.25242238
   0.45356009  0.56290744  0.26341540
   0.95454442  0.56341579  0.23685111
   0.45585702  0.32029653  0.23354453
   0.95553638  0.32164333  0.26030742
   0.45964669  0.05897697  0.24644354
   0.96362470  0.06556503  0.27814128
   0.20847870  0.94165969  0.26413612
   0.70995690  0.94447440  0.28208424
   0.20517126  0.44143596  0.24357717
   0.70459268  0.44177769  0.24778918
   0.54302710  0.83658553  0.42194734
   0.65297100  0.90920166  0.37831328
   0.44493059  0.88599394  0.46155698
Direct configuration=    61
   0.44799885  0.81706254  0.29754628
   0.95636058  0.82192885  0.25242238
   0.45356009  0.56290744  0.26341540
   0.95454442  0.56341579  0.23685111
   0.45585702  0.32029653  0.23354453
   0.95553638  0.32164333  0.26030742
   0.45964669  0.05897697  0.24644354
   0.96362470  0.06556503  0.27814128
   0.20847870  0.94165969  0.26413612
   0.70995690  0.94447440  0.28075091
   0.20517126  0.44143596  0.24357717
   0.70459268  0.44177769  0.24778918
   0.54302710  0.83658553  0.42194734
   0.65297100  0.90920166  0.37831328
   0.44493059  0.88599394  0.46155698
Direct configuration=    62
   0.44799885  0.81706254  0.29754628
   0.95636058  0.82192885  0.25242238
   0.45356009  0.56290744  0.26341540
   0.95454442  0.56341579  0.23685111
   0.45585702  0.32029653  0.23354453
   0.95553638  0.32164333  0.26030742
   0.45964669  0.05897697  0.24644354
   0.96362470  0.06556503  0.27814128
   0.20847870  0.94165969  0.26413612
   0.70995690  0.94447440  0.28141757
   0.20683261  0.44143596  0.24357717
   0.70459268  0.44177769  0.24778918
   0.54302710  0.83658553  0.42194734
   0.65297100  0.90920166  0.37831328
   0.44493059  0.88599394  0.46155698
Direct configuration=    63
   0.44799885  0.81706254  0.29754628
   0.95636058  0.82192885  0.25242238
   0.45356009  0.56290744  0.26341540
   0.95454442  0.56341579  0.23685111
   0.45585702  0.32029653  0.23354453
   0.95553638  0.32164333  0.26030742
   0.45964669  0.05897697  0.24644354
   0.96362470  0.06556503  0.27814128
   0.20847870  0.94165969  0.26413612
   0.70995690  0.94447440  0.28141757
   0.20350991  0.44143596  0.24357717
   0.70459268  0.44177769  0.24778918
   0.54302710  0.83658553  0.42194734
   0.65297100  0.90920166  0.37831328
   0.44493059  0.88599394  0.46155698
Direct configuration=    64
   0.44799885  0.81706254  0.29754628
   0.95636058  0.82192885  0.25242238
   0.45356009  0.56290744  0.26341540
   0.95454442  0.56341579  0.23685111
   0.45585702  0.32029653  0.23354453
   0.95553638  0.32164333  0.26030742
   0.45964669  0.05897697  0.24644354
   0.96362470  0.06556503  0.27814128
   0.20847870  0.94165969  0.26413612
   0.70995690  0.94447440  0.28141757
   0.20517126  0.44242216  0.24357717
   0.70459268  0.44177769  0.24778918
   0.54302710  0.83658553  0.42194734
   0.65297100  0.90920166  0.37831328
   0.44493059  0.88599394  0.46155698
Direct configuration=    65
   0.44799885  0.81706254  0.29754628
   0.95636058  0.82192885  0.25242238
   0.45356009  0.56290744  0.26341540
   0.95454442  0.56341579  0.23685111
   0.45585702  0.32029653  0.23354453
   0.95553638  0.32164333  0.26030742
   0.45964669  0.05897697  0.24644354
   0.96362470  0.06556503  0.27814128
   0.20847870  0.94165969  0.26413612
   0.70995690  0.94447440  0.28141757
   0.20517126  0.44044977  0.24357717
   0.70459268  0.44177769  0.24778918
   0.54302710  0.83658553  0.42194734
   0.65297100  0.90920166  0.37831328
   0.44493059  0.88599394  0.46155698
Direct configuration=    66
   0.44799885  0.81706254  0.29754628
   0.95636058  0.82192885  0.25242238
   0.45356009  0.56290744  0.26341540
   0.95454442  0.56341579  0.23685111
   0.45585702  0.32029653  0.23354453
   0.95553638  0.32164333  0.26030742
   0.45964669  0.05897697  0.24644354
   0.96362470  0.06556503  0.27814128
   0.20847870  0.94165969  0.26413612
   0.70995690  0.94447440  0.28141757
   0.20517126  0.44143596  0.24424384
   0.70459268  0.44177769  0.24778918
   0.54302710  0.83658553  0.42194734
   0.65297100  0.90920166  0.37831328
   0.44493059  0.88599394  0.46155698
Direct configuration=    67
   0.44799885  0.81706254  0.29754628
   0.95636058  0.82192885  0.25242238
   0.45356009  0.56290744  0.26341540
   0.95454442  0.56341579  0.23685111
   0.45585702  0.32029653  0.23354453
   0.95553638  0.32164333  0.26030742
   0.45964669  0.05897697  0.24644354
   0.96362470  0.06556503  0.27814128
   0.20847870  0.94165969  0.26413612
   0.70995690  0.94447440  0.28141757
   0.20517126  0.44143596  0.24291051
   0.70459268  0.44177769  0.24778918
   0.54302710  0.83658553  0.42194734
   0.65297100  0.90920166  0.37831328
   0.44493059  0.88599394  0.46155698
Direct configuration=    68
   0.44799885  0.81706254  0.29754628
   0.95636058  0.82192885  0.25242238
   0.45356009  0.56290744  0.26341540
   0.95454442  0.56341579  0.23685111
   0.45585702  0.32029653  0.23354453
   0.95553638  0.32164333  0.26030742
   0.45964669  0.05897697  0.24644354
   0.96362470  0.06556503  0.27814128
   0.20847870  0.94165969  0.26413612
   0.70995690  0.94447440  0.28141757
   0.20517126  0.44143596  0.24357717
   0.70625403  0.44177769  0.24778918
   0.54302710  0.83658553  0.42194734
   0.65297100  0.90920166  0.37831328
   0.44493059  0.88599394  0.46155698
Direct configuration=    69
   0.44799885  0.81706254  0.29754628
   0.95636058  0.82192885  0.25242238
   0.45356009  0.56290744  0.26341540
   0.95454442  0.56341579  0.23685111
   0.45585702  0.32029653  0.23354453
   0.95553638  0.32164333  0.26030742
   0.45964669  0.05897697  0.24644354
   0.96362470  0.06556503  0.27814128
   0.20847870  0.94165969  0.26413612
   0.70995690  0.94447440  0.28141757
   0.20517126  0.44143596  0.24357717
   0.70293132  0.44177769  0.24778918
   0.54302710  0.83658553  0.42194734
   0.65297100  0.90920166  0.37831328
   0.44493059  0.88599394  0.46155698
Direct configuration=    70
   0.44799885  0.81706254  0.29754628
   0.95636058  0.82192885  0.25242238
   0.45356009  0.56290744  0.26341540
   0.95454442  0.56341579  0.23685111
   0.45585702  0.32029653  0.23354453
   0.95553638  0.32164333  0.26030742
   0.45964669  0.05897697  0.24644354
   0.96362470  0.06556503  0.27814128
   0.20847870  0.94165969  0.26413612
   0.70995690  0.94447440  0.28141757
   0.20517126  0.44143596  0.24357717
   0.70459268  0.44276388  0.24778918
   0.54302710  0.83658553  0.42194734
   0.65297100  0.90920166  0.37831328
   0.44493059  0.88599394  0.46155698
Direct configuration=    71
   0.44799885  0.81706254  0.29754628
   0.95636058  0.82192885  0.25242238
   0.45356009  0.56290744  0.26341540
   0.95454442  0.56341579  0.23685111
   0.45585702  0.32029653  0.23354453
   0.95553638  0.32164333  0.26030742
   0.45964669  0.05897697  0.24644354
   0.96362470  0.06556503  0.27814128
   0.20847870  0.94165969  0.26413612
   0.70995690  0.94447440  0.28141757
   0.20517126  0.44143596  0.24357717
   0.70459268  0.44079149  0.24778918
   0.54302710  0.83658553  0.42194734
   0.65297100  0.90920166  0.37831328
   0.44493059  0.88599394  0.46155698
Direct configuration=    72
   0.44799885  0.81706254  0.29754628
   0.95636058  0.82192885  0.25242238
   0.45356009  0.56290744  0.26341540
   0.95454442  0.56341579  0.23685111
   0.45585702  0.32029653  0.23354453
   0.95553638  0.32164333  0.26030742
   0.45964669  0.05897697  0.24644354
   0.96362470  0.06556503  0.27814128
   0.20847870  0.94165969  0.26413612
   0.70995690  0.94447440  0.28141757
   0.20517126  0.44143596  0.24357717
   0.70459268  0.44177769  0.24845585
   0.54302710  0.83658553  0.42194734
   0.65297100  0.90920166  0.37831328
   0.44493059  0.88599394  0.46155698
Direct configuration=    73
   0.44799885  0.81706254  0.29754628
   0.95636058  0.82192885  0.25242238
   0.45356009  0.56290744  0.26341540
   0.95454442  0.56341579  0.23685111
   0.45585702  0.32029653  0.23354453
   0.95553638  0.32164333  0.26030742
   0.45964669  0.05897697  0.24644354
   0.96362470  0.06556503  0.27814128
   0.20847870  0.94165969  0.26413612
   0.70995690  0.94447440  0.28141757
   0.20517126  0.44143596  0.24357717
   0.70459268  0.44177769  0.24712251
   0.54302710  0.83658553  0.42194734
   0.65297100  0.90920166  0.37831328
   0.44493059  0.88599394  0.46155698
Direct configuration=    74
   0.44799885  0.81706254  0.29754628
   0.95636058  0.82192885  0.25242238
   0.45356009  0.56290744  0.26341540
   0.95454442  0.56341579  0.23685111
   0.45585702  0.32029653  0.23354453
   0.95553638  0.32164333  0.26030742
   0.45964669  0.05897697  0.24644354
   0.96362470  0.06556503  0.27814128
   0.20847870  0.94165969  0.26413612
   0.70995690  0.94447440  0.28141757
   0.20517126  0.44143596  0.24357717
   0.70459268  0.44177769  0.24778918
   0.54468845  0.83658553  0.42194734
   0.65297100  0.90920166  0.37831328
   0.44493059  0.88599394  0.46155698
Direct configuration=    75
   0.44799885  0.81706254  0.29754628
   0.95636058  0.82192885  0.25242238
   0.45356009  0.56290744  0.26341540
   0.95454442  0.56341579  0.23685111
   0.45585702  0.32029653  0.23354453
   0.95553638  0.32164333  0.26030742
   0.45964669  0.05897697  0.24644354
   0.96362470  0.06556503  0.27814128
   0.20847870  0.94165969  0.26413612
   0.70995690  0.94447440  0.28141757
   0.20517126  0.44143596  0.24357717
   0.70459268  0.44177769  0.24778918
   0.54136575  0.83658553  0.42194734
   0.65297100  0.90920166  0.37831328
   0.44493059  0.88599394  0.46155698
Direct configuration=    76
   0.44799885  0.81706254  0.29754628
   0.95636058  0.82192885  0.25242238
   0.45356009  0.56290744  0.26341540
   0.95454442  0.56341579  0.23685111
   0.45585702  0.32029653  0.23354453
   0.95553638  0.32164333  0.26030742
   0.45964669  0.05897697  0.24644354
   0.96362470  0.06556503  0.27814128
   0.20847870  0.94165969  0.26413612
   0.70995690  0.94447440  0.28141757
   0.20517126  0.44143596  0.24357717
   0.70459268  0.44177769  0.24778918
   0.54302710  0.83757172  0.42194734
   0.65297100  0.90920166  0.37831328
   0.44493059  0.88599394  0.46155698
Direct configuration=    77
   0.44799885  0.81706254  0.29754628
   0.95636058  0.82192885  0.25242238
   0.45356009  0.56290744  0.26341540
   0.95454442  0.56341579  0.23685111
   0.45585702  0.32029653  0.23354453
   0.95553638  0.32164333  0.26030742
   0.45964669  0.05897697  0.24644354
   0.96362470  0.06556503  0.27814128
   0.20847870  0.94165969  0.26413612
   0.70995690  0.94447440  0.28141757
   0.20517126  0.44143596  0.24357717
   0.70459268  0.44177769  0.24778918
   0.54302710  0.83559933  0.42194734
   0.65297100  0.90920166  0.37831328
   0.44493059  0.88599394  0.46155698
Direct configuration=    78
   0.44799885  0.81706254  0.29754628
   0.95636058  0.82192885  0.25242238
   0.45356009  0.56290744  0.26341540
   0.95454442  0.56341579  0.23685111
   0.45585702  0.32029653  0.23354453
   0.95553638  0.32164333  0.26030742
   0.45964669  0.05897697  0.24644354
   0.96362470  0.06556503  0.27814128
   0.20847870  0.94165969  0.26413612
   0.70995690  0.94447440  0.28141757
   0.20517126  0.44143596  0.24357717
   0.70459268  0.44177769  0.24778918
   0.54302710  0.83658553  0.42261400
   0.65297100  0.90920166  0.37831328
   0.44493059  0.88599394  0.46155698
Direct configuration=    79
   0.44799885  0.81706254  0.29754628
   0.95636058  0.82192885  0.25242238
   0.45356009  0.56290744  0.26341540
   0.95454442  0.56341579  0.23685111
   0.45585702  0.32029653  0.23354453
   0.95553638  0.32164333  0.26030742
   0.45964669  0.05897697  0.24644354
   0.96362470  0.06556503  0.27814128
   0.20847870  0.94165969  0.26413612
   0.70995690  0.94447440  0.28141757
   0.20517126  0.44143596  0.24357717
   0.70459268  0.44177769  0.24778918
   0.54302710  0.83658553  0.42128067
   0.65297100  0.90920166  0.37831328
   0.44493059  0.88599394  0.46155698
Direct configuration=    80
   0.44799885  0.81706254  0.29754628
   0.95636058  0.82192885  0.25242238
   0.45356009  0.56290744  0.26341540
   0.95454442  0.56341579  0.23685111
   0.45585702  0.32029653  0.23354453
   0.95553638  0.32164333  0.26030742
   0.45964669  0.05897697  0.24644354
   0.96362470  0.06556503  0.27814128
   0.20847870  0.94165969  0.26413612
   0.70995690  0.94447440  0.28141757
   0.20517126  0.44143596  0.24357717
   0.70459268  0.44177769  0.24778918
   0.54302710  0.83658553  0.42194734
   0.65463235  0.90920166  0.37831328
   0.44493059  0.88599394  0.46155698
Direct configuration=    81
   0.44799885  0.81706254  0.29754628
   0.95636058  0.82192885  0.25242238
   0.45356009  0.56290744  0.26341540
   0.95454442  0.56341579  0.23685111
   0.45585702  0.32029653  0.23354453
   0.95553638  0.32164333  0.26030742
   0.45964669  0.05897697  0.24644354
   0.96362470  0.06556503  0.27814128
   0.20847870  0.94165969  0.26413612
   0.70995690  0.94447440  0.28141757
   0.20517126  0.44143596  0.24357717
   0.70459268  0.44177769  0.24778918
   0.54302710  0.83658553  0.42194734
   0.65130965  0.90920166  0.37831328
   0.44493059  0.88599394  0.46155698
Direct configuration=    82
   0.44799885  0.81706254  0.29754628
   0.95636058  0.82192885  0.25242238
   0.45356009  0.56290744  0.26341540
   0.95454442  0.56341579  0.23685111
   0.45585702  0.32029653  0.23354453
   0.95553638  0.32164333  0.26030742
   0.45964669  0.05897697  0.24644354
   0.96362470  0.06556503  0.27814128
   0.20847870  0.94165969  0.26413612
   0.70995690  0.94447440  0.28141757
   0.20517126  0.44143596  0.24357717
   0.70459268  0.44177769  0.24778918
   0.54302710  0.83658553  0.42194734
   0.65297100  0.91018786  0.37831328
   0.44493059  0.88599394  0.46155698
Direct configuration=    83
   0.44799885  0.81706254  0.29754628
   0.95636058  0.82192885  0.25242238
   0.45356009  0.56290744  0.26341540
   0.95454442  0.56341579  0.23685111
   0.45585702  0.32029653  0.23354453
   0.95553638  0.32164333  0.26030742
   0.45964669  0.05897697  0.24644354
   0.96362470  0.06556503  0.27814128
   0.20847870  0.94165969  0.26413612
   0.70995690  0.94447440  0.28141757
   0.20517126  0.44143596  0.24357717
   0.70459268  0.44177769  0.24778918
   0.54302710  0.83658553  0.42194734
   0.65297100  0.90821547  0.37831328
   0.44493059  0.88599394  0.46155698
Direct configuration=    84
   0.44799885  0.81706254  0.29754628
   0.95636058  0.82192885  0.25242238
   0.45356009  0.56290744  0.26341540
   0.95454442  0.56341579  0.23685111
   0.45585702  0.32029653  0.23354453
   0.95553638  0.32164333  0.26030742
   0.45964669  0.05897697  0.24644354
   0.96362470  0.06556503  0.27814128
   0.20847870  0.94165969  0.26413612
   0.70995690  0.94447440  0.28141757
   0.20517126  0.44143596  0.24357717
   0.70459268  0.44177769  0.24778918
   0.54302710  0.83658553  0.42194734
   0.65297100  0.90920166  0.37897995
   0.44493059  0.88599394  0.46155698
Direct configuration=    85
   0.44799885  0.81706254  0.29754628
   0.95636058  0.82192885  0.25242238
   0.45356009  0.56290744  0.26341540
   0.95454442  0.56341579  0.23685111
   0.45585702  0.32029653  0.23354453
   0.95553638  0.32164333  0.26030742
   0.45964669  0.05897697  0.24644354
   0.96362470  0.06556503  0.27814128
   0.20847870  0.94165969  0.26413612
   0.70995690  0.94447440  0.28141757
   0.20517126  0.44143596  0.24357717
   0.70459268  0.44177769  0.24778918
   0.54302710  0.83658553  0.42194734
   0.65297100  0.90920166  0.37764661
   0.44493059  0.88599394  0.46155698
Direct configuration=    86
   0.44799885  0.81706254  0.29754628
   0.95636058  0.82192885  0.25242238
   0.45356009  0.56290744  0.26341540
   0.95454442  0.56341579  0.23685111
   0.45585702  0.32029653  0.23354453
   0.95553638  0.32164333  0.26030742
   0.45964669  0.05897697  0.24644354
   0.96362470  0.06556503  0.27814128
   0.20847870  0.94165969  0.26413612
   0.70995690  0.94447440  0.28141757
   0.20517126  0.44143596  0.24357717
   0.70459268  0.44177769  0.24778918
   0.54302710  0.83658553  0.42194734
   0.65297100  0.90920166  0.37831328
   0.44659194  0.88599394  0.46155698
Direct configuration=    87
   0.44799885  0.81706254  0.29754628
   0.95636058  0.82192885  0.25242238
   0.45356009  0.56290744  0.26341540
   0.95454442  0.56341579  0.23685111
   0.45585702  0.32029653  0.23354453
   0.95553638  0.32164333  0.26030742
   0.45964669  0.05897697  0.24644354
   0.96362470  0.06556503  0.27814128
   0.20847870  0.94165969  0.26413612
   0.70995690  0.94447440  0.28141757
   0.20517126  0.44143596  0.24357717
   0.70459268  0.44177769  0.24778918
   0.54302710  0.83658553  0.42194734
   0.65297100  0.90920166  0.37831328
   0.44326924  0.88599394  0.46155698
Direct configuration=    88
   0.44799885  0.81706254  0.29754628
   0.95636058  0.82192885  0.25242238
   0.45356009  0.56290744  0.26341540
   0.95454442  0.56341579  0.23685111
   0.45585702  0.32029653  0.23354453
   0.95553638  0.32164333  0.26030742
   0.45964669  0.05897697  0.24644354
   0.96362470  0.06556503  0.27814128
   0.20847870  0.94165969  0.26413612
   0.70995690  0.94447440  0.28141757
   0.20517126  0.44143596  0.24357717
   0.70459268  0.44177769  0.24778918
   0.54302710  0.83658553  0.42194734
   0.65297100  0.90920166  0.37831328
   0.44493059  0.88698014  0.46155698
Direct configuration=    89
   0.44799885  0.81706254  0.29754628
   0.95636058  0.82192885  0.25242238
   0.45356009  0.56290744  0.26341540
   0.95454442  0.56341579  0.23685111
   0.45585702  0.32029653  0.23354453
   0.95553638  0.32164333  0.26030742
   0.45964669  0.05897697  0.24644354
   0.96362470  0.06556503  0.27814128
   0.20847870  0.94165969  0.26413612
   0.70995690  0.94447440  0.28141757
   0.20517126  0.44143596  0.24357717
   0.70459268  0.44177769  0.24778918
   0.54302710  0.83658553  0.42194734
   0.65297100  0.90920166  0.37831328
   0.44493059  0.88500775  0.46155698
Direct configuration=    90
   0.44799885  0.81706254  0.29754628
   0.95636058  0.82192885  0.25242238
   0.45356009  0.56290744  0.26341540
   0.95454442  0.56341579  0.23685111
   0.45585702  0.32029653  0.23354453
   0.95553638  0.32164333  0.26030742
   0.45964669  0.05897697  0.24644354
   0.96362470  0.06556503  0.27814128
   0.20847870  0.94165969  0.26413612
   0.70995690  0.94447440  0.28141757
   0.20517126  0.44143596  0.24357717
   0.70459268  0.44177769  0.24778918
   0.54302710  0.83658553  0.42194734
   0.65297100  0.90920166  0.37831328
   0.44493059  0.88599394  0.46222365
Direct configuration=    91
   0.44799885  0.81706254  0.29754628
   0.95636058  0.82192885  0.25242238
   0.45356009  0.56290744  0.26341540
   0.95454442  0.56341579  0.23685111
   0.45585702  0.32029653  0.23354453
   0.95553638  0.32164333  0.26030742
   0.45964669  0.05897697  0.24644354
   0.96362470  0.06556503  0.27814128
   0.20847870  0.94165969  0.26413612
   0.70995690  0.94447440  0.28141757
   0.20517126  0.44143596  0.24357717
   0.70459268  0.44177769  0.24778918
   0.54302710  0.83658553  0.42194734
   0.65297100  0.90920166  0.37831328
   0.44493059  0.88599394  0.46089032
