 vasp.5.4.4.18Apr17-6-g9f103f2a35 (build Dec  6 2019 17:49:40) complex           
 executed on             LinuxGNU date 2021.09.14  12:21:08
 running on    4 total cores
 distrk:  each k-point on    4 cores,    1 groups
 distr:  one band on NCORES_PER_BAND=   1 cores,    4 groups


--------------------------------------------------------------------------------------------------------


 INCAR:
 POTCAR:    PAW Te_GW 22Mar2012                   
 POTCAR:    PAW H_GW 21Apr2008                    
 POTCAR:    PAW Te_GW 22Mar2012                   
   VRHFIN =Te: s2p4                                                             
   LEXCH  = PE                                                                  
   EATOM  =   223.2721 eV,   16.4100 Ry                                         
                                                                                
   TITEL  = PAW Te_GW 22Mar2012                                                 
   LULTRA =        F    use ultrasoft PP ?                                      
   IUNSCR =        1    unscreen: 0-lin 1-nonlin 2-no                           
   RPACOR =    2.200    partial core radius                                     
   POMASS =  127.600; ZVAL   =    6.000    mass and valenz                      
   RCORE  =    2.600    outmost cutoff radius                                   
   RWIGS  =    2.900; RWIGS  =    1.535    wigner-seitz radius (au A)           
   ENMAX  =  174.982; ENMIN  =  131.236 eV                                      
   ICORE  =        3    local potential                                         
   LCOR   =        T    correct aug charges                                     
   LPAW   =        T    paw PP                                                  
   EAUG   =  368.792                                                            
   DEXC   =    0.000                                                            
   RMAX   =    2.665    core radius for proj-oper                               
   RAUG   =    1.300    factor for augmentation sphere                          
   RDEP   =    2.724    radius for radial grids                                 
   RDEPT  =    2.174    core radius for aug-charge                              
                                                                                
   Atomic configuration                                                         
   13 entries                                                                   
     n  l   j            E        occ.                                          
     1  0  0.50    -31621.2075   2.0000                                         
     2  0  0.50     -4848.7941   2.0000                                         
     2  1  1.50     -4352.1960   6.0000                                         
     3  0  0.50      -964.9612   2.0000                                         
     3  1  1.50      -803.6179   6.0000                                         
     3  2  2.50      -559.8710  10.0000                                         
     4  0  0.50      -164.3522   2.0000                                         
     4  1  1.50      -114.3756   6.0000                                         
     4  2  2.50       -41.6483  10.0000                                         
     5  0  0.50       -15.1072   2.0000                                         
     5  1  0.50        -5.9526   4.0000                                         
     5  2  1.50        -6.8029   0.0000                                         
     4  3  2.50        -6.8029   0.0000                                         
   Description                                                                  
     l       E           TYP  RCUT    TYP  RCUT                                 
     0    -15.1072389     23  2.300                                             
     0     68.0291300     23  2.300                                             
     1     -5.9526306     23  2.300                                             
     1     95.2407820     23  2.300                                             
     2      1.3605826     23  2.600                                             
     2     68.0291300     23  2.600                                             
     3     -1.3605826     23  2.300                                             
  local pseudopotential read in
  partial core-charges read in
  partial kinetic energy density read in
  kinetic energy density of atom read in
  atomic valenz-charges read in
  non local Contribution for L=           0  read in
    real space projection operators read in
  non local Contribution for L=           0  read in
    real space projection operators read in
  non local Contribution for L=           1  read in
    real space projection operators read in
  non local Contribution for L=           1  read in
    real space projection operators read in
  non local Contribution for L=           2  read in
    real space projection operators read in
  non local Contribution for L=           2  read in
    real space projection operators read in
    PAW grid and wavefunctions read in

   number of l-projection  operators is LMAX  =           6
   number of lm-projection operators is LMMAX =          18

 POTCAR:    PAW H_GW 21Apr2008                    
   VRHFIN =H: ultrasoft test                                                    
   LEXCH  = PE                                                                  
   EATOM  =    12.4884 eV,    0.9179 Ry                                         
                                                                                
   TITEL  = PAW H_GW 21Apr2008                                                  
   LULTRA =        F    use ultrasoft PP ?                                      
   IUNSCR =        0    unscreen: 0-lin 1-nonlin 2-no                           
   RPACOR =    0.000    partial core radius                                     
   POMASS =    1.000; ZVAL   =    1.000    mass and valenz                      
   RCORE  =    1.100    outmost cutoff radius                                   
   RWIGS  =    1.100; RWIGS  =    0.582    wigner-seitz radius (au A)           
   ENMAX  =  300.000; ENMIN  =  250.000 eV                                      
   RCLOC  =    0.701    cutoff for local pot                                    
   LCOR   =        T    correct aug charges                                     
   LPAW   =        T    paw PP                                                  
   EAUG   =  500.000                                                            
   RMAX   =    1.123    core radius for proj-oper                               
   RAUG   =    1.200    factor for augmentation sphere                          
   RDEP   =    1.112    radius for radial grids                                 
   RDEPT  =    1.100    core radius for aug-charge                              
                                                                                
   Atomic configuration                                                         
    3 entries                                                                   
     n  l   j            E        occ.                                          
     1  0  0.50        -6.4927   1.0000                                         
     2  1  0.50        -3.4015   0.0000                                         
     3  2  1.50        13.6058   0.0000                                         
   Description                                                                  
     l       E           TYP  RCUT    TYP  RCUT                                 
     0     -6.4927495     23  0.950                                             
     0      6.8029130     23  0.950                                             
     1     -4.0817478     23  1.100                                             
     1    108.8466080     23  1.100                                             
     2     81.6349560     23  1.100                                             
  local pseudopotential read in
  kinetic energy density of atom read in
  atomic valenz-charges read in
  non local Contribution for L=           0  read in
    real space projection operators read in
  non local Contribution for L=           0  read in
    real space projection operators read in
  non local Contribution for L=           1  read in
    real space projection operators read in
  non local Contribution for L=           1  read in
    real space projection operators read in
  non local Contribution for L=           2  read in
    real space projection operators read in
    PAW grid and wavefunctions read in

   number of l-projection  operators is LMAX  =           5
   number of lm-projection operators is LMMAX =          13


 ----------------------------------------------------------------------------- 
|                                                                             |
|  ADVICE TO THIS USER RUNNING 'VASP/VAMP'   (HEAR YOUR MASTER'S VOICE ...):  |
|                                                                             |
|      You have a (more or less) 'small supercell' and for smaller cells      |
|      it is recommended  to use the reciprocal-space projection scheme!      |
|      The real space optimization is not  efficient for small cells and it   |
|      is also less accurate ...                                              |
|      Therefore set LREAL=.FALSE. in the  INCAR file                         |
|                                                                             |
 ----------------------------------------------------------------------------- 

 Optimization of the real space projectors (new method)

 maximal supplied QI-value         = 14.36
 optimisation between [QCUT,QGAM] = [ 10.77, 21.69] = [ 32.49,131.70] Ry 
 Optimized for a Real-space Cutoff    1.65 Angstroem

   l    n(q)    QCUT    max X(q) W(low)/X(q) W(high)/X(q)  e(spline) 
   0     11    10.771    11.053    0.24E-04    0.29E-05    0.60E-07
   0     11    10.771     7.435    0.41E-04    0.55E-05    0.14E-06
   1     10    10.771     5.777    0.13E-04    0.90E-05    0.11E-06
   1     10    10.771     1.783    0.15E-04    0.11E-04    0.15E-06
   2     10    10.771     4.339    0.10E-03    0.19E-03    0.15E-06
   2     10    10.771     2.664    0.59E-04    0.11E-03    0.94E-07
 Optimization of the real space projectors (new method)

 maximal supplied QI-value         = 34.20
 optimisation between [QCUT,QGAM] = [ 10.60, 21.55] = [ 31.48,130.03] Ry 
 Optimized for a Real-space Cutoff    1.51 Angstroem

   l    n(q)    QCUT    max X(q) W(low)/X(q) W(high)/X(q)  e(spline) 
   0     10    10.603    26.161    0.94E-04    0.78E-04    0.97E-06
   0     10    10.603    15.773    0.86E-04    0.75E-04    0.95E-06
   1      9    10.603     3.022    0.64E-04    0.17E-03    0.10E-05
   1      9    10.603     2.445    0.31E-04    0.10E-03    0.83E-06
   2      9    10.603     6.097    0.15E-03    0.49E-03    0.94E-06
  PAW Te_GW 22Mar2012                   :
 energy of atom  1       EATOM= -223.2721
 kinetic energy error for atom=    0.0008 (will be added to EATOM!!)
  PAW H_GW 21Apr2008                    :
 energy of atom  2       EATOM=  -12.4884
 kinetic energy error for atom=    0.0187 (will be added to EATOM!!)


 POSCAR: V2O5                                    
  positions in direct lattice
  No initial velocities read in
 exchange correlation table for  LEXCH =        8
   RHO(1)=    0.500       N(1)  =     2000
   RHO(2)=  100.500       N(2)  =     4000

 VTST: version 3.2, (02/03/18)

 CHAIN: initializing optimizer
 
 OPT: Using VASP Conjugate-Gradient optimizer
 CHAIN: Read ICHAIN            0

 POSCAR: V2O5                                    
  positions in direct lattice
  No initial velocities read in



--------------------------------------------------------------------------------------------------------


 ion  position               nearest neighbor table
   1  0.492  0.492  0.500-   2 1.35   3 1.35
   2  0.582  0.491  0.500-   1 1.35
   3  0.491  0.582  0.500-   1 1.35


IMPORTANT INFORMATION: All symmetrisations will be switched off!
NOSYMM: (Re-)initialisation of all symmetry stuff for point group C_1.



 KPOINTS: Automatic mesh                          

Automatic generation of k-mesh.
Space group operators:
 irot       det(A)        alpha          n_x          n_y          n_z        tau_x        tau_y        tau_z
    1     1.000000     0.000000     1.000000     0.000000     0.000000     0.000000     0.000000     0.000000
 
 Subroutine IBZKPT returns following result:
 ===========================================
 
 Found      1 irreducible k-points:
 
 Following reciprocal coordinates:
            Coordinates               Weight
  0.000000  0.000000  0.000000      1.000000
 
 Following cartesian coordinates:
            Coordinates               Weight
  0.000000  0.000000  0.000000      1.000000
 


--------------------------------------------------------------------------------------------------------




 Dimension of arrays:
   k-points           NKPTS =      1   k-points in BZ     NKDIM =      1   number of bands    NBANDS=      8
   number of dos      NEDOS =    301   number of ions     NIONS =      3
   non local maximal  LDIM  =      6   non local SUM 2l+1 LMDIM =     18
   total plane-waves  NPLWV = ******
   max r-space proj   IRMAX =   7057   max aug-charges    IRDMAX=  21906
   dimension x,y,z NGX =   108 NGY =  108 NGZ =  108
   dimension x,y,z NGXF=   216 NGYF=  216 NGZF=  216
   support grid    NGXF=   216 NGYF=  216 NGZF=  216
   ions per type =               1   2
   NGX,Y,Z   is equivalent  to a cutoff of  11.97, 11.97, 11.97 a.u.
   NGXF,Y,Z  is equivalent  to a cutoff of  23.94, 23.94, 23.94 a.u.

 SYSTEM =  H2Te                                    
 POSCAR =  V2O5                                    

 Startparameter for this run:
   NWRITE =      2    write-flag & timer
   PREC   = accura    normal or accurate (medium, high low for compatibility)
   ISTART =      0    job   : 0-new  1-cont  2-samecut
   ICHARG =      2    charge: 1-file 2-atom 10-const
   ISPIN  =      1    spin polarized calculation?
   LNONCOLLINEAR =      F non collinear calculations
   LSORBIT =      F    spin-orbit coupling
   INIWAV =      1    electr: 0-lowe 1-rand  2-diag
   LASPH  =      F    aspherical Exc in radial PAW
   METAGGA=      F    non-selfconsistent MetaGGA calc.

 Electronic Relaxation 1
   ENCUT  =  450.0 eV  33.07 Ry    5.75 a.u.  25.95 25.95 25.95*2*pi/ulx,y,z
   ENINI  =  450.0     initial cutoff
   ENAUG  =  500.0 eV  augmentation charge cutoff
   NELM   =    300;   NELMIN=  2; NELMDL= -7     # of ELM steps 
   EDIFF  = 0.1E-04   stopping-criterion for ELM
   LREAL  =      T    real-space projection
   NLSPLINE    = F    spline interpolate recip. space projectors
   LCOMPAT=      F    compatible to vasp.4.4
   GGA_COMPAT  = T    GGA compatible to vasp.4.4-vasp.4.6
   LMAXPAW     = -100 max onsite density
   LMAXMIX     =    2 max onsite mixed and CHGCAR
   VOSKOWN=      0    Vosko Wilk Nusair interpolation
   ROPT   =   -0.00020  -0.00020
 Ionic relaxation
   EDIFFG = -.1E-01   stopping-criterion for IOM
   NSW    =    100    number of steps for IOM
   NBLOCK =      1;   KBLOCK =    100    inner block; outer block 
   IBRION =      2    ionic relax: 0-MD 1-quasi-New 2-CG
   NFREE  =      1    steps in history (QN), initial steepest desc. (CG)
   ISIF   =      2    stress and relaxation
   IWAVPR =     11    prediction:  0-non 1-charg 2-wave 3-comb
   ISYM   =      0    0-nonsym 1-usesym 2-fastsym
   LCORR  =      T    Harris-Foulkes like correction to forces

   POTIM  = 0.3500    time-step for ionic-motion
   TEIN   =    0.0    initial temperature
   TEBEG  =    0.0;   TEEND  =   0.0 temperature during run
   SMASS  =  -3.00    Nose mass-parameter (am)
   estimated Nose-frequenzy (Omega)   =  0.10E-29 period in steps =****** mass=  -0.514E-26a.u.
   SCALEE = 1.0000    scale energy and forces
   NPACO  =    256;   APACO  = 16.0  distance and # of slots for P.C.
   PSTRESS=    0.0 pullay stress

  Mass of Ions in am
   POMASS = 127.60  1.00
  Ionic Valenz
   ZVAL   =   6.00  1.00
  Atomic Wigner-Seitz radii
   RWIGS  =  -1.00 -1.00
  virtual crystal weights 
   VCA    =   1.00  1.00
   NELECT =       8.0000    total number of electrons
   NUPDOWN=      -1.0000    fix difference up-down

 DOS related values:
   EMIN   =  10.00;   EMAX   =-10.00  energy-range for DOS
   EFERMI =   0.00
   ISMEAR =     0;   SIGMA  =   0.05  broadening in eV -4-tet -1-fermi 0-gaus

 Electronic relaxation 2 (details)
   IALGO  =     68    algorithm
   LDIAG  =      T    sub-space diagonalisation (order eigenvalues)
   LSUBROT=      F    optimize rotation matrix (better conditioning)
   TURBO    =      0    0=normal 1=particle mesh
   IRESTART =      0    0=no restart 2=restart with 2 vectors
   NREBOOT  =      0    no. of reboots
   NMIN     =      0    reboot dimension
   EREF     =   0.00    reference energy to select bands
   IMIX   =      4    mixing-type and parameters
     AMIX     =   0.40;   BMIX     =  1.00
     AMIX_MAG =   1.60;   BMIX_MAG =  1.00
     AMIN     =   0.10
     WC   =   100.;   INIMIX=   1;  MIXPRE=   1;  MAXMIX= -45

 Intra band minimization:
   WEIMIN = 0.0010     energy-eigenvalue tresh-hold
   EBREAK =  0.31E-06  absolut break condition
   DEPER  =   0.30     relativ break condition  

   TIME   =   0.40     timestep for ELM

  volume/ion in A,a.u.               =    1125.00      7591.87
  Fermi-wavevector in a.u.,A,eV,Ry     =   0.218280  0.412489  0.648264  0.047646
  Thomas-Fermi vector in A             =   0.996232

 Write flags
   LWAVE        =      F    write WAVECAR
   LDOWNSAMPLE  =      F    k-point downsampling of WAVECAR
   LCHARG       =      F    write CHGCAR
   LVTOT        =      F    write LOCPOT, total local potential
   LVHAR        =      F    write LOCPOT, Hartree potential only
   LELF         =      F    write electronic localiz. function (ELF)
   LORBIT       =      0    0 simple, 1 ext, 2 COOP (PROOUT), +10 PAW based schemes


 Dipole corrections
   LMONO  =      F    monopole corrections only (constant potential shift)
   LDIPOL =      F    correct potential (dipole corrections)
   IDIPOL =      0    1-x, 2-y, 3-z, 4-all directions 
   EPSILON=  1.0000000 bulk dielectric constant

 Exchange correlation treatment:
   GGA     =    PE    GGA type
   LEXCH   =     8    internal setting for exchange type
   VOSKOWN=      0    Vosko Wilk Nusair interpolation
   LHFCALC =     F    Hartree Fock is set to
   LHFONE  =     F    Hartree Fock one center treatment
   AEXX    =    0.0000 exact exchange contribution

 Linear response parameters
   LEPSILON=     F    determine dielectric tensor
   LRPA    =     F    only Hartree local field effects (RPA)
   LNABLA  =     F    use nabla operator in PAW spheres
   LVEL    =     F    velocity operator in full k-point grid
   LINTERFAST=   F  fast interpolation
   KINTER  =     0    interpolate to denser k-point grid
   CSHIFT  =0.1000    complex shift for real part using Kramers Kronig
   OMEGAMAX=  -1.0    maximum frequency
   DEG_THRESHOLD= 0.2000000E-02 threshold for treating states as degnerate
   RTIME   =   -0.100 relaxation time in fs
  (WPLASMAI=    0.000 imaginary part of plasma frequency in eV, 0.658/RTIME)
   DFIELD  = 0.0000000 0.0000000 0.0000000 field for delta impulse in time

 Orbital magnetization related:
   ORBITALMAG=     F  switch on orbital magnetization
   LCHIMAG   =     F  perturbation theory with respect to B field
   DQ        =  0.001000  dq finite difference perturbation B field
   LLRAUG    =     F  two centre corrections for induced B field



--------------------------------------------------------------------------------------------------------


 conjugate gradient relaxation of ions
   using selective dynamics as specified on POSCAR
 charge density and potential will be updated during run
 non-spin polarized calculation
 RMM-DIIS sequential band-by-band and
  variant of blocked Davidson during initial phase
 perform sub-space diagonalisation
    before iterative eigenvector-optimisation
 modified Broyden-mixing scheme, WC =      100.0
 initial mixing is a Kerker type mixing with AMIX =  0.4000 and BMIX =      1.0000
 Hartree-type preconditioning will be used
 using additional bands            4
 real space projection scheme for non local part
 use partial core corrections
 calculate Harris-corrections to forces   (improved forces if not selfconsistent)
 use gradient corrections 
 use of overlap-Matrix (Vanderbilt PP)
 Gauss-broadening in eV      SIGMA  =   0.05


--------------------------------------------------------------------------------------------------------


  energy-cutoff  :      450.00
  volume of cell :     3375.00
      direct lattice vectors                 reciprocal lattice vectors
    15.000000000  0.000000000  0.000000000     0.066666667  0.000000000  0.000000000
     0.000000000 15.000000000  0.000000000     0.000000000  0.066666667  0.000000000
     0.000000000  0.000000000 15.000000000     0.000000000  0.000000000  0.066666667

  length of vectors
    15.000000000 15.000000000 15.000000000     0.066666667  0.066666667  0.066666667



 k-points in units of 2pi/SCALE and weight: Automatic mesh                          
   0.00000000  0.00000000  0.00000000       1.000

 k-points in reciprocal lattice and weights: Automatic mesh                          
   0.00000000  0.00000000  0.00000000       1.000

 position of ions in fractional coordinates (direct lattice) 
   0.49242070  0.49242069  0.49999997
   0.58236434  0.49121497  0.50000002
   0.49121496  0.58236434  0.50000002

 position of ions in cartesian coordinates  (Angst):
   7.38631046  7.38631028  7.49999954
   8.73546512  7.36822457  7.50000023
   7.36822442  8.73546515  7.50000023



--------------------------------------------------------------------------------------------------------


 k-point  1 :   0.0000 0.0000 0.0000  plane waves:   72935

 maximum and minimum number of plane-waves per node :     72935    72935

 maximum number of plane-waves:     72935
 maximum index in each direction: 
   IXMAX=   25   IYMAX=   25   IZMAX=   25
   IXMIN=  -25   IYMIN=  -25   IZMIN=  -25


 serial   3D FFT for wavefunctions
 parallel 3D FFT for charge:
    minimum data exchange during FFTs selected (reduces bandwidth)


 total amount of memory used by VASP MPI-rank0   317953. kBytes
=======================================================================

   base      :      30000. kBytes
   nonlr-proj:       2628. kBytes
   fftplans  :      90349. kBytes
   grid      :     192595. kBytes
   one-center:         46. kBytes
   wavefun   :       2335. kBytes

     INWAV:  cpu time    0.0001: real time    0.0001
 Broyden mixing: mesh for mixing (old mesh)
   NGX = 51   NGY = 51   NGZ = 51
  (NGX  =216   NGY  =216   NGZ  =216)
  gives a total of 132651 points

 initial charge density was supplied:
 charge density of overlapping atoms calculated
 number of electron       8.0000000 magnetization 
 keeping initial charge density in first step


--------------------------------------------------------------------------------------------------------


 Maximum index for non-local projection operator         6801
 Maximum index for augmentation-charges         5261 (set IRDMAX)


--------------------------------------------------------------------------------------------------------


 First call to EWALD:  gamma=   0.118
 Maximum number of real-space cells 3x 3x 3
 Maximum number of reciprocal cells 3x 3x 3

    FEWALD:  cpu time    0.0022: real time    0.0022


--------------------------------------- Iteration      1(   1)  ---------------------------------------


    POTLOK:  cpu time    7.6769: real time    7.7373
    SETDIJ:  cpu time    0.0127: real time    0.0127
     EDDAV:  cpu time    3.0098: real time    3.0285
       DOS:  cpu time    0.0005: real time    0.0006
    --------------------------------------------
      LOOP:  cpu time   10.6999: real time   10.7791

 eigenvalue-minimisations  :    24
 total energy-change (2. order) : 0.3838249E+02  (-0.1335858E+03)
 number of electron       8.0000000 magnetization 
 augmentation part        8.0000000 magnetization 

 Free energy of the ion-electron system (eV)
  ---------------------------------------------------
  alpha Z        PSCENC =         0.02182671
  Ewald energy   TEWEN  =        48.58431737
  -Hartree energ DENC   =      -221.63593485
  -exchange      EXHF   =         0.00000000
  -V(xc)+E(xc)   XCENC  =       -23.67148594
  PAW double counting   =       212.01007998     -173.54539173
  entropy T*S    EENTRO =        -0.00000000
  eigenvalues    EBANDS =       -51.59156558
  atomic energy  EATOM  =       248.21064898
  Solvation  Ediel_sol  =         0.00000000
  ---------------------------------------------------
  free energy    TOTEN  =        38.38249494 eV

  energy without entropy =       38.38249494  energy(sigma->0) =       38.38249494


--------------------------------------------------------------------------------------------------------




--------------------------------------- Iteration      1(   2)  ---------------------------------------


     EDDAV:  cpu time    2.1981: real time    2.2071
       DOS:  cpu time    0.0005: real time    0.0006
    --------------------------------------------
      LOOP:  cpu time    2.1986: real time    2.2077

 eigenvalue-minimisations  :    16
 total energy-change (2. order) :-0.3859819E+02  (-0.3859819E+02)
 number of electron       8.0000000 magnetization 
 augmentation part        8.0000000 magnetization 

 Free energy of the ion-electron system (eV)
  ---------------------------------------------------
  alpha Z        PSCENC =         0.02182671
  Ewald energy   TEWEN  =        48.58431737
  -Hartree energ DENC   =      -221.63593485
  -exchange      EXHF   =         0.00000000
  -V(xc)+E(xc)   XCENC  =       -23.67148594
  PAW double counting   =       212.01007998     -173.54539173
  entropy T*S    EENTRO =        -0.00000000
  eigenvalues    EBANDS =       -90.18975852
  atomic energy  EATOM  =       248.21064898
  Solvation  Ediel_sol  =         0.00000000
  ---------------------------------------------------
  free energy    TOTEN  =        -0.21569800 eV

  energy without entropy =       -0.21569800  energy(sigma->0) =       -0.21569800


--------------------------------------------------------------------------------------------------------




--------------------------------------- Iteration      1(   3)  ---------------------------------------


     EDDAV:  cpu time    2.1818: real time    2.1979
       DOS:  cpu time    0.0003: real time    0.0004
    --------------------------------------------
      LOOP:  cpu time    2.1821: real time    2.1984

 eigenvalue-minimisations  :    16
 total energy-change (2. order) :-0.6574844E+01  (-0.6574844E+01)
 number of electron       8.0000000 magnetization 
 augmentation part        8.0000000 magnetization 

 Free energy of the ion-electron system (eV)
  ---------------------------------------------------
  alpha Z        PSCENC =         0.02182671
  Ewald energy   TEWEN  =        48.58431737
  -Hartree energ DENC   =      -221.63593485
  -exchange      EXHF   =         0.00000000
  -V(xc)+E(xc)   XCENC  =       -23.67148594
  PAW double counting   =       212.01007998     -173.54539173
  entropy T*S    EENTRO =        -0.00000000
  eigenvalues    EBANDS =       -96.76460250
  atomic energy  EATOM  =       248.21064898
  Solvation  Ediel_sol  =         0.00000000
  ---------------------------------------------------
  free energy    TOTEN  =        -6.79054198 eV

  energy without entropy =       -6.79054198  energy(sigma->0) =       -6.79054198


--------------------------------------------------------------------------------------------------------




--------------------------------------- Iteration      1(   4)  ---------------------------------------


     EDDAV:  cpu time    3.8495: real time    3.8724
       DOS:  cpu time    0.0008: real time    0.0009
    --------------------------------------------
      LOOP:  cpu time    3.8502: real time    3.8733

 eigenvalue-minimisations  :    32
 total energy-change (2. order) :-0.3415642E+00  (-0.3415642E+00)
 number of electron       8.0000000 magnetization 
 augmentation part        8.0000000 magnetization 

 Free energy of the ion-electron system (eV)
  ---------------------------------------------------
  alpha Z        PSCENC =         0.02182671
  Ewald energy   TEWEN  =        48.58431737
  -Hartree energ DENC   =      -221.63593485
  -exchange      EXHF   =         0.00000000
  -V(xc)+E(xc)   XCENC  =       -23.67148594
  PAW double counting   =       212.01007998     -173.54539173
  entropy T*S    EENTRO =        -0.00000000
  eigenvalues    EBANDS =       -97.10616665
  atomic energy  EATOM  =       248.21064898
  Solvation  Ediel_sol  =         0.00000000
  ---------------------------------------------------
  free energy    TOTEN  =        -7.13210614 eV

  energy without entropy =       -7.13210614  energy(sigma->0) =       -7.13210614


--------------------------------------------------------------------------------------------------------




--------------------------------------- Iteration      1(   5)  ---------------------------------------


     EDDAV:  cpu time    2.1962: real time    2.2061
       DOS:  cpu time    0.0008: real time    0.0008
    --------------------------------------------
      LOOP:  cpu time    2.1970: real time    2.2069

 eigenvalue-minimisations  :    16
 total energy-change (2. order) :-0.5406976E-03  (-0.5406969E-03)
 number of electron       8.0000000 magnetization 
 augmentation part        8.0000000 magnetization 

 Free energy of the ion-electron system (eV)
  ---------------------------------------------------
  alpha Z        PSCENC =         0.02182671
  Ewald energy   TEWEN  =        48.58431737
  -Hartree energ DENC   =      -221.63593485
  -exchange      EXHF   =         0.00000000
  -V(xc)+E(xc)   XCENC  =       -23.67148594
  PAW double counting   =       212.01007998     -173.54539173
  entropy T*S    EENTRO =        -0.00000000
  eigenvalues    EBANDS =       -97.10670735
  atomic energy  EATOM  =       248.21064898
  Solvation  Ediel_sol  =         0.00000000
  ---------------------------------------------------
  free energy    TOTEN  =        -7.13264683 eV

  energy without entropy =       -7.13264683  energy(sigma->0) =       -7.13264683


--------------------------------------------------------------------------------------------------------




--------------------------------------- Iteration      1(   6)  ---------------------------------------


     EDDAV:  cpu time    3.8796: real time    3.8938
       DOS:  cpu time    0.0011: real time    0.0011
    --------------------------------------------
      LOOP:  cpu time    3.8807: real time    3.8949

 eigenvalue-minimisations  :    32
 total energy-change (2. order) :-0.1579950E-04  (-0.1579902E-04)
 number of electron       8.0000000 magnetization 
 augmentation part        8.0000000 magnetization 

 Free energy of the ion-electron system (eV)
  ---------------------------------------------------
  alpha Z        PSCENC =         0.02182671
  Ewald energy   TEWEN  =        48.58431737
  -Hartree energ DENC   =      -221.63593485
  -exchange      EXHF   =         0.00000000
  -V(xc)+E(xc)   XCENC  =       -23.67148594
  PAW double counting   =       212.01007998     -173.54539173
  entropy T*S    EENTRO =        -0.00000000
  eigenvalues    EBANDS =       -97.10672315
  atomic energy  EATOM  =       248.21064898
  Solvation  Ediel_sol  =         0.00000000
  ---------------------------------------------------
  free energy    TOTEN  =        -7.13266263 eV

  energy without entropy =       -7.13266263  energy(sigma->0) =       -7.13266263


--------------------------------------------------------------------------------------------------------




--------------------------------------- Iteration      1(   7)  ---------------------------------------


     EDDAV:  cpu time    3.8703: real time    3.8902
       DOS:  cpu time    0.0002: real time    0.0003
    CHARGE:  cpu time    0.8885: real time    0.8919
    MIXING:  cpu time    0.1646: real time    0.1661
    --------------------------------------------
      LOOP:  cpu time    4.9237: real time    4.9486

 eigenvalue-minimisations  :    32
 total energy-change (2. order) :-0.2212664E-07  (-0.2166573E-07)
 number of electron       8.0000000 magnetization 
 augmentation part       -1.2363950 magnetization 

 Broyden mixing:
  rms(total) = 0.56040E+00    rms(broyden)= 0.56035E+00
  rms(prec ) = 0.62701E+00
  weight for this iteration     100.00

 Free energy of the ion-electron system (eV)
  ---------------------------------------------------
  alpha Z        PSCENC =         0.02182671
  Ewald energy   TEWEN  =        48.58431737
  -Hartree energ DENC   =      -221.63593485
  -exchange      EXHF   =         0.00000000
  -V(xc)+E(xc)   XCENC  =       -23.67148594
  PAW double counting   =       212.01007998     -173.54539173
  entropy T*S    EENTRO =        -0.00000000
  eigenvalues    EBANDS =       -97.10672317
  atomic energy  EATOM  =       248.21064898
  Solvation  Ediel_sol  =         0.00000000
  ---------------------------------------------------
  free energy    TOTEN  =        -7.13266266 eV

  energy without entropy =       -7.13266266  energy(sigma->0) =       -7.13266266


--------------------------------------------------------------------------------------------------------




--------------------------------------- Iteration      1(   8)  ---------------------------------------


    POTLOK:  cpu time    7.3769: real time    7.3949
    SETDIJ:  cpu time    0.0124: real time    0.0124
    EDDIAG:  cpu time    0.5055: real time    0.5074
  RMM-DIIS:  cpu time    2.2061: real time    2.2176
    ORTHCH:  cpu time    0.0290: real time    0.0291
       DOS:  cpu time    0.0003: real time    0.0004
    CHARGE:  cpu time    0.8700: real time    0.8726
    MIXING:  cpu time    0.1679: real time    0.1681
    --------------------------------------------
      LOOP:  cpu time   11.1681: real time   11.2024

 eigenvalue-minimisations  :    17
 total energy-change (2. order) : 0.5964345E+00  (-0.4067657E-01)
 number of electron       8.0000000 magnetization 
 augmentation part       -1.2231430 magnetization 

 Broyden mixing:
  rms(total) = 0.29879E+00    rms(broyden)= 0.29879E+00
  rms(prec ) = 0.33568E+00
  weight for this iteration     100.00

 eigenvalues of (default mixing * dielectric matrix)
  average eigenvalue GAMMA=   2.1132
  2.1132

 Free energy of the ion-electron system (eV)
  ---------------------------------------------------
  alpha Z        PSCENC =         0.02182671
  Ewald energy   TEWEN  =        48.58431737
  -Hartree energ DENC   =      -226.90535823
  -exchange      EXHF   =         0.00000000
  -V(xc)+E(xc)   XCENC  =       -23.17276542
  PAW double counting   =       260.24085533     -222.02979361
  entropy T*S    EENTRO =        -0.00000000
  eigenvalues    EBANDS =       -91.48595927
  atomic energy  EATOM  =       248.21064898
  Solvation  Ediel_sol  =         0.00000000
  ---------------------------------------------------
  free energy    TOTEN  =        -6.53622814 eV

  energy without entropy =       -6.53622814  energy(sigma->0) =       -6.53622814


--------------------------------------------------------------------------------------------------------




--------------------------------------- Iteration      1(   9)  ---------------------------------------


    POTLOK:  cpu time    7.4279: real time    7.4492
    SETDIJ:  cpu time    0.0126: real time    0.0126
    EDDIAG:  cpu time    0.5018: real time    0.5036
  RMM-DIIS:  cpu time    2.2718: real time    2.2814
    ORTHCH:  cpu time    0.0294: real time    0.0295
       DOS:  cpu time    0.0004: real time    0.0005
    CHARGE:  cpu time    0.8698: real time    0.8730
    MIXING:  cpu time    0.1701: real time    0.1703
    --------------------------------------------
      LOOP:  cpu time   11.2838: real time   11.3200

 eigenvalue-minimisations  :    18
 total energy-change (2. order) : 0.2346710E+00  (-0.6621836E-01)
 number of electron       8.0000000 magnetization 
 augmentation part       -1.2055372 magnetization 

 Broyden mixing:
  rms(total) = 0.38647E-01    rms(broyden)= 0.38606E-01
  rms(prec ) = 0.52613E-01
  weight for this iteration     100.00

 eigenvalues of (default mixing * dielectric matrix)
  average eigenvalue GAMMA=   2.2683
  2.2683  2.2683

 Free energy of the ion-electron system (eV)
  ---------------------------------------------------
  alpha Z        PSCENC =         0.02182671
  Ewald energy   TEWEN  =        48.58431737
  -Hartree energ DENC   =      -233.88561472
  -exchange      EXHF   =         0.00000000
  -V(xc)+E(xc)   XCENC  =       -22.45189511
  PAW double counting   =       328.22367995     -290.30826649
  entropy T*S    EENTRO =        -0.00000000
  eigenvalues    EBANDS =       -84.69625388
  atomic energy  EATOM  =       248.21064898
  Solvation  Ediel_sol  =         0.00000000
  ---------------------------------------------------
  free energy    TOTEN  =        -6.30155718 eV

  energy without entropy =       -6.30155718  energy(sigma->0) =       -6.30155718


--------------------------------------------------------------------------------------------------------




--------------------------------------- Iteration      1(  10)  ---------------------------------------


    POTLOK:  cpu time    7.4702: real time    7.4928
    SETDIJ:  cpu time    0.0124: real time    0.0124
    EDDIAG:  cpu time    0.5026: real time    0.5043
  RMM-DIIS:  cpu time    2.3108: real time    2.3195
    ORTHCH:  cpu time    0.0308: real time    0.0308
       DOS:  cpu time    0.0008: real time    0.0011
    CHARGE:  cpu time    0.8694: real time    0.8728
    MIXING:  cpu time    0.1735: real time    0.1742
    --------------------------------------------
      LOOP:  cpu time   11.3704: real time   11.4079

 eigenvalue-minimisations  :    18
 total energy-change (2. order) : 0.9190313E-02  (-0.3954139E-02)
 number of electron       8.0000000 magnetization 
 augmentation part       -1.2033268 magnetization 

 Broyden mixing:
  rms(total) = 0.16182E-01    rms(broyden)= 0.16179E-01
  rms(prec ) = 0.23184E-01
  weight for this iteration     100.00

 eigenvalues of (default mixing * dielectric matrix)
  average eigenvalue GAMMA=   1.8568
  1.3625  2.4400  1.7680

 Free energy of the ion-electron system (eV)
  ---------------------------------------------------
  alpha Z        PSCENC =         0.02182671
  Ewald energy   TEWEN  =        48.58431737
  -Hartree energ DENC   =      -234.32401558
  -exchange      EXHF   =         0.00000000
  -V(xc)+E(xc)   XCENC  =       -22.37699034
  PAW double counting   =       329.31278165     -291.35332755
  entropy T*S    EENTRO =        -0.00000000
  eigenvalues    EBANDS =       -84.36760812
  atomic energy  EATOM  =       248.21064898
  Solvation  Ediel_sol  =         0.00000000
  ---------------------------------------------------
  free energy    TOTEN  =        -6.29236687 eV

  energy without entropy =       -6.29236687  energy(sigma->0) =       -6.29236687


--------------------------------------------------------------------------------------------------------




--------------------------------------- Iteration      1(  11)  ---------------------------------------


    POTLOK:  cpu time    7.4734: real time    7.4981
    SETDIJ:  cpu time    0.0127: real time    0.0128
    EDDIAG:  cpu time    0.5007: real time    0.5046
  RMM-DIIS:  cpu time    2.3974: real time    2.4118
    ORTHCH:  cpu time    0.0285: real time    0.0287
       DOS:  cpu time    0.0003: real time    0.0008
    CHARGE:  cpu time    0.8703: real time    0.8771
    MIXING:  cpu time    0.1765: real time    0.1770
    --------------------------------------------
      LOOP:  cpu time   11.4599: real time   11.5109

 eigenvalue-minimisations  :    19
 total energy-change (2. order) : 0.1197346E-03  (-0.4091191E-03)
 number of electron       8.0000000 magnetization 
 augmentation part       -1.2024529 magnetization 

 Broyden mixing:
  rms(total) = 0.78649E-02    rms(broyden)= 0.78637E-02
  rms(prec ) = 0.14102E-01
  weight for this iteration     100.00

 eigenvalues of (default mixing * dielectric matrix)
  average eigenvalue GAMMA=   2.1249
  1.0118  2.7194  2.7194  2.0490

 Free energy of the ion-electron system (eV)
  ---------------------------------------------------
  alpha Z        PSCENC =         0.02182671
  Ewald energy   TEWEN  =        48.58431737
  -Hartree energ DENC   =      -234.85647267
  -exchange      EXHF   =         0.00000000
  -V(xc)+E(xc)   XCENC  =       -22.32932119
  PAW double counting   =       332.28340614     -294.33831605
  entropy T*S    EENTRO =        -0.00000000
  eigenvalues    EBANDS =       -83.86833644
  atomic energy  EATOM  =       248.21064898
  Solvation  Ediel_sol  =         0.00000000
  ---------------------------------------------------
  free energy    TOTEN  =        -6.29224713 eV

  energy without entropy =       -6.29224713  energy(sigma->0) =       -6.29224713


--------------------------------------------------------------------------------------------------------




--------------------------------------- Iteration      1(  12)  ---------------------------------------


    POTLOK:  cpu time    7.4555: real time    7.4851
    SETDIJ:  cpu time    0.0118: real time    0.0121
    EDDIAG:  cpu time    0.4988: real time    0.5017
  RMM-DIIS:  cpu time    2.0063: real time    2.0247
    ORTHCH:  cpu time    0.0286: real time    0.0287
       DOS:  cpu time    0.0004: real time    0.0008
    CHARGE:  cpu time    0.8701: real time    0.8769
    MIXING:  cpu time    0.1800: real time    0.1807
    --------------------------------------------
      LOOP:  cpu time   11.0513: real time   11.1106

 eigenvalue-minimisations  :    16
 total energy-change (2. order) :-0.2252749E-02  (-0.2313802E-03)
 number of electron       8.0000000 magnetization 
 augmentation part       -1.2024144 magnetization 

 Broyden mixing:
  rms(total) = 0.41537E-02    rms(broyden)= 0.41532E-02
  rms(prec ) = 0.73894E-02
  weight for this iteration     100.00

 eigenvalues of (default mixing * dielectric matrix)
  average eigenvalue GAMMA=   1.9008
  3.1159  2.4684  1.5001  1.5001  0.9196

 Free energy of the ion-electron system (eV)
  ---------------------------------------------------
  alpha Z        PSCENC =         0.02182671
  Ewald energy   TEWEN  =        48.58431737
  -Hartree energ DENC   =      -235.27894129
  -exchange      EXHF   =         0.00000000
  -V(xc)+E(xc)   XCENC  =       -22.30768541
  PAW double counting   =       330.21984245     -292.26678148
  entropy T*S    EENTRO =        -0.00000000
  eigenvalues    EBANDS =       -83.47772722
  atomic energy  EATOM  =       248.21064898
  Solvation  Ediel_sol  =         0.00000000
  ---------------------------------------------------
  free energy    TOTEN  =        -6.29449988 eV

  energy without entropy =       -6.29449988  energy(sigma->0) =       -6.29449988


--------------------------------------------------------------------------------------------------------




--------------------------------------- Iteration      1(  13)  ---------------------------------------


    POTLOK:  cpu time    7.4586: real time    7.4941
    SETDIJ:  cpu time    0.0123: real time    0.0124
    EDDIAG:  cpu time    0.5015: real time    0.5043
  RMM-DIIS:  cpu time    2.0068: real time    2.0225
    ORTHCH:  cpu time    0.0291: real time    0.0293
       DOS:  cpu time    0.0003: real time    0.0007
    CHARGE:  cpu time    0.8837: real time    0.8870
    MIXING:  cpu time    0.1858: real time    0.1863
    --------------------------------------------
      LOOP:  cpu time   11.0783: real time   11.1366

 eigenvalue-minimisations  :    16
 total energy-change (2. order) :-0.7124617E-03  (-0.4596775E-04)
 number of electron       8.0000000 magnetization 
 augmentation part       -1.2022919 magnetization 

 Broyden mixing:
  rms(total) = 0.31070E-02    rms(broyden)= 0.31070E-02
  rms(prec ) = 0.57151E-02
  weight for this iteration     100.00

 eigenvalues of (default mixing * dielectric matrix)
  average eigenvalue GAMMA=   2.2705
  4.6311  2.5186  2.5186  1.8570  1.0490  1.0490

 Free energy of the ion-electron system (eV)
  ---------------------------------------------------
  alpha Z        PSCENC =         0.02182671
  Ewald energy   TEWEN  =        48.58431737
  -Hartree energ DENC   =      -235.29564726
  -exchange      EXHF   =         0.00000000
  -V(xc)+E(xc)   XCENC  =       -22.30835437
  PAW double counting   =       330.15294282     -292.19671477
  entropy T*S    EENTRO =        -0.00000000
  eigenvalues    EBANDS =       -83.46423183
  atomic energy  EATOM  =       248.21064898
  Solvation  Ediel_sol  =         0.00000000
  ---------------------------------------------------
  free energy    TOTEN  =        -6.29521235 eV

  energy without entropy =       -6.29521235  energy(sigma->0) =       -6.29521235


--------------------------------------------------------------------------------------------------------




--------------------------------------- Iteration      1(  14)  ---------------------------------------


    POTLOK:  cpu time    7.3683: real time    7.3947
    SETDIJ:  cpu time    0.0135: real time    0.0135
    EDDIAG:  cpu time    0.4989: real time    0.5005
  RMM-DIIS:  cpu time    2.2406: real time    2.2504
    ORTHCH:  cpu time    0.0285: real time    0.0286
       DOS:  cpu time    0.0004: real time    0.0007
    CHARGE:  cpu time    0.8897: real time    0.8933
    MIXING:  cpu time    0.1917: real time    0.1923
    --------------------------------------------
      LOOP:  cpu time   11.2316: real time   11.2741

 eigenvalue-minimisations  :    17
 total energy-change (2. order) :-0.3204750E-02  (-0.1898741E-03)
 number of electron       8.0000000 magnetization 
 augmentation part       -1.2016589 magnetization 

 Broyden mixing:
  rms(total) = 0.22157E-02    rms(broyden)= 0.22157E-02
  rms(prec ) = 0.33168E-02
  weight for this iteration     100.00

 eigenvalues of (default mixing * dielectric matrix)
  average eigenvalue GAMMA=   2.1038
  5.0170  2.7886  2.2588  1.4411  1.4411  0.9786  0.8011

 Free energy of the ion-electron system (eV)
  ---------------------------------------------------
  alpha Z        PSCENC =         0.02182671
  Ewald energy   TEWEN  =        48.58431737
  -Hartree energ DENC   =      -235.57194022
  -exchange      EXHF   =         0.00000000
  -V(xc)+E(xc)   XCENC  =       -22.30148743
  PAW double counting   =       330.61085836     -292.65917010
  entropy T*S    EENTRO =        -0.00000000
  eigenvalues    EBANDS =       -83.19347077
  atomic energy  EATOM  =       248.21064898
  Solvation  Ediel_sol  =         0.00000000
  ---------------------------------------------------
  free energy    TOTEN  =        -6.29841710 eV

  energy without entropy =       -6.29841710  energy(sigma->0) =       -6.29841710


--------------------------------------------------------------------------------------------------------




--------------------------------------- Iteration      1(  15)  ---------------------------------------


    POTLOK:  cpu time    7.3567: real time    7.3824
    SETDIJ:  cpu time    0.0129: real time    0.0129
    EDDIAG:  cpu time    0.5033: real time    0.5050
  RMM-DIIS:  cpu time    2.0293: real time    2.0417
    ORTHCH:  cpu time    0.0283: real time    0.0285
       DOS:  cpu time    0.0005: real time    0.0009
    CHARGE:  cpu time    0.8852: real time    0.8919
    MIXING:  cpu time    0.1991: real time    0.2000
    --------------------------------------------
      LOOP:  cpu time   11.0154: real time   11.0632

 eigenvalue-minimisations  :    16
 total energy-change (2. order) :-0.3114147E-03  (-0.1325306E-04)
 number of electron       8.0000000 magnetization 
 augmentation part       -1.2017264 magnetization 

 Broyden mixing:
  rms(total) = 0.13910E-02    rms(broyden)= 0.13910E-02
  rms(prec ) = 0.22468E-02
  weight for this iteration     100.00

 eigenvalues of (default mixing * dielectric matrix)
  average eigenvalue GAMMA=   2.2731
  5.4405  3.0916  2.3780  2.3780  1.4528  1.4528  1.0480  0.9429

 Free energy of the ion-electron system (eV)
  ---------------------------------------------------
  alpha Z        PSCENC =         0.02182671
  Ewald energy   TEWEN  =        48.58431737
  -Hartree energ DENC   =      -235.56675216
  -exchange      EXHF   =         0.00000000
  -V(xc)+E(xc)   XCENC  =       -22.30367157
  PAW double counting   =       330.26494207     -292.31283469
  entropy T*S    EENTRO =        -0.00000000
  eigenvalues    EBANDS =       -83.19720522
  atomic energy  EATOM  =       248.21064898
  Solvation  Ediel_sol  =         0.00000000
  ---------------------------------------------------
  free energy    TOTEN  =        -6.29872851 eV

  energy without entropy =       -6.29872851  energy(sigma->0) =       -6.29872851


--------------------------------------------------------------------------------------------------------




--------------------------------------- Iteration      1(  16)  ---------------------------------------


    POTLOK:  cpu time    7.2827: real time    7.3059
    SETDIJ:  cpu time    0.0128: real time    0.0129
    EDDIAG:  cpu time    0.5048: real time    0.5060
  RMM-DIIS:  cpu time    2.0060: real time    2.0127
    ORTHCH:  cpu time    0.0284: real time    0.0285
       DOS:  cpu time    0.0004: real time    0.0008
    CHARGE:  cpu time    0.8898: real time    0.8929
    MIXING:  cpu time    0.2083: real time    0.2112
    --------------------------------------------
      LOOP:  cpu time   10.9331: real time   10.9709

 eigenvalue-minimisations  :    16
 total energy-change (2. order) :-0.1774725E-02  (-0.4802173E-04)
 number of electron       8.0000000 magnetization 
 augmentation part       -1.2020504 magnetization 

 Broyden mixing:
  rms(total) = 0.12987E-02    rms(broyden)= 0.12987E-02
  rms(prec ) = 0.16464E-02
  weight for this iteration     100.00

 eigenvalues of (default mixing * dielectric matrix)
  average eigenvalue GAMMA=   2.3121
  6.3722  3.9836  2.5886  2.1897  1.4475  1.4475  1.0255  0.8773  0.8773

 Free energy of the ion-electron system (eV)
  ---------------------------------------------------
  alpha Z        PSCENC =         0.02182671
  Ewald energy   TEWEN  =        48.58431737
  -Hartree energ DENC   =      -235.52055967
  -exchange      EXHF   =         0.00000000
  -V(xc)+E(xc)   XCENC  =       -22.30960248
  PAW double counting   =       329.87116928     -291.91527377
  entropy T*S    EENTRO =        -0.00000000
  eigenvalues    EBANDS =       -83.24302967
  atomic energy  EATOM  =       248.21064898
  Solvation  Ediel_sol  =         0.00000000
  ---------------------------------------------------
  free energy    TOTEN  =        -6.30050324 eV

  energy without entropy =       -6.30050324  energy(sigma->0) =       -6.30050324


--------------------------------------------------------------------------------------------------------




--------------------------------------- Iteration      1(  17)  ---------------------------------------


    POTLOK:  cpu time    7.2532: real time    7.2763
    SETDIJ:  cpu time    0.0127: real time    0.0127
    EDDIAG:  cpu time    0.5025: real time    0.5041
  RMM-DIIS:  cpu time    1.8101: real time    1.8188
    ORTHCH:  cpu time    0.0281: real time    0.0283
       DOS:  cpu time    0.0004: real time    0.0007
    CHARGE:  cpu time    0.8863: real time    0.8904
    MIXING:  cpu time    0.2157: real time    0.2166
    --------------------------------------------
      LOOP:  cpu time   10.7090: real time   10.7479

 eigenvalue-minimisations  :    14
 total energy-change (2. order) :-0.1465325E-03  (-0.4108080E-05)
 number of electron       8.0000000 magnetization 
 augmentation part       -1.2020299 magnetization 

 Broyden mixing:
  rms(total) = 0.74926E-03    rms(broyden)= 0.74926E-03
  rms(prec ) = 0.10170E-02
  weight for this iteration     100.00

 eigenvalues of (default mixing * dielectric matrix)
  average eigenvalue GAMMA=   2.3573
  6.5555  4.1835  2.3442  2.3442  2.2784  1.4777  1.4777  1.0820  0.9411  0.8889

 Free energy of the ion-electron system (eV)
  ---------------------------------------------------
  alpha Z        PSCENC =         0.02182671
  Ewald energy   TEWEN  =        48.58431737
  -Hartree energ DENC   =      -235.53950936
  -exchange      EXHF   =         0.00000000
  -V(xc)+E(xc)   XCENC  =       -22.30854033
  PAW double counting   =       330.06864962     -292.11368023
  entropy T*S    EENTRO =        -0.00000000
  eigenvalues    EBANDS =       -83.22436253
  atomic energy  EATOM  =       248.21064898
  Solvation  Ediel_sol  =         0.00000000
  ---------------------------------------------------
  free energy    TOTEN  =        -6.30064977 eV

  energy without entropy =       -6.30064977  energy(sigma->0) =       -6.30064977


--------------------------------------------------------------------------------------------------------




--------------------------------------- Iteration      1(  18)  ---------------------------------------


    POTLOK:  cpu time    7.2487: real time    7.2729
    SETDIJ:  cpu time    0.0121: real time    0.0121
    EDDIAG:  cpu time    0.5018: real time    0.5056
  RMM-DIIS:  cpu time    1.9046: real time    1.9140
    ORTHCH:  cpu time    0.0282: real time    0.0283
       DOS:  cpu time    0.0003: real time    0.0008
    CHARGE:  cpu time    0.8895: real time    0.8929
    MIXING:  cpu time    0.2284: real time    0.2289
    --------------------------------------------
      LOOP:  cpu time   10.8137: real time   10.8553

 eigenvalue-minimisations  :    15
 total energy-change (2. order) :-0.3182497E-03  (-0.9077233E-05)
 number of electron       8.0000000 magnetization 
 augmentation part       -1.2018046 magnetization 

 Broyden mixing:
  rms(total) = 0.49068E-03    rms(broyden)= 0.49068E-03
  rms(prec ) = 0.62926E-03
  weight for this iteration     100.00

 eigenvalues of (default mixing * dielectric matrix)
  average eigenvalue GAMMA=   2.4277
  8.1693  4.4128  2.9015  2.6750  2.0498  1.4716  1.4716  1.0711  0.9063  0.8803
  0.6950

 Free energy of the ion-electron system (eV)
  ---------------------------------------------------
  alpha Z        PSCENC =         0.02182671
  Ewald energy   TEWEN  =        48.58431737
  -Hartree energ DENC   =      -235.57258018
  -exchange      EXHF   =         0.00000000
  -V(xc)+E(xc)   XCENC  =       -22.30706388
  PAW double counting   =       330.26477640     -292.31179575
  entropy T*S    EENTRO =        -0.00000000
  eigenvalues    EBANDS =       -83.19109766
  atomic energy  EATOM  =       248.21064898
  Solvation  Ediel_sol  =         0.00000000
  ---------------------------------------------------
  free energy    TOTEN  =        -6.30096802 eV

  energy without entropy =       -6.30096802  energy(sigma->0) =       -6.30096802


--------------------------------------------------------------------------------------------------------




--------------------------------------- Iteration      1(  19)  ---------------------------------------


    POTLOK:  cpu time    7.2154: real time    7.2367
    SETDIJ:  cpu time    0.0122: real time    0.0123
    EDDIAG:  cpu time    0.5088: real time    0.5106
  RMM-DIIS:  cpu time    1.5646: real time    1.5692
    ORTHCH:  cpu time    0.0291: real time    0.0293
       DOS:  cpu time    0.0004: real time    0.0005
    CHARGE:  cpu time    0.8914: real time    0.8941
    MIXING:  cpu time    0.2366: real time    0.2373
    --------------------------------------------
      LOOP:  cpu time   10.4586: real time   10.4900

 eigenvalue-minimisations  :    12
 total energy-change (2. order) :-0.4999613E-04  (-0.1046961E-05)
 number of electron       8.0000000 magnetization 
 augmentation part       -1.2017993 magnetization 

 Broyden mixing:
  rms(total) = 0.40009E-03    rms(broyden)= 0.40009E-03
  rms(prec ) = 0.51297E-03
  weight for this iteration     100.00

 eigenvalues of (default mixing * dielectric matrix)
  average eigenvalue GAMMA=   2.3509
  8.1371  4.5158  2.7783  2.7783  2.1214  1.4540  1.4540  1.0588  0.9484  0.8523
  1.0564  1.0564

 Free energy of the ion-electron system (eV)
  ---------------------------------------------------
  alpha Z        PSCENC =         0.02182671
  Ewald energy   TEWEN  =        48.58431737
  -Hartree energ DENC   =      -235.56600978
  -exchange      EXHF   =         0.00000000
  -V(xc)+E(xc)   XCENC  =       -22.30752773
  PAW double counting   =       330.22022022     -292.26696478
  entropy T*S    EENTRO =        -0.00000000
  eigenvalues    EBANDS =       -83.19752901
  atomic energy  EATOM  =       248.21064898
  Solvation  Ediel_sol  =         0.00000000
  ---------------------------------------------------
  free energy    TOTEN  =        -6.30101801 eV

  energy without entropy =       -6.30101801  energy(sigma->0) =       -6.30101801


--------------------------------------------------------------------------------------------------------




--------------------------------------- Iteration      1(  20)  ---------------------------------------


    POTLOK:  cpu time    7.2166: real time    7.2365
    SETDIJ:  cpu time    0.0127: real time    0.0129
    EDDIAG:  cpu time    0.5038: real time    0.5051
  RMM-DIIS:  cpu time    1.5914: real time    1.5970
    ORTHCH:  cpu time    0.0295: real time    0.0295
       DOS:  cpu time    0.0004: real time    0.0005
    CHARGE:  cpu time    0.8894: real time    0.8922
    MIXING:  cpu time    0.2501: real time    0.2507
    --------------------------------------------
      LOOP:  cpu time   10.4940: real time   10.5244

 eigenvalue-minimisations  :    12
 total energy-change (2. order) :-0.2993488E-04  (-0.3632843E-06)
 number of electron       8.0000000 magnetization 
 augmentation part       -1.2018277 magnetization 

 Broyden mixing:
  rms(total) = 0.21326E-03    rms(broyden)= 0.21326E-03
  rms(prec ) = 0.27954E-03
  weight for this iteration     100.00

 eigenvalues of (default mixing * dielectric matrix)
  average eigenvalue GAMMA=   2.5165
  8.9671  5.4749  3.4440  2.6242  2.6242  1.9537  1.4820  1.4820  1.0756  0.9717
  0.9305  0.9305  0.7540

 Free energy of the ion-electron system (eV)
  ---------------------------------------------------
  alpha Z        PSCENC =         0.02182671
  Ewald energy   TEWEN  =        48.58431737
  -Hartree energ DENC   =      -235.55513643
  -exchange      EXHF   =         0.00000000
  -V(xc)+E(xc)   XCENC  =       -22.30803398
  PAW double counting   =       330.17535614     -292.22164942
  entropy T*S    EENTRO =        -0.00000000
  eigenvalues    EBANDS =       -83.20837733
  atomic energy  EATOM  =       248.21064898
  Solvation  Ediel_sol  =         0.00000000
  ---------------------------------------------------
  free energy    TOTEN  =        -6.30104795 eV

  energy without entropy =       -6.30104795  energy(sigma->0) =       -6.30104795


--------------------------------------------------------------------------------------------------------




--------------------------------------- Iteration      1(  21)  ---------------------------------------


    POTLOK:  cpu time    7.2388: real time    7.2564
    SETDIJ:  cpu time    0.0123: real time    0.0124
    EDDIAG:  cpu time    0.5065: real time    0.5083
  RMM-DIIS:  cpu time    1.5707: real time    1.5800
    ORTHCH:  cpu time    0.0283: real time    0.0283
       DOS:  cpu time    0.0003: real time    0.0004
    CHARGE:  cpu time    0.8906: real time    0.8932
    MIXING:  cpu time    0.2625: real time    0.2635
    --------------------------------------------
      LOOP:  cpu time   10.5100: real time   10.5425

 eigenvalue-minimisations  :    12
 total energy-change (2. order) :-0.2410391E-04  (-0.5699163E-06)
 number of electron       8.0000000 magnetization 
 augmentation part       -1.2018878 magnetization 

 Broyden mixing:
  rms(total) = 0.11544E-03    rms(broyden)= 0.11543E-03
  rms(prec ) = 0.15016E-03
  weight for this iteration     100.00

 eigenvalues of (default mixing * dielectric matrix)
  average eigenvalue GAMMA=   2.3977
  8.8908  5.5164  3.1790  2.6776  2.6776  1.8551  1.4814  1.4814  1.0356  1.0356
  1.1322  0.9298  0.9298  0.7460

 Free energy of the ion-electron system (eV)
  ---------------------------------------------------
  alpha Z        PSCENC =         0.02182671
  Ewald energy   TEWEN  =        48.58431737
  -Hartree energ DENC   =      -235.54077224
  -exchange      EXHF   =         0.00000000
  -V(xc)+E(xc)   XCENC  =       -22.30876670
  PAW double counting   =       330.11729123     -292.16303907
  entropy T*S    EENTRO =        -0.00000000
  eigenvalues    EBANDS =       -83.22257833
  atomic energy  EATOM  =       248.21064898
  Solvation  Ediel_sol  =         0.00000000
  ---------------------------------------------------
  free energy    TOTEN  =        -6.30107205 eV

  energy without entropy =       -6.30107205  energy(sigma->0) =       -6.30107205


--------------------------------------------------------------------------------------------------------




--------------------------------------- Iteration      1(  22)  ---------------------------------------


    POTLOK:  cpu time    7.2309: real time    7.2550
    SETDIJ:  cpu time    0.0139: real time    0.0139
    EDDIAG:  cpu time    0.5065: real time    0.5091
  RMM-DIIS:  cpu time    1.5741: real time    1.5824
    ORTHCH:  cpu time    0.0287: real time    0.0288
       DOS:  cpu time    0.0004: real time    0.0005
    --------------------------------------------
      LOOP:  cpu time    9.3545: real time    9.3897

 eigenvalue-minimisations  :    12
 total energy-change (2. order) :-0.2074099E-05  (-0.1448913E-06)
 number of electron       8.0000000 magnetization 
 augmentation part       -1.2018878 magnetization 

 Free energy of the ion-electron system (eV)
  ---------------------------------------------------
  alpha Z        PSCENC =         0.02182671
  Ewald energy   TEWEN  =        48.58431737
  -Hartree energ DENC   =      -235.54384619
  -exchange      EXHF   =         0.00000000
  -V(xc)+E(xc)   XCENC  =       -22.30864925
  PAW double counting   =       330.14934508     -292.19531214
  entropy T*S    EENTRO =        -0.00000000
  eigenvalues    EBANDS =       -83.21940468
  atomic energy  EATOM  =       248.21064898
  Solvation  Ediel_sol  =         0.00000000
  ---------------------------------------------------
  free energy    TOTEN  =        -6.30107413 eV

  energy without entropy =       -6.30107413  energy(sigma->0) =       -6.30107413


--------------------------------------------------------------------------------------------------------




 average (electrostatic) potential at core
  the test charge radii are     1.1897  0.5883
  (the norm of the test charge is              1.0000)
       1 -98.3994       2 -43.0910       3 -43.0910



 E-fermi :  -5.2702     XC(G=0):  -0.3342     alpha+bet : -0.1228


 k-point     1 :       0.0000    0.0000    0.0000
  band No.  band energies     occupation 
      1     -17.4432      2.00000
      2     -10.5583      2.00000
      3      -8.0911      2.00000
      4      -5.5171      2.00000
      5      -0.5214      0.00000
      6      -0.4021      0.00000
      7       0.2659      0.00000
      8       0.4611      0.00000


--------------------------------------------------------------------------------------------------------


 soft charge-density along one line, spin component           1
         0         1         2         3         4         5         6         7         8         9
 total charge-density along one line

 pseudopotential strength for first ion, spin component:           1
 55.967 -31.290   0.176   0.000   0.176   0.437  -0.000   0.437
-31.290  39.332  -0.059  -0.000  -0.059  -0.239   0.000  -0.239
  0.176  -0.059  13.677   0.000  -0.010  29.312   0.000  -0.023
  0.000  -0.000   0.000  13.604   0.000   0.000  29.165   0.000
  0.176  -0.059  -0.010   0.000  13.677  -0.023   0.000  29.312
  0.437  -0.239  29.312   0.000  -0.023  68.076   0.000  -0.070
 -0.000   0.000   0.000  29.165   0.000   0.000  67.651   0.000
  0.437  -0.239  -0.023   0.000  29.312  -0.070   0.000  68.076
 -0.022   0.007   0.052  -0.000   0.052   0.091  -0.000   0.091
  0.000  -0.000   0.000   0.053  -0.000   0.000   0.089  -0.000
 -0.087   0.023  -0.052   0.000  -0.052  -0.065   0.000  -0.065
  0.000  -0.000  -0.000   0.053   0.000  -0.000   0.089   0.000
  0.000   0.000  -0.089  -0.000   0.089  -0.111  -0.000   0.111
  0.040  -0.008  -0.112   0.000  -0.112  -0.272   0.000  -0.272
 -0.000   0.000  -0.000  -0.112   0.000  -0.000  -0.269   0.000
  0.155  -0.036   0.091  -0.000   0.091   0.194  -0.000   0.194
 -0.000   0.000   0.000  -0.112  -0.000   0.000  -0.269  -0.000
 -0.000  -0.000   0.157   0.000  -0.157   0.333   0.000  -0.333
 total augmentation occupancy for first ion, spin component:           1
  1.915   0.030  -0.094  -0.000  -0.094  -0.006  -0.000  -0.006  -0.027  -0.000  -0.111  -0.000   0.000   0.003   0.000  -0.000
  0.030   0.002   0.037  -0.000   0.037  -0.001   0.000  -0.001   0.001  -0.000  -0.011  -0.000   0.000  -0.000   0.000  -0.000
 -0.094   0.037   1.640   0.000   0.115  -0.030   0.000   0.001   0.031   0.000  -0.211   0.000  -0.415  -0.004   0.000  -0.004
 -0.000  -0.000   0.000   1.925   0.000  -0.000  -0.006  -0.000  -0.000   0.063   0.000   0.063   0.000   0.000  -0.004   0.000
 -0.094   0.037   0.115   0.000   1.640   0.001   0.000  -0.030   0.031   0.000  -0.211   0.000   0.415  -0.004   0.000  -0.004
 -0.006  -0.001  -0.030  -0.000   0.001   0.001   0.000  -0.000  -0.000  -0.000   0.004  -0.000   0.008   0.000  -0.000   0.000
 -0.000   0.000   0.000  -0.006   0.000   0.000   0.000   0.000   0.000  -0.000   0.000  -0.000   0.000  -0.000   0.000  -0.000
 -0.006  -0.001   0.001  -0.000  -0.030  -0.000   0.000   0.001  -0.000  -0.000   0.004  -0.000  -0.008   0.000   0.000   0.000
 -0.027   0.001   0.031  -0.000   0.031  -0.000   0.000  -0.000   0.001   0.000  -0.006   0.000   0.000  -0.000   0.000  -0.000
 -0.000  -0.000   0.000   0.063   0.000  -0.000  -0.000  -0.000   0.000   0.002  -0.000   0.002  -0.000  -0.000  -0.000   0.000
 -0.111  -0.011  -0.211   0.000  -0.211   0.004   0.000   0.004  -0.006  -0.000   0.060  -0.000   0.000   0.001  -0.000   0.001
 -0.000  -0.000   0.000   0.063   0.000  -0.000  -0.000  -0.000   0.000   0.002  -0.000   0.002   0.000  -0.000  -0.000   0.000
  0.000   0.000  -0.415   0.000   0.415   0.008   0.000  -0.008   0.000  -0.000   0.000   0.000   0.226   0.000  -0.000   0.000
  0.003  -0.000  -0.004   0.000  -0.004   0.000  -0.000   0.000  -0.000  -0.000   0.001  -0.000   0.000   0.000  -0.000   0.000
  0.000   0.000   0.000  -0.004   0.000  -0.000   0.000   0.000   0.000  -0.000  -0.000  -0.000  -0.000  -0.000   0.000  -0.000
 -0.000  -0.000  -0.004   0.000  -0.004   0.000  -0.000   0.000  -0.000   0.000   0.001   0.000   0.000   0.000  -0.000   0.000
  0.000   0.000   0.000  -0.004   0.000   0.000   0.000  -0.000   0.000  -0.000  -0.000  -0.000   0.000  -0.000   0.000  -0.000
  0.000   0.000  -0.008   0.000   0.008   0.000  -0.000  -0.000   0.000  -0.000   0.000   0.000   0.004   0.000  -0.000   0.000


------------------------ aborting loop because EDIFF is reached ----------------------------------------


    CHARGE:  cpu time    0.8771: real time    0.8800
    FORLOC:  cpu time    0.3094: real time    0.3101
    FORNL :  cpu time    0.7572: real time    0.7597
    STRESS:  cpu time    2.8704: real time    2.8804
    FORCOR:  cpu time    7.3538: real time    7.3744
    FORHAR:  cpu time    2.1036: real time    2.1106
    MIXING:  cpu time    0.2743: real time    0.2753
    OFIELD:  cpu time    0.0000: real time    0.0000

  FORCE on cell =-STRESS in cart. coord.  units (eV):
  Direction    XX          YY          ZZ          XY          YZ          ZX
  --------------------------------------------------------------------------------------
  Alpha Z     0.02183     0.02183     0.02183
  Ewald      38.87607    38.87606   -29.16782    -5.38190     0.00003     0.00003
  Hartree    81.80311    81.80312    71.93865    -1.64514    -0.00000    -0.00000
  E(xc)     -31.31586   -31.31586   -30.62395    -0.06926     0.00000     0.00000
  Local    -239.48427  -239.48432  -178.83276     3.83348    -0.00002    -0.00002
  n-local   120.76123   120.76128   107.49468     1.04503     0.00001     0.00001
  augment   -26.63980   -26.63980   -27.34239    -0.33669     0.00000     0.00000
  Kinetic    70.56990    70.56991    86.29614     2.00389    -0.00000    -0.00000
  Fock        0.00000     0.00000     0.00000     0.00000     0.00000     0.00000
  -------------------------------------------------------------------------------------
  Total      14.59221    14.59221    -0.21562    -0.55060     0.00002     0.00002
  in kB       6.92720     6.92720    -0.10236    -0.26138     0.00001     0.00001
  external pressure =        4.58 kB  Pullay stress =        0.00 kB


 VOLUME and BASIS-vectors are now :
 -----------------------------------------------------------------------------
  energy-cutoff  :      450.00
  volume of cell :     3375.00
      direct lattice vectors                 reciprocal lattice vectors
    15.000000000  0.000000000  0.000000000     0.066666667  0.000000000  0.000000000
     0.000000000 15.000000000  0.000000000     0.000000000  0.066666667  0.000000000
     0.000000000  0.000000000 15.000000000     0.000000000  0.000000000  0.066666667

  length of vectors
    15.000000000 15.000000000 15.000000000     0.066666667  0.066666667  0.066666667


 FORCES acting on ions
    electron-ion (+dipol)            ewald-force                    non-local-force                 convergence-correction
 -----------------------------------------------------------------------------------------------
   0.415E+02 0.415E+02 0.294E-03   -.467E+02 -.467E+02 -.489E-04   -.554E+01 -.554E+01 0.449E-03   -.889E-03 -.116E-02 -.370E-03
   -.343E+02 0.300E+01 0.342E-04   0.500E+02 -.333E+01 0.244E-04   -.471E+01 0.677E-01 0.668E-05   0.332E-03 -.292E-03 -.584E-04
   0.300E+01 -.343E+02 0.342E-04   -.333E+01 0.500E+02 0.245E-04   0.677E-01 -.471E+01 0.668E-05   -.253E-03 0.327E-03 -.584E-04
 -----------------------------------------------------------------------------------------------
   0.102E+02 0.102E+02 0.363E-03   0.000E+00 0.000E+00 0.551E-17   -.102E+02 -.102E+02 0.462E-03   -.810E-03 -.113E-02 -.487E-03


 POSITION                                       TOTAL-FORCE (eV/Angst)
 -----------------------------------------------------------------------------------
      7.38631      7.38631      7.50000       -10.707435    -10.707342      0.000211
      8.73547      7.36822      7.50000        10.968406     -0.260995     -0.000106
      7.36822      8.73547      7.50000        -0.260970     10.968337     -0.000106
 -----------------------------------------------------------------------------------
    total drift:                               -0.000612     -0.000489      0.000338


--------------------------------------------------------------------------------------------------------



  FREE ENERGIE OF THE ION-ELECTRON SYSTEM (eV)
  ---------------------------------------------------
  free  energy   TOTEN  =        -6.30107413 eV

  energy  without entropy=       -6.30107413  energy(sigma->0) =       -6.30107413



--------------------------------------------------------------------------------------------------------


    POTLOK:  cpu time    7.3247: real time    7.3449


--------------------------------------------------------------------------------------------------------


 stress matrix after NEB project (eV)
     14.59221     -0.55060      0.00002
     -0.55060     14.59221      0.00002
      0.00002      0.00002     -0.21562
  FORCES: max atom, RMS    15.142534   12.517227
  FORCE total and by dimension   21.680473   10.968406
  Stress total and by dimension   20.652310   14.592209


--------------------------------------------------------------------------------------------------------


    WAVPRE:  cpu time    1.2684: real time    1.5203
    FEWALD:  cpu time    0.0004: real time    0.0004
    ORTHCH:  cpu time    0.2521: real time    0.2533
     LOOP+:  cpu time  216.2925: real time  217.5642


--------------------------------------- Iteration      2(   1)  ---------------------------------------


    POTLOK:  cpu time    7.3395: real time    7.3972
    SETDIJ:  cpu time    0.0118: real time    0.0118
     EDDAV:  cpu time    2.1981: real time    2.2118
       DOS:  cpu time    0.0002: real time    0.0003
    CHARGE:  cpu time    0.8702: real time    0.8760
    MIXING:  cpu time    0.1690: real time    0.1693
    --------------------------------------------
      LOOP:  cpu time   10.5888: real time   10.6665

 eigenvalue-minimisations  :    16
 total energy-change (2. order) :-0.3085653E+00  (-0.2544404E+02)
 number of electron       7.9999999 magnetization 
 augmentation part       -0.9796319 magnetization 

 Broyden mixing:
  rms(total) = 0.40332E+00    rms(broyden)= 0.40318E+00
  rms(prec ) = 0.47523E+00
  weight for this iteration     100.00

 Free energy of the ion-electron system (eV)
  ---------------------------------------------------
  alpha Z        PSCENC =         0.02182671
  Ewald energy   TEWEN  =         1.18919075
  -Hartree energ DENC   =      -203.77821155
  -exchange      EXHF   =         0.00000000
  -V(xc)+E(xc)   XCENC  =       -23.87396548
  PAW double counting   =       330.16646944     -292.21254390
  entropy T*S    EENTRO =        -0.00000000
  eigenvalues    EBANDS =       -66.33305232
  atomic energy  EATOM  =       248.21064898
  Solvation  Ediel_sol  =         0.00000000
  ---------------------------------------------------
  free energy    TOTEN  =        -6.60963737 eV

  energy without entropy =       -6.60963737  energy(sigma->0) =       -6.60963737


--------------------------------------------------------------------------------------------------------




--------------------------------------- Iteration      2(   2)  ---------------------------------------


    POTLOK:  cpu time    7.0148: real time    7.0448
    SETDIJ:  cpu time    0.0119: real time    0.0120
    EDDIAG:  cpu time    0.5044: real time    0.5053
  RMM-DIIS:  cpu time    1.9812: real time    1.9909
    ORTHCH:  cpu time    0.0294: real time    0.0294
       DOS:  cpu time    0.0004: real time    0.0005
    CHARGE:  cpu time    0.8652: real time    0.8701
    MIXING:  cpu time    0.1709: real time    0.1717
    --------------------------------------------
      LOOP:  cpu time   10.5782: real time   10.6247

 eigenvalue-minimisations  :    16
 total energy-change (2. order) :-0.5864731E+00  (-0.1069600E+01)
 number of electron       7.9999999 magnetization 
 augmentation part       -1.1186588 magnetization 

 Broyden mixing:
  rms(total) = 0.21386E+00    rms(broyden)= 0.21386E+00
  rms(prec ) = 0.23511E+00
  weight for this iteration     100.00

 eigenvalues of (default mixing * dielectric matrix)
  average eigenvalue GAMMA=   1.4067
  1.4067

 Free energy of the ion-electron system (eV)
  ---------------------------------------------------
  alpha Z        PSCENC =         0.02182671
  Ewald energy   TEWEN  =         1.18919075
  -Hartree energ DENC   =      -199.16437944
  -exchange      EXHF   =         0.00000000
  -V(xc)+E(xc)   XCENC  =       -24.09330337
  PAW double counting   =       262.58021694     -224.27043389
  entropy T*S    EENTRO =        -0.00000000
  eigenvalues    EBANDS =       -71.66987716
  atomic energy  EATOM  =       248.21064898
  Solvation  Ediel_sol  =         0.00000000
  ---------------------------------------------------
  free energy    TOTEN  =        -7.19611048 eV

  energy without entropy =       -7.19611048  energy(sigma->0) =       -7.19611048


--------------------------------------------------------------------------------------------------------




--------------------------------------- Iteration      2(   3)  ---------------------------------------


    POTLOK:  cpu time    6.9686: real time    7.0057
    SETDIJ:  cpu time    0.0123: real time    0.0123
    EDDIAG:  cpu time    0.5037: real time    0.5083
  RMM-DIIS:  cpu time    2.2470: real time    2.2595
    ORTHCH:  cpu time    0.0286: real time    0.0286
       DOS:  cpu time    0.0004: real time    0.0004
    CHARGE:  cpu time    0.8712: real time    0.8755
    MIXING:  cpu time    0.1724: real time    0.1727
    --------------------------------------------
      LOOP:  cpu time   10.8042: real time   10.8631

 eigenvalue-minimisations  :    17
 total energy-change (2. order) :-0.8978395E-01  (-0.1070441E+00)
 number of electron       7.9999999 magnetization 
 augmentation part       -1.1435736 magnetization 

 Broyden mixing:
  rms(total) = 0.99661E-01    rms(broyden)= 0.99660E-01
  rms(prec ) = 0.10864E+00
  weight for this iteration     100.00

 eigenvalues of (default mixing * dielectric matrix)
  average eigenvalue GAMMA=   1.6468
  2.1987  1.0950

 Free energy of the ion-electron system (eV)
  ---------------------------------------------------
  alpha Z        PSCENC =         0.02182671
  Ewald energy   TEWEN  =         1.18919075
  -Hartree energ DENC   =      -197.76108889
  -exchange      EXHF   =         0.00000000
  -V(xc)+E(xc)   XCENC  =       -24.16933748
  PAW double counting   =       235.41973008     -196.96526250
  entropy T*S    EENTRO =        -0.00000000
  eigenvalues    EBANDS =       -73.23160209
  atomic energy  EATOM  =       248.21064898
  Solvation  Ediel_sol  =         0.00000000
  ---------------------------------------------------
  free energy    TOTEN  =        -7.28589442 eV

  energy without entropy =       -7.28589442  energy(sigma->0) =       -7.28589442


--------------------------------------------------------------------------------------------------------




--------------------------------------- Iteration      2(   4)  ---------------------------------------


    POTLOK:  cpu time    6.9554: real time    6.9883
    SETDIJ:  cpu time    0.0124: real time    0.0125
    EDDIAG:  cpu time    0.5020: real time    0.5054
  RMM-DIIS:  cpu time    2.2135: real time    2.2308
    ORTHCH:  cpu time    0.0287: real time    0.0290
       DOS:  cpu time    0.0004: real time    0.0008
    CHARGE:  cpu time    0.8643: real time    0.8714
    MIXING:  cpu time    0.1739: real time    0.1746
    --------------------------------------------
      LOOP:  cpu time   10.7507: real time   10.8127

 eigenvalue-minimisations  :    17
 total energy-change (2. order) :-0.3554437E-01  (-0.2012597E-01)
 number of electron       7.9999999 magnetization 
 augmentation part       -1.1599615 magnetization 

 Broyden mixing:
  rms(total) = 0.33114E-01    rms(broyden)= 0.33110E-01
  rms(prec ) = 0.39436E-01
  weight for this iteration     100.00

 eigenvalues of (default mixing * dielectric matrix)
  average eigenvalue GAMMA=   1.6473
  2.4224  0.9560  1.5635

 Free energy of the ion-electron system (eV)
  ---------------------------------------------------
  alpha Z        PSCENC =         0.02182671
  Ewald energy   TEWEN  =         1.18919075
  -Hartree energ DENC   =      -197.40709088
  -exchange      EXHF   =         0.00000000
  -V(xc)+E(xc)   XCENC  =       -24.22609762
  PAW double counting   =       218.86343138     -180.36735796
  entropy T*S    EENTRO =        -0.00000000
  eigenvalues    EBANDS =       -73.60599016
  atomic energy  EATOM  =       248.21064898
  Solvation  Ediel_sol  =         0.00000000
  ---------------------------------------------------
  free energy    TOTEN  =        -7.32143880 eV

  energy without entropy =       -7.32143880  energy(sigma->0) =       -7.32143880


--------------------------------------------------------------------------------------------------------




--------------------------------------- Iteration      2(   5)  ---------------------------------------


    POTLOK:  cpu time    6.9437: real time    6.9793
    SETDIJ:  cpu time    0.0122: real time    0.0123
    EDDIAG:  cpu time    0.5019: real time    0.5062
  RMM-DIIS:  cpu time    2.3440: real time    2.3567
    ORTHCH:  cpu time    0.0289: real time    0.0291
       DOS:  cpu time    0.0004: real time    0.0008
    CHARGE:  cpu time    0.8715: real time    0.8749
    MIXING:  cpu time    0.1776: real time    0.1782
    --------------------------------------------
      LOOP:  cpu time   10.8802: real time   10.9374

 eigenvalue-minimisations  :    18
 total energy-change (2. order) :-0.2350269E-02  (-0.1953042E-02)
 number of electron       7.9999999 magnetization 
 augmentation part       -1.1615532 magnetization 

 Broyden mixing:
  rms(total) = 0.12468E-01    rms(broyden)= 0.12468E-01
  rms(prec ) = 0.16354E-01
  weight for this iteration     100.00

 eigenvalues of (default mixing * dielectric matrix)
  average eigenvalue GAMMA=   1.5962
  2.7145  1.8601  0.9555  0.8548

 Free energy of the ion-electron system (eV)
  ---------------------------------------------------
  alpha Z        PSCENC =         0.02182671
  Ewald energy   TEWEN  =         1.18919075
  -Hartree energ DENC   =      -197.54888097
  -exchange      EXHF   =         0.00000000
  -V(xc)+E(xc)   XCENC  =       -24.23079330
  PAW double counting   =       215.97436017     -177.48508977
  entropy T*S    EENTRO =        -0.00000000
  eigenvalues    EBANDS =       -73.45505164
  atomic energy  EATOM  =       248.21064898
  Solvation  Ediel_sol  =         0.00000000
  ---------------------------------------------------
  free energy    TOTEN  =        -7.32378907 eV

  energy without entropy =       -7.32378907  energy(sigma->0) =       -7.32378907


--------------------------------------------------------------------------------------------------------




--------------------------------------- Iteration      2(   6)  ---------------------------------------


    POTLOK:  cpu time    6.9538: real time    6.9776
    SETDIJ:  cpu time    0.0123: real time    0.0123
    EDDIAG:  cpu time    0.5032: real time    0.5052
  RMM-DIIS:  cpu time    2.4302: real time    2.4402
    ORTHCH:  cpu time    0.0289: real time    0.0290
       DOS:  cpu time    0.0004: real time    0.0008
    CHARGE:  cpu time    0.8719: real time    0.8758
    MIXING:  cpu time    0.1808: real time    0.1816
    --------------------------------------------
      LOOP:  cpu time   10.9815: real time   11.0225

 eigenvalue-minimisations  :    19
 total energy-change (2. order) :-0.9592683E-03  (-0.6435590E-03)
 number of electron       7.9999999 magnetization 
 augmentation part       -1.1606277 magnetization 

 Broyden mixing:
  rms(total) = 0.53390E-02    rms(broyden)= 0.53388E-02
  rms(prec ) = 0.80234E-02
  weight for this iteration     100.00

 eigenvalues of (default mixing * dielectric matrix)
  average eigenvalue GAMMA=   1.6980
  2.8308  2.1375  0.9544  0.9544  1.6130

 Free energy of the ion-electron system (eV)
  ---------------------------------------------------
  alpha Z        PSCENC =         0.02182671
  Ewald energy   TEWEN  =         1.18919075
  -Hartree energ DENC   =      -197.67434682
  -exchange      EXHF   =         0.00000000
  -V(xc)+E(xc)   XCENC  =       -24.23967774
  PAW double counting   =       214.93561065     -176.45662142
  entropy T*S    EENTRO =        -0.00000000
  eigenvalues    EBANDS =       -73.31137945
  atomic energy  EATOM  =       248.21064898
  Solvation  Ediel_sol  =         0.00000000
  ---------------------------------------------------
  free energy    TOTEN  =        -7.32474834 eV

  energy without entropy =       -7.32474834  energy(sigma->0) =       -7.32474834


--------------------------------------------------------------------------------------------------------




--------------------------------------- Iteration      2(   7)  ---------------------------------------


    POTLOK:  cpu time    6.9490: real time    6.9860
    SETDIJ:  cpu time    0.0126: real time    0.0126
    EDDIAG:  cpu time    0.5056: real time    0.5070
  RMM-DIIS:  cpu time    2.2517: real time    2.2672
    ORTHCH:  cpu time    0.0290: real time    0.0292
       DOS:  cpu time    0.0004: real time    0.0005
    CHARGE:  cpu time    0.8729: real time    0.8784
    MIXING:  cpu time    0.1857: real time    0.1861
    --------------------------------------------
      LOOP:  cpu time   10.8070: real time   10.8671

 eigenvalue-minimisations  :    17
 total energy-change (2. order) :-0.9994836E-03  (-0.9016880E-04)
 number of electron       7.9999999 magnetization 
 augmentation part       -1.1601853 magnetization 

 Broyden mixing:
  rms(total) = 0.19833E-02    rms(broyden)= 0.19831E-02
  rms(prec ) = 0.45890E-02
  weight for this iteration     100.00

 eigenvalues of (default mixing * dielectric matrix)
  average eigenvalue GAMMA=   1.7344
  3.0129  2.6567  1.7691  0.9614  1.0033  1.0033

 Free energy of the ion-electron system (eV)
  ---------------------------------------------------
  alpha Z        PSCENC =         0.02182671
  Ewald energy   TEWEN  =         1.18919075
  -Hartree energ DENC   =      -197.63783252
  -exchange      EXHF   =         0.00000000
  -V(xc)+E(xc)   XCENC  =       -24.24884104
  PAW double counting   =       214.56446750     -176.08747987
  entropy T*S    EENTRO =        -0.00000000
  eigenvalues    EBANDS =       -73.33772833
  atomic energy  EATOM  =       248.21064898
  Solvation  Ediel_sol  =         0.00000000
  ---------------------------------------------------
  free energy    TOTEN  =        -7.32574782 eV

  energy without entropy =       -7.32574782  energy(sigma->0) =       -7.32574782


--------------------------------------------------------------------------------------------------------




--------------------------------------- Iteration      2(   8)  ---------------------------------------


    POTLOK:  cpu time    6.9607: real time    6.9971
    SETDIJ:  cpu time    0.0124: real time    0.0124
    EDDIAG:  cpu time    0.5022: real time    0.5034
  RMM-DIIS:  cpu time    2.2520: real time    2.2680
    ORTHCH:  cpu time    0.0283: real time    0.0283
       DOS:  cpu time    0.0004: real time    0.0004
    CHARGE:  cpu time    0.8733: real time    0.8791
    MIXING:  cpu time    0.1913: real time    0.1926
    --------------------------------------------
      LOOP:  cpu time   10.8205: real time   10.8815

 eigenvalue-minimisations  :    17
 total energy-change (2. order) :-0.7561768E-03  (-0.2673735E-04)
 number of electron       7.9999999 magnetization 
 augmentation part       -1.1601812 magnetization 

 Broyden mixing:
  rms(total) = 0.13330E-02    rms(broyden)= 0.13330E-02
  rms(prec ) = 0.30237E-02
  weight for this iteration     100.00

 eigenvalues of (default mixing * dielectric matrix)
  average eigenvalue GAMMA=   1.6969
  2.9511  2.6783  2.0236  1.3145  0.9705  0.9701  0.9701

 Free energy of the ion-electron system (eV)
  ---------------------------------------------------
  alpha Z        PSCENC =         0.02182671
  Ewald energy   TEWEN  =         1.18919075
  -Hartree energ DENC   =      -197.59563909
  -exchange      EXHF   =         0.00000000
  -V(xc)+E(xc)   XCENC  =       -24.25365878
  PAW double counting   =       214.36300624     -175.88637822
  entropy T*S    EENTRO =        -0.00000000
  eigenvalues    EBANDS =       -73.37550059
  atomic energy  EATOM  =       248.21064898
  Solvation  Ediel_sol  =         0.00000000
  ---------------------------------------------------
  free energy    TOTEN  =        -7.32650400 eV

  energy without entropy =       -7.32650400  energy(sigma->0) =       -7.32650400


--------------------------------------------------------------------------------------------------------




--------------------------------------- Iteration      2(   9)  ---------------------------------------


    POTLOK:  cpu time    6.9843: real time    7.0233
    SETDIJ:  cpu time    0.0127: real time    0.0127
    EDDIAG:  cpu time    0.5050: real time    0.5070
  RMM-DIIS:  cpu time    2.0314: real time    2.0424
    ORTHCH:  cpu time    0.0301: real time    0.0301
       DOS:  cpu time    0.0004: real time    0.0004
    CHARGE:  cpu time    0.8750: real time    0.8799
    MIXING:  cpu time    0.2002: real time    0.2008
    --------------------------------------------
      LOOP:  cpu time   10.6391: real time   10.6967

 eigenvalue-minimisations  :    16
 total energy-change (2. order) :-0.6461983E-03  (-0.9528076E-05)
 number of electron       7.9999999 magnetization 
 augmentation part       -1.1603627 magnetization 

 Broyden mixing:
  rms(total) = 0.70617E-03    rms(broyden)= 0.70616E-03
  rms(prec ) = 0.18123E-02
  weight for this iteration     100.00

 eigenvalues of (default mixing * dielectric matrix)
  average eigenvalue GAMMA=   2.0335
  5.2366  2.8560  2.4714  1.7224  1.0624  1.0624  0.9286  0.9286

 Free energy of the ion-electron system (eV)
  ---------------------------------------------------
  alpha Z        PSCENC =         0.02182671
  Ewald energy   TEWEN  =         1.18919075
  -Hartree energ DENC   =      -197.54692125
  -exchange      EXHF   =         0.00000000
  -V(xc)+E(xc)   XCENC  =       -24.25543713
  PAW double counting   =       214.34247601     -175.86460865
  entropy T*S    EENTRO =        -0.00000000
  eigenvalues    EBANDS =       -73.42432562
  atomic energy  EATOM  =       248.21064898
  Solvation  Ediel_sol  =         0.00000000
  ---------------------------------------------------
  free energy    TOTEN  =        -7.32715019 eV

  energy without entropy =       -7.32715019  energy(sigma->0) =       -7.32715019


--------------------------------------------------------------------------------------------------------




--------------------------------------- Iteration      2(  10)  ---------------------------------------


    POTLOK:  cpu time    7.0729: real time    7.1085
    SETDIJ:  cpu time    0.0123: real time    0.0123
    EDDIAG:  cpu time    0.5002: real time    0.5042
  RMM-DIIS:  cpu time    1.8959: real time    1.9080
    ORTHCH:  cpu time    0.0283: real time    0.0284
       DOS:  cpu time    0.0004: real time    0.0004
    CHARGE:  cpu time    0.8731: real time    0.8786
    MIXING:  cpu time    0.2082: real time    0.2086
    --------------------------------------------
      LOOP:  cpu time   10.5913: real time   10.6491

 eigenvalue-minimisations  :    15
 total energy-change (2. order) :-0.6303757E-03  (-0.1485673E-04)
 number of electron       7.9999999 magnetization 
 augmentation part       -1.1604153 magnetization 

 Broyden mixing:
  rms(total) = 0.59787E-03    rms(broyden)= 0.59787E-03
  rms(prec ) = 0.89771E-03
  weight for this iteration     100.00

 eigenvalues of (default mixing * dielectric matrix)
  average eigenvalue GAMMA=   2.0316
  5.5438  2.9381  2.5263  2.0595  1.1808  1.1808  0.9679  0.9679  0.9191

 Free energy of the ion-electron system (eV)
  ---------------------------------------------------
  alpha Z        PSCENC =         0.02182671
  Ewald energy   TEWEN  =         1.18919075
  -Hartree energ DENC   =      -197.50517181
  -exchange      EXHF   =         0.00000000
  -V(xc)+E(xc)   XCENC  =       -24.25795528
  PAW double counting   =       214.42429711     -175.94678330
  entropy T*S    EENTRO =        -0.00000000
  eigenvalues    EBANDS =       -73.46383374
  atomic energy  EATOM  =       248.21064898
  Solvation  Ediel_sol  =         0.00000000
  ---------------------------------------------------
  free energy    TOTEN  =        -7.32778057 eV

  energy without entropy =       -7.32778057  energy(sigma->0) =       -7.32778057


--------------------------------------------------------------------------------------------------------




--------------------------------------- Iteration      2(  11)  ---------------------------------------


    POTLOK:  cpu time    7.1062: real time    7.1283
    SETDIJ:  cpu time    0.0130: real time    0.0130
    EDDIAG:  cpu time    0.5048: real time    0.5063
  RMM-DIIS:  cpu time    1.7987: real time    1.8038
    ORTHCH:  cpu time    0.0286: real time    0.0286
       DOS:  cpu time    0.0004: real time    0.0004
    CHARGE:  cpu time    0.8717: real time    0.8754
    MIXING:  cpu time    0.2176: real time    0.2208
    --------------------------------------------
      LOOP:  cpu time   10.5411: real time   10.5766

 eigenvalue-minimisations  :    14
 total energy-change (2. order) :-0.1822685E-03  (-0.2561562E-05)
 number of electron       7.9999999 magnetization 
 augmentation part       -1.1603525 magnetization 

 Broyden mixing:
  rms(total) = 0.25807E-03    rms(broyden)= 0.25807E-03
  rms(prec ) = 0.46064E-03
  weight for this iteration     100.00

 eigenvalues of (default mixing * dielectric matrix)
  average eigenvalue GAMMA=   2.2342
  7.1205  3.3644  2.6279  2.5079  1.7159  0.9386  0.9386  1.0519  1.0519  1.0241

 Free energy of the ion-electron system (eV)
  ---------------------------------------------------
  alpha Z        PSCENC =         0.02182671
  Ewald energy   TEWEN  =         1.18919075
  -Hartree energ DENC   =      -197.51701421
  -exchange      EXHF   =         0.00000000
  -V(xc)+E(xc)   XCENC  =       -24.25742930
  PAW double counting   =       214.54379255     -176.06727757
  entropy T*S    EENTRO =        -0.00000000
  eigenvalues    EBANDS =       -73.45170075
  atomic energy  EATOM  =       248.21064898
  Solvation  Ediel_sol  =         0.00000000
  ---------------------------------------------------
  free energy    TOTEN  =        -7.32796284 eV

  energy without entropy =       -7.32796284  energy(sigma->0) =       -7.32796284


--------------------------------------------------------------------------------------------------------




--------------------------------------- Iteration      2(  12)  ---------------------------------------


    POTLOK:  cpu time    7.1951: real time    7.2153
    SETDIJ:  cpu time    0.0125: real time    0.0125
    EDDIAG:  cpu time    0.5052: real time    0.5067
  RMM-DIIS:  cpu time    1.7166: real time    1.7248
    ORTHCH:  cpu time    0.0284: real time    0.0285
       DOS:  cpu time    0.0004: real time    0.0005
    CHARGE:  cpu time    0.8743: real time    0.8780
    MIXING:  cpu time    0.2282: real time    0.2286
    --------------------------------------------
      LOOP:  cpu time   10.5608: real time   10.5948

 eigenvalue-minimisations  :    13
 total energy-change (2. order) :-0.1249336E-03  (-0.2041318E-05)
 number of electron       7.9999999 magnetization 
 augmentation part       -1.1603175 magnetization 

 Broyden mixing:
  rms(total) = 0.26244E-03    rms(broyden)= 0.26244E-03
  rms(prec ) = 0.34176E-03
  weight for this iteration     100.00

 eigenvalues of (default mixing * dielectric matrix)
  average eigenvalue GAMMA=   2.2135
  7.6998  3.4271  2.7974  2.5280  1.8930  1.1238  1.1238  0.9075  0.9075  0.9705
  0.9705

 Free energy of the ion-electron system (eV)
  ---------------------------------------------------
  alpha Z        PSCENC =         0.02182671
  Ewald energy   TEWEN  =         1.18919075
  -Hartree energ DENC   =      -197.51613403
  -exchange      EXHF   =         0.00000000
  -V(xc)+E(xc)   XCENC  =       -24.25708398
  PAW double counting   =       214.54247677     -176.06579259
  entropy T*S    EENTRO =        -0.00000000
  eigenvalues    EBANDS =       -73.45322038
  atomic energy  EATOM  =       248.21064898
  Solvation  Ediel_sol  =         0.00000000
  ---------------------------------------------------
  free energy    TOTEN  =        -7.32808777 eV

  energy without entropy =       -7.32808777  energy(sigma->0) =       -7.32808777


--------------------------------------------------------------------------------------------------------




--------------------------------------- Iteration      2(  13)  ---------------------------------------


    POTLOK:  cpu time    7.2542: real time    7.2777
    SETDIJ:  cpu time    0.0125: real time    0.0126
    EDDIAG:  cpu time    0.5044: real time    0.5062
  RMM-DIIS:  cpu time    1.5561: real time    1.5620
    ORTHCH:  cpu time    0.0293: real time    0.0294
       DOS:  cpu time    0.0004: real time    0.0005
    CHARGE:  cpu time    0.8748: real time    0.8784
    MIXING:  cpu time    0.2389: real time    0.2399
    --------------------------------------------
      LOOP:  cpu time   10.4706: real time   10.5068

 eigenvalue-minimisations  :    12
 total energy-change (2. order) :-0.3241698E-04  (-0.3357995E-06)
 number of electron       7.9999999 magnetization 
 augmentation part       -1.1603396 magnetization 

 Broyden mixing:
  rms(total) = 0.13187E-03    rms(broyden)= 0.13187E-03
  rms(prec ) = 0.18254E-03
  weight for this iteration     100.00

 eigenvalues of (default mixing * dielectric matrix)
  average eigenvalue GAMMA=   2.3295
  8.4012  4.2470  2.8351  2.3480  2.3480  1.6156  1.3823  1.0018  1.0018  0.9737
  0.9737  0.8262

 Free energy of the ion-electron system (eV)
  ---------------------------------------------------
  alpha Z        PSCENC =         0.02182671
  Ewald energy   TEWEN  =         1.18919075
  -Hartree energ DENC   =      -197.51131466
  -exchange      EXHF   =         0.00000000
  -V(xc)+E(xc)   XCENC  =       -24.25725270
  PAW double counting   =       214.49485058     -176.01782140
  entropy T*S    EENTRO =        -0.00000000
  eigenvalues    EBANDS =       -73.45824846
  atomic energy  EATOM  =       248.21064898
  Solvation  Ediel_sol  =         0.00000000
  ---------------------------------------------------
  free energy    TOTEN  =        -7.32812019 eV

  energy without entropy =       -7.32812019  energy(sigma->0) =       -7.32812019


--------------------------------------------------------------------------------------------------------




--------------------------------------- Iteration      2(  14)  ---------------------------------------


    POTLOK:  cpu time    7.2933: real time    7.3268
    SETDIJ:  cpu time    0.0134: real time    0.0135
    EDDIAG:  cpu time    0.5043: real time    0.5063
  RMM-DIIS:  cpu time    1.5593: real time    1.5699
    ORTHCH:  cpu time    0.0283: real time    0.0283
       DOS:  cpu time    0.0005: real time    0.0005
    CHARGE:  cpu time    0.8729: real time    0.8774
    MIXING:  cpu time    0.2509: real time    0.2516
    --------------------------------------------
      LOOP:  cpu time   10.5228: real time   10.5743

 eigenvalue-minimisations  :    12
 total energy-change (2. order) :-0.2136956E-04  (-0.2422379E-06)
 number of electron       7.9999999 magnetization 
 augmentation part       -1.1603511 magnetization 

 Broyden mixing:
  rms(total) = 0.70832E-04    rms(broyden)= 0.70831E-04
  rms(prec ) = 0.10009E-03
  weight for this iteration     100.00

 eigenvalues of (default mixing * dielectric matrix)
  average eigenvalue GAMMA=   2.3292
  8.6867  4.7379  3.0016  2.5079  2.5079  1.9608  1.1371  1.1371  1.0008  0.9519
  0.9519  0.8491  0.8491

 Free energy of the ion-electron system (eV)
  ---------------------------------------------------
  alpha Z        PSCENC =         0.02182671
  Ewald energy   TEWEN  =         1.18919075
  -Hartree energ DENC   =      -197.50677035
  -exchange      EXHF   =         0.00000000
  -V(xc)+E(xc)   XCENC  =       -24.25753384
  PAW double counting   =       214.47414026     -175.99694761
  entropy T*S    EENTRO =        -0.00000000
  eigenvalues    EBANDS =       -73.46269646
  atomic energy  EATOM  =       248.21064898
  Solvation  Ediel_sol  =         0.00000000
  ---------------------------------------------------
  free energy    TOTEN  =        -7.32814156 eV

  energy without entropy =       -7.32814156  energy(sigma->0) =       -7.32814156


--------------------------------------------------------------------------------------------------------




--------------------------------------- Iteration      2(  15)  ---------------------------------------


    POTLOK:  cpu time    7.3051: real time    7.3310
    SETDIJ:  cpu time    0.0125: real time    0.0126
    EDDIAG:  cpu time    0.5046: real time    0.5086
  RMM-DIIS:  cpu time    1.4292: real time    1.4337
    ORTHCH:  cpu time    0.0294: real time    0.0294
       DOS:  cpu time    0.0004: real time    0.0004
    --------------------------------------------
      LOOP:  cpu time    9.2812: real time    9.3157

 eigenvalue-minimisations  :    10
 total energy-change (2. order) :-0.6995207E-05  (-0.8390625E-07)
 number of electron       7.9999999 magnetization 
 augmentation part       -1.1603511 magnetization 

 Free energy of the ion-electron system (eV)
  ---------------------------------------------------
  alpha Z        PSCENC =         0.02182671
  Ewald energy   TEWEN  =         1.18919075
  -Hartree energ DENC   =      -197.50654773
  -exchange      EXHF   =         0.00000000
  -V(xc)+E(xc)   XCENC  =       -24.25766172
  PAW double counting   =       214.47502115     -175.99792226
  entropy T*S    EENTRO =        -0.00000000
  eigenvalues    EBANDS =       -73.46270444
  atomic energy  EATOM  =       248.21064898
  Solvation  Ediel_sol  =         0.00000000
  ---------------------------------------------------
  free energy    TOTEN  =        -7.32814855 eV

  energy without entropy =       -7.32814855  energy(sigma->0) =       -7.32814855


--------------------------------------------------------------------------------------------------------




 average (electrostatic) potential at core
  the test charge radii are     1.1897  0.5883
  (the norm of the test charge is              1.0000)
       1 -99.2590       2 -39.0347       3 -39.0347



 E-fermi :  -5.2445     XC(G=0):  -0.3813     alpha+bet : -0.1228


 k-point     1 :       0.0000    0.0000    0.0000
  band No.  band energies     occupation 
      1     -15.2205      2.00000
      2      -8.2694      2.00000
      3      -7.7565      2.00000
      4      -5.4850      2.00000
      5      -3.4815      0.00000
      6      -2.7529      0.00000
      7      -0.1109      0.00000
      8       0.3776      0.00000


--------------------------------------------------------------------------------------------------------


 soft charge-density along one line, spin component           1
         0         1         2         3         4         5         6         7         8         9
 total charge-density along one line

 pseudopotential strength for first ion, spin component:           1
 55.958 -31.168   0.032  -0.000   0.032   0.098  -0.000   0.098
-31.168  39.070  -0.013  -0.000  -0.013  -0.051   0.000  -0.051
  0.032  -0.013  13.630  -0.000  -0.003  29.246  -0.000  -0.007
 -0.000  -0.000  -0.000  13.584  -0.000  -0.000  29.126  -0.000
  0.032  -0.013  -0.003  -0.000  13.630  -0.007  -0.000  29.246
  0.098  -0.051  29.246  -0.000  -0.007  68.070  -0.000  -0.018
 -0.000   0.000  -0.000  29.126  -0.000  -0.000  67.693  -0.000
  0.098  -0.051  -0.007  -0.000  29.246  -0.018  -0.000  68.070
 -0.007   0.002   0.007  -0.000   0.007   0.019  -0.000   0.019
 -0.000   0.000  -0.000   0.008  -0.000  -0.000   0.021  -0.000
 -0.054   0.024  -0.001  -0.000  -0.001  -0.005  -0.000  -0.005
 -0.000   0.000  -0.000   0.008  -0.000  -0.000   0.021  -0.000
 -0.000   0.000  -0.002   0.000   0.002  -0.010   0.000   0.010
  0.012  -0.003  -0.021   0.000  -0.021  -0.062   0.000  -0.062
  0.000  -0.000   0.000  -0.023   0.000   0.000  -0.067   0.000
  0.110  -0.021   0.006   0.000   0.006   0.021   0.000   0.021
  0.000  -0.000   0.000  -0.023   0.000   0.000  -0.067   0.000
  0.000  -0.000   0.013  -0.000  -0.013   0.042  -0.000  -0.042
 total augmentation occupancy for first ion, spin component:           1
  1.974  -0.003  -0.161  -0.000  -0.161   0.001  -0.000   0.001  -0.002  -0.000  -0.021  -0.000   0.000   0.001   0.000   0.006
 -0.003   0.000   0.015  -0.000   0.015  -0.000  -0.000  -0.000   0.001  -0.000  -0.002  -0.000   0.000   0.000   0.000  -0.000
 -0.161   0.015   1.006   0.000  -0.003  -0.009   0.000  -0.001   0.037  -0.000  -0.062   0.000  -0.118   0.001  -0.000  -0.004
 -0.000  -0.000   0.000   1.939   0.000   0.000   0.000   0.000  -0.000   0.004   0.000   0.004  -0.000  -0.000  -0.001  -0.000
 -0.161   0.015  -0.003   0.000   1.006  -0.001   0.000  -0.009   0.037   0.000  -0.062  -0.000   0.118   0.001  -0.000  -0.004
  0.001  -0.000  -0.009   0.000  -0.001   0.000  -0.000   0.000  -0.000   0.000   0.001  -0.000   0.001  -0.000   0.000   0.000
 -0.000  -0.000   0.000   0.000   0.000  -0.000   0.000  -0.000   0.000   0.000   0.000   0.000  -0.000  -0.000  -0.000  -0.000
  0.001  -0.000  -0.001   0.000  -0.009   0.000  -0.000   0.000  -0.000  -0.000   0.001   0.000  -0.001  -0.000   0.000   0.000
 -0.002   0.001   0.037  -0.000   0.037  -0.000   0.000  -0.000   0.003  -0.000  -0.005  -0.000  -0.000   0.000  -0.000  -0.000
 -0.000  -0.000  -0.000   0.004   0.000   0.000   0.000  -0.000  -0.000   0.000   0.000   0.000   0.000  -0.000  -0.000   0.000
 -0.021  -0.002  -0.062   0.000  -0.062   0.001   0.000   0.001  -0.005   0.000   0.008   0.000   0.000  -0.000   0.000   0.000
 -0.000  -0.000   0.000   0.004  -0.000  -0.000   0.000   0.000  -0.000   0.000   0.000   0.000  -0.000  -0.000  -0.000   0.000
  0.000   0.000  -0.118  -0.000   0.118   0.001  -0.000  -0.001  -0.000   0.000   0.000  -0.000   0.028  -0.000  -0.000   0.000
  0.001   0.000   0.001  -0.000   0.001  -0.000  -0.000  -0.000   0.000  -0.000  -0.000  -0.000  -0.000   0.000  -0.000  -0.000
  0.000   0.000  -0.000  -0.001  -0.000   0.000  -0.000   0.000  -0.000  -0.000   0.000  -0.000  -0.000  -0.000   0.000   0.000
  0.006  -0.000  -0.004  -0.000  -0.004   0.000  -0.000   0.000  -0.000   0.000   0.000   0.000   0.000  -0.000   0.000   0.000
  0.000   0.000  -0.000  -0.001  -0.000   0.000  -0.000   0.000  -0.000  -0.000   0.000  -0.000   0.000  -0.000   0.000   0.000
  0.000   0.000  -0.005  -0.000   0.005   0.000  -0.000  -0.000  -0.000   0.000   0.000  -0.000   0.001  -0.000  -0.000   0.000


------------------------ aborting loop because EDIFF is reached ----------------------------------------


    CHARGE:  cpu time    0.8722: real time    0.8748
    FORLOC:  cpu time    0.3132: real time    0.3138
    FORNL :  cpu time    0.7517: real time    0.7542
    STRESS:  cpu time    2.8407: real time    2.8568
    FORCOR:  cpu time    7.3130: real time    7.3392
    FORHAR:  cpu time    2.1026: real time    2.1130
    MIXING:  cpu time    0.2605: real time    0.2621
    OFIELD:  cpu time    0.0000: real time    0.0000

  FORCE on cell =-STRESS in cart. coord.  units (eV):
  Direction    XX          YY          ZZ          XY          YZ          ZX
  --------------------------------------------------------------------------------------
  Alpha Z     0.02183     0.02183     0.02183
  Ewald      15.24941    15.24943   -29.30967     9.79246    -0.00022    -0.00022
  Hartree    71.24944    71.24938    55.00930     3.42478    -0.00009    -0.00009
  E(xc)     -27.48034   -27.48035   -28.38046     0.04591    -0.00000    -0.00000
  Local    -198.37273  -198.37273  -155.11797   -13.75002     0.00029     0.00030
  n-local   100.49910   100.49921   110.45658     0.64412     0.00000     0.00000
  augment   -24.82596   -24.82597   -28.75018     0.02086    -0.00001    -0.00001
  Kinetic    57.68063    57.68065    75.94386    -2.70146     0.00007     0.00007
  Fock        0.00000     0.00000     0.00000     0.00000     0.00000     0.00000
  -------------------------------------------------------------------------------------
  Total      -5.97863    -5.97854    -0.12672    -2.52335     0.00005     0.00005
  in kB      -2.83817    -2.83813    -0.06016    -1.19788     0.00002     0.00002
  external pressure =       -1.91 kB  Pullay stress =        0.00 kB


 VOLUME and BASIS-vectors are now :
 -----------------------------------------------------------------------------
  energy-cutoff  :      450.00
  volume of cell :     3375.00
      direct lattice vectors                 reciprocal lattice vectors
    15.000000000  0.000000000  0.000000000     0.066666667  0.000000000  0.000000000
     0.000000000 15.000000000  0.000000000     0.000000000  0.066666667  0.000000000
     0.000000000  0.000000000 15.000000000     0.000000000  0.000000000  0.066666667

  length of vectors
    15.000000000 15.000000000 15.000000000     0.066666667  0.066666667  0.066666667


 FORCES acting on ions
    electron-ion (+dipol)            ewald-force                    non-local-force                 convergence-correction
 -----------------------------------------------------------------------------------------------
   0.175E+02 0.175E+02 -.155E-03   -.220E+02 -.220E+02 0.183E-03   0.799E+01 0.799E+01 0.540E-03   0.327E-03 0.214E-03 0.156E-04
   -.221E+02 -.193E+01 0.106E-03   0.206E+02 0.142E+01 -.914E-04   -.120E+01 -.266E+00 0.698E-05   0.136E-03 0.120E-04 0.360E-05
   -.193E+01 -.221E+02 0.105E-03   0.142E+01 0.206E+02 -.914E-04   -.266E+00 -.120E+01 0.687E-05   0.241E-04 0.150E-03 0.331E-05
 -----------------------------------------------------------------------------------------------
   -.652E+01 -.652E+01 0.556E-04   0.000E+00 0.000E+00 0.550E-17   0.652E+01 0.652E+01 0.554E-03   0.487E-03 0.376E-03 0.226E-04


 POSITION                                       TOTAL-FORCE (eV/Angst)
 -----------------------------------------------------------------------------------
      7.02472      7.02472      7.50001         3.467583      3.467839      0.000373
      9.10587      7.35941      7.50000        -2.686865     -0.780847     -0.000186
      7.35941      9.10586      7.50000        -0.780718     -2.686992     -0.000187
 -----------------------------------------------------------------------------------
    total drift:                                0.000230      0.000631      0.000632


--------------------------------------------------------------------------------------------------------



  FREE ENERGIE OF THE ION-ELECTRON SYSTEM (eV)
  ---------------------------------------------------
  free  energy   TOTEN  =        -7.32814855 eV

  energy  without entropy=       -7.32814855  energy(sigma->0) =       -7.32814855

 d Force = 0.5694404E+01[-0.448E+01, 0.159E+02]  d Energy = 0.1027074E+01 0.467E+01
 d Force = 0.5100643E+02[ 0.312E+02, 0.709E+02]  d Ewald  = 0.4739513E+02 0.361E+01


--------------------------------------------------------------------------------------------------------


    POTLOK:  cpu time    7.2878: real time    7.3166


--------------------------------------------------------------------------------------------------------


 stress matrix after NEB project (eV)
     -5.97863     -2.52335      0.00005
     -2.52335     -5.97854      0.00005
      0.00005      0.00005     -0.12672
  FORCES: max atom, RMS     4.904084    3.638152
  FORCE total and by dimension    6.301464    3.467839
  Stress total and by dimension    9.178107    5.978632
 Steepest descent step on ions:
 trial-energy change:   -1.027074  1 .order   -5.694404  -15.873282    4.484474
  (g-gl).g = 0.159E+02      g.g   = 0.159E+02  gl.gl    = 0.000E+00
 g(Force)  = 0.159E+02   g(Stress)= 0.000E+00 ortho     = 0.000E+00
 gamma     =   0.00000
 trial     =   1.00000
 opt step  =   0.44066  (harmonic =   0.77972) maximal distance =0.16322186
 next E    =    -9.399071   (d E  =  -3.09800)


--------------------------------------------------------------------------------------------------------


    WAVPRE:  cpu time    1.2677: real time    1.8827
    FEWALD:  cpu time    0.0003: real time    0.0003
    ORTHCH:  cpu time    0.2499: real time    0.2506
     LOOP+:  cpu time  182.1146: real time  184.3174


--------------------------------------- Iteration      3(   1)  ---------------------------------------


    POTLOK:  cpu time    7.2146: real time    7.2640
    SETDIJ:  cpu time    0.0125: real time    0.0125
     EDDAV:  cpu time    2.2074: real time    2.2192
       DOS:  cpu time    0.0006: real time    0.0006
    CHARGE:  cpu time    0.8698: real time    0.8759
    MIXING:  cpu time    0.1685: real time    0.1690
    --------------------------------------------
      LOOP:  cpu time   10.4734: real time   10.5413

 eigenvalue-minimisations  :    16
 total energy-change (2. order) :-0.1488774E+01  (-0.8674268E+01)
 number of electron       7.9999998 magnetization 
 augmentation part       -1.1542641 magnetization 

 Broyden mixing:
  rms(total) = 0.13847E+00    rms(broyden)= 0.13818E+00
  rms(prec ) = 0.15052E+00
  weight for this iteration     100.00

 Free energy of the ion-electron system (eV)
  ---------------------------------------------------
  alpha Z        PSCENC =         0.02182671
  Ewald energy   TEWEN  =        22.84277746
  -Hartree energ DENC   =      -214.14172649
  -exchange      EXHF   =         0.00000000
  -V(xc)+E(xc)   XCENC  =       -23.41032317
  PAW double counting   =       214.49130784     -176.01431869
  entropy T*S    EENTRO =        -0.00000000
  eigenvalues    EBANDS =       -80.81710785
  atomic energy  EATOM  =       248.21064898
  Solvation  Ediel_sol  =         0.00000000
  ---------------------------------------------------
  free energy    TOTEN  =        -8.81691520 eV

  energy without entropy =       -8.81691520  energy(sigma->0) =       -8.81691520


--------------------------------------------------------------------------------------------------------




--------------------------------------- Iteration      3(   2)  ---------------------------------------


    POTLOK:  cpu time    7.2367: real time    7.2667
    SETDIJ:  cpu time    0.0117: real time    0.0117
    EDDIAG:  cpu time    0.5007: real time    0.5029
  RMM-DIIS:  cpu time    1.9921: real time    2.0074
    ORTHCH:  cpu time    0.0283: real time    0.0284
       DOS:  cpu time    0.0004: real time    0.0005
    CHARGE:  cpu time    0.8728: real time    0.8766
    MIXING:  cpu time    0.1701: real time    0.1707
    --------------------------------------------
      LOOP:  cpu time   10.8128: real time   10.8648

 eigenvalue-minimisations  :    16
 total energy-change (2. order) :-0.2535727E+00  (-0.2661768E+00)
 number of electron       7.9999998 magnetization 
 augmentation part       -1.1646853 magnetization 

 Broyden mixing:
  rms(total) = 0.11050E+00    rms(broyden)= 0.11048E+00
  rms(prec ) = 0.12524E+00
  weight for this iteration     100.00

 eigenvalues of (default mixing * dielectric matrix)
  average eigenvalue GAMMA=   0.8209
  0.8209

 Free energy of the ion-electron system (eV)
  ---------------------------------------------------
  alpha Z        PSCENC =         0.02182671
  Ewald energy   TEWEN  =        22.84277746
  -Hartree energ DENC   =      -214.83966950
  -exchange      EXHF   =         0.00000000
  -V(xc)+E(xc)   XCENC  =       -23.39106221
  PAW double counting   =       230.35074938     -191.92469225
  entropy T*S    EENTRO =        -0.00000000
  eigenvalues    EBANDS =       -80.34106648
  atomic energy  EATOM  =       248.21064898
  Solvation  Ediel_sol  =         0.00000000
  ---------------------------------------------------
  free energy    TOTEN  =        -9.07048790 eV

  energy without entropy =       -9.07048790  energy(sigma->0) =       -9.07048790


--------------------------------------------------------------------------------------------------------




--------------------------------------- Iteration      3(   3)  ---------------------------------------


    POTLOK:  cpu time    7.2737: real time    7.3025
    SETDIJ:  cpu time    0.0121: real time    0.0122
    EDDIAG:  cpu time    0.5008: real time    0.5031
  RMM-DIIS:  cpu time    2.0167: real time    2.0272
    ORTHCH:  cpu time    0.0283: real time    0.0283
       DOS:  cpu time    0.0004: real time    0.0005
    CHARGE:  cpu time    0.8741: real time    0.8781
    MIXING:  cpu time    0.1709: real time    0.1718
    --------------------------------------------
      LOOP:  cpu time   10.8770: real time   10.9237

 eigenvalue-minimisations  :    16
 total energy-change (2. order) : 0.1521086E-02  (-0.1022603E-01)
 number of electron       7.9999998 magnetization 
 augmentation part       -1.1650333 magnetization 

 Broyden mixing:
  rms(total) = 0.82039E-01    rms(broyden)= 0.82036E-01
  rms(prec ) = 0.92923E-01
  weight for this iteration     100.00

 eigenvalues of (default mixing * dielectric matrix)
  average eigenvalue GAMMA=   1.7656
  1.1731  2.3581

 Free energy of the ion-electron system (eV)
  ---------------------------------------------------
  alpha Z        PSCENC =         0.02182671
  Ewald energy   TEWEN  =        22.84277746
  -Hartree energ DENC   =      -215.59407000
  -exchange      EXHF   =         0.00000000
  -V(xc)+E(xc)   XCENC  =       -23.35196468
  PAW double counting   =       237.96472661     -199.57707936
  entropy T*S    EENTRO =        -0.00000000
  eigenvalues    EBANDS =       -79.58583255
  atomic energy  EATOM  =       248.21064898
  Solvation  Ediel_sol  =         0.00000000
  ---------------------------------------------------
  free energy    TOTEN  =        -9.06896682 eV

  energy without entropy =       -9.06896682  energy(sigma->0) =       -9.06896682


--------------------------------------------------------------------------------------------------------




--------------------------------------- Iteration      3(   4)  ---------------------------------------


    POTLOK:  cpu time    7.3455: real time    7.3734
    SETDIJ:  cpu time    0.0122: real time    0.0122
    EDDIAG:  cpu time    0.5035: real time    0.5055
  RMM-DIIS:  cpu time    2.2693: real time    2.2837
    ORTHCH:  cpu time    0.0286: real time    0.0286
       DOS:  cpu time    0.0004: real time    0.0005
    CHARGE:  cpu time    0.8728: real time    0.8765
    MIXING:  cpu time    0.1745: real time    0.1751
    --------------------------------------------
      LOOP:  cpu time   11.2069: real time   11.2556

 eigenvalue-minimisations  :    18
 total energy-change (2. order) : 0.6594612E-02  (-0.7256671E-02)
 number of electron       7.9999998 magnetization 
 augmentation part       -1.1605589 magnetization 

 Broyden mixing:
  rms(total) = 0.12530E-01    rms(broyden)= 0.12529E-01
  rms(prec ) = 0.18273E-01
  weight for this iteration     100.00

 eigenvalues of (default mixing * dielectric matrix)
  average eigenvalue GAMMA=   1.4012
  2.2424  1.1593  0.8020

 Free energy of the ion-electron system (eV)
  ---------------------------------------------------
  alpha Z        PSCENC =         0.02182671
  Ewald energy   TEWEN  =        22.84277746
  -Hartree energ DENC   =      -217.37763901
  -exchange      EXHF   =         0.00000000
  -V(xc)+E(xc)   XCENC  =       -23.22496373
  PAW double counting   =       252.98036102     -214.66439532
  entropy T*S    EENTRO =        -0.00000000
  eigenvalues    EBANDS =       -77.85098832
  atomic energy  EATOM  =       248.21064898
  Solvation  Ediel_sol  =         0.00000000
  ---------------------------------------------------
  free energy    TOTEN  =        -9.06237220 eV

  energy without entropy =       -9.06237220  energy(sigma->0) =       -9.06237220


--------------------------------------------------------------------------------------------------------




--------------------------------------- Iteration      3(   5)  ---------------------------------------


    POTLOK:  cpu time    7.3715: real time    7.3977
    SETDIJ:  cpu time    0.0118: real time    0.0118
    EDDIAG:  cpu time    0.5036: real time    0.5052
  RMM-DIIS:  cpu time    2.3017: real time    2.3081
    ORTHCH:  cpu time    0.0286: real time    0.0287
       DOS:  cpu time    0.0004: real time    0.0004
    CHARGE:  cpu time    0.8718: real time    0.8774
    MIXING:  cpu time    0.1780: real time    0.1789
    --------------------------------------------
      LOOP:  cpu time   11.2673: real time   11.3082

 eigenvalue-minimisations  :    18
 total energy-change (2. order) : 0.2686217E-03  (-0.2749926E-03)
 number of electron       7.9999998 magnetization 
 augmentation part       -1.1602010 magnetization 

 Broyden mixing:
  rms(total) = 0.89105E-02    rms(broyden)= 0.89103E-02
  rms(prec ) = 0.13274E-01
  weight for this iteration     100.00

 eigenvalues of (default mixing * dielectric matrix)
  average eigenvalue GAMMA=   1.5278
  2.0056  2.0056  1.0500  1.0500

 Free energy of the ion-electron system (eV)
  ---------------------------------------------------
  alpha Z        PSCENC =         0.02182671
  Ewald energy   TEWEN  =        22.84277746
  -Hartree energ DENC   =      -217.32738585
  -exchange      EXHF   =         0.00000000
  -V(xc)+E(xc)   XCENC  =       -23.23054085
  PAW double counting   =       252.44753186     -214.12911270
  entropy T*S    EENTRO =        -0.00000000
  eigenvalues    EBANDS =       -77.89784920
  atomic energy  EATOM  =       248.21064898
  Solvation  Ediel_sol  =         0.00000000
  ---------------------------------------------------
  free energy    TOTEN  =        -9.06210358 eV

  energy without entropy =       -9.06210358  energy(sigma->0) =       -9.06210358


--------------------------------------------------------------------------------------------------------




--------------------------------------- Iteration      3(   6)  ---------------------------------------


    POTLOK:  cpu time    7.4137: real time    7.4322
    SETDIJ:  cpu time    0.0123: real time    0.0123
    EDDIAG:  cpu time    0.4999: real time    0.5010
  RMM-DIIS:  cpu time    2.1914: real time    2.1994
    ORTHCH:  cpu time    0.0287: real time    0.0288
       DOS:  cpu time    0.0004: real time    0.0005
    CHARGE:  cpu time    0.8747: real time    0.8772
    MIXING:  cpu time    0.1815: real time    0.1827
    --------------------------------------------
      LOOP:  cpu time   11.2026: real time   11.2341

 eigenvalue-minimisations  :    17
 total energy-change (2. order) :-0.4412200E-03  (-0.2555761E-03)
 number of electron       7.9999998 magnetization 
 augmentation part       -1.1598050 magnetization 

 Broyden mixing:
  rms(total) = 0.46148E-02    rms(broyden)= 0.46142E-02
  rms(prec ) = 0.63087E-02
  weight for this iteration     100.00

 eigenvalues of (default mixing * dielectric matrix)
  average eigenvalue GAMMA=   1.5053
  2.6025  0.9932  1.2408  1.3451  1.3451

 Free energy of the ion-electron system (eV)
  ---------------------------------------------------
  alpha Z        PSCENC =         0.02182671
  Ewald energy   TEWEN  =        22.84277746
  -Hartree energ DENC   =      -217.23109495
  -exchange      EXHF   =         0.00000000
  -V(xc)+E(xc)   XCENC  =       -23.24078923
  PAW double counting   =       250.77130770     -212.44789561
  entropy T*S    EENTRO =        -0.00000000
  eigenvalues    EBANDS =       -77.98932587
  atomic energy  EATOM  =       248.21064898
  Solvation  Ediel_sol  =         0.00000000
  ---------------------------------------------------
  free energy    TOTEN  =        -9.06254480 eV

  energy without entropy =       -9.06254480  energy(sigma->0) =       -9.06254480


--------------------------------------------------------------------------------------------------------




--------------------------------------- Iteration      3(   7)  ---------------------------------------


    POTLOK:  cpu time    7.4278: real time    7.4439
    SETDIJ:  cpu time    0.0122: real time    0.0123
    EDDIAG:  cpu time    0.5073: real time    0.5088
  RMM-DIIS:  cpu time    2.2455: real time    2.2525
    ORTHCH:  cpu time    0.0282: real time    0.0282
       DOS:  cpu time    0.0004: real time    0.0005
    CHARGE:  cpu time    0.8745: real time    0.8769
    MIXING:  cpu time    0.1892: real time    0.1895
    --------------------------------------------
      LOOP:  cpu time   11.2851: real time   11.3126

 eigenvalue-minimisations  :    17
 total energy-change (2. order) :-0.4169408E-03  (-0.4824996E-04)
 number of electron       7.9999998 magnetization 
 augmentation part       -1.1599090 magnetization 

 Broyden mixing:
  rms(total) = 0.17259E-02    rms(broyden)= 0.17259E-02
  rms(prec ) = 0.34849E-02
  weight for this iteration     100.00

 eigenvalues of (default mixing * dielectric matrix)
  average eigenvalue GAMMA=   1.5927
  2.6891  1.8540  1.8540  1.0771  1.0771  1.0049

 Free energy of the ion-electron system (eV)
  ---------------------------------------------------
  alpha Z        PSCENC =         0.02182671
  Ewald energy   TEWEN  =        22.84277746
  -Hartree energ DENC   =      -217.30500331
  -exchange      EXHF   =         0.00000000
  -V(xc)+E(xc)   XCENC  =       -23.23431583
  PAW double counting   =       251.08033785     -212.75817463
  entropy T*S    EENTRO =        -0.00000000
  eigenvalues    EBANDS =       -77.92105898
  atomic energy  EATOM  =       248.21064898
  Solvation  Ediel_sol  =         0.00000000
  ---------------------------------------------------
  free energy    TOTEN  =        -9.06296174 eV

  energy without entropy =       -9.06296174  energy(sigma->0) =       -9.06296174


--------------------------------------------------------------------------------------------------------




--------------------------------------- Iteration      3(   8)  ---------------------------------------


    POTLOK:  cpu time    7.4408: real time    7.4619
    SETDIJ:  cpu time    0.0123: real time    0.0123
    EDDIAG:  cpu time    0.5054: real time    0.5069
  RMM-DIIS:  cpu time    2.0152: real time    2.0224
    ORTHCH:  cpu time    0.0283: real time    0.0284
       DOS:  cpu time    0.0004: real time    0.0005
    CHARGE:  cpu time    0.8725: real time    0.8749
    MIXING:  cpu time    0.1944: real time    0.1948
    --------------------------------------------
      LOOP:  cpu time   11.0694: real time   11.1021

 eigenvalue-minimisations  :    16
 total energy-change (2. order) :-0.6923067E-03  (-0.1653290E-04)
 number of electron       7.9999998 magnetization 
 augmentation part       -1.1600828 magnetization 

 Broyden mixing:
  rms(total) = 0.10377E-02    rms(broyden)= 0.10377E-02
  rms(prec ) = 0.22907E-02
  weight for this iteration     100.00

 eigenvalues of (default mixing * dielectric matrix)
  average eigenvalue GAMMA=   1.6544
  3.1868  2.5393  1.3073  1.3073  1.2704  0.9848  0.9848

 Free energy of the ion-electron system (eV)
  ---------------------------------------------------
  alpha Z        PSCENC =         0.02182671
  Ewald energy   TEWEN  =        22.84277746
  -Hartree energ DENC   =      -217.32712895
  -exchange      EXHF   =         0.00000000
  -V(xc)+E(xc)   XCENC  =       -23.23278104
  PAW double counting   =       250.78187171     -212.45824333
  entropy T*S    EENTRO =        -0.00000000
  eigenvalues    EBANDS =       -77.90262559
  atomic energy  EATOM  =       248.21064898
  Solvation  Ediel_sol  =         0.00000000
  ---------------------------------------------------
  free energy    TOTEN  =        -9.06365405 eV

  energy without entropy =       -9.06365405  energy(sigma->0) =       -9.06365405


--------------------------------------------------------------------------------------------------------




--------------------------------------- Iteration      3(   9)  ---------------------------------------


    POTLOK:  cpu time    7.4531: real time    7.4733
    SETDIJ:  cpu time    0.0121: real time    0.0121
    EDDIAG:  cpu time    0.5044: real time    0.5076
  RMM-DIIS:  cpu time    2.1304: real time    2.1371
    ORTHCH:  cpu time    0.0302: real time    0.0302
       DOS:  cpu time    0.0004: real time    0.0005
    CHARGE:  cpu time    0.8676: real time    0.8755
    MIXING:  cpu time    0.2036: real time    0.2041
    --------------------------------------------
      LOOP:  cpu time   11.2019: real time   11.2404

 eigenvalue-minimisations  :    16
 total energy-change (2. order) :-0.4426598E-03  (-0.9589393E-05)
 number of electron       7.9999998 magnetization 
 augmentation part       -1.1601082 magnetization 

 Broyden mixing:
  rms(total) = 0.78121E-03    rms(broyden)= 0.78120E-03
  rms(prec ) = 0.14877E-02
  weight for this iteration     100.00

 eigenvalues of (default mixing * dielectric matrix)
  average eigenvalue GAMMA=   1.8858
  4.1488  2.8077  2.4076  1.2641  1.2641  1.2141  1.0464  0.9333

 Free energy of the ion-electron system (eV)
  ---------------------------------------------------
  alpha Z        PSCENC =         0.02182671
  Ewald energy   TEWEN  =        22.84277746
  -Hartree energ DENC   =      -217.32872309
  -exchange      EXHF   =         0.00000000
  -V(xc)+E(xc)   XCENC  =       -23.23399469
  PAW double counting   =       250.55538168     -212.23101893
  entropy T*S    EENTRO =        -0.00000000
  eigenvalues    EBANDS =       -77.90099484
  atomic energy  EATOM  =       248.21064898
  Solvation  Ediel_sol  =         0.00000000
  ---------------------------------------------------
  free energy    TOTEN  =        -9.06409671 eV

  energy without entropy =       -9.06409671  energy(sigma->0) =       -9.06409671


--------------------------------------------------------------------------------------------------------




--------------------------------------- Iteration      3(  10)  ---------------------------------------


    POTLOK:  cpu time    7.4428: real time    7.4635
    SETDIJ:  cpu time    0.0144: real time    0.0144
    EDDIAG:  cpu time    0.5018: real time    0.5031
  RMM-DIIS:  cpu time    1.9144: real time    1.9219
    ORTHCH:  cpu time    0.0284: real time    0.0285
       DOS:  cpu time    0.0005: real time    0.0005
    CHARGE:  cpu time    0.8726: real time    0.8746
    MIXING:  cpu time    0.2109: real time    0.2114
    --------------------------------------------
      LOOP:  cpu time   10.9859: real time   11.0180

 eigenvalue-minimisations  :    15
 total energy-change (2. order) :-0.5265881E-03  (-0.1429195E-04)
 number of electron       7.9999998 magnetization 
 augmentation part       -1.1600056 magnetization 

 Broyden mixing:
  rms(total) = 0.41643E-03    rms(broyden)= 0.41643E-03
  rms(prec ) = 0.67230E-03
  weight for this iteration     100.00

 eigenvalues of (default mixing * dielectric matrix)
  average eigenvalue GAMMA=   1.9416
  5.2714  2.9350  2.2537  1.3927  1.3927  1.1663  0.9423  1.0601  1.0601

 Free energy of the ion-electron system (eV)
  ---------------------------------------------------
  alpha Z        PSCENC =         0.02182671
  Ewald energy   TEWEN  =        22.84277746
  -Hartree energ DENC   =      -217.37078637
  -exchange      EXHF   =         0.00000000
  -V(xc)+E(xc)   XCENC  =       -23.23293808
  PAW double counting   =       250.84827409     -212.52534996
  entropy T*S    EENTRO =        -0.00000000
  eigenvalues    EBANDS =       -77.85907614
  atomic energy  EATOM  =       248.21064898
  Solvation  Ediel_sol  =         0.00000000
  ---------------------------------------------------
  free energy    TOTEN  =        -9.06462330 eV

  energy without entropy =       -9.06462330  energy(sigma->0) =       -9.06462330


--------------------------------------------------------------------------------------------------------




--------------------------------------- Iteration      3(  11)  ---------------------------------------


    POTLOK:  cpu time    7.4495: real time    7.4695
    SETDIJ:  cpu time    0.0126: real time    0.0127
    EDDIAG:  cpu time    0.5015: real time    0.5045
  RMM-DIIS:  cpu time    1.7318: real time    1.7386
    ORTHCH:  cpu time    0.0288: real time    0.0289
       DOS:  cpu time    0.0004: real time    0.0005
    CHARGE:  cpu time    0.8666: real time    0.8801
    MIXING:  cpu time    0.2263: real time    0.2356
    --------------------------------------------
      LOOP:  cpu time   10.8175: real time   10.8704

 eigenvalue-minimisations  :    13
 total energy-change (2. order) :-0.8419439E-04  (-0.1725907E-05)
 number of electron       7.9999998 magnetization 
 augmentation part       -1.1600558 magnetization 

 Broyden mixing:
  rms(total) = 0.34366E-03    rms(broyden)= 0.34365E-03
  rms(prec ) = 0.53271E-03
  weight for this iteration     100.00

 eigenvalues of (default mixing * dielectric matrix)
  average eigenvalue GAMMA=   2.0156
  5.8588  2.9701  2.4496  1.8787  1.3141  1.3141  0.9492  1.0176  1.2020  1.2020

 Free energy of the ion-electron system (eV)
  ---------------------------------------------------
  alpha Z        PSCENC =         0.02182671
  Ewald energy   TEWEN  =        22.84277746
  -Hartree energ DENC   =      -217.37100980
  -exchange      EXHF   =         0.00000000
  -V(xc)+E(xc)   XCENC  =       -23.23252476
  PAW double counting   =       250.78421439     -212.46076125
  entropy T*S    EENTRO =        -0.00000000
  eigenvalues    EBANDS =       -77.85987924
  atomic energy  EATOM  =       248.21064898
  Solvation  Ediel_sol  =         0.00000000
  ---------------------------------------------------
  free energy    TOTEN  =        -9.06470749 eV

  energy without entropy =       -9.06470749  energy(sigma->0) =       -9.06470749


--------------------------------------------------------------------------------------------------------




--------------------------------------- Iteration      3(  12)  ---------------------------------------


    POTLOK:  cpu time    7.4254: real time    7.4461
    SETDIJ:  cpu time    0.0116: real time    0.0116
    EDDIAG:  cpu time    0.5034: real time    0.5062
  RMM-DIIS:  cpu time    1.7139: real time    1.7184
    ORTHCH:  cpu time    0.0295: real time    0.0295
       DOS:  cpu time    0.0004: real time    0.0005
    CHARGE:  cpu time    0.8754: real time    0.8791
    MIXING:  cpu time    0.2291: real time    0.2294
    --------------------------------------------
      LOOP:  cpu time   10.7887: real time   10.8208

 eigenvalue-minimisations  :    13
 total energy-change (2. order) :-0.1269967E-03  (-0.2273034E-05)
 number of electron       7.9999998 magnetization 
 augmentation part       -1.1600789 magnetization 

 Broyden mixing:
  rms(total) = 0.13401E-03    rms(broyden)= 0.13401E-03
  rms(prec ) = 0.21240E-03
  weight for this iteration     100.00

 eigenvalues of (default mixing * dielectric matrix)
  average eigenvalue GAMMA=   2.1602
  7.3762  3.6152  2.6973  2.1605  1.3622  1.3622  1.1600  1.1600  1.0008  0.9604
  0.9077

 Free energy of the ion-electron system (eV)
  ---------------------------------------------------
  alpha Z        PSCENC =         0.02182671
  Ewald energy   TEWEN  =        22.84277746
  -Hartree energ DENC   =      -217.36801882
  -exchange      EXHF   =         0.00000000
  -V(xc)+E(xc)   XCENC  =       -23.23293686
  PAW double counting   =       250.70851469     -212.38474384
  entropy T*S    EENTRO =        -0.00000000
  eigenvalues    EBANDS =       -77.86290282
  atomic energy  EATOM  =       248.21064898
  Solvation  Ediel_sol  =         0.00000000
  ---------------------------------------------------
  free energy    TOTEN  =        -9.06483449 eV

  energy without entropy =       -9.06483449  energy(sigma->0) =       -9.06483449


--------------------------------------------------------------------------------------------------------




--------------------------------------- Iteration      3(  13)  ---------------------------------------


    POTLOK:  cpu time    7.3954: real time    7.4135
    SETDIJ:  cpu time    0.0136: real time    0.0136
    EDDIAG:  cpu time    0.5058: real time    0.5076
  RMM-DIIS:  cpu time    1.5636: real time    1.5717
    ORTHCH:  cpu time    0.0284: real time    0.0287
       DOS:  cpu time    0.0004: real time    0.0004
    CHARGE:  cpu time    0.8733: real time    0.8758
    MIXING:  cpu time    0.2414: real time    0.2420
    --------------------------------------------
      LOOP:  cpu time   10.6220: real time   10.6533

 eigenvalue-minimisations  :    12
 total energy-change (2. order) :-0.3120536E-04  (-0.3749628E-06)
 number of electron       7.9999998 magnetization 
 augmentation part       -1.1600830 magnetization 

 Broyden mixing:
  rms(total) = 0.10462E-03    rms(broyden)= 0.10462E-03
  rms(prec ) = 0.15231E-03
  weight for this iteration     100.00

 eigenvalues of (default mixing * dielectric matrix)
  average eigenvalue GAMMA=   2.1893
  7.6954  3.7102  2.4450  2.2681  2.2681  1.3381  1.3381  1.1491  1.1491  1.0067
  1.0067  0.8964

 Free energy of the ion-electron system (eV)
  ---------------------------------------------------
  alpha Z        PSCENC =         0.02182671
  Ewald energy   TEWEN  =        22.84277746
  -Hartree energ DENC   =      -217.36681838
  -exchange      EXHF   =         0.00000000
  -V(xc)+E(xc)   XCENC  =       -23.23315496
  PAW double counting   =       250.70723086     -212.38346972
  entropy T*S    EENTRO =        -0.00000000
  eigenvalues    EBANDS =       -77.86390665
  atomic energy  EATOM  =       248.21064898
  Solvation  Ediel_sol  =         0.00000000
  ---------------------------------------------------
  free energy    TOTEN  =        -9.06486570 eV

  energy without entropy =       -9.06486570  energy(sigma->0) =       -9.06486570


--------------------------------------------------------------------------------------------------------




--------------------------------------- Iteration      3(  14)  ---------------------------------------


    POTLOK:  cpu time    7.3542: real time    7.3755
    SETDIJ:  cpu time    0.0128: real time    0.0128
    EDDIAG:  cpu time    0.5030: real time    0.5042
  RMM-DIIS:  cpu time    1.5651: real time    1.5716
    ORTHCH:  cpu time    0.0301: real time    0.0301
       DOS:  cpu time    0.0004: real time    0.0004
    CHARGE:  cpu time    0.8712: real time    0.8771
    MIXING:  cpu time    0.2508: real time    0.2512
    --------------------------------------------
      LOOP:  cpu time   10.5876: real time   10.6230

 eigenvalue-minimisations  :    12
 total energy-change (2. order) :-0.2967713E-04  (-0.2324237E-06)
 number of electron       7.9999998 magnetization 
 augmentation part       -1.1600794 magnetization 

 Broyden mixing:
  rms(total) = 0.46131E-04    rms(broyden)= 0.46130E-04
  rms(prec ) = 0.68429E-04
  weight for this iteration     100.00

 eigenvalues of (default mixing * dielectric matrix)
  average eigenvalue GAMMA=   2.2918
  8.7179  4.5167  2.9069  2.7223  2.2323  1.3462  1.3462  1.1470  1.1470  1.0026
  1.0026  0.9174  0.7884

 Free energy of the ion-electron system (eV)
  ---------------------------------------------------
  alpha Z        PSCENC =         0.02182671
  Ewald energy   TEWEN  =        22.84277746
  -Hartree energ DENC   =      -217.36728466
  -exchange      EXHF   =         0.00000000
  -V(xc)+E(xc)   XCENC  =       -23.23325032
  PAW double counting   =       250.73386595     -212.41025041
  entropy T*S    EENTRO =        -0.00000000
  eigenvalues    EBANDS =       -77.86322910
  atomic energy  EATOM  =       248.21064898
  Solvation  Ediel_sol  =         0.00000000
  ---------------------------------------------------
  free energy    TOTEN  =        -9.06489537 eV

  energy without entropy =       -9.06489537  energy(sigma->0) =       -9.06489537


--------------------------------------------------------------------------------------------------------




--------------------------------------- Iteration      3(  15)  ---------------------------------------


    POTLOK:  cpu time    7.3139: real time    7.3314
    SETDIJ:  cpu time    0.0128: real time    0.0128
    EDDIAG:  cpu time    0.5056: real time    0.5069
  RMM-DIIS:  cpu time    1.5546: real time    1.5636
    ORTHCH:  cpu time    0.0297: real time    0.0297
       DOS:  cpu time    0.0004: real time    0.0004
    --------------------------------------------
      LOOP:  cpu time    9.4169: real time    9.4448

 eigenvalue-minimisations  :    12
 total energy-change (2. order) :-0.6512653E-05  (-0.1139772E-06)
 number of electron       7.9999998 magnetization 
 augmentation part       -1.1600794 magnetization 

 Free energy of the ion-electron system (eV)
  ---------------------------------------------------
  alpha Z        PSCENC =         0.02182671
  Ewald energy   TEWEN  =        22.84277746
  -Hartree energ DENC   =      -217.36733323
  -exchange      EXHF   =         0.00000000
  -V(xc)+E(xc)   XCENC  =       -23.23323827
  PAW double counting   =       250.73486160     -212.41124224
  entropy T*S    EENTRO =        -0.00000000
  eigenvalues    EBANDS =       -77.86320291
  atomic energy  EATOM  =       248.21064898
  Solvation  Ediel_sol  =         0.00000000
  ---------------------------------------------------
  free energy    TOTEN  =        -9.06490188 eV

  energy without entropy =       -9.06490188  energy(sigma->0) =       -9.06490188


--------------------------------------------------------------------------------------------------------




 average (electrostatic) potential at core
  the test charge radii are     1.1897  0.5883
  (the norm of the test charge is              1.0000)
       1 -98.7167       2 -39.7781       3 -39.7780



 E-fermi :  -5.1606     XC(G=0):  -0.3539     alpha+bet : -0.1228


 k-point     1 :       0.0000    0.0000    0.0000
  band No.  band energies     occupation 
      1     -15.9554      2.00000
      2      -9.0575      2.00000
      3      -8.4781      2.00000
      4      -5.4406      2.00000
      5      -1.8064      0.00000
      6      -1.0192      0.00000
      7       0.0993      0.00000
      8       0.4555      0.00000


--------------------------------------------------------------------------------------------------------


 soft charge-density along one line, spin component           1
         0         1         2         3         4         5         6         7         8         9
 total charge-density along one line

 pseudopotential strength for first ion, spin component:           1
 55.852 -31.176   0.079  -0.000   0.079   0.209   0.000   0.209
-31.176  39.179  -0.029   0.000  -0.029  -0.116  -0.000  -0.116
  0.079  -0.029  13.618  -0.000  -0.006  29.188  -0.000  -0.016
 -0.000   0.000  -0.000  13.574  -0.000  -0.000  29.085  -0.000
  0.079  -0.029  -0.006  -0.000  13.618  -0.016  -0.000  29.188
  0.209  -0.116  29.188  -0.000  -0.016  67.796  -0.000  -0.047
  0.000  -0.000  -0.000  29.085  -0.000  -0.000  67.478  -0.000
  0.209  -0.116  -0.016  -0.000  29.188  -0.047  -0.000  67.796
 -0.013   0.005   0.025  -0.000   0.025   0.045  -0.000   0.045
 -0.000   0.000  -0.000   0.024  -0.000  -0.000   0.044  -0.000
 -0.051   0.019  -0.014  -0.000  -0.014  -0.021  -0.000  -0.021
 -0.000   0.000  -0.000   0.024  -0.000  -0.000   0.044  -0.000
  0.000  -0.000  -0.024  -0.000   0.024  -0.035  -0.000   0.035
  0.025  -0.005  -0.056   0.000  -0.056  -0.141   0.000  -0.141
  0.000  -0.000   0.000  -0.055   0.000   0.000  -0.138   0.000
  0.099  -0.021   0.031   0.000   0.031   0.070   0.000   0.070
  0.000  -0.000   0.000  -0.055   0.000   0.000  -0.138   0.000
 -0.000   0.000   0.052   0.000  -0.052   0.119   0.000  -0.119
 total augmentation occupancy for first ion, spin component:           1
  1.924   0.009  -0.172  -0.000  -0.172  -0.001  -0.000  -0.001  -0.003  -0.000  -0.045  -0.000  -0.000   0.003  -0.000   0.002
  0.009   0.001   0.025  -0.000   0.025  -0.000   0.000  -0.000   0.002  -0.000  -0.005  -0.000  -0.000   0.000   0.000  -0.000
 -0.172   0.025   1.241   0.000   0.089  -0.018  -0.000  -0.001   0.051  -0.000  -0.127  -0.000  -0.239   0.000  -0.000  -0.006
 -0.000  -0.000   0.000   1.911   0.000  -0.000  -0.003  -0.000   0.000   0.033   0.000   0.033  -0.000  -0.000  -0.002  -0.000
 -0.172   0.025   0.089   0.000   1.241  -0.001  -0.000  -0.018   0.051  -0.000  -0.127  -0.000   0.239   0.000  -0.000  -0.006
 -0.001  -0.000  -0.018  -0.000  -0.001   0.000   0.000   0.000  -0.001   0.000   0.002   0.000   0.003  -0.000   0.000   0.000
 -0.000   0.000  -0.000  -0.003  -0.000   0.000   0.000   0.000  -0.000  -0.000   0.000  -0.000   0.000  -0.000   0.000   0.000
 -0.001  -0.000  -0.001  -0.000  -0.018   0.000   0.000   0.000  -0.001   0.000   0.002   0.000  -0.003  -0.000   0.000   0.000
 -0.003   0.002   0.051   0.000   0.051  -0.001  -0.000  -0.001   0.004  -0.000  -0.010  -0.000  -0.000   0.000  -0.000  -0.000
 -0.000  -0.000  -0.000   0.033  -0.000   0.000  -0.000   0.000  -0.000   0.001   0.000   0.001   0.000  -0.000  -0.000   0.000
 -0.045  -0.005  -0.127   0.000  -0.127   0.002   0.000   0.002  -0.010   0.000   0.027   0.000   0.000  -0.000   0.000   0.001
 -0.000  -0.000  -0.000   0.033  -0.000   0.000  -0.000   0.000  -0.000   0.001   0.000   0.001  -0.000  -0.000  -0.000   0.000
 -0.000  -0.000  -0.239  -0.000   0.239   0.003   0.000  -0.003  -0.000   0.000   0.000  -0.000   0.099   0.000   0.000   0.000
  0.003   0.000   0.000  -0.000   0.000  -0.000  -0.000  -0.000   0.000  -0.000  -0.000  -0.000   0.000   0.000  -0.000  -0.000
 -0.000   0.000  -0.000  -0.002  -0.000   0.000   0.000   0.000  -0.000  -0.000   0.000  -0.000   0.000  -0.000   0.000   0.000
  0.002  -0.000  -0.006  -0.000  -0.006   0.000   0.000   0.000  -0.000   0.000   0.001   0.000   0.000  -0.000   0.000   0.000
 -0.000   0.000  -0.000  -0.002  -0.000   0.000   0.000   0.000  -0.000  -0.000   0.000  -0.000  -0.000  -0.000   0.000   0.000
 -0.000  -0.000  -0.010  -0.000   0.010   0.000   0.000  -0.000  -0.000   0.000  -0.000  -0.000   0.004   0.000   0.000  -0.000


------------------------ aborting loop because EDIFF is reached ----------------------------------------


    CHARGE:  cpu time    0.8739: real time    0.8758
    FORLOC:  cpu time    0.3120: real time    0.3126
    FORNL :  cpu time    0.7521: real time    0.7557
    STRESS:  cpu time    2.8440: real time    2.8524
    FORCOR:  cpu time    7.3309: real time    7.3510
    FORHAR:  cpu time    2.1112: real time    2.1166
    MIXING:  cpu time    0.2627: real time    0.2631
    OFIELD:  cpu time    0.0000: real time    0.0000

  FORCE on cell =-STRESS in cart. coord.  units (eV):
  Direction    XX          YY          ZZ          XY          YZ          ZX
  --------------------------------------------------------------------------------------
  Alpha Z     0.02183     0.02183     0.02183
  Ewald      26.03288    26.03292   -29.22304     5.07921    -0.00013    -0.00013
  Hartree    76.88001    76.87997    63.60630     0.71247    -0.00004    -0.00004
  E(xc)     -29.17011   -29.17012   -29.46039    -0.10926     0.00000     0.00000
  Local    -217.89878  -217.89882  -165.73669    -7.57796     0.00016     0.00016
  n-local   106.54923   106.54920   108.54110     2.28708    -0.00000    -0.00000
  augment   -25.26252   -25.26255   -27.86201    -0.35774    -0.00000    -0.00000
  Kinetic    62.68652    62.68654    79.95411    -0.62168     0.00003     0.00003
  Fock        0.00000     0.00000     0.00000     0.00000     0.00000     0.00000
  -------------------------------------------------------------------------------------
  Total      -0.16094    -0.16102    -0.15878    -0.58788     0.00002     0.00002
  in kB      -0.07640    -0.07644    -0.07538    -0.27908     0.00001     0.00001
  external pressure =       -0.08 kB  Pullay stress =        0.00 kB


 VOLUME and BASIS-vectors are now :
 -----------------------------------------------------------------------------
  energy-cutoff  :      450.00
  volume of cell :     3375.00
      direct lattice vectors                 reciprocal lattice vectors
    15.000000000  0.000000000  0.000000000     0.066666667  0.000000000  0.000000000
     0.000000000 15.000000000  0.000000000     0.000000000  0.066666667  0.000000000
     0.000000000  0.000000000 15.000000000     0.000000000  0.000000000  0.066666667

  length of vectors
    15.000000000 15.000000000 15.000000000     0.066666667  0.066666667  0.066666667


 FORCES acting on ions
    electron-ion (+dipol)            ewald-force                    non-local-force                 convergence-correction
 -----------------------------------------------------------------------------------------------
   0.279E+02 0.279E+02 -.101E-03   -.329E+02 -.329E+02 0.146E-03   0.532E+01 0.532E+01 0.948E-03   0.990E-04 0.293E-03 0.116E-03
   -.299E+02 -.418E+00 0.695E-04   0.326E+02 0.365E+00 -.733E-04   -.263E+01 -.301E+00 0.440E-05   -.187E-03 0.101E-03 0.164E-04
   -.418E+00 -.299E+02 0.695E-04   0.365E+00 0.326E+02 -.732E-04   -.301E+00 -.263E+01 0.440E-05   0.777E-04 -.192E-03 0.165E-04
 -----------------------------------------------------------------------------------------------
   -.239E+01 -.239E+01 0.379E-04   0.266E-14 -.711E-14 0.550E-17   0.239E+01 0.239E+01 0.957E-03   -.103E-04 0.202E-03 0.149E-03


 POSITION                                       TOTAL-FORCE (eV/Angst)
 -----------------------------------------------------------------------------------
      7.22697      7.22697      7.50000         0.327601      0.327310      0.000728
      8.89869      7.36434      7.50000         0.026713     -0.354178     -0.000364
      7.36434      8.89869      7.50000        -0.354314      0.026869     -0.000364
 -----------------------------------------------------------------------------------
    total drift:                                0.000362     -0.000009      0.001143


--------------------------------------------------------------------------------------------------------



  FREE ENERGIE OF THE ION-ELECTRON SYSTEM (eV)
  ---------------------------------------------------
  free  energy   TOTEN  =        -9.06490188 eV

  energy  without entropy=       -9.06490188  energy(sigma->0) =       -9.06490188

 d Force = 0.1313099E+01[ 0.118E+00, 0.251E+01]  d Energy = 0.1736753E+01-0.424E+00
 d Force =-0.2211550E+02[-0.268E+02,-0.174E+02]  d Ewald  =-0.2165359E+02-0.462E+00


--------------------------------------------------------------------------------------------------------


    POTLOK:  cpu time    7.3260: real time    7.3467


--------------------------------------------------------------------------------------------------------


 stress matrix after NEB project (eV)
     -0.16094     -0.58788      0.00002
     -0.58788     -0.16102      0.00002
      0.00002      0.00002     -0.15878
  FORCES: max atom, RMS     0.463092    0.394492
  FORCE total and by dimension    0.683279    0.354314
  Stress total and by dimension    0.876493    0.587877


--------------------------------------------------------------------------------------------------------


    WAVPRE:  cpu time    1.2954: real time    1.6547
    FEWALD:  cpu time    0.0003: real time    0.0003
    ORTHCH:  cpu time    0.2445: real time    0.2474
     LOOP+:  cpu time  186.0064: real time  187.4579


--------------------------------------- Iteration      4(   1)  ---------------------------------------


    POTLOK:  cpu time    7.3134: real time    7.3842
    SETDIJ:  cpu time    0.0123: real time    0.0123
     EDDAV:  cpu time    3.8689: real time    3.8953
       DOS:  cpu time    0.0015: real time    0.0016
    CHARGE:  cpu time    0.8705: real time    0.8751
    MIXING:  cpu time    0.1688: real time    0.1699
    --------------------------------------------
      LOOP:  cpu time   12.2355: real time   12.3383

 eigenvalue-minimisations  :    32
 total energy-change (2. order) :-0.9179424E-03  (-0.1089220E-02)
 number of electron       7.9999998 magnetization 
 augmentation part       -1.1605756 magnetization 

 Broyden mixing:
  rms(total) = 0.20877E-02    rms(broyden)= 0.20860E-02
  rms(prec ) = 0.23300E-02
  weight for this iteration     100.00

 Free energy of the ion-electron system (eV)
  ---------------------------------------------------
  alpha Z        PSCENC =         0.02182671
  Ewald energy   TEWEN  =        23.12008055
  -Hartree energ DENC   =      -217.55185496
  -exchange      EXHF   =         0.00000000
  -V(xc)+E(xc)   XCENC  =       -23.22398372
  PAW double counting   =       250.72432233     -212.40064652
  entropy T*S    EENTRO =        -0.00000000
  eigenvalues    EBANDS =       -77.96620668
  atomic energy  EATOM  =       248.21064898
  Solvation  Ediel_sol  =         0.00000000
  ---------------------------------------------------
  free energy    TOTEN  =        -9.06581331 eV

  energy without entropy =       -9.06581331  energy(sigma->0) =       -9.06581331


--------------------------------------------------------------------------------------------------------




--------------------------------------- Iteration      4(   2)  ---------------------------------------


    POTLOK:  cpu time    7.3235: real time    7.3566
    SETDIJ:  cpu time    0.0127: real time    0.0130
    EDDIAG:  cpu time    0.4995: real time    0.5019
  RMM-DIIS:  cpu time    1.8990: real time    1.9075
    ORTHCH:  cpu time    0.0290: real time    0.0293
       DOS:  cpu time    0.0005: real time    0.0006
    CHARGE:  cpu time    0.8703: real time    0.8754
    MIXING:  cpu time    0.1700: real time    0.1705
    --------------------------------------------
      LOOP:  cpu time   10.8044: real time   10.8548

 eigenvalue-minimisations  :    15
 total energy-change (2. order) :-0.9405346E-05  (-0.1498290E-04)
 number of electron       7.9999998 magnetization 
 augmentation part       -1.1604182 magnetization 

 Broyden mixing:
  rms(total) = 0.13967E-02    rms(broyden)= 0.13965E-02
  rms(prec ) = 0.15576E-02
  weight for this iteration     100.00

 eigenvalues of (default mixing * dielectric matrix)
  average eigenvalue GAMMA=   2.0485
  2.0485

 Free energy of the ion-electron system (eV)
  ---------------------------------------------------
  alpha Z        PSCENC =         0.02182671
  Ewald energy   TEWEN  =        23.12008055
  -Hartree energ DENC   =      -217.56975567
  -exchange      EXHF   =         0.00000000
  -V(xc)+E(xc)   XCENC  =       -23.22307998
  PAW double counting   =       251.02474893     -212.70251669
  entropy T*S    EENTRO =        -0.00000000
  eigenvalues    EBANDS =       -77.94777555
  atomic energy  EATOM  =       248.21064898
  Solvation  Ediel_sol  =         0.00000000
  ---------------------------------------------------
  free energy    TOTEN  =        -9.06582272 eV

  energy without entropy =       -9.06582272  energy(sigma->0) =       -9.06582272


--------------------------------------------------------------------------------------------------------




--------------------------------------- Iteration      4(   3)  ---------------------------------------


    POTLOK:  cpu time    7.3647: real time    7.3940
    SETDIJ:  cpu time    0.0119: real time    0.0119
    EDDIAG:  cpu time    0.5044: real time    0.5070
  RMM-DIIS:  cpu time    1.7950: real time    1.8037
    ORTHCH:  cpu time    0.0286: real time    0.0287
       DOS:  cpu time    0.0003: real time    0.0004
    --------------------------------------------
      LOOP:  cpu time    9.7048: real time    9.7456

 eigenvalue-minimisations  :    14
 total energy-change (2. order) :-0.1837277E-05  (-0.2428589E-05)
 number of electron       7.9999998 magnetization 
 augmentation part       -1.1604182 magnetization 

 Free energy of the ion-electron system (eV)
  ---------------------------------------------------
  alpha Z        PSCENC =         0.02182671
  Ewald energy   TEWEN  =        23.12008055
  -Hartree energ DENC   =      -217.59313168
  -exchange      EXHF   =         0.00000000
  -V(xc)+E(xc)   XCENC  =       -23.22174400
  PAW double counting   =       251.35312997     -213.03255829
  entropy T*S    EENTRO =        -0.00000000
  eigenvalues    EBANDS =       -77.92407681
  atomic energy  EATOM  =       248.21064898
  Solvation  Ediel_sol  =         0.00000000
  ---------------------------------------------------
  free energy    TOTEN  =        -9.06582456 eV

  energy without entropy =       -9.06582456  energy(sigma->0) =       -9.06582456


--------------------------------------------------------------------------------------------------------




 average (electrostatic) potential at core
  the test charge radii are     1.1897  0.5883
  (the norm of the test charge is              1.0000)
       1 -98.7102       2 -39.7995       3 -39.7995



 E-fermi :  -5.1673     XC(G=0):  -0.3482     alpha+bet : -0.1228


 k-point     1 :       0.0000    0.0000    0.0000
  band No.  band energies     occupation 
      1     -15.9693      2.00000
      2      -9.0750      2.00000
      3      -8.4768      2.00000
      4      -5.4409      2.00000
      5      -1.7875      0.00000
      6      -1.0079      0.00000
      7       0.1094      0.00000
      8       0.4527      0.00000


--------------------------------------------------------------------------------------------------------


 soft charge-density along one line, spin component           1
         0         1         2         3         4         5         6         7         8         9
 total charge-density along one line

 pseudopotential strength for first ion, spin component:           1
 55.852 -31.177   0.079  -0.000   0.079   0.211  -0.000   0.211
-31.177  39.181  -0.030   0.000  -0.030  -0.117   0.000  -0.117
  0.079  -0.030  13.618  -0.000  -0.006  29.188  -0.000  -0.016
 -0.000   0.000  -0.000  13.574  -0.000  -0.000  29.085  -0.000
  0.079  -0.030  -0.006  -0.000  13.618  -0.016  -0.000  29.188
  0.211  -0.117  29.188  -0.000  -0.016  67.794  -0.000  -0.047
 -0.000   0.000  -0.000  29.085  -0.000  -0.000  67.476  -0.000
  0.211  -0.117  -0.016  -0.000  29.188  -0.047  -0.000  67.794
 -0.013   0.005   0.025  -0.000   0.025   0.046   0.000   0.046
 -0.000   0.000  -0.000   0.024  -0.000  -0.000   0.045   0.000
 -0.051   0.019  -0.015  -0.000  -0.015  -0.021  -0.000  -0.021
 -0.000   0.000  -0.000   0.024  -0.000   0.000   0.045  -0.000
  0.000  -0.000  -0.024   0.000   0.024  -0.035   0.000   0.035
  0.025  -0.005  -0.057   0.000  -0.057  -0.142  -0.000  -0.142
  0.000  -0.000   0.000  -0.055   0.000   0.000  -0.139  -0.000
  0.099  -0.021   0.031   0.000   0.031   0.071   0.000   0.071
  0.000  -0.000   0.000  -0.055   0.000  -0.000  -0.139   0.000
 -0.000   0.000   0.052  -0.000  -0.052   0.121  -0.000  -0.121
 total augmentation occupancy for first ion, spin component:           1
  1.924   0.009  -0.171   0.000  -0.171  -0.001   0.000  -0.001  -0.003  -0.000  -0.045  -0.000  -0.000   0.003   0.000   0.002
  0.009   0.001   0.025  -0.000   0.025  -0.000  -0.000  -0.000   0.002  -0.000  -0.005  -0.000  -0.000   0.000  -0.000  -0.000
 -0.171   0.025   1.245   0.000   0.090  -0.018  -0.000  -0.001   0.052  -0.000  -0.128  -0.000  -0.241   0.000  -0.000  -0.006
  0.000  -0.000   0.000   1.911   0.000   0.000  -0.003   0.000  -0.000   0.033  -0.000   0.033  -0.000  -0.000  -0.002   0.000
 -0.171   0.025   0.090   0.000   1.245  -0.001  -0.000  -0.018   0.052  -0.000  -0.128  -0.000   0.241   0.000  -0.000  -0.006
 -0.001  -0.000  -0.018   0.000  -0.001   0.000   0.000   0.000  -0.001   0.000   0.002   0.000   0.003  -0.000   0.000   0.000
  0.000  -0.000  -0.000  -0.003  -0.000   0.000   0.000   0.000  -0.000  -0.000   0.000  -0.000   0.000   0.000   0.000   0.000
 -0.001  -0.000  -0.001   0.000  -0.018   0.000   0.000   0.000  -0.001   0.000   0.002   0.000  -0.003  -0.000   0.000   0.000
 -0.003   0.002   0.052  -0.000   0.052  -0.001  -0.000  -0.001   0.004  -0.000  -0.010  -0.000  -0.000   0.000  -0.000  -0.000
 -0.000  -0.000  -0.000   0.033  -0.000   0.000  -0.000   0.000  -0.000   0.001   0.000   0.001   0.000  -0.000  -0.000   0.000
 -0.045  -0.005  -0.128  -0.000  -0.128   0.002   0.000   0.002  -0.010   0.000   0.028   0.000   0.000  -0.000   0.000   0.001
 -0.000  -0.000  -0.000   0.033  -0.000   0.000  -0.000   0.000  -0.000   0.001   0.000   0.001  -0.000  -0.000  -0.000   0.000
 -0.000  -0.000  -0.241  -0.000   0.241   0.003   0.000  -0.003  -0.000   0.000   0.000  -0.000   0.101  -0.000   0.000   0.000
  0.003   0.000   0.000  -0.000   0.000  -0.000   0.000  -0.000   0.000  -0.000  -0.000  -0.000  -0.000   0.000  -0.000  -0.000
  0.000  -0.000  -0.000  -0.002  -0.000   0.000   0.000   0.000  -0.000  -0.000   0.000  -0.000   0.000  -0.000   0.000   0.000
  0.002  -0.000  -0.006   0.000  -0.006   0.000   0.000   0.000  -0.000   0.000   0.001   0.000   0.000  -0.000   0.000   0.000
  0.000  -0.000  -0.000  -0.002  -0.000   0.000   0.000   0.000  -0.000  -0.000   0.000  -0.000  -0.000  -0.000   0.000   0.000
 -0.000  -0.000  -0.010  -0.000   0.010   0.000   0.000  -0.000  -0.000   0.000   0.000  -0.000   0.004  -0.000   0.000   0.000


------------------------ aborting loop because EDIFF is reached ----------------------------------------


    CHARGE:  cpu time    0.8692: real time    0.8753
    FORLOC:  cpu time    0.3094: real time    0.3101
    FORNL :  cpu time    0.7505: real time    0.7545
    STRESS:  cpu time    2.8323: real time    2.8546
    FORCOR:  cpu time    7.3198: real time    7.3538
    FORHAR:  cpu time    2.1039: real time    2.1147
    MIXING:  cpu time    0.1699: real time    0.1721
    OFIELD:  cpu time    0.0000: real time    0.0000

  FORCE on cell =-STRESS in cart. coord.  units (eV):
  Direction    XX          YY          ZZ          XY          YZ          ZX
  --------------------------------------------------------------------------------------
  Alpha Z     0.02183     0.02183     0.02183
  Ewald      26.17113    26.17117   -29.22224     4.99501    -0.00013    -0.00013
  Hartree    76.94425    76.94421    63.70875     0.68190    -0.00003    -0.00003
  E(xc)     -29.19360   -29.19361   -29.47387    -0.11072    -0.00000    -0.00000
  Local    -218.14654  -218.14671  -165.87670    -7.47954     0.00012     0.00012
  n-local   106.66655   106.66669   108.52055     2.30084     0.00000     0.00000
  augment   -25.27388   -25.27387   -27.85232    -0.36149    -0.00000    -0.00000
  Kinetic    62.76673    62.76670    80.01922    -0.59258     0.00004     0.00004
  Fock        0.00000     0.00000     0.00000     0.00000     0.00000     0.00000
  -------------------------------------------------------------------------------------
  Total      -0.04354    -0.04360    -0.15478    -0.56658    -0.00000    -0.00000
  in kB      -0.02067    -0.02070    -0.07348    -0.26897    -0.00000    -0.00000
  external pressure =       -0.04 kB  Pullay stress =        0.00 kB


 VOLUME and BASIS-vectors are now :
 -----------------------------------------------------------------------------
  energy-cutoff  :      450.00
  volume of cell :     3375.00
      direct lattice vectors                 reciprocal lattice vectors
    15.000000000  0.000000000  0.000000000     0.066666667  0.000000000  0.000000000
     0.000000000 15.000000000  0.000000000     0.000000000  0.066666667  0.000000000
     0.000000000  0.000000000 15.000000000     0.000000000  0.000000000  0.066666667

  length of vectors
    15.000000000 15.000000000 15.000000000     0.066666667  0.066666667  0.066666667


 FORCES acting on ions
    electron-ion (+dipol)            ewald-force                    non-local-force                 convergence-correction
 -----------------------------------------------------------------------------------------------
   0.281E+02 0.281E+02 -.138E-03   -.331E+02 -.331E+02 0.145E-03   0.525E+01 0.525E+01 -.440E-04   0.263E-02 0.268E-02 0.123E-04
   -.300E+02 -.389E+00 0.657E-04   0.327E+02 0.342E+00 -.727E-04   -.265E+01 -.300E+00 0.680E-05   0.172E-03 0.219E-03 0.168E-05
   -.389E+00 -.300E+02 0.657E-04   0.342E+00 0.327E+02 -.727E-04   -.300E+00 -.265E+01 0.681E-05   0.218E-03 0.178E-03 0.168E-05
 -----------------------------------------------------------------------------------------------
   -.230E+01 -.230E+01 -.647E-05   0.266E-14 0.000E+00 0.552E-17   0.230E+01 0.230E+01 -.304E-04   0.302E-02 0.307E-02 0.157E-04


 POSITION                                       TOTAL-FORCE (eV/Angst)
 -----------------------------------------------------------------------------------
      7.22906      7.22906      7.50000         0.252258      0.252198     -0.000017
      8.89655      7.36439      7.50000         0.094886     -0.347106      0.000009
      7.36439      8.89655      7.50000        -0.347144      0.094908      0.000009
 -----------------------------------------------------------------------------------
    total drift:                                0.001101      0.000909     -0.000021


--------------------------------------------------------------------------------------------------------



  FREE ENERGIE OF THE ION-ELECTRON SYSTEM (eV)
  ---------------------------------------------------
  free  energy   TOTEN  =        -9.06582456 eV

  energy  without entropy=       -9.06582456  energy(sigma->0) =       -9.06582456

 d Force = 0.9141797E-03[ 0.612E-03, 0.122E-02]  d Energy = 0.9226724E-03-0.849E-05
 d Force =-0.2773038E+00[-0.278E+00,-0.277E+00]  d Ewald  =-0.2773031E+00-0.727E-06


--------------------------------------------------------------------------------------------------------


    POTLOK:  cpu time    7.3781: real time    7.4057


--------------------------------------------------------------------------------------------------------


 stress matrix after NEB project (eV)
     -0.04354     -0.56658     -0.00000
     -0.56658     -0.04360     -0.00000
     -0.00000     -0.00000     -0.15478
  FORCES: max atom, RMS     0.359884    0.358813
  FORCE total and by dimension    0.621482    0.347144
  Stress total and by dimension    0.818404    0.566583


--------------------------------------------------------------------------------------------------------


    WAVPRE:  cpu time    1.2982: real time    1.6425
    FEWALD:  cpu time    0.0003: real time    0.0003
    ORTHCH:  cpu time    0.2504: real time    0.2511
     LOOP+:  cpu time   56.0639: real time   57.2444


--------------------------------------- Iteration      5(   1)  ---------------------------------------


    POTLOK:  cpu time    7.3673: real time    7.4000
    SETDIJ:  cpu time    0.0120: real time    0.0120
     EDDAV:  cpu time    3.0213: real time    3.0369
       DOS:  cpu time    0.0003: real time    0.0004
    CHARGE:  cpu time    0.8695: real time    0.8771
    MIXING:  cpu time    0.1662: real time    0.1665
    --------------------------------------------
      LOOP:  cpu time   11.4366: real time   11.4929

 eigenvalue-minimisations  :    24
 total energy-change (2. order) :-0.2847127E-03  (-0.1088699E-02)
 number of electron       7.9999998 magnetization 
 augmentation part       -1.1607885 magnetization 

 Broyden mixing:
  rms(total) = 0.21374E-02    rms(broyden)= 0.21358E-02
  rms(prec ) = 0.23784E-02
  weight for this iteration     100.00

 Free energy of the ion-electron system (eV)
  ---------------------------------------------------
  alpha Z        PSCENC =         0.02182671
  Ewald energy   TEWEN  =        23.40019739
  -Hartree energ DENC   =      -217.78167203
  -exchange      EXHF   =         0.00000000
  -V(xc)+E(xc)   XCENC  =       -23.21216094
  PAW double counting   =       251.38991974     -213.06940162
  entropy T*S    EENTRO =        -0.00000000
  eigenvalues    EBANDS =       -78.02546567
  atomic energy  EATOM  =       248.21064898
  Solvation  Ediel_sol  =         0.00000000
  ---------------------------------------------------
  free energy    TOTEN  =        -9.06610743 eV

  energy without entropy =       -9.06610743  energy(sigma->0) =       -9.06610743


--------------------------------------------------------------------------------------------------------




--------------------------------------- Iteration      5(   2)  ---------------------------------------


    POTLOK:  cpu time    7.3892: real time    7.4239
    SETDIJ:  cpu time    0.0117: real time    0.0120
    EDDIAG:  cpu time    0.5009: real time    0.5028
  RMM-DIIS:  cpu time    1.9173: real time    1.9321
    ORTHCH:  cpu time    0.0292: real time    0.0292
       DOS:  cpu time    0.0004: real time    0.0005
    CHARGE:  cpu time    0.8718: real time    0.8756
    MIXING:  cpu time    0.1704: real time    0.1710
    --------------------------------------------
      LOOP:  cpu time   10.8910: real time   10.9472

 eigenvalue-minimisations  :    15
 total energy-change (2. order) :-0.1414363E-04  (-0.2101115E-04)
 number of electron       7.9999998 magnetization 
 augmentation part       -1.1605706 magnetization 

 Broyden mixing:
  rms(total) = 0.14575E-02    rms(broyden)= 0.14573E-02
  rms(prec ) = 0.16204E-02
  weight for this iteration     100.00

 eigenvalues of (default mixing * dielectric matrix)
  average eigenvalue GAMMA=   1.9033
  1.9033

 Free energy of the ion-electron system (eV)
  ---------------------------------------------------
  alpha Z        PSCENC =         0.02182671
  Ewald energy   TEWEN  =        23.40019739
  -Hartree energ DENC   =      -217.79865040
  -exchange      EXHF   =         0.00000000
  -V(xc)+E(xc)   XCENC  =       -23.21119326
  PAW double counting   =       251.69030175     -213.37110310
  entropy T*S    EENTRO =        -0.00000000
  eigenvalues    EBANDS =       -78.00814965
  atomic energy  EATOM  =       248.21064898
  Solvation  Ediel_sol  =         0.00000000
  ---------------------------------------------------
  free energy    TOTEN  =        -9.06612158 eV

  energy without entropy =       -9.06612158  energy(sigma->0) =       -9.06612158


--------------------------------------------------------------------------------------------------------




--------------------------------------- Iteration      5(   3)  ---------------------------------------


    POTLOK:  cpu time    7.4478: real time    7.4846
    SETDIJ:  cpu time    0.0117: real time    0.0117
    EDDIAG:  cpu time    0.5030: real time    0.5053
  RMM-DIIS:  cpu time    1.7919: real time    1.8022
    ORTHCH:  cpu time    0.0289: real time    0.0289
       DOS:  cpu time    0.0004: real time    0.0004
    --------------------------------------------
      LOOP:  cpu time    9.7837: real time    9.8332

 eigenvalue-minimisations  :    14
 total energy-change (2. order) : 0.2312854E-06  (-0.2285828E-05)
 number of electron       7.9999998 magnetization 
 augmentation part       -1.1605706 magnetization 

 Free energy of the ion-electron system (eV)
  ---------------------------------------------------
  alpha Z        PSCENC =         0.02182671
  Ewald energy   TEWEN  =        23.40019739
  -Hartree energ DENC   =      -217.81904062
  -exchange      EXHF   =         0.00000000
  -V(xc)+E(xc)   XCENC  =       -23.20984128
  PAW double counting   =       251.98789930     -213.67010502
  entropy T*S    EENTRO =        -0.00000000
  eigenvalues    EBANDS =       -77.98770681
  atomic energy  EATOM  =       248.21064898
  Solvation  Ediel_sol  =         0.00000000
  ---------------------------------------------------
  free energy    TOTEN  =        -9.06612135 eV

  energy without entropy =       -9.06612135  energy(sigma->0) =       -9.06612135


--------------------------------------------------------------------------------------------------------




 average (electrostatic) potential at core
  the test charge radii are     1.1897  0.5883
  (the norm of the test charge is              1.0000)
       1 -98.7050       2 -39.8214       3 -39.8214



 E-fermi :  -5.1686     XC(G=0):  -0.3526     alpha+bet : -0.1228


 k-point     1 :       0.0000    0.0000    0.0000
  band No.  band energies     occupation 
      1     -15.9840      2.00000
      2      -9.0928      2.00000
      3      -8.4756      2.00000
      4      -5.4415      2.00000
      5      -1.7684      0.00000
      6      -0.9960      0.00000
      7       0.1089      0.00000
      8       0.4553      0.00000


--------------------------------------------------------------------------------------------------------


 soft charge-density along one line, spin component           1
         0         1         2         3         4         5         6         7         8         9
 total charge-density along one line

 pseudopotential strength for first ion, spin component:           1
 55.851 -31.177   0.080  -0.000   0.080   0.213  -0.000   0.213
-31.177  39.183  -0.030   0.000  -0.030  -0.119   0.000  -0.119
  0.080  -0.030  13.618  -0.000  -0.006  29.188  -0.000  -0.016
 -0.000   0.000  -0.000  13.574  -0.000  -0.000  29.085  -0.000
  0.080  -0.030  -0.006  -0.000  13.618  -0.016  -0.000  29.188
  0.213  -0.119  29.188  -0.000  -0.016  67.794  -0.000  -0.048
 -0.000   0.000  -0.000  29.085  -0.000  -0.000  67.476  -0.000
  0.213  -0.119  -0.016  -0.000  29.188  -0.048  -0.000  67.794
 -0.013   0.005   0.025  -0.000   0.025   0.046  -0.000   0.046
 -0.000   0.000  -0.000   0.024  -0.000  -0.000   0.045  -0.000
 -0.051   0.019  -0.015  -0.000  -0.015  -0.021  -0.000  -0.021
 -0.000   0.000  -0.000   0.024  -0.000  -0.000   0.045  -0.000
  0.000  -0.000  -0.025  -0.000   0.025  -0.036  -0.000   0.036
  0.025  -0.005  -0.057   0.000  -0.057  -0.143   0.000  -0.143
  0.000  -0.000   0.000  -0.056   0.000   0.000  -0.140   0.000
  0.099  -0.021   0.032   0.000   0.032   0.072   0.000   0.072
  0.000  -0.000   0.000  -0.056   0.000   0.000  -0.140   0.000
 -0.000   0.000   0.053   0.000  -0.053   0.122   0.000  -0.122
 total augmentation occupancy for first ion, spin component:           1
  1.923   0.009  -0.171   0.000  -0.171  -0.002   0.000  -0.002  -0.003  -0.000  -0.046  -0.000   0.000   0.003   0.000   0.002
  0.009   0.001   0.025  -0.000   0.025  -0.000   0.000  -0.000   0.002  -0.000  -0.006  -0.000   0.000   0.000  -0.000  -0.000
 -0.171   0.025   1.248   0.000   0.091  -0.018   0.000  -0.001   0.052  -0.000  -0.129  -0.000  -0.243   0.000  -0.000  -0.006
  0.000  -0.000   0.000   1.911   0.000   0.000  -0.003   0.000  -0.000   0.033   0.000   0.033   0.000  -0.000  -0.002   0.000
 -0.171   0.025   0.091   0.000   1.248  -0.001   0.000  -0.018   0.052  -0.000  -0.129  -0.000   0.243   0.000  -0.000  -0.006
 -0.002  -0.000  -0.018   0.000  -0.001   0.000  -0.000   0.000  -0.001   0.000   0.002   0.000   0.004  -0.000   0.000   0.000
  0.000   0.000   0.000  -0.003   0.000  -0.000   0.000  -0.000   0.000  -0.000  -0.000  -0.000  -0.000   0.000   0.000  -0.000
 -0.002  -0.000  -0.001   0.000  -0.018   0.000  -0.000   0.000  -0.001   0.000   0.002   0.000  -0.004  -0.000   0.000   0.000
 -0.003   0.002   0.052  -0.000   0.052  -0.001   0.000  -0.001   0.004  -0.000  -0.010  -0.000   0.000   0.000  -0.000  -0.000
 -0.000  -0.000  -0.000   0.033  -0.000   0.000  -0.000   0.000  -0.000   0.001   0.000   0.001   0.000  -0.000  -0.000   0.000
 -0.046  -0.006  -0.129   0.000  -0.129   0.002  -0.000   0.002  -0.010   0.000   0.028   0.000   0.000  -0.000   0.000   0.001
 -0.000  -0.000  -0.000   0.033  -0.000   0.000  -0.000   0.000  -0.000   0.001   0.000   0.001  -0.000  -0.000  -0.000   0.000
  0.000   0.000  -0.243   0.000   0.243   0.004  -0.000  -0.004   0.000   0.000   0.000  -0.000   0.102  -0.000   0.000  -0.000
  0.003   0.000   0.000  -0.000   0.000  -0.000   0.000  -0.000   0.000  -0.000  -0.000  -0.000  -0.000   0.000   0.000  -0.000
  0.000  -0.000  -0.000  -0.002  -0.000   0.000   0.000   0.000  -0.000  -0.000   0.000  -0.000   0.000   0.000   0.000   0.000
  0.002  -0.000  -0.006   0.000  -0.006   0.000  -0.000   0.000  -0.000   0.000   0.001   0.000  -0.000  -0.000   0.000   0.000
  0.000  -0.000  -0.000  -0.002  -0.000   0.000   0.000   0.000  -0.000  -0.000   0.000  -0.000  -0.000   0.000   0.000   0.000
 -0.000   0.000  -0.010   0.000   0.010   0.000  -0.000  -0.000   0.000   0.000  -0.000  -0.000   0.004  -0.000   0.000  -0.000


------------------------ aborting loop because EDIFF is reached ----------------------------------------


    CHARGE:  cpu time    0.8726: real time    0.8773
    FORLOC:  cpu time    0.3100: real time    0.3107
    FORNL :  cpu time    0.7386: real time    0.7426
    STRESS:  cpu time    2.8233: real time    2.8410
    FORCOR:  cpu time    7.3138: real time    7.3479
    FORHAR:  cpu time    2.1094: real time    2.1182
    MIXING:  cpu time    0.1710: real time    0.1723
    OFIELD:  cpu time    0.0000: real time    0.0000

  FORCE on cell =-STRESS in cart. coord.  units (eV):
  Direction    XX          YY          ZZ          XY          YZ          ZX
  --------------------------------------------------------------------------------------
  Alpha Z     0.02183     0.02183     0.02183
  Ewald      26.31079    26.31083   -29.22144     4.90933    -0.00013    -0.00013
  Hartree    77.00794    77.00787    63.81174     0.65096    -0.00003    -0.00003
  E(xc)     -29.21699   -29.21701   -29.48743    -0.11192    -0.00000    -0.00000
  Local    -218.39258  -218.39272  -166.02031    -7.37632     0.00013     0.00013
  n-local   106.78220   106.78241   108.50176     2.31136    -0.00000    -0.00000
  augment   -25.28404   -25.28407   -27.84216    -0.36439    -0.00000    -0.00000
  Kinetic    62.84638    62.84645    80.08203    -0.56329     0.00004     0.00004
  Fock        0.00000     0.00000     0.00000     0.00000     0.00000     0.00000
  -------------------------------------------------------------------------------------
  Total       0.07552     0.07558    -0.15398    -0.54427     0.00000     0.00000
  in kB       0.03585     0.03588    -0.07310    -0.25837     0.00000     0.00000
  external pressure =       -0.00 kB  Pullay stress =        0.00 kB


 VOLUME and BASIS-vectors are now :
 -----------------------------------------------------------------------------
  energy-cutoff  :      450.00
  volume of cell :     3375.00
      direct lattice vectors                 reciprocal lattice vectors
    15.000000000  0.000000000  0.000000000     0.066666667  0.000000000  0.000000000
     0.000000000 15.000000000  0.000000000     0.000000000  0.066666667  0.000000000
     0.000000000  0.000000000 15.000000000     0.000000000  0.000000000  0.066666667

  length of vectors
    15.000000000 15.000000000 15.000000000     0.066666667  0.066666667  0.066666667


 FORCES acting on ions
    electron-ion (+dipol)            ewald-force                    non-local-force                 convergence-correction
 -----------------------------------------------------------------------------------------------
   0.282E+02 0.282E+02 -.123E-03   -.332E+02 -.332E+02 0.144E-03   0.518E+01 0.518E+01 -.241E-04   0.297E-02 0.293E-02 0.990E-06
   -.301E+02 -.359E+00 0.660E-04   0.329E+02 0.317E+00 -.721E-04   -.268E+01 -.299E+00 0.651E-05   0.682E-03 0.263E-03 0.175E-06
   -.359E+00 -.301E+02 0.659E-04   0.317E+00 0.329E+02 -.721E-04   -.299E+00 -.268E+01 0.651E-05   0.270E-03 0.686E-03 0.175E-06
 -----------------------------------------------------------------------------------------------
   -.220E+01 -.220E+01 0.926E-05   -.488E-14 0.000E+00 0.552E-17   0.220E+01 0.220E+01 -.111E-04   0.392E-02 0.388E-02 0.134E-05


 POSITION                                       TOTAL-FORCE (eV/Angst)
 -----------------------------------------------------------------------------------
      7.23116      7.23116      7.50000         0.174182      0.174274     -0.000001
      8.89440      7.36444      7.50000         0.165784     -0.339960      0.000001
      7.36444      8.89440      7.50000        -0.339966      0.165686      0.000001
 -----------------------------------------------------------------------------------
    total drift:                                0.000000     -0.000012     -0.000000


--------------------------------------------------------------------------------------------------------



  FREE ENERGIE OF THE ION-ELECTRON SYSTEM (eV)
  ---------------------------------------------------
  free  energy   TOTEN  =        -9.06612135 eV

  energy  without entropy=       -9.06612135  energy(sigma->0) =       -9.06612135

 d Force = 0.2995031E-03[-0.161E-04, 0.615E-03]  d Energy = 0.2967878E-03 0.272E-05
 d Force =-0.2801176E+00[-0.281E+00,-0.279E+00]  d Ewald  =-0.2801168E+00-0.741E-06


--------------------------------------------------------------------------------------------------------


    POTLOK:  cpu time    7.4946: real time    7.5289


--------------------------------------------------------------------------------------------------------


 stress matrix after NEB project (eV)
      0.07552     -0.54427      0.00000
     -0.54427      0.07558      0.00000
      0.00000      0.00000     -0.15398
  FORCES: max atom, RMS     0.378229    0.339998
  FORCE total and by dimension    0.588895    0.339966
  Stress total and by dimension    0.792200    0.544268


--------------------------------------------------------------------------------------------------------


    WAVPRE:  cpu time    1.2995: real time    1.6589
    FEWALD:  cpu time    0.0003: real time    0.0003
    ORTHCH:  cpu time    0.2460: real time    0.2496
     LOOP+:  cpu time   55.5283: real time   56.4549


--------------------------------------- Iteration      6(   1)  ---------------------------------------


    POTLOK:  cpu time    7.5250: real time    7.5496
    SETDIJ:  cpu time    0.0125: real time    0.0125
     EDDAV:  cpu time    3.8990: real time    3.9105
       DOS:  cpu time    0.0003: real time    0.0006
    CHARGE:  cpu time    0.8820: real time    0.8878
    MIXING:  cpu time    0.1668: real time    0.1686
    --------------------------------------------
      LOOP:  cpu time   12.4857: real time   12.5297

 eigenvalue-minimisations  :    32
 total energy-change (2. order) :-0.8855944E-06  (-0.1611103E-05)
 number of electron       7.9999998 magnetization 
 augmentation part       -1.1603885 magnetization 

 Broyden mixing:
  rms(total) = 0.18965E-03    rms(broyden)= 0.18964E-03
  rms(prec ) = 0.25014E-03
  weight for this iteration     100.00

 Free energy of the ion-electron system (eV)
  ---------------------------------------------------
  alpha Z        PSCENC =         0.02182671
  Ewald energy   TEWEN  =        23.39304054
  -Hartree energ DENC   =      -217.81880531
  -exchange      EXHF   =         0.00000000
  -V(xc)+E(xc)   XCENC  =       -23.20959551
  PAW double counting   =       252.05560788     -213.73799402
  entropy T*S    EENTRO =        -0.00000000
  eigenvalues    EBANDS =       -77.98085174
  atomic energy  EATOM  =       248.21064898
  Solvation  Ediel_sol  =         0.00000000
  ---------------------------------------------------
  free energy    TOTEN  =        -9.06612246 eV

  energy without entropy =       -9.06612246  energy(sigma->0) =       -9.06612246


--------------------------------------------------------------------------------------------------------




--------------------------------------- Iteration      6(   2)  ---------------------------------------


    POTLOK:  cpu time    7.5354: real time    7.5522
    SETDIJ:  cpu time    0.0124: real time    0.0124
    EDDIAG:  cpu time    0.5019: real time    0.5031
  RMM-DIIS:  cpu time    1.1083: real time    1.1116
    ORTHCH:  cpu time    0.0282: real time    0.0282
       DOS:  cpu time    0.0004: real time    0.0005
    --------------------------------------------
      LOOP:  cpu time    9.1866: real time    9.2081

 eigenvalue-minimisations  :     6
 total energy-change (2. order) :-0.1117787E-06  ( 0.0000000E+00)
 number of electron       7.9999998 magnetization 
 augmentation part       -1.1603885 magnetization 

 Free energy of the ion-electron system (eV)
  ---------------------------------------------------
  alpha Z        PSCENC =         0.02182671
  Ewald energy   TEWEN  =        23.39304054
  -Hartree energ DENC   =      -217.81700615
  -exchange      EXHF   =         0.00000000
  -V(xc)+E(xc)   XCENC  =       -23.20959611
  PAW double counting   =       252.03993384     -213.72216051
  entropy T*S    EENTRO =        -0.00000000
  eigenvalues    EBANDS =       -77.98280988
  atomic energy  EATOM  =       248.21064898
  Solvation  Ediel_sol  =         0.00000000
  ---------------------------------------------------
  free energy    TOTEN  =        -9.06612257 eV

  energy without entropy =       -9.06612257  energy(sigma->0) =       -9.06612257


--------------------------------------------------------------------------------------------------------




 average (electrostatic) potential at core
  the test charge radii are     1.1897  0.5883
  (the norm of the test charge is              1.0000)
       1 -98.7048       2 -39.8197       3 -39.8197



 E-fermi :  -5.1744     XC(G=0):  -0.3557     alpha+bet : -0.1228


 k-point     1 :       0.0000    0.0000    0.0000
  band No.  band energies     occupation 
      1     -15.9832      2.00000
      2      -9.0918      2.00000
      3      -8.4751      2.00000
      4      -5.4413      2.00000
      5      -1.7686      0.00000
      6      -0.9959      0.00000
      7       0.1056      0.00000
      8       0.4461      0.00000


--------------------------------------------------------------------------------------------------------


 soft charge-density along one line, spin component           1
         0         1         2         3         4         5         6         7         8         9
 total charge-density along one line

 pseudopotential strength for first ion, spin component:           1
 55.851 -31.177   0.080  -0.000   0.080   0.213  -0.000   0.213
-31.177  39.183  -0.030   0.000  -0.030  -0.119   0.000  -0.119
  0.080  -0.030  13.618  -0.000  -0.006  29.188  -0.000  -0.016
 -0.000   0.000  -0.000  13.574  -0.000  -0.000  29.085  -0.000
  0.080  -0.030  -0.006  -0.000  13.618  -0.016  -0.000  29.188
  0.213  -0.119  29.188  -0.000  -0.016  67.794  -0.000  -0.048
 -0.000   0.000  -0.000  29.085  -0.000  -0.000  67.476  -0.000
  0.213  -0.119  -0.016  -0.000  29.188  -0.048  -0.000  67.794
 -0.013   0.005   0.026  -0.000   0.026   0.046  -0.000   0.046
 -0.000   0.000  -0.000   0.024  -0.000  -0.000   0.045  -0.000
 -0.051   0.019  -0.015  -0.000  -0.015  -0.021  -0.000  -0.021
 -0.000   0.000  -0.000   0.024  -0.000  -0.000   0.045  -0.000
  0.000  -0.000  -0.025  -0.000   0.025  -0.036   0.000   0.036
  0.025  -0.005  -0.057   0.000  -0.057  -0.143   0.000  -0.143
  0.000  -0.000   0.000  -0.056   0.000   0.000  -0.140   0.000
  0.099  -0.021   0.032   0.000   0.032   0.072   0.000   0.072
  0.000  -0.000   0.000  -0.056   0.000   0.000  -0.140   0.000
 -0.000   0.000   0.053   0.000  -0.053   0.122  -0.000  -0.122
 total augmentation occupancy for first ion, spin component:           1
  1.924   0.009  -0.171   0.000  -0.171  -0.001   0.000  -0.001  -0.003  -0.000  -0.046  -0.000   0.000   0.003   0.000   0.002
  0.009   0.001   0.025  -0.000   0.025  -0.000   0.000  -0.000   0.002  -0.000  -0.006  -0.000  -0.000   0.000  -0.000  -0.000
 -0.171   0.025   1.248   0.000   0.091  -0.018   0.000  -0.001   0.052  -0.000  -0.129   0.000  -0.243   0.000  -0.000  -0.006
  0.000  -0.000   0.000   1.910   0.000   0.000  -0.003   0.000  -0.000   0.033   0.000   0.033  -0.000  -0.000  -0.002   0.000
 -0.171   0.025   0.091   0.000   1.248  -0.001   0.000  -0.018   0.052   0.000  -0.129  -0.000   0.243   0.000  -0.000  -0.006
 -0.001  -0.000  -0.018   0.000  -0.001   0.000  -0.000   0.000  -0.001   0.000   0.002   0.000   0.004  -0.000   0.000   0.000
  0.000   0.000   0.000  -0.003   0.000  -0.000   0.000  -0.000   0.000  -0.000  -0.000  -0.000  -0.000   0.000   0.000  -0.000
 -0.001  -0.000  -0.001   0.000  -0.018   0.000  -0.000   0.000  -0.001   0.000   0.002   0.000  -0.004  -0.000   0.000   0.000
 -0.003   0.002   0.052  -0.000   0.052  -0.001   0.000  -0.001   0.004  -0.000  -0.010  -0.000  -0.000   0.000  -0.000  -0.000
 -0.000  -0.000  -0.000   0.033   0.000   0.000  -0.000   0.000  -0.000   0.001   0.000   0.001   0.000  -0.000  -0.000   0.000
 -0.046  -0.006  -0.129   0.000  -0.129   0.002  -0.000   0.002  -0.010   0.000   0.028   0.000   0.000  -0.000   0.000   0.001
 -0.000  -0.000   0.000   0.033  -0.000   0.000  -0.000   0.000  -0.000   0.001   0.000   0.001  -0.000  -0.000  -0.000   0.000
  0.000  -0.000  -0.243  -0.000   0.243   0.004  -0.000  -0.004  -0.000   0.000   0.000  -0.000   0.102  -0.000   0.000   0.000
  0.003   0.000   0.000  -0.000   0.000  -0.000   0.000  -0.000   0.000  -0.000  -0.000  -0.000  -0.000   0.000  -0.000  -0.000
  0.000  -0.000  -0.000  -0.002  -0.000   0.000   0.000   0.000  -0.000  -0.000   0.000  -0.000   0.000  -0.000   0.000   0.000
  0.002  -0.000  -0.006   0.000  -0.006   0.000  -0.000   0.000  -0.000   0.000   0.001   0.000   0.000  -0.000   0.000   0.000
  0.000  -0.000  -0.000  -0.002  -0.000   0.000   0.000   0.000  -0.000  -0.000   0.000  -0.000  -0.000  -0.000   0.000   0.000
 -0.000  -0.000  -0.010  -0.000   0.010   0.000  -0.000  -0.000  -0.000   0.000   0.000  -0.000   0.004  -0.000   0.000   0.000


------------------------ aborting loop because EDIFF is reached ----------------------------------------


    CHARGE:  cpu time    0.8827: real time    0.8854
    FORLOC:  cpu time    0.3122: real time    0.3126
    FORNL :  cpu time    0.7556: real time    0.7572
    STRESS:  cpu time    2.8516: real time    2.8587
    FORCOR:  cpu time    7.3293: real time    7.3415
    FORHAR:  cpu time    2.1156: real time    2.1189
    MIXING:  cpu time    0.1699: real time    0.1702
    OFIELD:  cpu time    0.0000: real time    0.0000

  FORCE on cell =-STRESS in cart. coord.  units (eV):
  Direction    XX          YY          ZZ          XY          YZ          ZX
  --------------------------------------------------------------------------------------
  Alpha Z     0.02183     0.02183     0.02183
  Ewald      26.30722    26.30726   -29.22146     4.91153    -0.00013    -0.00013
  Hartree    77.00292    77.00289    63.80738     0.65115    -0.00003    -0.00003
  E(xc)     -29.21668   -29.21668   -29.48759    -0.11164    -0.00000    -0.00000
  Local    -218.37822  -218.37810  -166.01552    -7.37480     0.00013     0.00013
  n-local   106.77141   106.77138   108.49812     2.30798    -0.00000    -0.00000
  augment   -25.28168   -25.28167   -27.84063    -0.36366    -0.00000    -0.00000
  Kinetic    62.84039    62.84041    80.07301    -0.56354     0.00004     0.00004
  Fock        0.00000     0.00000     0.00000     0.00000     0.00000     0.00000
  -------------------------------------------------------------------------------------
  Total       0.06719     0.06731    -0.16486    -0.54298     0.00000     0.00000
  in kB       0.03189     0.03195    -0.07826    -0.25776     0.00000     0.00000
  external pressure =       -0.00 kB  Pullay stress =        0.00 kB


 VOLUME and BASIS-vectors are now :
 -----------------------------------------------------------------------------
  energy-cutoff  :      450.00
  volume of cell :     3375.00
      direct lattice vectors                 reciprocal lattice vectors
    15.000000000  0.000000000  0.000000000     0.066666667  0.000000000  0.000000000
     0.000000000 15.000000000  0.000000000     0.000000000  0.066666667  0.000000000
     0.000000000  0.000000000 15.000000000     0.000000000  0.000000000  0.066666667

  length of vectors
    15.000000000 15.000000000 15.000000000     0.066666667  0.066666667  0.066666667


 FORCES acting on ions
    electron-ion (+dipol)            ewald-force                    non-local-force                 convergence-correction
 -----------------------------------------------------------------------------------------------
   0.282E+02 0.282E+02 -.123E-03   -.332E+02 -.332E+02 0.144E-03   0.517E+01 0.517E+01 -.223E-04   0.253E-02 0.256E-02 0.802E-06
   -.301E+02 -.360E+00 0.660E-04   0.329E+02 0.318E+00 -.721E-04   -.268E+01 -.299E+00 0.650E-05   -.310E-03 0.372E-03 0.133E-06
   -.360E+00 -.301E+02 0.659E-04   0.318E+00 0.329E+02 -.721E-04   -.299E+00 -.268E+01 0.650E-05   0.367E-03 -.317E-03 0.132E-06
 -----------------------------------------------------------------------------------------------
   -.220E+01 -.220E+01 0.866E-05   -.444E-14 -.711E-14 0.550E-17   0.220E+01 0.220E+01 -.935E-05   0.258E-02 0.262E-02 0.107E-05


 POSITION                                       TOTAL-FORCE (eV/Angst)
 -----------------------------------------------------------------------------------
      7.23110      7.23111      7.50000         0.175587      0.175538     -0.000001
      8.89445      7.36444      7.50000         0.164932     -0.340526      0.000000
      7.36444      8.89445      7.50000        -0.340519      0.164989      0.000000
 -----------------------------------------------------------------------------------
    total drift:                               -0.000671     -0.000696      0.000000


--------------------------------------------------------------------------------------------------------



  FREE ENERGIE OF THE ION-ELECTRON SYSTEM (eV)
  ---------------------------------------------------
  free  energy   TOTEN  =        -9.06612257 eV

  energy  without entropy=       -9.06612257  energy(sigma->0) =       -9.06612257

 d Force = 0.2969621E-06[ 0.184E-06, 0.410E-06]  d Energy = 0.1228658E-05-0.932E-06
 d Force = 0.7156851E-02[ 0.716E-02, 0.716E-02]  d Ewald  = 0.7156851E-02 0.163E-10


--------------------------------------------------------------------------------------------------------


    POTLOK:  cpu time    7.5429: real time    7.5570


--------------------------------------------------------------------------------------------------------


 stress matrix after NEB project (eV)
      0.06719     -0.54298      0.00000
     -0.54298      0.06731      0.00000
      0.00000      0.00000     -0.16486
  FORCES: max atom, RMS     0.378384    0.340578
  FORCE total and by dimension    0.589898    0.340526
  Stress total and by dimension    0.791125    0.542980


--------------------------------------------------------------------------------------------------------


    WAVPRE:  cpu time    1.2707: real time    1.5879
    FEWALD:  cpu time    0.0003: real time    0.0003
    ORTHCH:  cpu time    0.2478: real time    0.2499
     LOOP+:  cpu time   45.1884: real time   45.9633


--------------------------------------- Iteration      7(   1)  ---------------------------------------


    POTLOK:  cpu time    7.5376: real time    7.5601
    SETDIJ:  cpu time    0.0129: real time    0.0129
     EDDAV:  cpu time    3.8730: real time    3.8850
       DOS:  cpu time    0.0003: real time    0.0006
    CHARGE:  cpu time    0.8847: real time    0.8887
    MIXING:  cpu time    0.1674: real time    0.1680
    --------------------------------------------
      LOOP:  cpu time   12.4758: real time   12.5153

 eigenvalue-minimisations  :    32
 total energy-change (2. order) :-0.9773887E-02  (-0.1112448E-01)
 number of electron       7.9999999 magnetization 
 augmentation part       -1.1605916 magnetization 

 Broyden mixing:
  rms(total) = 0.57742E-02    rms(broyden)= 0.57592E-02
  rms(prec ) = 0.65224E-02
  weight for this iteration     100.00

 Free energy of the ion-electron system (eV)
  ---------------------------------------------------
  alpha Z        PSCENC =         0.02182671
  Ewald energy   TEWEN  =        23.39178591
  -Hartree energ DENC   =      -217.80645371
  -exchange      EXHF   =         0.00000000
  -V(xc)+E(xc)   XCENC  =       -23.20577392
  PAW double counting   =       252.01295540     -213.69490561
  entropy T*S    EENTRO =        -0.00000000
  eigenvalues    EBANDS =       -78.00598011
  atomic energy  EATOM  =       248.21064898
  Solvation  Ediel_sol  =         0.00000000
  ---------------------------------------------------
  free energy    TOTEN  =        -9.07589635 eV

  energy without entropy =       -9.07589635  energy(sigma->0) =       -9.07589635


--------------------------------------------------------------------------------------------------------




--------------------------------------- Iteration      7(   2)  ---------------------------------------


    POTLOK:  cpu time    7.4839: real time    7.5006
    SETDIJ:  cpu time    0.0123: real time    0.0123
    EDDIAG:  cpu time    0.4975: real time    0.4998
  RMM-DIIS:  cpu time    1.9789: real time    1.9843
    ORTHCH:  cpu time    0.0289: real time    0.0290
       DOS:  cpu time    0.0004: real time    0.0009
    CHARGE:  cpu time    0.8854: real time    0.8876
    MIXING:  cpu time    0.1745: real time    0.1748
    --------------------------------------------
      LOOP:  cpu time   11.0618: real time   11.0892

 eigenvalue-minimisations  :    16
 total energy-change (2. order) :-0.1076104E-05  (-0.5943917E-04)
 number of electron       7.9999999 magnetization 
 augmentation part       -1.1603025 magnetization 

 Broyden mixing:
  rms(total) = 0.36980E-02    rms(broyden)= 0.36970E-02
  rms(prec ) = 0.41094E-02
  weight for this iteration     100.00

 eigenvalues of (default mixing * dielectric matrix)
  average eigenvalue GAMMA=   1.9523
  1.9523

 Free energy of the ion-electron system (eV)
  ---------------------------------------------------
  alpha Z        PSCENC =         0.02182671
  Ewald energy   TEWEN  =        23.39178591
  -Hartree energ DENC   =      -217.79775845
  -exchange      EXHF   =         0.00000000
  -V(xc)+E(xc)   XCENC  =       -23.20674682
  PAW double counting   =       252.10030348     -213.78269400
  entropy T*S    EENTRO =        -0.00000000
  eigenvalues    EBANDS =       -78.01326323
  atomic energy  EATOM  =       248.21064898
  Solvation  Ediel_sol  =         0.00000000
  ---------------------------------------------------
  free energy    TOTEN  =        -9.07589742 eV

  energy without entropy =       -9.07589742  energy(sigma->0) =       -9.07589742


--------------------------------------------------------------------------------------------------------




--------------------------------------- Iteration      7(   3)  ---------------------------------------


    POTLOK:  cpu time    7.4350: real time    7.4549
    SETDIJ:  cpu time    0.0120: real time    0.0120
    EDDIAG:  cpu time    0.5009: real time    0.5022
  RMM-DIIS:  cpu time    2.2153: real time    2.2238
    ORTHCH:  cpu time    0.0282: real time    0.0283
       DOS:  cpu time    0.0003: real time    0.0005
    --------------------------------------------
      LOOP:  cpu time   10.1916: real time   10.2216

 eigenvalue-minimisations  :    17
 total energy-change (2. order) : 0.4592876E-05  (-0.9803769E-05)
 number of electron       7.9999999 magnetization 
 augmentation part       -1.1603025 magnetization 

 Free energy of the ion-electron system (eV)
  ---------------------------------------------------
  alpha Z        PSCENC =         0.02182671
  Ewald energy   TEWEN  =        23.39178591
  -Hartree energ DENC   =      -217.79369743
  -exchange      EXHF   =         0.00000000
  -V(xc)+E(xc)   XCENC  =       -23.20684555
  PAW double counting   =       252.13555566     -213.81821456
  entropy T*S    EENTRO =        -0.00000000
  eigenvalues    EBANDS =       -78.01695255
  atomic energy  EATOM  =       248.21064898
  Solvation  Ediel_sol  =         0.00000000
  ---------------------------------------------------
  free energy    TOTEN  =        -9.07589283 eV

  energy without entropy =       -9.07589283  energy(sigma->0) =       -9.07589283


--------------------------------------------------------------------------------------------------------




 average (electrostatic) potential at core
  the test charge radii are     1.1897  0.5883
  (the norm of the test charge is              1.0000)
       1 -98.7051       2 -39.8305       3 -39.8306



 E-fermi :  -5.1972     XC(G=0):  -0.3555     alpha+bet : -0.1228


 k-point     1 :       0.0000    0.0000    0.0000
  band No.  band energies     occupation 
      1     -15.9851      2.00000
      2      -9.1385      2.00000
      3      -8.4432      2.00000
      4      -5.4417      2.00000
      5      -1.7422      0.00000
      6      -0.9981      0.00000
      7       0.1035      0.00000
      8       0.4125      0.00000


--------------------------------------------------------------------------------------------------------


 soft charge-density along one line, spin component           1
         0         1         2         3         4         5         6         7         8         9
 total charge-density along one line

 pseudopotential strength for first ion, spin component:           1
 55.852 -31.178   0.081  -0.000   0.081   0.215  -0.000   0.215
-31.178  39.183  -0.030   0.000  -0.030  -0.119   0.000  -0.119
  0.081  -0.030  13.618  -0.000  -0.006  29.188  -0.000  -0.016
 -0.000   0.000  -0.000  13.574  -0.000  -0.000  29.085  -0.000
  0.081  -0.030  -0.006  -0.000  13.618  -0.016  -0.000  29.188
  0.215  -0.119  29.188  -0.000  -0.016  67.795  -0.000  -0.048
 -0.000   0.000  -0.000  29.085  -0.000  -0.000  67.477  -0.000
  0.215  -0.119  -0.016  -0.000  29.188  -0.048  -0.000  67.795
 -0.013   0.005   0.026  -0.000   0.026   0.047  -0.000   0.047
 -0.000   0.000  -0.000   0.024  -0.000  -0.000   0.046  -0.000
 -0.051   0.019  -0.015  -0.000  -0.015  -0.022  -0.000  -0.022
 -0.000   0.000  -0.000   0.024  -0.000  -0.000   0.046  -0.000
  0.000  -0.000  -0.025   0.000   0.025  -0.036   0.000   0.036
  0.026  -0.005  -0.058   0.000  -0.058  -0.145   0.000  -0.145
  0.000  -0.000   0.000  -0.056   0.000   0.000  -0.142   0.000
  0.099  -0.021   0.032   0.000   0.032   0.073   0.000   0.073
  0.000  -0.000   0.000  -0.056   0.000   0.000  -0.142   0.000
 -0.000   0.000   0.054  -0.000  -0.054   0.124  -0.000  -0.124
 total augmentation occupancy for first ion, spin component:           1
  1.923   0.009  -0.171   0.000  -0.171  -0.002   0.000  -0.002  -0.004  -0.000  -0.046  -0.000   0.000   0.003   0.000   0.002
  0.009   0.001   0.025  -0.000   0.025  -0.000   0.000  -0.000   0.002  -0.000  -0.006  -0.000   0.000   0.000  -0.000  -0.000
 -0.171   0.025   1.249   0.000   0.093  -0.018   0.000  -0.001   0.048  -0.000  -0.129   0.000  -0.243   0.000  -0.000  -0.006
  0.000  -0.000   0.000   1.910   0.000   0.000  -0.003   0.000  -0.000   0.033   0.000   0.033  -0.000  -0.000  -0.002   0.000
 -0.171   0.025   0.093   0.000   1.249  -0.001   0.000  -0.018   0.048   0.000  -0.129  -0.000   0.243   0.000  -0.000  -0.006
 -0.002  -0.000  -0.018   0.000  -0.001   0.000  -0.000   0.000  -0.001   0.000   0.002   0.000   0.004  -0.000   0.000   0.000
  0.000   0.000   0.000  -0.003   0.000  -0.000   0.000  -0.000   0.000  -0.000  -0.000  -0.000  -0.000   0.000   0.000  -0.000
 -0.002  -0.000  -0.001   0.000  -0.018   0.000  -0.000   0.000  -0.001   0.000   0.002   0.000  -0.004  -0.000   0.000   0.000
 -0.004   0.002   0.048  -0.000   0.048  -0.001   0.000  -0.001   0.003  -0.000  -0.010  -0.000   0.000   0.000  -0.000  -0.000
 -0.000  -0.000  -0.000   0.033   0.000   0.000  -0.000   0.000  -0.000   0.001   0.000   0.001   0.000  -0.000  -0.000   0.000
 -0.046  -0.006  -0.129   0.000  -0.129   0.002  -0.000   0.002  -0.010   0.000   0.028   0.000   0.000  -0.000   0.000   0.001
 -0.000  -0.000   0.000   0.033  -0.000   0.000  -0.000   0.000  -0.000   0.001   0.000   0.001  -0.000  -0.000  -0.000   0.000
  0.000   0.000  -0.243  -0.000   0.243   0.004  -0.000  -0.004   0.000   0.000   0.000  -0.000   0.103   0.000   0.000   0.000
  0.003   0.000   0.000  -0.000   0.000  -0.000   0.000  -0.000   0.000  -0.000  -0.000  -0.000   0.000   0.000  -0.000  -0.000
  0.000  -0.000  -0.000  -0.002  -0.000   0.000   0.000   0.000  -0.000  -0.000   0.000  -0.000   0.000  -0.000   0.000   0.000
  0.002  -0.000  -0.006   0.000  -0.006   0.000  -0.000   0.000  -0.000   0.000   0.001   0.000   0.000  -0.000   0.000   0.000
  0.000  -0.000  -0.000  -0.002  -0.000   0.000   0.000   0.000  -0.000  -0.000   0.000  -0.000  -0.000  -0.000   0.000   0.000
 -0.000   0.000  -0.010  -0.000   0.010   0.000  -0.000  -0.000   0.000   0.000  -0.000  -0.000   0.004   0.000   0.000  -0.000


------------------------ aborting loop because EDIFF is reached ----------------------------------------


    CHARGE:  cpu time    0.8885: real time    0.8909
    FORLOC:  cpu time    0.3087: real time    0.3093
    FORNL :  cpu time    0.7547: real time    0.7572
    STRESS:  cpu time    2.8444: real time    2.8518
    FORCOR:  cpu time    7.3273: real time    7.3456
    FORHAR:  cpu time    2.1097: real time    2.1173
    MIXING:  cpu time    0.1728: real time    0.1731
    OFIELD:  cpu time    0.0000: real time    0.0000

  FORCE on cell =-STRESS in cart. coord.  units (eV):
  Direction    XX          YY          ZZ          XY          YZ          ZX
  --------------------------------------------------------------------------------------
  Alpha Z     0.02183     0.02183     0.02183
  Ewald      26.30673    26.30670   -29.22166     4.02593    -0.00013    -0.00013
  Hartree    76.99271    76.99275    63.81412     0.40451    -0.00003    -0.00003
  E(xc)     -29.22173   -29.22172   -29.48965    -0.10863    -0.00000    -0.00000
  Local    -218.37932  -218.37929  -166.02859    -6.30878     0.00012     0.00012
  n-local   106.79272   106.79249   108.48568     2.20210    -0.00000    -0.00000
  augment   -25.28344   -25.28344   -27.83578    -0.36835    -0.00000    -0.00000
  Kinetic    62.85608    62.85607    80.09431    -0.32490     0.00004     0.00004
  Fock        0.00000     0.00000     0.00000     0.00000     0.00000     0.00000
  -------------------------------------------------------------------------------------
  Total       0.08559     0.08539    -0.15974    -0.47813     0.00000     0.00000
  in kB       0.04063     0.04054    -0.07583    -0.22698     0.00000     0.00000
  external pressure =        0.00 kB  Pullay stress =        0.00 kB


 VOLUME and BASIS-vectors are now :
 -----------------------------------------------------------------------------
  energy-cutoff  :      450.00
  volume of cell :     3375.00
      direct lattice vectors                 reciprocal lattice vectors
    15.000000000  0.000000000  0.000000000     0.066666667  0.000000000  0.000000000
     0.000000000 15.000000000  0.000000000     0.000000000  0.066666667  0.000000000
     0.000000000  0.000000000 15.000000000     0.000000000  0.000000000  0.066666667

  length of vectors
    15.000000000 15.000000000 15.000000000     0.066666667  0.066666667  0.066666667


 FORCES acting on ions
    electron-ion (+dipol)            ewald-force                    non-local-force                 convergence-correction
 -----------------------------------------------------------------------------------------------
   0.279E+02 0.279E+02 -.121E-03   -.330E+02 -.330E+02 0.144E-03   0.522E+01 0.522E+01 -.176E-04   -.169E-02 -.181E-02 -.234E-07
   -.301E+02 -.117E+00 0.658E-04   0.329E+02 0.836E-01 -.719E-04   -.269E+01 -.266E+00 0.645E-05   -.366E-03 0.731E-04 -.181E-07
   -.117E+00 -.301E+02 0.657E-04   0.836E-01 0.329E+02 -.718E-04   -.266E+00 -.269E+01 0.644E-05   0.863E-04 -.397E-03 -.103E-07
 -----------------------------------------------------------------------------------------------
   -.227E+01 -.227E+01 0.105E-04   -.266E-14 0.000E+00 0.549E-17   0.227E+01 0.227E+01 -.474E-05   -.197E-02 -.213E-02 -.518E-07


 POSITION                                       TOTAL-FORCE (eV/Angst)
 -----------------------------------------------------------------------------------
      7.23615      7.23614      7.50000         0.128362      0.128109      0.000003
      8.89960      7.35425      7.50000         0.169850     -0.298088     -0.000002
      7.35425      8.89961      7.50000        -0.298212      0.169979     -0.000002
 -----------------------------------------------------------------------------------
    total drift:                               -0.004922     -0.005322      0.000006


--------------------------------------------------------------------------------------------------------



  FREE ENERGIE OF THE ION-ELECTRON SYSTEM (eV)
  ---------------------------------------------------
  free  energy   TOTEN  =        -9.07589283 eV

  energy  without entropy=       -9.07589283  energy(sigma->0) =       -9.07589283

 d Force = 0.9765645E-02[ 0.912E-02, 0.104E-01]  d Energy = 0.9770258E-02-0.461E-05
 d Force = 0.1261919E-02[ 0.483E-02,-0.231E-02]  d Ewald  = 0.1254636E-02 0.728E-05


--------------------------------------------------------------------------------------------------------


    POTLOK:  cpu time    7.4209: real time    7.4381


--------------------------------------------------------------------------------------------------------


 stress matrix after NEB project (eV)
      0.08559     -0.47813      0.00000
     -0.47813      0.08539      0.00000
      0.00000      0.00000     -0.15974
  FORCES: max atom, RMS     0.343254    0.299119
  FORCE total and by dimension    0.518090    0.298212
  Stress total and by dimension    0.705228    0.478128
 Conjugate gradient step on ions:
 trial-energy change:   -0.009770  1 .order   -0.009766   -0.010410   -0.009121
  (g-gl).g = 0.105E-01      g.g   = 0.118E-01  gl.gl    = 0.159E+02
 g(Force)  = 0.118E-01   g(Stress)= 0.000E+00 ortho     = 0.124E-02
 gamma     =   0.00066
 trial     =   0.88585
 opt step  =   3.54339  (harmonic =   7.15054) maximal distance =0.02061136
 next E    =    -9.108139   (d E  =  -0.04202)


--------------------------------------------------------------------------------------------------------


    WAVPRE:  cpu time    1.3041: real time    1.7261
    FEWALD:  cpu time    0.0003: real time    0.0003
    ORTHCH:  cpu time    0.2497: real time    0.2516
     LOOP+:  cpu time   57.1474: real time   58.0602


--------------------------------------- Iteration      8(   1)  ---------------------------------------


    POTLOK:  cpu time    7.3793: real time    7.4319
    SETDIJ:  cpu time    0.0120: real time    0.0121
     EDDAV:  cpu time    2.1945: real time    2.2106
       DOS:  cpu time    0.0007: real time    0.0007
    CHARGE:  cpu time    0.8667: real time    0.8726
    MIXING:  cpu time    0.1670: real time    0.1679
    --------------------------------------------
      LOOP:  cpu time   10.6203: real time   10.6958

 eigenvalue-minimisations  :    16
 total energy-change (2. order) :-0.2112158E-01  (-0.9876737E-01)
 number of electron       8.0000000 magnetization 
 augmentation part       -1.1602766 magnetization 

 Broyden mixing:
  rms(total) = 0.17050E-01    rms(broyden)= 0.17001E-01
  rms(prec ) = 0.19414E-01
  weight for this iteration     100.00

 Free energy of the ion-electron system (eV)
  ---------------------------------------------------
  alpha Z        PSCENC =         0.02182671
  Ewald energy   TEWEN  =        23.34459926
  -Hartree energ DENC   =      -217.74404554
  -exchange      EXHF   =         0.00000000
  -V(xc)+E(xc)   XCENC  =       -23.19675607
  PAW double counting   =       252.16779108     -213.85051141
  entropy T*S    EENTRO =        -0.00000000
  eigenvalues    EBANDS =       -78.05057201
  atomic energy  EATOM  =       248.21064898
  Solvation  Ediel_sol  =         0.00000000
  ---------------------------------------------------
  free energy    TOTEN  =        -9.09701900 eV

  energy without entropy =       -9.09701900  energy(sigma->0) =       -9.09701900


--------------------------------------------------------------------------------------------------------




--------------------------------------- Iteration      8(   2)  ---------------------------------------


    POTLOK:  cpu time    7.3304: real time    7.3838
    SETDIJ:  cpu time    0.0121: real time    0.0121
    EDDIAG:  cpu time    0.5005: real time    0.5034
  RMM-DIIS:  cpu time    1.9932: real time    2.0093
    ORTHCH:  cpu time    0.0287: real time    0.0287
       DOS:  cpu time    0.0004: real time    0.0005
    CHARGE:  cpu time    0.8663: real time    0.8740
    MIXING:  cpu time    0.1702: real time    0.1720
    --------------------------------------------
      LOOP:  cpu time   10.9018: real time   10.9839

 eigenvalue-minimisations  :    16
 total energy-change (2. order) :-0.6785550E-03  (-0.1237945E-02)
 number of electron       8.0000000 magnetization 
 augmentation part       -1.1598152 magnetization 

 Broyden mixing:
  rms(total) = 0.11330E-01    rms(broyden)= 0.11327E-01
  rms(prec ) = 0.12595E-01
  weight for this iteration     100.00

 eigenvalues of (default mixing * dielectric matrix)
  average eigenvalue GAMMA=   1.5751
  1.5751

 Free energy of the ion-electron system (eV)
  ---------------------------------------------------
  alpha Z        PSCENC =         0.02182671
  Ewald energy   TEWEN  =        23.34459926
  -Hartree energ DENC   =      -217.69987794
  -exchange      EXHF   =         0.00000000
  -V(xc)+E(xc)   XCENC  =       -23.20126399
  PAW double counting   =       252.42946913     -214.11262707
  entropy T*S    EENTRO =        -0.00000000
  eigenvalues    EBANDS =       -78.09047265
  atomic energy  EATOM  =       248.21064898
  Solvation  Ediel_sol  =         0.00000000
  ---------------------------------------------------
  free energy    TOTEN  =        -9.09769756 eV

  energy without entropy =       -9.09769756  energy(sigma->0) =       -9.09769756


--------------------------------------------------------------------------------------------------------




--------------------------------------- Iteration      8(   3)  ---------------------------------------


    POTLOK:  cpu time    7.3001: real time    7.3505
    SETDIJ:  cpu time    0.0119: real time    0.0120
    EDDIAG:  cpu time    0.4976: real time    0.5013
  RMM-DIIS:  cpu time    2.1991: real time    2.2252
    ORTHCH:  cpu time    0.0282: real time    0.0284
       DOS:  cpu time    0.0005: real time    0.0005
    CHARGE:  cpu time    0.8684: real time    0.8760
    MIXING:  cpu time    0.1708: real time    0.1742
    --------------------------------------------
      LOOP:  cpu time   11.0767: real time   11.1682

 eigenvalue-minimisations  :    17
 total energy-change (2. order) : 0.3556625E-06  (-0.1140697E-03)
 number of electron       8.0000000 magnetization 
 augmentation part       -1.1599255 magnetization 

 Broyden mixing:
  rms(total) = 0.43986E-02    rms(broyden)= 0.43982E-02
  rms(prec ) = 0.48800E-02
  weight for this iteration     100.00

 eigenvalues of (default mixing * dielectric matrix)
  average eigenvalue GAMMA=   1.7624
  2.4101  1.1147

 Free energy of the ion-electron system (eV)
  ---------------------------------------------------
  alpha Z        PSCENC =         0.02182671
  Ewald energy   TEWEN  =        23.34459926
  -Hartree energ DENC   =      -217.68737217
  -exchange      EXHF   =         0.00000000
  -V(xc)+E(xc)   XCENC  =       -23.20151790
  PAW double counting   =       252.48038210     -214.16399894
  entropy T*S    EENTRO =        -0.00000000
  eigenvalues    EBANDS =       -78.10226525
  atomic energy  EATOM  =       248.21064898
  Solvation  Ediel_sol  =         0.00000000
  ---------------------------------------------------
  free energy    TOTEN  =        -9.09769720 eV

  energy without entropy =       -9.09769720  energy(sigma->0) =       -9.09769720


--------------------------------------------------------------------------------------------------------




--------------------------------------- Iteration      8(   4)  ---------------------------------------


    POTLOK:  cpu time    7.2984: real time    7.3462
    SETDIJ:  cpu time    0.0119: real time    0.0120
    EDDIAG:  cpu time    0.4994: real time    0.5014
  RMM-DIIS:  cpu time    2.2167: real time    2.2427
    ORTHCH:  cpu time    0.0282: real time    0.0282
       DOS:  cpu time    0.0004: real time    0.0004
    CHARGE:  cpu time    0.8664: real time    0.8748
    MIXING:  cpu time    0.1753: real time    0.1764
    --------------------------------------------
      LOOP:  cpu time   11.0968: real time   11.1822

 eigenvalue-minimisations  :    17
 total energy-change (2. order) :-0.4397325E-04  (-0.2782015E-04)
 number of electron       8.0000000 magnetization 
 augmentation part       -1.1601289 magnetization 

 Broyden mixing:
  rms(total) = 0.96055E-03    rms(broyden)= 0.96048E-03
  rms(prec ) = 0.12731E-02
  weight for this iteration     100.00

 eigenvalues of (default mixing * dielectric matrix)
  average eigenvalue GAMMA=   1.5461
  2.2961  0.9123  1.4298

 Free energy of the ion-electron system (eV)
  ---------------------------------------------------
  alpha Z        PSCENC =         0.02182671
  Ewald energy   TEWEN  =        23.34459926
  -Hartree energ DENC   =      -217.69102665
  -exchange      EXHF   =         0.00000000
  -V(xc)+E(xc)   XCENC  =       -23.20082014
  PAW double counting   =       252.53932760     -214.22328706
  entropy T*S    EENTRO =        -0.00000000
  eigenvalues    EBANDS =       -78.09900987
  atomic energy  EATOM  =       248.21064898
  Solvation  Ediel_sol  =         0.00000000
  ---------------------------------------------------
  free energy    TOTEN  =        -9.09774117 eV

  energy without entropy =       -9.09774117  energy(sigma->0) =       -9.09774117


--------------------------------------------------------------------------------------------------------




--------------------------------------- Iteration      8(   5)  ---------------------------------------


    POTLOK:  cpu time    7.2969: real time    7.3448
    SETDIJ:  cpu time    0.0113: real time    0.0113
    EDDIAG:  cpu time    0.4997: real time    0.5033
  RMM-DIIS:  cpu time    1.7356: real time    1.7467
    ORTHCH:  cpu time    0.0285: real time    0.0287
       DOS:  cpu time    0.0003: real time    0.0004
    CHARGE:  cpu time    0.8673: real time    0.8764
    MIXING:  cpu time    0.1782: real time    0.1801
    --------------------------------------------
      LOOP:  cpu time   10.6180: real time   10.6918

 eigenvalue-minimisations  :    13
 total energy-change (2. order) :-0.1639885E-04  (-0.1756961E-05)
 number of electron       8.0000000 magnetization 
 augmentation part       -1.1600800 magnetization 

 Broyden mixing:
  rms(total) = 0.56028E-03    rms(broyden)= 0.56028E-03
  rms(prec ) = 0.78619E-03
  weight for this iteration     100.00

 eigenvalues of (default mixing * dielectric matrix)
  average eigenvalue GAMMA=   1.7146
  2.6247  2.0786  1.0473  1.1078

 Free energy of the ion-electron system (eV)
  ---------------------------------------------------
  alpha Z        PSCENC =         0.02182671
  Ewald energy   TEWEN  =        23.34459926
  -Hartree energ DENC   =      -217.69821832
  -exchange      EXHF   =         0.00000000
  -V(xc)+E(xc)   XCENC  =       -23.20056206
  PAW double counting   =       252.58442246     -214.26856558
  entropy T*S    EENTRO =        -0.00000000
  eigenvalues    EBANDS =       -78.09190903
  atomic energy  EATOM  =       248.21064898
  Solvation  Ediel_sol  =         0.00000000
  ---------------------------------------------------
  free energy    TOTEN  =        -9.09775757 eV

  energy without entropy =       -9.09775757  energy(sigma->0) =       -9.09775757


--------------------------------------------------------------------------------------------------------




--------------------------------------- Iteration      8(   6)  ---------------------------------------


    POTLOK:  cpu time    7.2960: real time    7.3485
    SETDIJ:  cpu time    0.0119: real time    0.0119
    EDDIAG:  cpu time    0.4922: real time    0.4996
  RMM-DIIS:  cpu time    1.5267: real time    1.5435
    ORTHCH:  cpu time    0.0291: real time    0.0291
       DOS:  cpu time    0.0004: real time    0.0004
    CHARGE:  cpu time    0.8664: real time    0.8738
    MIXING:  cpu time    0.1856: real time    0.1860
    --------------------------------------------
      LOOP:  cpu time   10.4082: real time   10.4928

 eigenvalue-minimisations  :    12
 total energy-change (2. order) :-0.2882490E-04  (-0.1284189E-05)
 number of electron       8.0000000 magnetization 
 augmentation part       -1.1600345 magnetization 

 Broyden mixing:
  rms(total) = 0.22491E-03    rms(broyden)= 0.22491E-03
  rms(prec ) = 0.39698E-03
  weight for this iteration     100.00

 eigenvalues of (default mixing * dielectric matrix)
  average eigenvalue GAMMA=   1.5852
  2.7543  1.7108  1.7108  1.0096  0.7404

 Free energy of the ion-electron system (eV)
  ---------------------------------------------------
  alpha Z        PSCENC =         0.02182671
  Ewald energy   TEWEN  =        23.34459926
  -Hartree energ DENC   =      -217.70610370
  -exchange      EXHF   =         0.00000000
  -V(xc)+E(xc)   XCENC  =       -23.20051087
  PAW double counting   =       252.61568335     -214.30013800
  entropy T*S    EENTRO =        -0.00000000
  eigenvalues    EBANDS =       -78.08379213
  atomic energy  EATOM  =       248.21064898
  Solvation  Ediel_sol  =         0.00000000
  ---------------------------------------------------
  free energy    TOTEN  =        -9.09778640 eV

  energy without entropy =       -9.09778640  energy(sigma->0) =       -9.09778640


--------------------------------------------------------------------------------------------------------




--------------------------------------- Iteration      8(   7)  ---------------------------------------


    POTLOK:  cpu time    7.3020: real time    7.3480
    SETDIJ:  cpu time    0.0123: real time    0.0123
    EDDIAG:  cpu time    0.4967: real time    0.5013
  RMM-DIIS:  cpu time    1.5514: real time    1.5698
    ORTHCH:  cpu time    0.0281: real time    0.0285
       DOS:  cpu time    0.0004: real time    0.0004
    CHARGE:  cpu time    0.8665: real time    0.8739
    MIXING:  cpu time    0.1889: real time    0.1897
    --------------------------------------------
      LOOP:  cpu time   10.4463: real time   10.5240

 eigenvalue-minimisations  :    12
 total energy-change (2. order) :-0.1121015E-04  (-0.3032343E-06)
 number of electron       8.0000000 magnetization 
 augmentation part       -1.1600260 magnetization 

 Broyden mixing:
  rms(total) = 0.14146E-03    rms(broyden)= 0.14146E-03
  rms(prec ) = 0.29549E-03
  weight for this iteration     100.00

 eigenvalues of (default mixing * dielectric matrix)
  average eigenvalue GAMMA=   1.9026
  3.6708  2.4181  2.4181  1.0200  1.1290  0.7593

 Free energy of the ion-electron system (eV)
  ---------------------------------------------------
  alpha Z        PSCENC =         0.02182671
  Ewald energy   TEWEN  =        23.34459926
  -Hartree energ DENC   =      -217.70484393
  -exchange      EXHF   =         0.00000000
  -V(xc)+E(xc)   XCENC  =       -23.20056631
  PAW double counting   =       252.60728428     -214.29166445
  entropy T*S    EENTRO =        -0.00000000
  eigenvalues    EBANDS =       -78.08508215
  atomic energy  EATOM  =       248.21064898
  Solvation  Ediel_sol  =         0.00000000
  ---------------------------------------------------
  free energy    TOTEN  =        -9.09779761 eV

  energy without entropy =       -9.09779761  energy(sigma->0) =       -9.09779761


--------------------------------------------------------------------------------------------------------




--------------------------------------- Iteration      8(   8)  ---------------------------------------


    POTLOK:  cpu time    7.3012: real time    7.3549
    SETDIJ:  cpu time    0.0118: real time    0.0119
    EDDIAG:  cpu time    0.5006: real time    0.5028
  RMM-DIIS:  cpu time    1.5379: real time    1.5539
    ORTHCH:  cpu time    0.0294: real time    0.0294
       DOS:  cpu time    0.0004: real time    0.0004
    CHARGE:  cpu time    0.8682: real time    0.8748
    MIXING:  cpu time    0.1933: real time    0.1957
    --------------------------------------------
      LOOP:  cpu time   10.4427: real time   10.5237

 eigenvalue-minimisations  :    12
 total energy-change (2. order) :-0.4013191E-04  (-0.8922435E-06)
 number of electron       8.0000000 magnetization 
 augmentation part       -1.1600174 magnetization 

 Broyden mixing:
  rms(total) = 0.17853E-03    rms(broyden)= 0.17852E-03
  rms(prec ) = 0.24153E-03
  weight for this iteration     100.00

 eigenvalues of (default mixing * dielectric matrix)
  average eigenvalue GAMMA=   1.7049
  3.7313  2.4957  1.7339  1.5228  1.0066  0.7638  0.6803

 Free energy of the ion-electron system (eV)
  ---------------------------------------------------
  alpha Z        PSCENC =         0.02182671
  Ewald energy   TEWEN  =        23.34459926
  -Hartree energ DENC   =      -217.70283950
  -exchange      EXHF   =         0.00000000
  -V(xc)+E(xc)   XCENC  =       -23.20081787
  PAW double counting   =       252.57761993     -214.26187475
  entropy T*S    EENTRO =        -0.00000000
  eigenvalues    EBANDS =       -78.08700050
  atomic energy  EATOM  =       248.21064898
  Solvation  Ediel_sol  =         0.00000000
  ---------------------------------------------------
  free energy    TOTEN  =        -9.09783774 eV

  energy without entropy =       -9.09783774  energy(sigma->0) =       -9.09783774


--------------------------------------------------------------------------------------------------------




--------------------------------------- Iteration      8(   9)  ---------------------------------------


    POTLOK:  cpu time    7.3083: real time    7.3612
    SETDIJ:  cpu time    0.0133: real time    0.0133
    EDDIAG:  cpu time    0.4971: real time    0.5019
  RMM-DIIS:  cpu time    1.4900: real time    1.5011
    ORTHCH:  cpu time    0.0293: real time    0.0295
       DOS:  cpu time    0.0003: real time    0.0003
    --------------------------------------------
      LOOP:  cpu time    9.3383: real time    9.4074

 eigenvalue-minimisations  :    11
 total energy-change (2. order) :-0.4525739E-05  (-0.1043011E-06)
 number of electron       8.0000000 magnetization 
 augmentation part       -1.1600174 magnetization 

 Free energy of the ion-electron system (eV)
  ---------------------------------------------------
  alpha Z        PSCENC =         0.02182671
  Ewald energy   TEWEN  =        23.34459926
  -Hartree energ DENC   =      -217.70454722
  -exchange      EXHF   =         0.00000000
  -V(xc)+E(xc)   XCENC  =       -23.20066755
  PAW double counting   =       252.58907722     -214.27335583
  entropy T*S    EENTRO =        -0.00000000
  eigenvalues    EBANDS =       -78.08542384
  atomic energy  EATOM  =       248.21064898
  Solvation  Ediel_sol  =         0.00000000
  ---------------------------------------------------
  free energy    TOTEN  =        -9.09784226 eV

  energy without entropy =       -9.09784226  energy(sigma->0) =       -9.09784226


--------------------------------------------------------------------------------------------------------




 average (electrostatic) potential at core
  the test charge radii are     1.1897  0.5883
  (the norm of the test charge is              1.0000)
       1 -98.7009       2 -39.8539       3 -39.8539



 E-fermi :  -5.1616     XC(G=0):  -0.3628     alpha+bet : -0.1228


 k-point     1 :       0.0000    0.0000    0.0000
  band No.  band energies     occupation 
      1     -15.9859      2.00000
      2      -9.2687      2.00000
      3      -8.3468      2.00000
      4      -5.4413      2.00000
      5      -1.6607      0.00000
      6      -1.0158      0.00000
      7       0.0912      0.00000
      8       0.3786      0.00000


--------------------------------------------------------------------------------------------------------


 soft charge-density along one line, spin component           1
         0         1         2         3         4         5         6         7         8         9
 total charge-density along one line

 pseudopotential strength for first ion, spin component:           1
 55.852 -31.178   0.082  -0.000   0.082   0.220  -0.000   0.220
-31.178  39.184  -0.030   0.000  -0.030  -0.120   0.000  -0.120
  0.082  -0.030  13.618  -0.000  -0.007  29.188  -0.000  -0.017
 -0.000   0.000  -0.000  13.574  -0.000  -0.000  29.085  -0.000
  0.082  -0.030  -0.007  -0.000  13.618  -0.017  -0.000  29.188
  0.220  -0.120  29.188  -0.000  -0.017  67.794  -0.000  -0.050
 -0.000   0.000  -0.000  29.085  -0.000  -0.000  67.477  -0.000
  0.220  -0.120  -0.017  -0.000  29.188  -0.050  -0.000  67.794
 -0.014   0.005   0.026  -0.000   0.026   0.048  -0.000   0.048
 -0.000   0.000  -0.000   0.025  -0.000  -0.000   0.047  -0.000
 -0.051   0.019  -0.015  -0.000  -0.015  -0.022  -0.000  -0.022
 -0.000   0.000  -0.000   0.025  -0.000  -0.000   0.047  -0.000
  0.000  -0.000  -0.026  -0.000   0.026  -0.037   0.000   0.037
  0.027  -0.005  -0.058   0.000  -0.058  -0.148   0.000  -0.148
  0.000  -0.000   0.000  -0.057   0.000   0.000  -0.145   0.000
  0.099  -0.021   0.033   0.000   0.033   0.075   0.000   0.075
  0.000  -0.000   0.000  -0.057   0.000   0.000  -0.145   0.000
 -0.000   0.000   0.055   0.000  -0.055   0.127  -0.000  -0.127
 total augmentation occupancy for first ion, spin component:           1
  1.921   0.009  -0.171   0.000  -0.171  -0.001   0.000  -0.001  -0.007  -0.000  -0.046  -0.000   0.000   0.003   0.000   0.002
  0.009   0.001   0.026  -0.000   0.026  -0.000   0.000  -0.000   0.001  -0.000  -0.006  -0.000   0.000   0.000  -0.000  -0.000
 -0.171   0.026   1.253   0.000   0.099  -0.018   0.000  -0.001   0.036  -0.000  -0.130   0.000  -0.245  -0.001  -0.000  -0.006
  0.000  -0.000   0.000   1.910   0.000   0.000  -0.003   0.000  -0.000   0.034   0.000   0.034  -0.000  -0.000  -0.002   0.000
 -0.171   0.026   0.099   0.000   1.253  -0.001   0.000  -0.018   0.036   0.000  -0.130  -0.000   0.245  -0.001  -0.000  -0.006
 -0.001  -0.000  -0.018   0.000  -0.001   0.000  -0.000   0.000  -0.001   0.000   0.002   0.000   0.004   0.000   0.000   0.000
  0.000   0.000   0.000  -0.003   0.000  -0.000   0.000  -0.000   0.000  -0.000  -0.000  -0.000  -0.000   0.000   0.000  -0.000
 -0.001  -0.000  -0.001   0.000  -0.018   0.000  -0.000   0.000  -0.001   0.000   0.002   0.000  -0.004   0.000  -0.000   0.000
 -0.007   0.001   0.036  -0.000   0.036  -0.001   0.000  -0.001   0.002  -0.000  -0.007  -0.000   0.000  -0.000  -0.000  -0.000
 -0.000  -0.000  -0.000   0.034   0.000   0.000  -0.000   0.000  -0.000   0.001   0.000   0.001   0.000  -0.000  -0.000   0.000
 -0.046  -0.006  -0.130   0.000  -0.130   0.002  -0.000   0.002  -0.007   0.000   0.028   0.000  -0.000  -0.000   0.000   0.001
 -0.000  -0.000   0.000   0.034  -0.000   0.000  -0.000   0.000  -0.000   0.001   0.000   0.001  -0.000  -0.000  -0.000   0.000
  0.000   0.000  -0.245  -0.000   0.245   0.004  -0.000  -0.004   0.000   0.000  -0.000  -0.000   0.104   0.000   0.000  -0.000
  0.003   0.000  -0.001  -0.000  -0.001   0.000   0.000   0.000  -0.000  -0.000  -0.000  -0.000   0.000   0.000   0.000   0.000
  0.000  -0.000  -0.000  -0.002  -0.000   0.000   0.000  -0.000  -0.000  -0.000   0.000  -0.000   0.000   0.000   0.000   0.000
  0.002  -0.000  -0.006   0.000  -0.006   0.000  -0.000   0.000  -0.000   0.000   0.001   0.000  -0.000   0.000   0.000   0.000
  0.000  -0.000  -0.000  -0.002  -0.000  -0.000   0.000   0.000  -0.000  -0.000   0.000  -0.000  -0.000   0.000   0.000   0.000
  0.000   0.000  -0.011  -0.000   0.011   0.000  -0.000  -0.000   0.000   0.000  -0.000  -0.000   0.004   0.000   0.000  -0.000


------------------------ aborting loop because EDIFF is reached ----------------------------------------


    CHARGE:  cpu time    0.8690: real time    0.8756
    FORLOC:  cpu time    0.3118: real time    0.3125
    FORNL :  cpu time    0.7393: real time    0.7466
    STRESS:  cpu time    2.8334: real time    2.8547
    FORCOR:  cpu time    7.3045: real time    7.3486
    FORHAR:  cpu time    2.1001: real time    2.1137
    MIXING:  cpu time    0.1981: real time    0.2019
    OFIELD:  cpu time    0.0000: real time    0.0000

  FORCE on cell =-STRESS in cart. coord.  units (eV):
  Direction    XX          YY          ZZ          XY          YZ          ZX
  --------------------------------------------------------------------------------------
  Alpha Z     0.02183     0.02183     0.02183
  Ewald      26.28365    26.28338   -29.22245     1.33690    -0.00012    -0.00012
  Hartree    76.94473    76.94485    63.81546    -0.34104    -0.00003    -0.00003
  E(xc)     -29.23679   -29.23677   -29.49572    -0.09685    -0.00000    -0.00000
  Local    -218.33883  -218.33868  -166.03451    -3.05044     0.00012     0.00012
  n-local   106.84568   106.84549   108.44449     1.86044    -0.00000    -0.00000
  augment   -25.28122   -25.28118   -27.81764    -0.37520    -0.00000    -0.00000
  Kinetic    62.87771    62.87768    80.12860     0.38253     0.00004     0.00004
  Fock        0.00000     0.00000     0.00000     0.00000     0.00000     0.00000
  -------------------------------------------------------------------------------------
  Total       0.11677     0.11661    -0.15995    -0.28367    -0.00000    -0.00000
  in kB       0.05543     0.05536    -0.07593    -0.13466    -0.00000    -0.00000
  external pressure =        0.01 kB  Pullay stress =        0.00 kB


 VOLUME and BASIS-vectors are now :
 -----------------------------------------------------------------------------
  energy-cutoff  :      450.00
  volume of cell :     3375.00
      direct lattice vectors                 reciprocal lattice vectors
    15.000000000  0.000000000  0.000000000     0.066666667  0.000000000  0.000000000
     0.000000000 15.000000000  0.000000000     0.000000000  0.066666667  0.000000000
     0.000000000  0.000000000 15.000000000     0.000000000  0.000000000  0.066666667

  length of vectors
    15.000000000 15.000000000 15.000000000     0.066666667  0.066666667  0.066666667


 FORCES acting on ions
    electron-ion (+dipol)            ewald-force                    non-local-force                 convergence-correction
 -----------------------------------------------------------------------------------------------
   0.269E+02 0.269E+02 -.125E-03   -.323E+02 -.323E+02 0.142E-03   0.538E+01 0.538E+01 -.582E-04   -.100E-02 -.101E-02 0.336E-05
   -.300E+02 0.623E+00 0.640E-04   0.329E+02 -.635E+00 -.709E-04   -.271E+01 -.166E+00 0.632E-05   -.300E-04 0.261E-04 0.400E-06
   0.623E+00 -.300E+02 0.639E-04   -.635E+00 0.329E+02 -.708E-04   -.166E+00 -.271E+01 0.631E-05   0.261E-04 -.349E-04 0.400E-06
 -----------------------------------------------------------------------------------------------
   -.250E+01 -.250E+01 0.301E-05   0.000E+00 -.711E-14 0.550E-17   0.250E+01 0.250E+01 -.455E-04   -.101E-02 -.102E-02 0.416E-05


 POSITION                                       TOTAL-FORCE (eV/Angst)
 -----------------------------------------------------------------------------------
      7.25127      7.25126      7.50000         0.007456      0.007842     -0.000025
      8.91506      7.32367      7.50000         0.170669     -0.178231      0.000013
      7.32367      8.91506      7.50000        -0.178125      0.170389      0.000013
 -----------------------------------------------------------------------------------
    total drift:                                0.000457      0.000752     -0.000038


--------------------------------------------------------------------------------------------------------



  FREE ENERGIE OF THE ION-ELECTRON SYSTEM (eV)
  ---------------------------------------------------
  free  energy   TOTEN  =        -9.09784226 eV

  energy  without entropy=       -9.09784226  energy(sigma->0) =       -9.09784226

 d Force = 0.2188043E-01[ 0.164E-01, 0.274E-01]  d Energy = 0.2194943E-01-0.690E-04
 d Force = 0.4734832E-01[ 0.802E-01, 0.145E-01]  d Ewald  = 0.4718664E-01 0.162E-03


--------------------------------------------------------------------------------------------------------


    POTLOK:  cpu time    7.3246: real time    7.3717


--------------------------------------------------------------------------------------------------------


 stress matrix after NEB project (eV)
      0.11677     -0.28367     -0.00000
     -0.28367      0.11661     -0.00000
     -0.00000     -0.00000     -0.15995
  FORCES: max atom, RMS     0.246767    0.201471
  FORCE total and by dimension    0.348959    0.178231
  Stress total and by dimension    0.462334    0.283669


--------------------------------------------------------------------------------------------------------


    WAVPRE:  cpu time    1.2986: real time    1.7205
    FEWALD:  cpu time    0.0003: real time    0.0003
    ORTHCH:  cpu time    0.2487: real time    0.2504
     LOOP+:  cpu time  118.2156: real time  119.7873


--------------------------------------- Iteration      9(   1)  ---------------------------------------


    POTLOK:  cpu time    7.3198: real time    7.3720
    SETDIJ:  cpu time    0.0111: real time    0.0111
     EDDAV:  cpu time    2.1948: real time    2.2129
       DOS:  cpu time    0.0007: real time    0.0007
    CHARGE:  cpu time    0.8619: real time    0.8701
    MIXING:  cpu time    0.1691: real time    0.1697
    --------------------------------------------
      LOOP:  cpu time   10.5574: real time   10.6366

 eigenvalue-minimisations  :    16
 total energy-change (2. order) :-0.7782662E-02  (-0.3886749E+00)
 number of electron       7.9999999 magnetization 
 augmentation part       -1.1588911 magnetization 

 Broyden mixing:
  rms(total) = 0.34491E-01    rms(broyden)= 0.34395E-01
  rms(prec ) = 0.39593E-01
  weight for this iteration     100.00

 Free energy of the ion-electron system (eV)
  ---------------------------------------------------
  alpha Z        PSCENC =         0.02182671
  Ewald energy   TEWEN  =        23.04923078
  -Hartree energ DENC   =      -217.46398012
  -exchange      EXHF   =         0.00000000
  -V(xc)+E(xc)   XCENC  =       -23.18839294
  PAW double counting   =       252.59339900     -214.27767972
  entropy T*S    EENTRO =        -0.00000000
  eigenvalues    EBANDS =       -78.05067310
  atomic energy  EATOM  =       248.21064898
  Solvation  Ediel_sol  =         0.00000000
  ---------------------------------------------------
  free energy    TOTEN  =        -9.10562040 eV

  energy without entropy =       -9.10562040  energy(sigma->0) =       -9.10562040


--------------------------------------------------------------------------------------------------------




--------------------------------------- Iteration      9(   2)  ---------------------------------------


    POTLOK:  cpu time    7.3091: real time    7.3533
    SETDIJ:  cpu time    0.0122: real time    0.0122
    EDDIAG:  cpu time    0.4930: real time    0.4998
  RMM-DIIS:  cpu time    2.0061: real time    2.0198
    ORTHCH:  cpu time    0.0292: real time    0.0292
       DOS:  cpu time    0.0004: real time    0.0005
    CHARGE:  cpu time    0.8653: real time    0.8728
    MIXING:  cpu time    0.1698: real time    0.1710
    --------------------------------------------
      LOOP:  cpu time   10.8851: real time   10.9586

 eigenvalue-minimisations  :    16
 total energy-change (2. order) :-0.2705228E-02  (-0.5344899E-02)
 number of electron       7.9999999 magnetization 
 augmentation part       -1.1587062 magnetization 

 Broyden mixing:
  rms(total) = 0.22842E-01    rms(broyden)= 0.22836E-01
  rms(prec ) = 0.25477E-01
  weight for this iteration     100.00

 eigenvalues of (default mixing * dielectric matrix)
  average eigenvalue GAMMA=   1.4238
  1.4238

 Free energy of the ion-electron system (eV)
  ---------------------------------------------------
  alpha Z        PSCENC =         0.02182671
  Ewald energy   TEWEN  =        23.04923078
  -Hartree energ DENC   =      -217.33763378
  -exchange      EXHF   =         0.00000000
  -V(xc)+E(xc)   XCENC  =       -23.20055328
  PAW double counting   =       252.78790491     -214.47121383
  entropy T*S    EENTRO =        -0.00000000
  eigenvalues    EBANDS =       -78.16853613
  atomic energy  EATOM  =       248.21064898
  Solvation  Ediel_sol  =         0.00000000
  ---------------------------------------------------
  free energy    TOTEN  =        -9.10832563 eV

  energy without entropy =       -9.10832563  energy(sigma->0) =       -9.10832563


--------------------------------------------------------------------------------------------------------




--------------------------------------- Iteration      9(   3)  ---------------------------------------


    POTLOK:  cpu time    7.2948: real time    7.3385
    SETDIJ:  cpu time    0.0120: real time    0.0120
    EDDIAG:  cpu time    0.4991: real time    0.5030
  RMM-DIIS:  cpu time    2.2053: real time    2.2214
    ORTHCH:  cpu time    0.0285: real time    0.0287
       DOS:  cpu time    0.0004: real time    0.0004
    CHARGE:  cpu time    0.8657: real time    0.8735
    MIXING:  cpu time    0.1736: real time    0.1742
    --------------------------------------------
      LOOP:  cpu time   11.0792: real time   11.1515

 eigenvalue-minimisations  :    17
 total energy-change (2. order) : 0.1178975E-03  (-0.4818034E-03)
 number of electron       7.9999999 magnetization 
 augmentation part       -1.1590124 magnetization 

 Broyden mixing:
  rms(total) = 0.10049E-01    rms(broyden)= 0.10049E-01
  rms(prec ) = 0.11086E-01
  weight for this iteration     100.00

 eigenvalues of (default mixing * dielectric matrix)
  average eigenvalue GAMMA=   1.7583
  2.3892  1.1274

 Free energy of the ion-electron system (eV)
  ---------------------------------------------------
  alpha Z        PSCENC =         0.02182671
  Ewald energy   TEWEN  =        23.04923078
  -Hartree energ DENC   =      -217.30259284
  -exchange      EXHF   =         0.00000000
  -V(xc)+E(xc)   XCENC  =       -23.20191862
  PAW double counting   =       252.69292831     -214.37618612
  entropy T*S    EENTRO =        -0.00000000
  eigenvalues    EBANDS =       -78.20214495
  atomic energy  EATOM  =       248.21064898
  Solvation  Ediel_sol  =         0.00000000
  ---------------------------------------------------
  free energy    TOTEN  =        -9.10820773 eV

  energy without entropy =       -9.10820773  energy(sigma->0) =       -9.10820773


--------------------------------------------------------------------------------------------------------




--------------------------------------- Iteration      9(   4)  ---------------------------------------


    POTLOK:  cpu time    7.2677: real time    7.3141
    SETDIJ:  cpu time    0.0121: real time    0.0122
    EDDIAG:  cpu time    0.4980: real time    0.5024
  RMM-DIIS:  cpu time    2.2333: real time    2.2494
    ORTHCH:  cpu time    0.0285: real time    0.0285
       DOS:  cpu time    0.0004: real time    0.0005
    CHARGE:  cpu time    0.8666: real time    0.8754
    MIXING:  cpu time    0.1755: real time    0.1761
    --------------------------------------------
      LOOP:  cpu time   11.0820: real time   11.1586

 eigenvalue-minimisations  :    17
 total energy-change (2. order) :-0.1433840E-03  (-0.1251758E-03)
 number of electron       7.9999999 magnetization 
 augmentation part       -1.1595146 magnetization 

 Broyden mixing:
  rms(total) = 0.18921E-02    rms(broyden)= 0.18919E-02
  rms(prec ) = 0.24448E-02
  weight for this iteration     100.00

 eigenvalues of (default mixing * dielectric matrix)
  average eigenvalue GAMMA=   1.5414
  2.2517  0.9267  1.4458

 Free energy of the ion-electron system (eV)
  ---------------------------------------------------
  alpha Z        PSCENC =         0.02182671
  Ewald energy   TEWEN  =        23.04923078
  -Hartree energ DENC   =      -217.30431418
  -exchange      EXHF   =         0.00000000
  -V(xc)+E(xc)   XCENC  =       -23.20103561
  PAW double counting   =       252.67750566     -214.36131270
  entropy T*S    EENTRO =        -0.00000000
  eigenvalues    EBANDS =       -78.20090078
  atomic energy  EATOM  =       248.21064898
  Solvation  Ediel_sol  =         0.00000000
  ---------------------------------------------------
  free energy    TOTEN  =        -9.10835112 eV

  energy without entropy =       -9.10835112  energy(sigma->0) =       -9.10835112


--------------------------------------------------------------------------------------------------------




--------------------------------------- Iteration      9(   5)  ---------------------------------------


    POTLOK:  cpu time    7.2656: real time    7.3131
    SETDIJ:  cpu time    0.0120: real time    0.0120
    EDDIAG:  cpu time    0.4955: real time    0.5008
  RMM-DIIS:  cpu time    1.9841: real time    2.0019
    ORTHCH:  cpu time    0.0283: real time    0.0284
       DOS:  cpu time    0.0004: real time    0.0005
    CHARGE:  cpu time    0.8632: real time    0.8712
    MIXING:  cpu time    0.1794: real time    0.1807
    --------------------------------------------
      LOOP:  cpu time   10.8285: real time   10.9086

 eigenvalue-minimisations  :    16
 total energy-change (2. order) :-0.3076981E-04  (-0.7267314E-05)
 number of electron       7.9999999 magnetization 
 augmentation part       -1.1594169 magnetization 

 Broyden mixing:
  rms(total) = 0.11658E-02    rms(broyden)= 0.11658E-02
  rms(prec ) = 0.15308E-02
  weight for this iteration     100.00

 eigenvalues of (default mixing * dielectric matrix)
  average eigenvalue GAMMA=   1.7240
  2.6938  2.0452  1.0599  1.0971

 Free energy of the ion-electron system (eV)
  ---------------------------------------------------
  alpha Z        PSCENC =         0.02182671
  Ewald energy   TEWEN  =        23.04923078
  -Hartree energ DENC   =      -217.31855036
  -exchange      EXHF   =         0.00000000
  -V(xc)+E(xc)   XCENC  =       -23.20072340
  PAW double counting   =       252.76165891     -214.44599728
  entropy T*S    EENTRO =        -0.00000000
  eigenvalues    EBANDS =       -78.18647624
  atomic energy  EATOM  =       248.21064898
  Solvation  Ediel_sol  =         0.00000000
  ---------------------------------------------------
  free energy    TOTEN  =        -9.10838189 eV

  energy without entropy =       -9.10838189  energy(sigma->0) =       -9.10838189


--------------------------------------------------------------------------------------------------------




--------------------------------------- Iteration      9(   6)  ---------------------------------------


    POTLOK:  cpu time    7.2670: real time    7.3117
    SETDIJ:  cpu time    0.0120: real time    0.0120
    EDDIAG:  cpu time    0.4983: real time    0.5041
  RMM-DIIS:  cpu time    1.9909: real time    2.0074
    ORTHCH:  cpu time    0.0295: real time    0.0296
       DOS:  cpu time    0.0004: real time    0.0004
    CHARGE:  cpu time    0.8679: real time    0.8740
    MIXING:  cpu time    0.1833: real time    0.1838
    --------------------------------------------
      LOOP:  cpu time   10.8493: real time   10.9231

 eigenvalue-minimisations  :    16
 total energy-change (2. order) :-0.6009307E-04  (-0.4307035E-05)
 number of electron       7.9999999 magnetization 
 augmentation part       -1.1593016 magnetization 

 Broyden mixing:
  rms(total) = 0.43253E-03    rms(broyden)= 0.43252E-03
  rms(prec ) = 0.70712E-03
  weight for this iteration     100.00

 eigenvalues of (default mixing * dielectric matrix)
  average eigenvalue GAMMA=   1.6704
  2.7580  1.8374  1.8374  0.9127  1.0064

 Free energy of the ion-electron system (eV)
  ---------------------------------------------------
  alpha Z        PSCENC =         0.02182671
  Ewald energy   TEWEN  =        23.04923078
  -Hartree energ DENC   =      -217.33370317
  -exchange      EXHF   =         0.00000000
  -V(xc)+E(xc)   XCENC  =       -23.20073954
  PAW double counting   =       252.81142611     -214.49646474
  entropy T*S    EENTRO =        -0.00000000
  eigenvalues    EBANDS =       -78.17066712
  atomic energy  EATOM  =       248.21064898
  Solvation  Ediel_sol  =         0.00000000
  ---------------------------------------------------
  free energy    TOTEN  =        -9.10844198 eV

  energy without entropy =       -9.10844198  energy(sigma->0) =       -9.10844198


--------------------------------------------------------------------------------------------------------




--------------------------------------- Iteration      9(   7)  ---------------------------------------


    POTLOK:  cpu time    7.2732: real time    7.3178
    SETDIJ:  cpu time    0.0121: real time    0.0121
    EDDIAG:  cpu time    0.4972: real time    0.5014
  RMM-DIIS:  cpu time    1.5510: real time    1.5665
    ORTHCH:  cpu time    0.0283: real time    0.0283
       DOS:  cpu time    0.0004: real time    0.0005
    CHARGE:  cpu time    0.8690: real time    0.8755
    MIXING:  cpu time    0.1859: real time    0.1888
    --------------------------------------------
      LOOP:  cpu time   10.4172: real time   10.4910

 eigenvalue-minimisations  :    12
 total energy-change (2. order) :-0.2543959E-04  (-0.7808931E-06)
 number of electron       7.9999999 magnetization 
 augmentation part       -1.1593037 magnetization 

 Broyden mixing:
  rms(total) = 0.24825E-03    rms(broyden)= 0.24825E-03
  rms(prec ) = 0.48305E-03
  weight for this iteration     100.00

 eigenvalues of (default mixing * dielectric matrix)
  average eigenvalue GAMMA=   1.7857
  2.9861  2.6878  0.9584  0.9924  1.5447  1.5447

 Free energy of the ion-electron system (eV)
  ---------------------------------------------------
  alpha Z        PSCENC =         0.02182671
  Ewald energy   TEWEN  =        23.04923078
  -Hartree energ DENC   =      -217.32864362
  -exchange      EXHF   =         0.00000000
  -V(xc)+E(xc)   XCENC  =       -23.20103565
  PAW double counting   =       252.77562285     -214.46045093
  entropy T*S    EENTRO =        -0.00000000
  eigenvalues    EBANDS =       -78.17566655
  atomic energy  EATOM  =       248.21064898
  Solvation  Ediel_sol  =         0.00000000
  ---------------------------------------------------
  free energy    TOTEN  =        -9.10846742 eV

  energy without entropy =       -9.10846742  energy(sigma->0) =       -9.10846742


--------------------------------------------------------------------------------------------------------




--------------------------------------- Iteration      9(   8)  ---------------------------------------


    POTLOK:  cpu time    7.2891: real time    7.3332
    SETDIJ:  cpu time    0.0111: real time    0.0112
    EDDIAG:  cpu time    0.5023: real time    0.5038
  RMM-DIIS:  cpu time    1.7123: real time    1.7274
    ORTHCH:  cpu time    0.0292: real time    0.0293
       DOS:  cpu time    0.0005: real time    0.0005
    CHARGE:  cpu time    0.8690: real time    0.8754
    MIXING:  cpu time    0.1952: real time    0.1957
    --------------------------------------------
      LOOP:  cpu time   10.6088: real time   10.6764

 eigenvalue-minimisations  :    13
 total energy-change (2. order) :-0.6280768E-04  (-0.1121834E-05)
 number of electron       7.9999999 magnetization 
 augmentation part       -1.1592876 magnetization 

 Broyden mixing:
  rms(total) = 0.21488E-03    rms(broyden)= 0.21487E-03
  rms(prec ) = 0.31140E-03
  weight for this iteration     100.00

 eigenvalues of (default mixing * dielectric matrix)
  average eigenvalue GAMMA=   1.6878
  3.2638  2.5132  1.6216  1.6216  1.0076  0.8936  0.8936

 Free energy of the ion-electron system (eV)
  ---------------------------------------------------
  alpha Z        PSCENC =         0.02182671
  Ewald energy   TEWEN  =        23.04923078
  -Hartree energ DENC   =      -217.32791558
  -exchange      EXHF   =         0.00000000
  -V(xc)+E(xc)   XCENC  =       -23.20116445
  PAW double counting   =       252.76185698     -214.44653319
  entropy T*S    EENTRO =        -0.00000000
  eigenvalues    EBANDS =       -78.17648046
  atomic energy  EATOM  =       248.21064898
  Solvation  Ediel_sol  =         0.00000000
  ---------------------------------------------------
  free energy    TOTEN  =        -9.10853023 eV

  energy without entropy =       -9.10853023  energy(sigma->0) =       -9.10853023


--------------------------------------------------------------------------------------------------------




--------------------------------------- Iteration      9(   9)  ---------------------------------------


    POTLOK:  cpu time    7.2807: real time    7.3251
    SETDIJ:  cpu time    0.0125: real time    0.0126
    EDDIAG:  cpu time    0.4960: real time    0.5027
  RMM-DIIS:  cpu time    1.5685: real time    1.5766
    ORTHCH:  cpu time    0.0291: real time    0.0292
       DOS:  cpu time    0.0004: real time    0.0004
    CHARGE:  cpu time    0.8691: real time    0.8768
    MIXING:  cpu time    0.2015: real time    0.2021
    --------------------------------------------
      LOOP:  cpu time   10.4579: real time   10.5255

 eigenvalue-minimisations  :    12
 total energy-change (2. order) :-0.1798058E-04  (-0.2692238E-06)
 number of electron       7.9999999 magnetization 
 augmentation part       -1.1592981 magnetization 

 Broyden mixing:
  rms(total) = 0.92586E-04    rms(broyden)= 0.92585E-04
  rms(prec ) = 0.18774E-03
  weight for this iteration     100.00

 eigenvalues of (default mixing * dielectric matrix)
  average eigenvalue GAMMA=   1.8770
  4.1234  2.5314  2.1903  2.1903  1.0514  1.0514  0.9389  0.9389

 Free energy of the ion-electron system (eV)
  ---------------------------------------------------
  alpha Z        PSCENC =         0.02182671
  Ewald energy   TEWEN  =        23.04923078
  -Hartree energ DENC   =      -217.32854616
  -exchange      EXHF   =         0.00000000
  -V(xc)+E(xc)   XCENC  =       -23.20109209
  PAW double counting   =       252.76160182     -214.44630924
  entropy T*S    EENTRO =        -0.00000000
  eigenvalues    EBANDS =       -78.17590902
  atomic energy  EATOM  =       248.21064898
  Solvation  Ediel_sol  =         0.00000000
  ---------------------------------------------------
  free energy    TOTEN  =        -9.10854821 eV

  energy without entropy =       -9.10854821  energy(sigma->0) =       -9.10854821


--------------------------------------------------------------------------------------------------------




--------------------------------------- Iteration      9(  10)  ---------------------------------------


    POTLOK:  cpu time    7.2947: real time    7.3394
    SETDIJ:  cpu time    0.0124: real time    0.0125
    EDDIAG:  cpu time    0.5008: real time    0.5034
  RMM-DIIS:  cpu time    1.5510: real time    1.5626
    ORTHCH:  cpu time    0.0291: real time    0.0292
       DOS:  cpu time    0.0004: real time    0.0005
    CHARGE:  cpu time    0.8631: real time    0.8714
    MIXING:  cpu time    0.2111: real time    0.2116
    --------------------------------------------
      LOOP:  cpu time   10.4628: real time   10.5306

 eigenvalue-minimisations  :    12
 total energy-change (2. order) :-0.3236334E-04  (-0.4914646E-06)
 number of electron       7.9999999 magnetization 
 augmentation part       -1.1593109 magnetization 

 Broyden mixing:
  rms(total) = 0.10982E-03    rms(broyden)= 0.10982E-03
  rms(prec ) = 0.15832E-03
  weight for this iteration     100.00

 eigenvalues of (default mixing * dielectric matrix)
  average eigenvalue GAMMA=   1.8280
  4.4873  2.6092  2.2872  1.6496  1.6496  1.0138  1.0138  0.9470  0.7943

 Free energy of the ion-electron system (eV)
  ---------------------------------------------------
  alpha Z        PSCENC =         0.02182671
  Ewald energy   TEWEN  =        23.04923078
  -Hartree energ DENC   =      -217.32891939
  -exchange      EXHF   =         0.00000000
  -V(xc)+E(xc)   XCENC  =       -23.20092570
  PAW double counting   =       252.76663269     -214.45131217
  entropy T*S    EENTRO =        -0.00000000
  eigenvalues    EBANDS =       -78.17576248
  atomic energy  EATOM  =       248.21064898
  Solvation  Ediel_sol  =         0.00000000
  ---------------------------------------------------
  free energy    TOTEN  =        -9.10858057 eV

  energy without entropy =       -9.10858057  energy(sigma->0) =       -9.10858057


--------------------------------------------------------------------------------------------------------




--------------------------------------- Iteration      9(  11)  ---------------------------------------


    POTLOK:  cpu time    7.2999: real time    7.3433
    SETDIJ:  cpu time    0.0123: real time    0.0124
    EDDIAG:  cpu time    0.4988: real time    0.5027
  RMM-DIIS:  cpu time    1.5722: real time    1.5835
    ORTHCH:  cpu time    0.0291: real time    0.0291
       DOS:  cpu time    0.0004: real time    0.0004
    --------------------------------------------
      LOOP:  cpu time    9.4126: real time    9.4713

 eigenvalue-minimisations  :    12
 total energy-change (2. order) :-0.7790760E-05  (-0.1523062E-06)
 number of electron       7.9999999 magnetization 
 augmentation part       -1.1593109 magnetization 

 Free energy of the ion-electron system (eV)
  ---------------------------------------------------
  alpha Z        PSCENC =         0.02182671
  Ewald energy   TEWEN  =        23.04923078
  -Hartree energ DENC   =      -217.32793556
  -exchange      EXHF   =         0.00000000
  -V(xc)+E(xc)   XCENC  =       -23.20102098
  PAW double counting   =       252.76225311     -214.44692094
  entropy T*S    EENTRO =        -0.00000000
  eigenvalues    EBANDS =       -78.17667047
  atomic energy  EATOM  =       248.21064898
  Solvation  Ediel_sol  =         0.00000000
  ---------------------------------------------------
  free energy    TOTEN  =        -9.10858836 eV

  energy without entropy =       -9.10858836  energy(sigma->0) =       -9.10858836


--------------------------------------------------------------------------------------------------------




 average (electrostatic) potential at core
  the test charge radii are     1.1897  0.5883
  (the norm of the test charge is              1.0000)
       1 -98.7011       2 -39.9009       3 -39.9008



 E-fermi :  -5.1635     XC(G=0):  -0.3607     alpha+bet : -0.1228


 k-point     1 :       0.0000    0.0000    0.0000
  band No.  band energies     occupation 
      1     -15.9832      2.00000
      2      -9.5043      2.00000
      3      -8.1584      2.00000
      4      -5.4424      2.00000
      5      -1.4941      0.00000
      6      -1.0939      0.00000
      7       0.0602      0.00000
      8       0.3744      0.00000


--------------------------------------------------------------------------------------------------------


 soft charge-density along one line, spin component           1
         0         1         2         3         4         5         6         7         8         9
 total charge-density along one line

 pseudopotential strength for first ion, spin component:           1
 55.852 -31.179   0.086  -0.000   0.086   0.231  -0.000   0.231
-31.179  39.184  -0.030   0.000  -0.030  -0.122   0.000  -0.122
  0.086  -0.030  13.618  -0.000  -0.007  29.188  -0.000  -0.017
 -0.000   0.000  -0.000  13.575  -0.000  -0.000  29.086  -0.000
  0.086  -0.030  -0.007  -0.000  13.618  -0.017  -0.000  29.188
  0.231  -0.122  29.188  -0.000  -0.017  67.795  -0.000  -0.052
 -0.000   0.000  -0.000  29.086  -0.000  -0.000  67.479  -0.000
  0.231  -0.122  -0.017  -0.000  29.188  -0.052  -0.000  67.795
 -0.015   0.006   0.026  -0.000   0.026   0.051  -0.000   0.051
 -0.000   0.000  -0.000   0.026  -0.000  -0.000   0.049  -0.000
 -0.051   0.019  -0.016  -0.000  -0.016  -0.024  -0.000  -0.024
 -0.000   0.000  -0.000   0.026  -0.000  -0.000   0.049  -0.000
  0.000   0.000  -0.027  -0.000   0.027  -0.040  -0.000   0.040
  0.028  -0.006  -0.060   0.000  -0.060  -0.154   0.000  -0.154
  0.000  -0.000   0.000  -0.059   0.000   0.000  -0.151   0.000
  0.099  -0.021   0.034   0.000   0.034   0.079   0.000   0.079
  0.000  -0.000   0.000  -0.059   0.000   0.000  -0.151   0.000
 -0.000   0.000   0.057   0.000  -0.057   0.133   0.000  -0.133
 total augmentation occupancy for first ion, spin component:           1
  1.919   0.009  -0.172   0.000  -0.172  -0.001  -0.000  -0.001  -0.014   0.000  -0.047   0.000   0.000   0.002  -0.000   0.002
  0.009   0.001   0.026   0.000   0.026  -0.000  -0.000  -0.000   0.000   0.000  -0.006   0.000   0.000  -0.000  -0.000  -0.000
 -0.172   0.026   1.256   0.000   0.106  -0.018   0.000   0.000   0.013  -0.000  -0.132   0.000  -0.245  -0.002  -0.000  -0.006
  0.000   0.000   0.000   1.910   0.000   0.000  -0.003   0.000   0.000   0.035   0.000   0.035   0.000   0.000  -0.002   0.000
 -0.172   0.026   0.106   0.000   1.256   0.000   0.000  -0.018   0.013   0.000  -0.132  -0.000   0.245  -0.002  -0.000  -0.006
 -0.001  -0.000  -0.018   0.000   0.000   0.000  -0.000  -0.000  -0.000   0.000   0.002  -0.000   0.004   0.000   0.000   0.000
 -0.000  -0.000   0.000  -0.003   0.000  -0.000   0.000  -0.000   0.000  -0.000  -0.000  -0.000  -0.000  -0.000   0.000  -0.000
 -0.001  -0.000   0.000   0.000  -0.018  -0.000  -0.000   0.000  -0.000  -0.000   0.002   0.000  -0.004   0.000  -0.000   0.000
 -0.014   0.000   0.013   0.000   0.013  -0.000   0.000  -0.000   0.000  -0.000  -0.002  -0.000   0.000  -0.000  -0.000  -0.000
  0.000   0.000  -0.000   0.035   0.000   0.000  -0.000  -0.000  -0.000   0.001   0.000   0.001   0.000   0.000  -0.000   0.000
 -0.047  -0.006  -0.132   0.000  -0.132   0.002  -0.000   0.002  -0.002   0.000   0.029   0.000  -0.000   0.000   0.000   0.001
  0.000   0.000   0.000   0.035  -0.000  -0.000  -0.000   0.000  -0.000   0.001   0.000   0.001  -0.000   0.000  -0.000   0.000
  0.000   0.000  -0.245   0.000   0.245   0.004  -0.000  -0.004   0.000   0.000  -0.000  -0.000   0.104   0.000   0.000  -0.000
  0.002  -0.000  -0.002   0.000  -0.002   0.000  -0.000   0.000  -0.000   0.000   0.000   0.000   0.000   0.000   0.000   0.000
 -0.000  -0.000  -0.000  -0.002  -0.000   0.000   0.000  -0.000  -0.000  -0.000   0.000  -0.000   0.000   0.000   0.000   0.000
  0.002  -0.000  -0.006   0.000  -0.006   0.000  -0.000   0.000  -0.000   0.000   0.001   0.000  -0.000   0.000   0.000   0.000
 -0.000  -0.000  -0.000  -0.002  -0.000  -0.000   0.000   0.000  -0.000  -0.000   0.000  -0.000  -0.000   0.000   0.000   0.000
  0.000   0.000  -0.011  -0.000   0.011   0.000   0.000  -0.000   0.000   0.000  -0.000  -0.000   0.004   0.000   0.000  -0.000


------------------------ aborting loop because EDIFF is reached ----------------------------------------


    CHARGE:  cpu time    0.8678: real time    0.8709
    FORLOC:  cpu time    0.3156: real time    0.3161
    FORNL :  cpu time    0.7495: real time    0.7526
    STRESS:  cpu time    2.8387: real time    2.8485
    FORCOR:  cpu time    7.3369: real time    7.3555
    FORHAR:  cpu time    2.1092: real time    2.1141
    MIXING:  cpu time    0.2177: real time    0.2199
    OFIELD:  cpu time    0.0001: real time    0.0000

  FORCE on cell =-STRESS in cart. coord.  units (eV):
  Direction    XX          YY          ZZ          XY          YZ          ZX
  --------------------------------------------------------------------------------------
  Alpha Z     0.02183     0.02183     0.02183
  Ewald      26.13743    26.13657   -29.22478    -4.12169    -0.00011    -0.00011
  Hartree    76.79643    76.79674    63.73519    -1.85633    -0.00001    -0.00001
  E(xc)     -29.24163   -29.24156   -29.49310    -0.07032    -0.00000    -0.00000
  Local    -218.06437  -218.06385  -165.94115     3.66589     0.00009     0.00009
  n-local   106.84745   106.84667   108.39360     1.09014    -0.00000    -0.00000
  augment   -25.27009   -25.26997   -27.79371    -0.36785    -0.00001    -0.00001
  Kinetic    62.86416    62.86407    80.14084     1.76008     0.00004     0.00004
  Fock        0.00000     0.00000     0.00000     0.00000     0.00000     0.00000
  -------------------------------------------------------------------------------------
  Total       0.09121     0.09050    -0.16130     0.09992    -0.00001    -0.00001
  in kB       0.04330     0.04296    -0.07657     0.04743    -0.00001    -0.00001
  external pressure =        0.00 kB  Pullay stress =        0.00 kB


 VOLUME and BASIS-vectors are now :
 -----------------------------------------------------------------------------
  energy-cutoff  :      450.00
  volume of cell :     3375.00
      direct lattice vectors                 reciprocal lattice vectors
    15.000000000  0.000000000  0.000000000     0.066666667  0.000000000  0.000000000
     0.000000000 15.000000000  0.000000000     0.000000000  0.066666667  0.000000000
     0.000000000  0.000000000 15.000000000     0.000000000  0.000000000  0.066666667

  length of vectors
    15.000000000 15.000000000 15.000000000     0.066666667  0.066666667  0.066666667


 FORCES acting on ions
    electron-ion (+dipol)            ewald-force                    non-local-force                 convergence-correction
 -----------------------------------------------------------------------------------------------
   0.246E+02 0.246E+02 -.236E-03   -.306E+02 -.306E+02 0.137E-03   0.583E+01 0.583E+01 -.835E-03   0.801E-03 0.789E-03 0.123E-03
   -.299E+02 0.214E+01 0.479E-04   0.328E+02 -.212E+01 -.685E-04   -.273E+01 0.393E-01 0.527E-05   0.220E-03 0.615E-04 0.147E-04
   0.214E+01 -.299E+02 0.478E-04   -.212E+01 0.328E+02 -.684E-04   0.393E-01 -.273E+01 0.526E-05   0.620E-04 0.221E-03 0.147E-04
 -----------------------------------------------------------------------------------------------
   -.314E+01 -.314E+01 -.140E-03   0.178E-14 0.000E+00 0.552E-17   0.313E+01 0.313E+01 -.825E-03   0.108E-02 0.107E-02 0.153E-03


 POSITION                                       TOTAL-FORCE (eV/Angst)
 -----------------------------------------------------------------------------------
      7.28151      7.28150      7.50000        -0.212989     -0.212276     -0.000540
      8.94597      7.26252      7.50000         0.150364      0.062519      0.000270
      7.26252      8.94598      7.50000         0.062625      0.149757      0.000270
 -----------------------------------------------------------------------------------
    total drift:                               -0.001366     -0.001069     -0.000812


--------------------------------------------------------------------------------------------------------



  FREE ENERGIE OF THE ION-ELECTRON SYSTEM (eV)
  ---------------------------------------------------
  free  energy   TOTEN  =        -9.10858836 eV

  energy  without entropy=       -9.10858836  energy(sigma->0) =       -9.10858836

 d Force = 0.1078093E-01[-0.112E-01, 0.328E-01]  d Energy = 0.1074610E-01 0.348E-04
 d Force = 0.2960340E+00[ 0.432E+00, 0.160E+00]  d Ewald  = 0.2953685E+00 0.666E-03


--------------------------------------------------------------------------------------------------------


    POTLOK:  cpu time    7.3511: real time    7.3694


--------------------------------------------------------------------------------------------------------


 stress matrix after NEB project (eV)
      0.09121      0.09992     -0.00001
      0.09992      0.09050     -0.00001
     -0.00001     -0.00001     -0.16130
  FORCES: max atom, RMS     0.300709    0.218550
  FORCE total and by dimension    0.378541    0.212989
  Stress total and by dimension    0.249987    0.161302


--------------------------------------------------------------------------------------------------------


    WAVPRE:  cpu time    1.2606: real time    1.8859
    FEWALD:  cpu time    0.0007: real time    0.0007
    ORTHCH:  cpu time    0.2467: real time    0.2478
     LOOP+:  cpu time  139.9729: real time  141.7168


--------------------------------------- Iteration     10(   1)  ---------------------------------------


    POTLOK:  cpu time    7.3239: real time    7.3997
    SETDIJ:  cpu time    0.0123: real time    0.0123
     EDDAV:  cpu time    2.2021: real time    2.2170
       DOS:  cpu time    0.0003: real time    0.0003
    CHARGE:  cpu time    0.8678: real time    0.8736
    MIXING:  cpu time    0.1695: real time    0.1722
    --------------------------------------------
      LOOP:  cpu time   10.5760: real time   10.6753

 eigenvalue-minimisations  :    16
 total energy-change (2. order) :-0.1331525E-02  (-0.2584000E-01)
 number of electron       8.0000000 magnetization 
 augmentation part       -1.1590063 magnetization 

 Broyden mixing:
  rms(total) = 0.90020E-02    rms(broyden)= 0.89778E-02
  rms(prec ) = 0.10363E-01
  weight for this iteration     100.00

 Free energy of the ion-electron system (eV)
  ---------------------------------------------------
  alpha Z        PSCENC =         0.02182671
  Ewald energy   TEWEN  =        23.15045203
  -Hartree energ DENC   =      -217.40620425
  -exchange      EXHF   =         0.00000000
  -V(xc)+E(xc)   XCENC  =       -23.20348830
  PAW double counting   =       252.76700796     -214.45170493
  entropy T*S    EENTRO =        -0.00000000
  eigenvalues    EBANDS =       -78.19845030
  atomic energy  EATOM  =       248.21064898
  Solvation  Ediel_sol  =         0.00000000
  ---------------------------------------------------
  free energy    TOTEN  =        -9.10991209 eV

  energy without entropy =       -9.10991209  energy(sigma->0) =       -9.10991209


--------------------------------------------------------------------------------------------------------




--------------------------------------- Iteration     10(   2)  ---------------------------------------


    POTLOK:  cpu time    7.3408: real time    7.3883
    SETDIJ:  cpu time    0.0121: real time    0.0122
    EDDIAG:  cpu time    0.4968: real time    0.5015
  RMM-DIIS:  cpu time    1.9877: real time    2.0067
    ORTHCH:  cpu time    0.0288: real time    0.0289
       DOS:  cpu time    0.0004: real time    0.0005
    CHARGE:  cpu time    0.8667: real time    0.8726
    MIXING:  cpu time    0.1712: real time    0.1721
    --------------------------------------------
      LOOP:  cpu time   10.9045: real time   10.9827

 eigenvalue-minimisations  :    16
 total energy-change (2. order) :-0.9411758E-04  (-0.2823158E-03)
 number of electron       8.0000000 magnetization 
 augmentation part       -1.1595693 magnetization 

 Broyden mixing:
  rms(total) = 0.57332E-02    rms(broyden)= 0.57318E-02
  rms(prec ) = 0.64171E-02
  weight for this iteration     100.00

 eigenvalues of (default mixing * dielectric matrix)
  average eigenvalue GAMMA=   1.8114
  1.8114

 Free energy of the ion-electron system (eV)
  ---------------------------------------------------
  alpha Z        PSCENC =         0.02182671
  Ewald energy   TEWEN  =        23.15045203
  -Hartree energ DENC   =      -217.42972846
  -exchange      EXHF   =         0.00000000
  -V(xc)+E(xc)   XCENC  =       -23.20068224
  PAW double counting   =       252.71950157     -214.40413699
  entropy T*S    EENTRO =        -0.00000000
  eigenvalues    EBANDS =       -78.17788782
  atomic energy  EATOM  =       248.21064898
  Solvation  Ediel_sol  =         0.00000000
  ---------------------------------------------------
  free energy    TOTEN  =        -9.11000621 eV

  energy without entropy =       -9.11000621  energy(sigma->0) =       -9.11000621


--------------------------------------------------------------------------------------------------------




--------------------------------------- Iteration     10(   3)  ---------------------------------------


    POTLOK:  cpu time    7.3984: real time    7.4488
    SETDIJ:  cpu time    0.0129: real time    0.0130
    EDDIAG:  cpu time    0.4985: real time    0.5017
  RMM-DIIS:  cpu time    1.9795: real time    1.9960
    ORTHCH:  cpu time    0.0293: real time    0.0296
       DOS:  cpu time    0.0003: real time    0.0004
    CHARGE:  cpu time    0.8656: real time    0.8725
    MIXING:  cpu time    0.1736: real time    0.1751
    --------------------------------------------
      LOOP:  cpu time   10.9582: real time   11.0371

 eigenvalue-minimisations  :    16
 total energy-change (2. order) : 0.5166194E-05  (-0.3116067E-04)
 number of electron       8.0000000 magnetization 
 augmentation part       -1.1595527 magnetization 

 Broyden mixing:
  rms(total) = 0.17749E-02    rms(broyden)= 0.17747E-02
  rms(prec ) = 0.19750E-02
  weight for this iteration     100.00

 eigenvalues of (default mixing * dielectric matrix)
  average eigenvalue GAMMA=   1.7579
  2.3913  1.1246

 Free energy of the ion-electron system (eV)
  ---------------------------------------------------
  alpha Z        PSCENC =         0.02182671
  Ewald energy   TEWEN  =        23.15045203
  -Hartree energ DENC   =      -217.44922897
  -exchange      EXHF   =         0.00000000
  -V(xc)+E(xc)   XCENC  =       -23.19932224
  PAW double counting   =       252.83088096     -214.51582672
  entropy T*S    EENTRO =        -0.00000000
  eigenvalues    EBANDS =       -78.15943180
  atomic energy  EATOM  =       248.21064898
  Solvation  Ediel_sol  =         0.00000000
  ---------------------------------------------------
  free energy    TOTEN  =        -9.11000105 eV

  energy without entropy =       -9.11000105  energy(sigma->0) =       -9.11000105


--------------------------------------------------------------------------------------------------------




--------------------------------------- Iteration     10(   4)  ---------------------------------------


    POTLOK:  cpu time    7.4462: real time    7.4622
    SETDIJ:  cpu time    0.0127: real time    0.0127
    EDDIAG:  cpu time    0.5023: real time    0.5037
  RMM-DIIS:  cpu time    1.7906: real time    1.7971
    ORTHCH:  cpu time    0.0293: real time    0.0294
       DOS:  cpu time    0.0004: real time    0.0004
    CHARGE:  cpu time    0.8686: real time    0.8721
    MIXING:  cpu time    0.1770: real time    0.1773
    --------------------------------------------
      LOOP:  cpu time   10.8270: real time   10.8548

 eigenvalue-minimisations  :    14
 total energy-change (2. order) :-0.1184934E-04  (-0.9102709E-05)
 number of electron       8.0000000 magnetization 
 augmentation part       -1.1594853 magnetization 

 Broyden mixing:
  rms(total) = 0.53656E-03    rms(broyden)= 0.53651E-03
  rms(prec ) = 0.69369E-03
  weight for this iteration     100.00

 eigenvalues of (default mixing * dielectric matrix)
  average eigenvalue GAMMA=   1.5035
  2.2759  1.4309  0.8037

 Free energy of the ion-electron system (eV)
  ---------------------------------------------------
  alpha Z        PSCENC =         0.02182671
  Ewald energy   TEWEN  =        23.15045203
  -Hartree energ DENC   =      -217.45252971
  -exchange      EXHF   =         0.00000000
  -V(xc)+E(xc)   XCENC  =       -23.19925842
  PAW double counting   =       252.84447217     -214.52953277
  entropy T*S    EENTRO =        -0.00000000
  eigenvalues    EBANDS =       -78.15609189
  atomic energy  EATOM  =       248.21064898
  Solvation  Ediel_sol  =         0.00000000
  ---------------------------------------------------
  free energy    TOTEN  =        -9.11001289 eV

  energy without entropy =       -9.11001289  energy(sigma->0) =       -9.11001289


--------------------------------------------------------------------------------------------------------




--------------------------------------- Iteration     10(   5)  ---------------------------------------


    POTLOK:  cpu time    7.4389: real time    7.4557
    SETDIJ:  cpu time    0.0120: real time    0.0121
    EDDIAG:  cpu time    0.5014: real time    0.5028
  RMM-DIIS:  cpu time    1.7348: real time    1.7401
    ORTHCH:  cpu time    0.0289: real time    0.0290
       DOS:  cpu time    0.0005: real time    0.0005
    --------------------------------------------
      LOOP:  cpu time    9.7164: real time    9.7401

 eigenvalue-minimisations  :    13
 total energy-change (2. order) :-0.2955985E-05  (-0.2190648E-05)
 number of electron       8.0000000 magnetization 
 augmentation part       -1.1594853 magnetization 

 Free energy of the ion-electron system (eV)
  ---------------------------------------------------
  alpha Z        PSCENC =         0.02182671
  Ewald energy   TEWEN  =        23.15045203
  -Hartree energ DENC   =      -217.44944979
  -exchange      EXHF   =         0.00000000
  -V(xc)+E(xc)   XCENC  =       -23.19930205
  PAW double counting   =       252.82858772     -214.51351082
  entropy T*S    EENTRO =        -0.00000000
  eigenvalues    EBANDS =       -78.15926864
  atomic energy  EATOM  =       248.21064898
  Solvation  Ediel_sol  =         0.00000000
  ---------------------------------------------------
  free energy    TOTEN  =        -9.11001585 eV

  energy without entropy =       -9.11001585  energy(sigma->0) =       -9.11001585


--------------------------------------------------------------------------------------------------------




 average (electrostatic) potential at core
  the test charge radii are     1.1897  0.5883
  (the norm of the test charge is              1.0000)
       1 -98.7001       2 -39.8892       3 -39.8891



 E-fermi :  -5.1795     XC(G=0):  -0.3537     alpha+bet : -0.1228


 k-point     1 :       0.0000    0.0000    0.0000
  band No.  band energies     occupation 
      1     -15.9843      2.00000
      2      -9.4473      2.00000
      3      -8.2062      2.00000
      4      -5.4419      2.00000
      5      -1.5370      0.00000
      6      -1.0655      0.00000
      7       0.0754      0.00000
      8       0.4389      0.00000


--------------------------------------------------------------------------------------------------------


 soft charge-density along one line, spin component           1
         0         1         2         3         4         5         6         7         8         9
 total charge-density along one line

 pseudopotential strength for first ion, spin component:           1
 55.852 -31.179   0.085  -0.000   0.085   0.227  -0.000   0.227
-31.179  39.184  -0.030   0.000  -0.030  -0.121   0.000  -0.121
  0.085  -0.030  13.618  -0.000  -0.007  29.188  -0.000  -0.017
 -0.000   0.000  -0.000  13.574  -0.000  -0.000  29.086  -0.000
  0.085  -0.030  -0.007  -0.000  13.618  -0.017  -0.000  29.188
  0.227  -0.121  29.188  -0.000  -0.017  67.795  -0.000  -0.052
 -0.000   0.000  -0.000  29.086  -0.000  -0.000  67.478  -0.000
  0.227  -0.121  -0.017  -0.000  29.188  -0.052  -0.000  67.795
 -0.014   0.006   0.026  -0.000   0.026   0.050  -0.000   0.050
 -0.000   0.000  -0.000   0.025  -0.000  -0.000   0.049  -0.000
 -0.051   0.019  -0.016  -0.000  -0.016  -0.024  -0.000  -0.024
 -0.000   0.000  -0.000   0.025  -0.000  -0.000   0.049  -0.000
  0.000   0.000  -0.027  -0.000   0.027  -0.039   0.000   0.039
  0.028  -0.005  -0.059   0.000  -0.059  -0.152   0.000  -0.152
  0.000  -0.000   0.000  -0.058   0.000   0.000  -0.149   0.000
  0.099  -0.021   0.033   0.000   0.033   0.078   0.000   0.078
  0.000  -0.000   0.000  -0.058   0.000   0.000  -0.149   0.000
 -0.000   0.000   0.056   0.000  -0.056   0.131  -0.000  -0.131
 total augmentation occupancy for first ion, spin component:           1
  1.919   0.010  -0.172   0.000  -0.172  -0.001  -0.000  -0.001  -0.012  -0.000  -0.047  -0.000   0.000   0.002   0.000   0.002
  0.010   0.001   0.026   0.000   0.026  -0.000  -0.000  -0.000   0.001   0.000  -0.006   0.000   0.000  -0.000  -0.000  -0.000
 -0.172   0.026   1.256   0.000   0.105  -0.018   0.000   0.000   0.019  -0.000  -0.131   0.000  -0.245  -0.002  -0.000  -0.006
  0.000   0.000   0.000   1.910   0.000   0.000  -0.003   0.000   0.000   0.035   0.000   0.035  -0.000   0.000  -0.002   0.000
 -0.172   0.026   0.105   0.000   1.256   0.000   0.000  -0.018   0.019   0.000  -0.131  -0.000   0.245  -0.002   0.000  -0.006
 -0.001  -0.000  -0.018   0.000   0.000   0.000  -0.000  -0.000  -0.000   0.000   0.002  -0.000   0.004   0.000   0.000   0.000
 -0.000  -0.000   0.000  -0.003   0.000  -0.000   0.000  -0.000   0.000  -0.000  -0.000  -0.000   0.000  -0.000   0.000  -0.000
 -0.001  -0.000   0.000   0.000  -0.018  -0.000  -0.000   0.000  -0.000  -0.000   0.002   0.000  -0.004   0.000  -0.000   0.000
 -0.012   0.001   0.019   0.000   0.019  -0.000   0.000  -0.000   0.001  -0.000  -0.003  -0.000   0.000  -0.000  -0.000  -0.000
 -0.000   0.000  -0.000   0.035   0.000   0.000  -0.000  -0.000  -0.000   0.001   0.000   0.001   0.000   0.000  -0.000   0.000
 -0.047  -0.006  -0.131   0.000  -0.131   0.002  -0.000   0.002  -0.003   0.000   0.029   0.000  -0.000   0.000   0.000   0.001
 -0.000   0.000   0.000   0.035  -0.000  -0.000  -0.000   0.000  -0.000   0.001   0.000   0.001  -0.000   0.000  -0.000   0.000
  0.000   0.000  -0.245  -0.000   0.245   0.004   0.000  -0.004   0.000   0.000  -0.000  -0.000   0.104   0.000   0.000  -0.000
  0.002  -0.000  -0.002   0.000  -0.002   0.000  -0.000   0.000  -0.000   0.000   0.000   0.000   0.000   0.000   0.000   0.000
  0.000  -0.000  -0.000  -0.002   0.000   0.000   0.000  -0.000  -0.000  -0.000   0.000  -0.000   0.000   0.000   0.000   0.000
  0.002  -0.000  -0.006   0.000  -0.006   0.000  -0.000   0.000  -0.000   0.000   0.001   0.000  -0.000   0.000   0.000   0.000
  0.000  -0.000   0.000  -0.002  -0.000  -0.000   0.000   0.000  -0.000  -0.000   0.000  -0.000  -0.000   0.000   0.000   0.000
  0.000   0.000  -0.011  -0.000   0.011   0.000   0.000  -0.000   0.000   0.000  -0.000  -0.000   0.004   0.000   0.000  -0.000


------------------------ aborting loop because EDIFF is reached ----------------------------------------


    CHARGE:  cpu time    0.8712: real time    0.8733
    FORLOC:  cpu time    0.3113: real time    0.3118
    FORNL :  cpu time    0.7387: real time    0.7627
    STRESS:  cpu time    2.8195: real time    2.8470
    FORCOR:  cpu time    7.3362: real time    7.3649
    FORHAR:  cpu time    2.1083: real time    2.1191
    MIXING:  cpu time    0.1771: real time    0.1793
    OFIELD:  cpu time    0.0000: real time    0.0000

  FORCE on cell =-STRESS in cart. coord.  units (eV):
  Direction    XX          YY          ZZ          XY          YZ          ZX
  --------------------------------------------------------------------------------------
  Alpha Z     0.02183     0.02183     0.02183
  Ewald      26.18761    26.18692   -29.22409    -2.72487    -0.00011    -0.00012
  Hartree    76.83988    76.84014    63.76430    -1.46670    -0.00001    -0.00001
  E(xc)     -29.24351   -29.24346   -29.49552    -0.07728    -0.00000    -0.00000
  Local    -218.15760  -218.15723  -165.97590     1.93528     0.00009     0.00009
  n-local   106.85793   106.85750   108.40086     1.29394    -0.00001    -0.00001
  augment   -25.27353   -25.27343   -27.79803    -0.37229    -0.00001    -0.00001
  Kinetic    62.87361    62.87355    80.14428     1.41343     0.00004     0.00004
  Fock        0.00000     0.00000     0.00000     0.00000     0.00000     0.00000
  -------------------------------------------------------------------------------------
  Total       0.10623     0.10582    -0.16228     0.00151    -0.00001    -0.00001
  in kB       0.05043     0.05023    -0.07704     0.00072    -0.00001    -0.00001
  external pressure =        0.01 kB  Pullay stress =        0.00 kB


 VOLUME and BASIS-vectors are now :
 -----------------------------------------------------------------------------
  energy-cutoff  :      450.00
  volume of cell :     3375.00
      direct lattice vectors                 reciprocal lattice vectors
    15.000000000  0.000000000  0.000000000     0.066666667  0.000000000  0.000000000
     0.000000000 15.000000000  0.000000000     0.000000000  0.066666667  0.000000000
     0.000000000  0.000000000 15.000000000     0.000000000  0.000000000  0.066666667

  length of vectors
    15.000000000 15.000000000 15.000000000     0.066666667  0.066666667  0.066666667


 FORCES acting on ions
    electron-ion (+dipol)            ewald-force                    non-local-force                 convergence-correction
 -----------------------------------------------------------------------------------------------
   0.252E+02 0.252E+02 -.243E-03   -.311E+02 -.311E+02 0.138E-03   0.571E+01 0.571E+01 -.894E-03   0.407E-02 0.398E-02 0.791E-04
   -.299E+02 0.175E+01 0.504E-04   0.328E+02 -.174E+01 -.692E-04   -.273E+01 -.138E-01 0.597E-05   -.106E-02 0.115E-02 0.899E-05
   0.175E+01 -.299E+02 0.503E-04   -.174E+01 0.328E+02 -.691E-04   -.138E-01 -.273E+01 0.596E-05   0.116E-02 -.105E-02 0.899E-05
 -----------------------------------------------------------------------------------------------
   -.297E+01 -.297E+01 -.142E-03   0.000E+00 0.711E-14 0.550E-17   0.296E+01 0.296E+01 -.882E-03   0.417E-02 0.408E-02 0.970E-04


 POSITION                                       TOTAL-FORCE (eV/Angst)
 -----------------------------------------------------------------------------------
      7.27379      7.27378      7.50000        -0.160847     -0.159872     -0.000610
      8.93808      7.27812      7.50000         0.160021      0.000569      0.000305
      7.27813      8.93809      7.50000         0.000826      0.159303      0.000305
 -----------------------------------------------------------------------------------
    total drift:                               -0.001650     -0.000859     -0.000927


--------------------------------------------------------------------------------------------------------



  FREE ENERGIE OF THE ION-ELECTRON SYSTEM (eV)
  ---------------------------------------------------
  free  energy   TOTEN  =        -9.11001585 eV

  energy  without entropy=       -9.11001585  energy(sigma->0) =       -9.11001585

 d Force = 0.1422220E-02[-0.223E-04, 0.287E-02]  d Energy = 0.1427491E-02-0.527E-05
 d Force =-0.1012272E+00[-0.923E-01,-0.110E+00]  d Ewald  =-0.1012212E+00-0.594E-05


--------------------------------------------------------------------------------------------------------


    POTLOK:  cpu time    7.4126: real time    7.4367


--------------------------------------------------------------------------------------------------------


 stress matrix after NEB project (eV)
      0.10623      0.00151     -0.00001
      0.00151      0.10582     -0.00001
     -0.00001     -0.00001     -0.16228
  FORCES: max atom, RMS     0.226784    0.184767
  FORCE total and by dimension    0.320026    0.160847
  Stress total and by dimension    0.220957    0.162282


--------------------------------------------------------------------------------------------------------


    WAVPRE:  cpu time    1.2952: real time    1.6616
    FEWALD:  cpu time    0.0003: real time    0.0003
    ORTHCH:  cpu time    0.2460: real time    0.2483
     LOOP+:  cpu time   76.3358: real time   77.6763


--------------------------------------- Iteration     11(   1)  ---------------------------------------


    POTLOK:  cpu time    7.4070: real time    7.4389
    SETDIJ:  cpu time    0.0116: real time    0.0115
     EDDAV:  cpu time    2.2076: real time    2.2171
       DOS:  cpu time    0.0003: real time    0.0003
    CHARGE:  cpu time    0.8653: real time    0.8716
    MIXING:  cpu time    0.1689: real time    0.1691
    --------------------------------------------
      LOOP:  cpu time   10.6607: real time   10.7086

 eigenvalue-minimisations  :    16
 total energy-change (2. order) : 0.2118987E-02  (-0.3796619E-01)
 number of electron       8.0000001 magnetization 
 augmentation part       -1.1567015 magnetization 

 Broyden mixing:
  rms(total) = 0.12783E-01    rms(broyden)= 0.12765E-01
  rms(prec ) = 0.14355E-01
  weight for this iteration     100.00

 Free energy of the ion-electron system (eV)
  ---------------------------------------------------
  alpha Z        PSCENC =         0.02182671
  Ewald energy   TEWEN  =        21.60132441
  -Hartree energ DENC   =      -216.41334818
  -exchange      EXHF   =         0.00000000
  -V(xc)+E(xc)   XCENC  =       -23.24883645
  PAW double counting   =       252.80028500     -214.48516418
  entropy T*S    EENTRO =        -0.00000000
  eigenvalues    EBANDS =       -77.59463021
  atomic energy  EATOM  =       248.21064898
  Solvation  Ediel_sol  =         0.00000000
  ---------------------------------------------------
  free energy    TOTEN  =        -9.10789391 eV

  energy without entropy =       -9.10789391  energy(sigma->0) =       -9.10789391


--------------------------------------------------------------------------------------------------------




--------------------------------------- Iteration     11(   2)  ---------------------------------------


    POTLOK:  cpu time    7.3160: real time    7.3449
    SETDIJ:  cpu time    0.0119: real time    0.0119
    EDDIAG:  cpu time    0.5008: real time    0.5036
  RMM-DIIS:  cpu time    2.0012: real time    2.0141
    ORTHCH:  cpu time    0.0282: real time    0.0282
       DOS:  cpu time    0.0004: real time    0.0005
    CHARGE:  cpu time    0.8688: real time    0.8732
    MIXING:  cpu time    0.1717: real time    0.1720
    --------------------------------------------
      LOOP:  cpu time   10.8989: real time   10.9485

 eigenvalue-minimisations  :    16
 total energy-change (2. order) :-0.4956347E-03  (-0.8172359E-03)
 number of electron       8.0000001 magnetization 
 augmentation part       -1.1578305 magnetization 

 Broyden mixing:
  rms(total) = 0.81710E-02    rms(broyden)= 0.81698E-02
  rms(prec ) = 0.90995E-02
  weight for this iteration     100.00

 eigenvalues of (default mixing * dielectric matrix)
  average eigenvalue GAMMA=   1.8619
  1.8619

 Free energy of the ion-electron system (eV)
  ---------------------------------------------------
  alpha Z        PSCENC =         0.02182671
  Ewald energy   TEWEN  =        21.60132441
  -Hartree energ DENC   =      -216.30789113
  -exchange      EXHF   =         0.00000000
  -V(xc)+E(xc)   XCENC  =       -23.25445592
  PAW double counting   =       251.09120437     -212.76863351
  entropy T*S    EENTRO =        -0.00000000
  eigenvalues    EBANDS =       -77.70241346
  atomic energy  EATOM  =       248.21064898
  Solvation  Ediel_sol  =         0.00000000
  ---------------------------------------------------
  free energy    TOTEN  =        -9.10838954 eV

  energy without entropy =       -9.10838954  energy(sigma->0) =       -9.10838954


--------------------------------------------------------------------------------------------------------




--------------------------------------- Iteration     11(   3)  ---------------------------------------


    POTLOK:  cpu time    7.2178: real time    7.2472
    SETDIJ:  cpu time    0.0135: real time    0.0136
    EDDIAG:  cpu time    0.5016: real time    0.5025
  RMM-DIIS:  cpu time    1.9894: real time    1.9979
    ORTHCH:  cpu time    0.0296: real time    0.0297
       DOS:  cpu time    0.0004: real time    0.0005
    CHARGE:  cpu time    0.8682: real time    0.8727
    MIXING:  cpu time    0.1734: real time    0.1765
    --------------------------------------------
      LOOP:  cpu time   10.7940: real time   10.8406

 eigenvalue-minimisations  :    16
 total energy-change (2. order) : 0.8519952E-04  (-0.6796828E-04)
 number of electron       8.0000001 magnetization 
 augmentation part       -1.1584280 magnetization 

 Broyden mixing:
  rms(total) = 0.21312E-02    rms(broyden)= 0.21311E-02
  rms(prec ) = 0.23872E-02
  weight for this iteration     100.00

 eigenvalues of (default mixing * dielectric matrix)
  average eigenvalue GAMMA=   1.7019
  2.3721  1.0316

 Free energy of the ion-electron system (eV)
  ---------------------------------------------------
  alpha Z        PSCENC =         0.02182671
  Ewald energy   TEWEN  =        21.60132441
  -Hartree energ DENC   =      -216.19111848
  -exchange      EXHF   =         0.00000000
  -V(xc)+E(xc)   XCENC  =       -23.26144212
  PAW double counting   =       249.53103893     -211.20068266
  entropy T*S    EENTRO =        -0.00000000
  eigenvalues    EBANDS =       -77.81990011
  atomic energy  EATOM  =       248.21064898
  Solvation  Ediel_sol  =         0.00000000
  ---------------------------------------------------
  free energy    TOTEN  =        -9.10830434 eV

  energy without entropy =       -9.10830434  energy(sigma->0) =       -9.10830434


--------------------------------------------------------------------------------------------------------




--------------------------------------- Iteration     11(   4)  ---------------------------------------


    POTLOK:  cpu time    7.1473: real time    7.1969
    SETDIJ:  cpu time    0.0122: real time    0.0122
    EDDIAG:  cpu time    0.4962: real time    0.5024
  RMM-DIIS:  cpu time    2.2247: real time    2.2435
    ORTHCH:  cpu time    0.0281: real time    0.0281
       DOS:  cpu time    0.0004: real time    0.0005
    CHARGE:  cpu time    0.8626: real time    0.8730
    MIXING:  cpu time    0.1749: real time    0.1778
    --------------------------------------------
      LOOP:  cpu time   10.9465: real time   11.0345

 eigenvalue-minimisations  :    17
 total energy-change (2. order) :-0.1725815E-04  (-0.1973746E-04)
 number of electron       8.0000001 magnetization 
 augmentation part       -1.1586714 magnetization 

 Broyden mixing:
  rms(total) = 0.74746E-03    rms(broyden)= 0.74743E-03
  rms(prec ) = 0.96727E-03
  weight for this iteration     100.00

 eigenvalues of (default mixing * dielectric matrix)
  average eigenvalue GAMMA=   1.5833
  0.9139  2.0798  1.7560

 Free energy of the ion-electron system (eV)
  ---------------------------------------------------
  alpha Z        PSCENC =         0.02182671
  Ewald energy   TEWEN  =        21.60132441
  -Hartree energ DENC   =      -216.16284068
  -exchange      EXHF   =         0.00000000
  -V(xc)+E(xc)   XCENC  =       -23.26413246
  PAW double counting   =       249.13568787     -210.80407465
  entropy T*S    EENTRO =        -0.00000000
  eigenvalues    EBANDS =       -77.84676178
  atomic energy  EATOM  =       248.21064898
  Solvation  Ediel_sol  =         0.00000000
  ---------------------------------------------------
  free energy    TOTEN  =        -9.10832160 eV

  energy without entropy =       -9.10832160  energy(sigma->0) =       -9.10832160


--------------------------------------------------------------------------------------------------------




--------------------------------------- Iteration     11(   5)  ---------------------------------------


    POTLOK:  cpu time    7.1249: real time    7.1575
    SETDIJ:  cpu time    0.0121: real time    0.0121
    EDDIAG:  cpu time    0.5003: real time    0.5031
  RMM-DIIS:  cpu time    1.8173: real time    1.8290
    ORTHCH:  cpu time    0.0289: real time    0.0291
       DOS:  cpu time    0.0003: real time    0.0003
    --------------------------------------------
      LOOP:  cpu time    9.4838: real time    9.5311

 eigenvalue-minimisations  :    14
 total energy-change (2. order) :-0.9479355E-05  (-0.2080054E-05)
 number of electron       8.0000001 magnetization 
 augmentation part       -1.1586714 magnetization 

 Free energy of the ion-electron system (eV)
  ---------------------------------------------------
  alpha Z        PSCENC =         0.02182671
  Ewald energy   TEWEN  =        21.60132441
  -Hartree energ DENC   =      -216.17466757
  -exchange      EXHF   =         0.00000000
  -V(xc)+E(xc)   XCENC  =       -23.26420816
  PAW double counting   =       249.26154698     -210.93095972
  entropy T*S    EENTRO =        -0.00000000
  eigenvalues    EBANDS =       -77.83384271
  atomic energy  EATOM  =       248.21064898
  Solvation  Ediel_sol  =         0.00000000
  ---------------------------------------------------
  free energy    TOTEN  =        -9.10833108 eV

  energy without entropy =       -9.10833108  energy(sigma->0) =       -9.10833108


--------------------------------------------------------------------------------------------------------




 average (electrostatic) potential at core
  the test charge radii are     1.1897  0.5883
  (the norm of the test charge is              1.0000)
       1 -98.7320       2 -39.7750       3 -39.7755



 E-fermi :  -5.2025     XC(G=0):  -0.3407     alpha+bet : -0.1228


 k-point     1 :       0.0000    0.0000    0.0000
  band No.  band energies     occupation 
      1     -15.9084      2.00000
      2      -9.3696      2.00000
      3      -8.1990      2.00000
      4      -5.4399      2.00000
      5      -1.6290      0.00000
      6      -1.1463      0.00000
      7       0.0731      0.00000
      8       0.4557      0.00000


--------------------------------------------------------------------------------------------------------


 soft charge-density along one line, spin component           1
         0         1         2         3         4         5         6         7         8         9
 total charge-density along one line

 pseudopotential strength for first ion, spin component:           1
 55.854 -31.175   0.081   0.000   0.081   0.218   0.000   0.218
-31.175  39.176  -0.029  -0.000  -0.029  -0.116  -0.000  -0.116
  0.081  -0.029  13.617   0.000  -0.007  29.188   0.000  -0.016
  0.000  -0.000   0.000  13.574   0.000   0.000  29.085   0.000
  0.081  -0.029  -0.007   0.000  13.617  -0.016   0.000  29.188
  0.218  -0.116  29.188   0.000  -0.016  67.800   0.000  -0.050
  0.000  -0.000   0.000  29.085   0.000   0.000  67.483   0.000
  0.218  -0.116  -0.016   0.000  29.188  -0.050   0.000  67.800
 -0.014   0.005   0.025   0.000   0.025   0.048   0.000   0.048
  0.000  -0.000   0.000   0.024   0.000  -0.000   0.047   0.000
 -0.050   0.019  -0.014  -0.000  -0.014  -0.022   0.000  -0.022
  0.000  -0.000   0.000   0.024   0.000   0.000   0.047  -0.000
 -0.000   0.000  -0.024  -0.000   0.024  -0.037   0.000   0.037
  0.027  -0.005  -0.057  -0.000  -0.057  -0.147  -0.000  -0.147
 -0.000   0.000  -0.000  -0.056  -0.000  -0.000  -0.143  -0.000
  0.098  -0.020   0.031  -0.000   0.031   0.073  -0.000   0.073
 -0.000   0.000  -0.000  -0.056  -0.000  -0.000  -0.143  -0.000
  0.000  -0.000   0.052   0.000  -0.052   0.124  -0.000  -0.124
 total augmentation occupancy for first ion, spin component:           1
  1.922   0.008  -0.174   0.000  -0.174  -0.001   0.000  -0.001  -0.011   0.000  -0.044   0.000  -0.000   0.002  -0.000   0.002
  0.008   0.001   0.025   0.000   0.025  -0.000  -0.000  -0.000   0.001   0.000  -0.005   0.000   0.000  -0.000  -0.000  -0.000
 -0.174   0.025   1.235  -0.000   0.102  -0.018  -0.000   0.000   0.017   0.000  -0.126  -0.000  -0.235  -0.001   0.000  -0.006
  0.000   0.000  -0.000   1.911  -0.000  -0.000  -0.003  -0.000  -0.000   0.033  -0.000   0.033  -0.000   0.000  -0.002  -0.000
 -0.174   0.025   0.102  -0.000   1.235   0.000  -0.000  -0.018   0.017  -0.000  -0.126   0.000   0.235  -0.001  -0.000  -0.006
 -0.001  -0.000  -0.018  -0.000   0.000   0.000   0.000  -0.000  -0.000  -0.000   0.002   0.000   0.004   0.000  -0.000   0.000
  0.000  -0.000  -0.000  -0.003  -0.000   0.000   0.000   0.000  -0.000  -0.000   0.000  -0.000   0.000   0.000   0.000   0.000
 -0.001  -0.000   0.000  -0.000  -0.018  -0.000   0.000   0.000  -0.000   0.000   0.002  -0.000  -0.004   0.000   0.000   0.000
 -0.011   0.001   0.017  -0.000   0.017  -0.000  -0.000  -0.000   0.000   0.000  -0.003   0.000  -0.000  -0.000   0.000  -0.000
  0.000   0.000   0.000   0.033  -0.000  -0.000  -0.000   0.000   0.000   0.001  -0.000   0.001  -0.000  -0.000  -0.000  -0.000
 -0.044  -0.005  -0.126  -0.000  -0.126   0.002   0.000   0.002  -0.003  -0.000   0.027  -0.000   0.000   0.000  -0.000   0.001
  0.000   0.000  -0.000   0.033   0.000   0.000  -0.000  -0.000   0.000   0.001  -0.000   0.001   0.000  -0.000  -0.000  -0.000
 -0.000   0.000  -0.235  -0.000   0.235   0.004   0.000  -0.004  -0.000  -0.000   0.000   0.000   0.098  -0.000  -0.000   0.000
  0.002  -0.000  -0.001   0.000  -0.001   0.000   0.000   0.000  -0.000  -0.000   0.000  -0.000  -0.000   0.000  -0.000   0.000
 -0.000  -0.000   0.000  -0.002  -0.000  -0.000   0.000   0.000   0.000  -0.000  -0.000  -0.000  -0.000  -0.000   0.000  -0.000
  0.002  -0.000  -0.006  -0.000  -0.006   0.000   0.000   0.000  -0.000  -0.000   0.001  -0.000   0.000   0.000  -0.000   0.000
 -0.000  -0.000  -0.000  -0.002   0.000   0.000   0.000  -0.000   0.000  -0.000  -0.000  -0.000   0.000  -0.000   0.000  -0.000
 -0.000   0.000  -0.010  -0.000   0.010   0.000   0.000  -0.000  -0.000  -0.000   0.000   0.000   0.004  -0.000  -0.000   0.000


------------------------ aborting loop because EDIFF is reached ----------------------------------------


    CHARGE:  cpu time    0.8626: real time    0.8722
    FORLOC:  cpu time    0.3116: real time    0.3132
    FORNL :  cpu time    0.7359: real time    0.7429
    STRESS:  cpu time    2.8027: real time    2.8314
    FORCOR:  cpu time    7.3008: real time    7.3480
    FORHAR:  cpu time    2.1006: real time    2.1147
    MIXING:  cpu time    0.1777: real time    0.1803
    OFIELD:  cpu time    0.0000: real time    0.0000

  FORCE on cell =-STRESS in cart. coord.  units (eV):
  Direction    XX          YY          ZZ          XY          YZ          ZX
  --------------------------------------------------------------------------------------
  Alpha Z     0.02183     0.02183     0.02183
  Ewald      25.41363    25.41649   -29.22881    -2.66423     0.00195     0.00195
  Hartree    76.48551    76.48455    63.20291    -1.47681     0.00044     0.00044
  E(xc)     -29.11605   -29.11624   -29.42133    -0.07525     0.00001     0.00001
  Local    -216.79873  -216.80050  -165.20329     1.95088    -0.00185    -0.00185
  n-local   106.23904   106.24201   108.51625     1.26125    -0.00004    -0.00005
  augment   -25.22046   -25.22082   -27.85671    -0.36592     0.00008     0.00008
  Kinetic    62.45076    62.45102    79.81453     1.37695    -0.00061    -0.00061
  Fock        0.00000     0.00000     0.00000     0.00000     0.00000     0.00000
  -------------------------------------------------------------------------------------
  Total      -0.52449    -0.52167    -0.15463     0.00687    -0.00002    -0.00003
  in kB      -0.24899    -0.24765    -0.07341     0.00326    -0.00001    -0.00001
  external pressure =       -0.19 kB  Pullay stress =        0.00 kB


 VOLUME and BASIS-vectors are now :
 -----------------------------------------------------------------------------
  energy-cutoff  :      450.00
  volume of cell :     3375.00
      direct lattice vectors                 reciprocal lattice vectors
    15.000000000  0.000000000  0.000000000     0.066666667  0.000000000  0.000000000
     0.000000000 15.000000000  0.000000000     0.000000000  0.066666667  0.000000000
     0.000000000  0.000000000 15.000000000     0.000000000  0.000000000  0.066666667

  length of vectors
    15.000000000 15.000000000 15.000000000     0.066666667  0.066666667  0.066666667


 FORCES acting on ions
    electron-ion (+dipol)            ewald-force                    non-local-force                 convergence-correction
 -----------------------------------------------------------------------------------------------
   0.243E+02 0.243E+02 0.162E-02   -.302E+02 -.302E+02 -.231E-02   0.611E+01 0.611E+01 -.391E-03   -.754E-02 -.775E-02 0.314E-03
   -.295E+02 0.170E+01 -.109E-02   0.319E+02 -.168E+01 0.115E-02   -.262E+01 -.133E-01 -.104E-03   -.576E-03 -.941E-03 0.369E-04
   0.170E+01 -.295E+02 -.109E-02   -.168E+01 0.319E+02 0.115E-02   -.134E-01 -.262E+01 -.104E-03   -.922E-03 -.552E-03 0.369E-04
 -----------------------------------------------------------------------------------------------
   -.347E+01 -.347E+01 -.566E-03   0.111E-14 0.000E+00 0.520E-17   0.348E+01 0.348E+01 -.598E-03   -.903E-02 -.925E-02 0.388E-03


 POSITION                                       TOTAL-FORCE (eV/Angst)
 -----------------------------------------------------------------------------------
      7.26564      7.26570      7.49996         0.217561      0.216643     -0.000502
      8.95395      7.27039      7.50002        -0.222759      0.004925      0.000251
      7.27041      8.95391      7.50002         0.005198     -0.221567      0.000251
 -----------------------------------------------------------------------------------
    total drift:                                0.001254      0.002088     -0.000776


--------------------------------------------------------------------------------------------------------



  FREE ENERGIE OF THE ION-ELECTRON SYSTEM (eV)
  ---------------------------------------------------
  free  energy   TOTEN  =        -9.10833108 eV

  energy  without entropy=       -9.10833108  energy(sigma->0) =       -9.10833108

 d Force =-0.1495250E-02[-0.106E-01, 0.765E-02]  d Energy =-0.1684770E-02 0.190E-03
 d Force = 0.1549287E+01[ 0.153E+01, 0.157E+01]  d Ewald  = 0.1549128E+01 0.159E-03


--------------------------------------------------------------------------------------------------------


    POTLOK:  cpu time    7.0767: real time    7.1209


--------------------------------------------------------------------------------------------------------


 stress matrix after NEB project (eV)
     -0.52449      0.00687     -0.00003
      0.00687     -0.52167     -0.00002
     -0.00003     -0.00002     -0.15463
  FORCES: max atom, RMS     0.307030    0.253661
  FORCE total and by dimension    0.439354    0.222759
  Stress total and by dimension    0.755799    0.524490
 Conjugate gradient step on ions:
 trial-energy change:    0.001685  1 .order    0.001495   -0.007652    0.010642
  (g-gl).g = 0.360E-02      g.g   = 0.346E-02  gl.gl    = 0.118E-01
 g(Force)  = 0.346E-02   g(Stress)= 0.000E+00 ortho     = 0.164E-04
 gamma     =   0.30612
 trial     =   2.20913
 opt step  =   0.89096  (harmonic =   0.92400) maximal distance =0.00640057
 next E    =    -9.111546   (d E  =  -0.00153)


--------------------------------------------------------------------------------------------------------


    WAVPRE:  cpu time    1.2944: real time    1.7010
    FEWALD:  cpu time    0.0003: real time    0.0003
    ORTHCH:  cpu time    0.2458: real time    0.2484
     LOOP+:  cpu time   75.7304: real time   76.8828


--------------------------------------- Iteration     12(   1)  ---------------------------------------


    POTLOK:  cpu time    7.0994: real time    7.1235
    SETDIJ:  cpu time    0.0126: real time    0.0127
     EDDAV:  cpu time    2.1858: real time    2.1979
       DOS:  cpu time    0.0007: real time    0.0007
    CHARGE:  cpu time    0.8655: real time    0.8728
    MIXING:  cpu time    0.1670: real time    0.1687
    --------------------------------------------
      LOOP:  cpu time   10.3310: real time   10.3762

 eigenvalue-minimisations  :    16
 total energy-change (2. order) :-0.3002784E-02  (-0.1345940E-01)
 number of electron       8.0000000 magnetization 
 augmentation part       -1.1601611 magnetization 

 Broyden mixing:
  rms(total) = 0.75247E-02    rms(broyden)= 0.75139E-02
  rms(prec ) = 0.84008E-02
  weight for this iteration     100.00

 Free energy of the ion-electron system (eV)
  ---------------------------------------------------
  alpha Z        PSCENC =         0.02182671
  Ewald energy   TEWEN  =        22.52029396
  -Hartree energ DENC   =      -216.79138470
  -exchange      EXHF   =         0.00000000
  -V(xc)+E(xc)   XCENC  =       -23.23519692
  PAW double counting   =       249.26196290     -210.93158682
  entropy T*S    EENTRO =        -0.00000000
  eigenvalues    EBANDS =       -78.16788851
  atomic energy  EATOM  =       248.21064898
  Solvation  Ediel_sol  =         0.00000000
  ---------------------------------------------------
  free energy    TOTEN  =        -9.11132439 eV

  energy without entropy =       -9.11132439  energy(sigma->0) =       -9.11132439


--------------------------------------------------------------------------------------------------------




--------------------------------------- Iteration     12(   2)  ---------------------------------------


    POTLOK:  cpu time    7.1156: real time    7.1368
    SETDIJ:  cpu time    0.0121: real time    0.0122
    EDDIAG:  cpu time    0.4963: real time    0.5008
  RMM-DIIS:  cpu time    1.9919: real time    2.0102
    ORTHCH:  cpu time    0.0285: real time    0.0287
       DOS:  cpu time    0.0005: real time    0.0005
    CHARGE:  cpu time    0.8617: real time    0.8675
    MIXING:  cpu time    0.1739: real time    0.1753
    --------------------------------------------
      LOOP:  cpu time   10.6804: real time   10.7319

 eigenvalue-minimisations  :    16
 total energy-change (2. order) :-0.2191864E-03  (-0.2918508E-03)
 number of electron       8.0000000 magnetization 
 augmentation part       -1.1595213 magnetization 

 Broyden mixing:
  rms(total) = 0.48722E-02    rms(broyden)= 0.48715E-02
  rms(prec ) = 0.54045E-02
  weight for this iteration     100.00

 eigenvalues of (default mixing * dielectric matrix)
  average eigenvalue GAMMA=   1.8053
  1.8053

 Free energy of the ion-electron system (eV)
  ---------------------------------------------------
  alpha Z        PSCENC =         0.02182671
  Ewald energy   TEWEN  =        22.52029396
  -Hartree energ DENC   =      -216.85048544
  -exchange      EXHF   =         0.00000000
  -V(xc)+E(xc)   XCENC  =       -23.23196351
  PAW double counting   =       250.24752258     -211.92132676
  entropy T*S    EENTRO =        -0.00000000
  eigenvalues    EBANDS =       -78.10806010
  atomic energy  EATOM  =       248.21064898
  Solvation  Ediel_sol  =         0.00000000
  ---------------------------------------------------
  free energy    TOTEN  =        -9.11154357 eV

  energy without entropy =       -9.11154357  energy(sigma->0) =       -9.11154357


--------------------------------------------------------------------------------------------------------




--------------------------------------- Iteration     12(   3)  ---------------------------------------


    POTLOK:  cpu time    7.1331: real time    7.1520
    SETDIJ:  cpu time    0.0121: real time    0.0122
    EDDIAG:  cpu time    0.4964: real time    0.5028
  RMM-DIIS:  cpu time    2.0123: real time    2.0219
    ORTHCH:  cpu time    0.0289: real time    0.0290
       DOS:  cpu time    0.0004: real time    0.0004
    CHARGE:  cpu time    0.8692: real time    0.8707
    MIXING:  cpu time    0.1740: real time    0.1762
    --------------------------------------------
      LOOP:  cpu time   10.7266: real time   10.7653

 eigenvalue-minimisations  :    16
 total energy-change (2. order) : 0.2796920E-05  (-0.2026785E-04)
 number of electron       8.0000000 magnetization 
 augmentation part       -1.1592032 magnetization 

 Broyden mixing:
  rms(total) = 0.13668E-02    rms(broyden)= 0.13667E-02
  rms(prec ) = 0.15086E-02
  weight for this iteration     100.00

 eigenvalues of (default mixing * dielectric matrix)
  average eigenvalue GAMMA=   1.7101
  2.3808  1.0394

 Free energy of the ion-electron system (eV)
  ---------------------------------------------------
  alpha Z        PSCENC =         0.02182671
  Ewald energy   TEWEN  =        22.52029396
  -Hartree energ DENC   =      -216.91617745
  -exchange      EXHF   =         0.00000000
  -V(xc)+E(xc)   XCENC  =       -23.22779341
  PAW double counting   =       251.13733762     -212.81544431
  entropy T*S    EENTRO =        -0.00000000
  eigenvalues    EBANDS =       -78.04223289
  atomic energy  EATOM  =       248.21064898
  Solvation  Ediel_sol  =         0.00000000
  ---------------------------------------------------
  free energy    TOTEN  =        -9.11154078 eV

  energy without entropy =       -9.11154078  energy(sigma->0) =       -9.11154078


--------------------------------------------------------------------------------------------------------




--------------------------------------- Iteration     12(   4)  ---------------------------------------


    POTLOK:  cpu time    7.1262: real time    7.1782
    SETDIJ:  cpu time    0.0119: real time    0.0119
    EDDIAG:  cpu time    0.4986: real time    0.5021
  RMM-DIIS:  cpu time    1.8031: real time    1.8168
    ORTHCH:  cpu time    0.0298: real time    0.0299
       DOS:  cpu time    0.0004: real time    0.0004
    CHARGE:  cpu time    0.8667: real time    0.8737
    MIXING:  cpu time    0.1768: real time    0.1778
    --------------------------------------------
      LOOP:  cpu time   10.5135: real time   10.5908

 eigenvalue-minimisations  :    14
 total energy-change (2. order) :-0.1204082E-04  (-0.5079773E-05)
 number of electron       8.0000000 magnetization 
 augmentation part       -1.1590537 magnetization 

 Broyden mixing:
  rms(total) = 0.40019E-03    rms(broyden)= 0.40017E-03
  rms(prec ) = 0.48762E-03
  weight for this iteration     100.00

 eigenvalues of (default mixing * dielectric matrix)
  average eigenvalue GAMMA=   1.5041
  2.2508  0.8562  1.4052

 Free energy of the ion-electron system (eV)
  ---------------------------------------------------
  alpha Z        PSCENC =         0.02182671
  Ewald energy   TEWEN  =        22.52029396
  -Hartree energ DENC   =      -216.93455003
  -exchange      EXHF   =         0.00000000
  -V(xc)+E(xc)   XCENC  =       -23.22605738
  PAW double counting   =       251.39399353     -213.07296944
  entropy T*S    EENTRO =        -0.00000000
  eigenvalues    EBANDS =       -78.02473914
  atomic energy  EATOM  =       248.21064898
  Solvation  Ediel_sol  =         0.00000000
  ---------------------------------------------------
  free energy    TOTEN  =        -9.11155282 eV

  energy without entropy =       -9.11155282  energy(sigma->0) =       -9.11155282


--------------------------------------------------------------------------------------------------------




--------------------------------------- Iteration     12(   5)  ---------------------------------------


    POTLOK:  cpu time    7.1666: real time    7.2136
    SETDIJ:  cpu time    0.0119: real time    0.0119
    EDDIAG:  cpu time    0.4963: real time    0.5009
  RMM-DIIS:  cpu time    1.7275: real time    1.7417
    ORTHCH:  cpu time    0.0289: real time    0.0292
       DOS:  cpu time    0.0002: real time    0.0003
    --------------------------------------------
      LOOP:  cpu time    9.4314: real time    9.4975

 eigenvalue-minimisations  :    13
 total energy-change (2. order) :-0.2927419E-05  (-0.1292678E-05)
 number of electron       8.0000000 magnetization 
 augmentation part       -1.1590537 magnetization 

 Free energy of the ion-electron system (eV)
  ---------------------------------------------------
  alpha Z        PSCENC =         0.02182671
  Ewald energy   TEWEN  =        22.52029396
  -Hartree energ DENC   =      -216.93011444
  -exchange      EXHF   =         0.00000000
  -V(xc)+E(xc)   XCENC  =       -23.22617546
  PAW double counting   =       251.33139222     -213.01005581
  entropy T*S    EENTRO =        -0.00000000
  eigenvalues    EBANDS =       -78.02937191
  atomic energy  EATOM  =       248.21064898
  Solvation  Ediel_sol  =         0.00000000
  ---------------------------------------------------
  free energy    TOTEN  =        -9.11155574 eV

  energy without entropy =       -9.11155574  energy(sigma->0) =       -9.11155574


--------------------------------------------------------------------------------------------------------




 average (electrostatic) potential at core
  the test charge radii are     1.1897  0.5883
  (the norm of the test charge is              1.0000)
       1 -98.7120       2 -39.8421       3 -39.8423



 E-fermi :  -5.1790     XC(G=0):  -0.3432     alpha+bet : -0.1228


 k-point     1 :       0.0000    0.0000    0.0000
  band No.  band energies     occupation 
      1     -15.9534      2.00000
      2      -9.4161      2.00000
      3      -8.2036      2.00000
      4      -5.4415      2.00000
      5      -1.5741      0.00000
      6      -1.1009      0.00000
      7       0.0809      0.00000
      8       0.4237      0.00000


--------------------------------------------------------------------------------------------------------


 soft charge-density along one line, spin component           1
         0         1         2         3         4         5         6         7         8         9
 total charge-density along one line

 pseudopotential strength for first ion, spin component:           1
 55.852 -31.177   0.083   0.000   0.083   0.224   0.000   0.224
-31.177  39.181  -0.030  -0.000  -0.030  -0.120  -0.000  -0.120
  0.083  -0.030  13.618   0.000  -0.007  29.188   0.000  -0.017
  0.000  -0.000   0.000  13.574   0.000   0.000  29.085   0.000
  0.083  -0.030  -0.007   0.000  13.618  -0.017   0.000  29.188
  0.224  -0.120  29.188   0.000  -0.017  67.795   0.000  -0.051
  0.000  -0.000   0.000  29.085   0.000   0.000  67.479   0.000
  0.224  -0.120  -0.017   0.000  29.188  -0.051   0.000  67.795
 -0.014   0.006   0.026   0.000   0.026   0.049   0.000   0.049
  0.000  -0.000   0.000   0.025   0.000   0.000   0.048   0.000
 -0.051   0.019  -0.015   0.000  -0.015  -0.023   0.000  -0.023
  0.000  -0.000   0.000   0.025   0.000   0.000   0.048   0.000
 -0.000   0.000  -0.026   0.000   0.026  -0.038   0.000   0.038
  0.027  -0.005  -0.059  -0.000  -0.059  -0.151  -0.000  -0.151
 -0.000   0.000  -0.000  -0.057  -0.000  -0.000  -0.147  -0.000
  0.099  -0.020   0.032  -0.000   0.032   0.076  -0.000   0.076
 -0.000   0.000  -0.000  -0.057  -0.000  -0.000  -0.147  -0.000
  0.000  -0.000   0.055  -0.000  -0.055   0.128  -0.000  -0.128
 total augmentation occupancy for first ion, spin component:           1
  1.920   0.009  -0.173   0.000  -0.173  -0.001  -0.000  -0.001  -0.012   0.000  -0.046   0.000  -0.000   0.002  -0.000   0.002
  0.009   0.001   0.026   0.000   0.026  -0.000  -0.000  -0.000   0.001   0.000  -0.006   0.000   0.000  -0.000  -0.000  -0.000
 -0.173   0.026   1.247  -0.000   0.104  -0.018  -0.000   0.000   0.018   0.000  -0.129  -0.000  -0.241  -0.002   0.000  -0.006
  0.000   0.000  -0.000   1.910  -0.000  -0.000  -0.003  -0.000  -0.000   0.034  -0.000   0.034   0.000   0.000  -0.002  -0.000
 -0.173   0.026   0.104  -0.000   1.247   0.000  -0.000  -0.018   0.018  -0.000  -0.129   0.000   0.241  -0.002   0.000  -0.006
 -0.001  -0.000  -0.018  -0.000   0.000   0.000   0.000  -0.000  -0.000  -0.000   0.002   0.000   0.004   0.000  -0.000   0.000
 -0.000  -0.000  -0.000  -0.003  -0.000   0.000   0.000   0.000  -0.000  -0.000   0.000  -0.000   0.000  -0.000   0.000   0.000
 -0.001  -0.000   0.000  -0.000  -0.018  -0.000   0.000   0.000  -0.000   0.000   0.002  -0.000  -0.004   0.000  -0.000   0.000
 -0.012   0.001   0.018  -0.000   0.018  -0.000  -0.000  -0.000   0.001   0.000  -0.003   0.000  -0.000  -0.000   0.000  -0.000
  0.000   0.000   0.000   0.034  -0.000  -0.000  -0.000   0.000   0.000   0.001  -0.000   0.001  -0.000  -0.000  -0.000  -0.000
 -0.046  -0.006  -0.129  -0.000  -0.129   0.002   0.000   0.002  -0.003  -0.000   0.028  -0.000   0.000   0.000  -0.000   0.001
  0.000   0.000  -0.000   0.034   0.000   0.000  -0.000  -0.000   0.000   0.001  -0.000   0.001   0.000  -0.000  -0.000  -0.000
 -0.000   0.000  -0.241   0.000   0.241   0.004   0.000  -0.004  -0.000  -0.000   0.000   0.000   0.102  -0.000  -0.000   0.000
  0.002  -0.000  -0.002   0.000  -0.002   0.000  -0.000   0.000  -0.000  -0.000   0.000  -0.000  -0.000   0.000  -0.000   0.000
 -0.000  -0.000   0.000  -0.002   0.000  -0.000   0.000  -0.000   0.000  -0.000  -0.000  -0.000  -0.000  -0.000   0.000  -0.000
  0.002  -0.000  -0.006  -0.000  -0.006   0.000   0.000   0.000  -0.000  -0.000   0.001  -0.000   0.000   0.000  -0.000   0.000
 -0.000  -0.000   0.000  -0.002   0.000  -0.000   0.000  -0.000   0.000  -0.000  -0.000  -0.000   0.000  -0.000   0.000  -0.000
 -0.000   0.000  -0.010   0.000   0.010   0.000  -0.000  -0.000  -0.000  -0.000  -0.000   0.000   0.004  -0.000  -0.000  -0.000


------------------------ aborting loop because EDIFF is reached ----------------------------------------


    CHARGE:  cpu time    0.8641: real time    0.8744
    FORLOC:  cpu time    0.3111: real time    0.3118
    FORNL :  cpu time    0.7384: real time    0.7446
    STRESS:  cpu time    2.8026: real time    2.8244
    FORCOR:  cpu time    7.3050: real time    7.3519
    FORHAR:  cpu time    2.1069: real time    2.1188
    MIXING:  cpu time    0.1780: real time    0.1806
    OFIELD:  cpu time    0.0001: real time    0.0001

  FORCE on cell =-STRESS in cart. coord.  units (eV):
  Direction    XX          YY          ZZ          XY          YZ          ZX
  --------------------------------------------------------------------------------------
  Alpha Z     0.02183     0.02183     0.02183
  Ewald      25.87275    25.87352   -29.22599    -2.70015     0.00073     0.00073
  Hartree    76.69554    76.69531    63.53588    -1.47043     0.00016     0.00016
  E(xc)     -29.19160   -29.19165   -29.46546    -0.07642     0.00000     0.00000
  Local    -217.60405  -217.60450  -165.65819     1.94043    -0.00072    -0.00072
  n-local   106.59936   106.60014   108.44178     1.28101    -0.00000    -0.00000
  augment   -25.24985   -25.24995   -27.82048    -0.36927     0.00003     0.00003
  Kinetic    62.69889    62.69896    80.00827     1.39803    -0.00022    -0.00022
  Fock        0.00000     0.00000     0.00000     0.00000     0.00000     0.00000
  -------------------------------------------------------------------------------------
  Total      -0.15711    -0.15635    -0.16235     0.00321    -0.00001    -0.00001
  in kB      -0.07458    -0.07422    -0.07707     0.00152    -0.00001    -0.00001
  external pressure =       -0.08 kB  Pullay stress =        0.00 kB


 VOLUME and BASIS-vectors are now :
 -----------------------------------------------------------------------------
  energy-cutoff  :      450.00
  volume of cell :     3375.00
      direct lattice vectors                 reciprocal lattice vectors
    15.000000000  0.000000000  0.000000000     0.066666667  0.000000000  0.000000000
     0.000000000 15.000000000  0.000000000     0.000000000  0.066666667  0.000000000
     0.000000000  0.000000000 15.000000000     0.000000000  0.000000000  0.066666667

  length of vectors
    15.000000000 15.000000000 15.000000000     0.066666667  0.066666667  0.066666667


 FORCES acting on ions
    electron-ion (+dipol)            ewald-force                    non-local-force                 convergence-correction
 -----------------------------------------------------------------------------------------------
   0.248E+02 0.248E+02 0.712E-03   -.307E+02 -.307E+02 -.874E-03   0.587E+01 0.587E+01 -.456E-03   0.392E-02 0.387E-02 0.776E-04
   -.298E+02 0.173E+01 -.402E-03   0.324E+02 -.172E+01 0.437E-03   -.269E+01 -.136E-01 -.384E-04   -.225E-03 0.596E-03 0.675E-05
   0.173E+01 -.298E+02 -.403E-03   -.171E+01 0.324E+02 0.437E-03   -.136E-01 -.269E+01 -.384E-04   0.599E-03 -.221E-03 0.682E-05
 -----------------------------------------------------------------------------------------------
   -.318E+01 -.318E+01 -.927E-04   0.266E-14 0.000E+00 0.548E-17   0.318E+01 0.317E+01 -.533E-03   0.429E-02 0.425E-02 0.912E-04


 POSITION                                       TOTAL-FORCE (eV/Angst)
 -----------------------------------------------------------------------------------
      7.27051      7.27052      7.49998        -0.004809     -0.005026     -0.000361
      8.94448      7.27500      7.50001         0.001629      0.003101      0.000181
      7.27501      8.94447      7.50001         0.003181      0.001925      0.000181
 -----------------------------------------------------------------------------------
    total drift:                               -0.002092     -0.001828     -0.000534


--------------------------------------------------------------------------------------------------------



  FREE ENERGIE OF THE ION-ELECTRON SYSTEM (eV)
  ---------------------------------------------------
  free  energy   TOTEN  =        -9.11155574 eV

  energy  without entropy=       -9.11155574  energy(sigma->0) =       -9.11155574

 d Force = 0.3148915E-02[-0.523E-04, 0.635E-02]  d Energy = 0.3224663E-02-0.757E-04
 d Force =-0.9190029E+00[-0.927E+00,-0.911E+00]  d Ewald  =-0.9189696E+00-0.334E-04


--------------------------------------------------------------------------------------------------------


    POTLOK:  cpu time    7.2417: real time    7.2886


--------------------------------------------------------------------------------------------------------


 stress matrix after NEB project (eV)
     -0.15711      0.00321     -0.00001
      0.00321     -0.15635     -0.00001
     -0.00001     -0.00001     -0.16235
  FORCES: max atom, RMS     0.006965    0.004989
  FORCE total and by dimension    0.008641    0.005026
  Stress total and by dimension    0.274787    0.162353


--------------------------------------------------------------------------------------------------------


  
 reached required accuracy - stopping structural energy minimisation
     LOOP+:  cpu time   73.2605: real time   74.4040
    4ORBIT:  cpu time    0.0000: real time    0.0000

 total amount of memory used by VASP MPI-rank0   317953. kBytes
=======================================================================

   base      :      30000. kBytes
   nonlr-proj:       2628. kBytes
   fftplans  :      90349. kBytes
   grid      :     192595. kBytes
   one-center:         46. kBytes
   wavefun   :       2335. kBytes

  
  
 General timing and accounting informations for this job:
 ========================================================
  
                  Total CPU time used (sec):     1290.235
                            User time (sec):     1205.334
                          System time (sec):       84.901
                         Elapsed time (sec):     1308.913
  
                   Maximum memory used (kb):      430832.
                   Average memory used (kb):           0.
  
                          Minor page faults:     14210348
                          Major page faults:            4
                 Voluntary context switches:         1743
