Al   C    S    H                        
   1.0000000000000000     
     6.0191999999999997    0.0000000000000000    0.0000000000000000
     0.0000000000000000   10.1400000000000006    0.0000000000000000
     0.0000000000000000    0.0000000000000000   15.0000000000000000
   Al   C    S    H 
     8     4     1     2
Selective dynamics
Direct
  0.4317202748105504  0.8743454111774753  0.2522857482693874   T   T   T
  0.9323716516559362  0.8770759709643546  0.2378908784663658   T   T   T
  0.4484276285810453  0.6253146667171541  0.3001246192541755   T   T   T
  0.9317123632504501  0.6225862194526307  0.2580221614785618   T   T   T
  0.4356297535255263  0.3793292421309629  0.2476175243942342   T   T   T
  0.9178431209511310  0.3723717347557770  0.2632978196111561   T   T   T
  0.4318705013950318  0.1191494156477405  0.2316525720119086   T   T   T
  0.9297670373606713  0.1187261904740194  0.2464086737001306   T   T   T
  0.1819964004814781  0.9992373633581443  0.2431701907811568   T   T   T
  0.6809712063121074  0.9980926611277559  0.2355936862252214   T   T   T
  0.1792322267117121  0.4931360700393492  0.2894459736328247   T   T   T
  0.6822509221034033  0.5005626801687897  0.2512194344605152   T   T   T
  0.5111088195971489  0.6398035925702097  0.4504232668274146   T   T   T
  0.3272711254314974  0.7121208190931153  0.4694281320903057   T   T   T
  0.1724596629404836  0.4789985386128079  0.3633273328039705   T   T   T

  0.00000000E+00  0.00000000E+00  0.00000000E+00
  0.00000000E+00  0.00000000E+00  0.00000000E+00
  0.00000000E+00  0.00000000E+00  0.00000000E+00
  0.00000000E+00  0.00000000E+00  0.00000000E+00
  0.00000000E+00  0.00000000E+00  0.00000000E+00
  0.00000000E+00  0.00000000E+00  0.00000000E+00
  0.00000000E+00  0.00000000E+00  0.00000000E+00
  0.00000000E+00  0.00000000E+00  0.00000000E+00
  0.00000000E+00  0.00000000E+00  0.00000000E+00
  0.00000000E+00  0.00000000E+00  0.00000000E+00
  0.00000000E+00  0.00000000E+00  0.00000000E+00
  0.00000000E+00  0.00000000E+00  0.00000000E+00
  0.00000000E+00  0.00000000E+00  0.00000000E+00
  0.00000000E+00  0.00000000E+00  0.00000000E+00
  0.00000000E+00  0.00000000E+00  0.00000000E+00
