   15   15  999    1
  0.6103469E+02  0.6019200E-09  0.1014000E-08  0.1500000E-08  0.3500000E-15
   1.0000000000000000E-004
  CAR 
 Al2C                                    
     48      8     32

  0.3742002E-15  0.3742002E-15  0.1262379E-14  0.6666667E-01
    1      -15.198216   1.000000
    2      -14.663910   1.000000
    3      -13.815824   1.000000
    4      -12.765011   1.000000
    5      -11.689691   1.000000
    6       -8.992520   1.000000
    7       -8.890238   1.000000
    8       -8.653102   1.000000
    9       -7.618480   1.000000
   10       -7.345955   1.000000
   11       -6.755762   1.000000
   12       -6.261545   1.000000
   13       -5.887369   1.000000
   14       -5.287152   1.000000
   15       -5.085193   1.000000
   16       -4.759356   1.000000
   17       -4.351392   1.000000
   18       -3.996978   1.000000
   19       -3.918701   1.000000
   20       -3.363617   1.000000
   21       -3.204089   1.000000
   22       -2.954491   1.000000
   23       -2.521598   1.000000
   24       -2.332239   1.000000
   25       -1.622951   0.000000
   26       -1.159004   0.000000
   27       -0.420539   0.000000
   28       -0.095932   0.000000
   29       -0.010477   0.000000
   30        0.455546   0.000000
   31        0.605698   0.000000
   32        0.810996   0.000000

  0.2000000E+00  0.3742002E-15  0.1262379E-14  0.1333333E+00
    1      -15.165792   1.000000
    2      -14.624872   1.000000
    3      -13.691861   1.000000
    4      -12.969424   1.000000
    5      -12.069805   1.000000
    6       -8.753429   1.000000
    7       -8.670819   1.000000
    8       -8.091622   1.000000
    9       -7.506095   1.000000
   10       -7.311482   1.000000
   11       -6.679489   1.000000
   12       -6.600188   1.000000
   13       -6.143432   1.000000
   14       -5.350730   1.000000
   15       -5.014091   1.000000
   16       -4.651675   1.000000
   17       -4.399119   1.000000
   18       -4.096082   1.000000
   19       -3.739749   1.000000
   20       -3.676602   1.000000
   21       -3.620608   1.000000
   22       -3.414040   1.000000
   23       -2.806484   1.000000
   24       -2.514174   1.000000
   25       -1.528719   0.000000
   26       -0.459127   0.000000
   27       -0.332410   0.000000
   28        0.010102   0.000000
   29        0.236835   0.000000
   30        0.700650   0.000000
   31        0.754499   0.000000
   32        0.911443   0.000000

  0.4000000E+00  0.3742002E-15  0.1262379E-14  0.1333333E+00
    1      -15.115636   1.000000
    2      -14.530825   1.000000
    3      -13.359722   1.000000
    4      -13.266556   1.000000
    5      -12.741558   1.000000
    6       -8.358147   1.000000
    7       -8.261388   1.000000
    8       -7.691646   1.000000
    9       -7.305035   1.000000
   10       -6.864783   1.000000
   11       -6.695581   1.000000
   12       -6.350657   1.000000
   13       -5.939935   1.000000
   14       -5.830403   1.000000
   15       -5.357386   1.000000
   16       -5.092569   1.000000
   17       -5.015808   1.000000
   18       -4.449219   1.000000
   19       -4.243607   1.000000
   20       -3.827459   1.000000
   21       -3.691421   1.000000
   22       -3.499751   1.000000
   23       -3.008647   1.000000
   24       -2.540089   1.000000
   25       -1.202526   0.000000
   26       -0.706579   0.000000
   27       -0.178095   0.000000
   28        0.602977   0.000000
   29        0.837014   0.000000
   30        1.191627   0.000000
   31        1.275521   0.000000
   32        1.335803   0.000000

  0.3742002E-15  0.3333333E+00  0.1262379E-14  0.1333333E+00
    1      -15.197461   1.000000
    2      -14.663269   1.000000
    3      -13.819313   1.000000
    4      -12.766905   1.000000
    5      -11.690597   1.000000
    6       -8.955982   1.000000
    7       -8.705450   1.000000
    8       -8.629637   1.000000
    9       -7.935582   1.000000
   10       -7.464654   1.000000
   11       -7.157606   1.000000
   12       -5.763627   1.000000
   13       -5.439166   1.000000
   14       -5.280898   1.000000
   15       -4.963584   1.000000
   16       -4.786084   1.000000
   17       -4.286186   1.000000
   18       -4.028487   1.000000
   19       -3.904431   1.000000
   20       -3.685098   1.000000
   21       -3.349302   1.000000
   22       -3.066187   1.000000
   23       -2.954735   1.000000
   24       -2.329529   1.000000
   25       -1.413589   0.000000
   26       -0.788529   0.000000
   27       -0.589851   0.000000
   28       -0.140006   0.000000
   29        0.374322   0.000000
   30        0.463873   0.000000
   31        0.618255   0.000000
   32        0.758066   0.000000

  0.2000000E+00  0.3333333E+00  0.1262379E-14  0.1333333E+00
    1      -15.165214   1.000000
    2      -14.624226   1.000000
    3      -13.694142   1.000000
    4      -12.971526   1.000000
    5      -12.071586   1.000000
    6       -8.676704   1.000000
    7       -8.479759   1.000000
    8       -8.122314   1.000000
    9       -7.831240   1.000000
   10       -7.300229   1.000000
   11       -7.170248   1.000000
   12       -6.391087   1.000000
   13       -5.791894   1.000000
   14       -5.295091   1.000000
   15       -4.794291   1.000000
   16       -4.649975   1.000000
   17       -4.346132   1.000000
   18       -3.968664   1.000000
   19       -3.792638   1.000000
   20       -3.695097   1.000000
   21       -3.633360   1.000000
   22       -3.526648   1.000000
   23       -2.990737   1.000000
   24       -2.789904   1.000000
   25       -1.228680   0.000000
   26       -0.791098   0.000000
   27       -0.354680   0.000000
   28       -0.072551   0.000000
   29        0.377836   0.000000
   30        0.657463   0.000000
   31        0.760667   0.000000
   32        0.953615   0.000000

  0.4000000E+00  0.3333333E+00  0.1262379E-14  0.1333333E+00
    1      -15.115418   1.000000
    2      -14.530298   1.000000
    3      -13.337014   1.000000
    4      -13.290812   1.000000
    5      -12.746047   1.000000
    6       -8.325778   1.000000
    7       -8.093613   1.000000
    8       -7.608674   1.000000
    9       -7.314787   1.000000
   10       -7.018779   1.000000
   11       -6.838411   1.000000
   12       -6.648697   1.000000
   13       -6.457120   1.000000
   14       -5.493775   1.000000
   15       -5.236070   1.000000
   16       -4.861565   1.000000
   17       -4.501942   1.000000
   18       -4.260155   1.000000
   19       -4.192232   1.000000
   20       -3.846438   1.000000
   21       -3.664734   1.000000
   22       -3.520737   1.000000
   23       -3.319489   1.000000
   24       -2.875132   1.000000
   25       -1.014241   0.000000
   26       -0.793818   0.000000
   27       -0.197652   0.000000
   28        0.552349   0.000000
   29        0.609371   0.000000
   30        0.809089   0.000000
   31        1.063386   0.000000
   32        1.347378   0.000000

 -0.4000000E+00  0.3333333E+00  0.1262379E-14  0.1333333E+00
    1      -15.115453   1.000000
    2      -14.530161   1.000000
    3      -13.343446   1.000000
    4      -13.284015   1.000000
    5      -12.746498   1.000000
    6       -8.349994   1.000000
    7       -8.077067   1.000000
    8       -7.547757   1.000000
    9       -7.295384   1.000000
   10       -7.113342   1.000000
   11       -6.839581   1.000000
   12       -6.679400   1.000000
   13       -6.408516   1.000000
   14       -5.512368   1.000000
   15       -5.217886   1.000000
   16       -4.838075   1.000000
   17       -4.507652   1.000000
   18       -4.298170   1.000000
   19       -4.151027   1.000000
   20       -3.854006   1.000000
   21       -3.645721   1.000000
   22       -3.549506   1.000000
   23       -3.303427   1.000000
   24       -2.883902   1.000000
   25       -1.216866   0.000000
   26       -0.499829   0.000000
   27       -0.177604   0.000000
   28        0.460444   0.000000
   29        0.631270   0.000000
   30        0.740583   0.000000
   31        1.000084   0.000000
   32        1.331669   0.000000

 -0.2000000E+00  0.3333333E+00  0.1262379E-14  0.1333333E+00
    1      -15.165270   1.000000
    2      -14.624034   1.000000
    3      -13.694586   1.000000
    4      -12.971011   1.000000
    5      -12.071751   1.000000
    6       -8.687862   1.000000
    7       -8.488393   1.000000
    8       -8.114540   1.000000
    9       -7.747960   1.000000
   10       -7.409006   1.000000
   11       -7.130339   1.000000
   12       -6.413260   1.000000
   13       -5.795514   1.000000
   14       -5.281033   1.000000
   15       -4.774203   1.000000
   16       -4.681506   1.000000
   17       -4.300018   1.000000
   18       -3.990387   1.000000
   19       -3.774016   1.000000
   20       -3.695113   1.000000
   21       -3.625553   1.000000
   22       -3.507321   1.000000
   23       -3.026573   1.000000
   24       -2.794893   1.000000
   25       -1.404002   0.000000
   26       -0.530109   0.000000
   27       -0.357211   0.000000
   28       -0.102260   0.000000
   29        0.356750   0.000000
   30        0.593030   0.000000
   31        0.807676   0.000000
   32        0.942273   0.000000
