       N       E                     dE             d eps       ncg     rms          rms(c)
DAV:   1     0.304323437474E+03    0.30432E+03   -0.13421E+04   512   0.924E+02
DAV:   2    -0.639838208953E+01   -0.31072E+03   -0.29220E+03   744   0.215E+02
DAV:   3    -0.878971811713E+02   -0.81499E+02   -0.80173E+02   832   0.102E+02
DAV:   4    -0.910173253649E+02   -0.31201E+01   -0.31111E+01   672   0.245E+01
DAV:   5    -0.911621862849E+02   -0.14486E+00   -0.14483E+00   824   0.534E+00
DAV:   6    -0.911644355818E+02   -0.22493E-02   -0.22490E-02   752   0.795E-01
DAV:   7    -0.911645571321E+02   -0.12155E-03   -0.12155E-03   800   0.141E-01    0.187E+01
DAV:   8    -0.736283881978E+02    0.17536E+02   -0.71764E+01   608   0.414E+01    0.558E+00
DAV:   9    -0.732885336181E+02    0.33985E+00   -0.50700E+00   648   0.109E+01    0.374E+00
DAV:  10    -0.727703495349E+02    0.51818E+00   -0.13484E+00   704   0.666E+00    0.835E-01
DAV:  11    -0.727355367327E+02    0.34813E-01   -0.12107E-01   728   0.206E+00    0.447E-01
DAV:  12    -0.727312917273E+02    0.42450E-02   -0.11509E-01   752   0.165E+00    0.379E-01
DAV:  13    -0.727265091381E+02    0.47826E-02   -0.23262E-02   720   0.872E-01    0.186E-01
DAV:  14    -0.727232158930E+02    0.32932E-02   -0.20757E-02   672   0.607E-01    0.104E-01
DAV:  15    -0.727244478546E+02   -0.12320E-02   -0.26457E-03   736   0.257E-01    0.827E-02
DAV:  16    -0.727278881456E+02   -0.34403E-02   -0.36505E-03   608   0.306E-01    0.642E-02
DAV:  17    -0.727291815618E+02   -0.12934E-02   -0.94949E-04   656   0.186E-01    0.283E-02
DAV:  18    -0.727304618290E+02   -0.12803E-02   -0.93062E-04   688   0.137E-01    0.381E-02
DAV:  19    -0.727317707033E+02   -0.13089E-02   -0.58939E-04   720   0.136E-01    0.166E-02
DAV:  20    -0.727326704327E+02   -0.89973E-03   -0.16062E-04   592   0.633E-02    0.103E-02
DAV:  21    -0.727332808876E+02   -0.61045E-03   -0.11547E-04   584   0.392E-02    0.530E-03
DAV:  22    -0.727334819956E+02   -0.20111E-03   -0.30914E-05   640   0.209E-02    0.409E-03
DAV:  23    -0.727335455455E+02   -0.63550E-04   -0.67944E-06   536   0.108E-02    0.228E-03
DAV:  24    -0.727335742477E+02   -0.28702E-04   -0.49815E-06   504   0.849E-03    0.798E-04
DAV:  25    -0.727335798240E+02   -0.55763E-05   -0.68762E-07   416   0.430E-03    0.997E-04
DAV:  26    -0.727335831852E+02   -0.33612E-05   -0.67127E-07   360   0.361E-03    0.774E-04
DAV:  27    -0.727335840339E+02   -0.84869E-06   -0.28948E-07   424   0.312E-03
   1 F= -.72733584E+02 E0= -.72733584E+02  d E =-.727336E+02
       N       E                     dE             d eps       ncg     rms          rms(c)
DAV:   1    -0.727335821111E+02    0.10741E-05   -0.16180E-05   600   0.241E-02    0.923E-04
DAV:   2    -0.727335822397E+02   -0.12863E-06   -0.59394E-07   488   0.415E-03
   2 F= -.72733582E+02 E0= -.72733582E+02  d E =0.179414E-05
       N       E                     dE             d eps       ncg     rms          rms(c)
DAV:   1    -0.727335867794E+02   -0.46683E-05   -0.25956E-05   600   0.295E-02    0.952E-04
DAV:   2    -0.727335869465E+02   -0.16709E-06   -0.11735E-06   480   0.587E-03
   3 F= -.72733587E+02 E0= -.72733587E+02  d E =-.470675E-05
       N       E                     dE             d eps       ncg     rms          rms(c)
DAV:   1    -0.727336030079E+02   -0.16228E-04   -0.31745E-05   592   0.289E-02    0.117E-03
DAV:   2    -0.727336031962E+02   -0.18833E-06   -0.16885E-06   480   0.780E-03
   4 F= -.72733603E+02 E0= -.72733603E+02  d E =-.162497E-04
       N       E                     dE             d eps       ncg     rms          rms(c)
DAV:   1    -0.727336361082E+02   -0.33100E-04   -0.77343E-05   544   0.472E-02    0.205E-03
DAV:   2    -0.727336364650E+02   -0.35686E-06   -0.37152E-06   600   0.107E-02
   5 F= -.72733636E+02 E0= -.72733636E+02  d E =-.332688E-04
       N       E                     dE             d eps       ncg     rms          rms(c)
DAV:   1    -0.727336730446E+02   -0.36936E-04   -0.10467E-04   528   0.483E-02    0.256E-03
DAV:   2    -0.727336735715E+02   -0.52683E-06   -0.63203E-06   640   0.137E-02
   6 F= -.72733674E+02 E0= -.72733674E+02  d E =-.371064E-04
