 vasp.5.4.4.18Apr17-6-g9f103f2a35 (build Dec  6 2019 17:49:40) complex           
 executed on             LinuxGNU date 2022.03.22  22:25:36
 running on   16 total cores
 each image running on    2 cores
 distrk:  each k-point on    2 cores,    1 groups
 distr:  one band on NCORES_PER_BAND=   1 cores,    2 groups


--------------------------------------------------------------------------------------------------------


 INCAR:
 POTCAR:    PAW Al_GW 19Mar2012                   
 POTCAR:    PAW C_GW 28Sep2005                    
 POTCAR:    PAW S_GW 19Mar2012                    
 POTCAR:    PAW H_GW 21Apr2008                    
 POTCAR:    PAW Al_GW 19Mar2012                   
   VRHFIN =Al: s2p1                                                             
   LEXCH  = PE                                                                  
   EATOM  =    53.5387 eV,    3.9350 Ry                                         
                                                                                
   TITEL  = PAW Al_GW 19Mar2012                                                 
   LULTRA =        F    use ultrasoft PP ?                                      
   IUNSCR =        1    unscreen: 0-lin 1-nonlin 2-no                           
   RPACOR =    1.500    partial core radius                                     
   POMASS =   26.982; ZVAL   =    3.000    mass and valenz                      
   RCORE  =    2.000    outmost cutoff radius                                   
   RWIGS  =    2.000; RWIGS  =    1.058    wigner-seitz radius (au A)           
   ENMAX  =  240.300; ENMIN  =  180.225 eV                                      
   ICORE  =        3    local potential                                         
   LCOR   =        T    correct aug charges                                     
   LPAW   =        T    paw PP                                                  
   EAUG   =  482.059                                                            
   DEXC   =    0.000                                                            
   RMAX   =    2.051    core radius for proj-oper                               
   RAUG   =    1.300    factor for augmentation sphere                          
   RDEP   =    2.096    radius for radial grids                                 
   RDEPT  =    1.856    core radius for aug-charge                              
                                                                                
   Atomic configuration                                                         
    7 entries                                                                   
     n  l   j            E        occ.                                          
     1  0  0.50     -1511.1048   2.0000                                         
     2  0  0.50      -108.1629   2.0000                                         
     2  1  1.50       -69.6402   6.0000                                         
     3  0  0.50        -7.7528   2.0000                                         
     3  1  1.50        -2.7121   1.0000                                         
     3  2  2.50        -2.7212   0.0000                                         
     4  3  2.50        -2.7212   0.0000                                         
   Description                                                                  
     l       E           TYP  RCUT    TYP  RCUT                                 
     0     -7.7528455     23  1.900                                             
     0     68.0291300     23  1.900                                             
     1     -2.7120682     23  1.900                                             
     1     68.0291300     23  1.900                                             
     2     -1.3605826     23  1.900                                             
     2     81.6349560     23  1.900                                             
     3     74.8320430     23  2.000                                             
  local pseudopotential read in
  partial core-charges read in
  partial kinetic energy density read in
  kinetic energy density of atom read in
  atomic valenz-charges read in
  non local Contribution for L=           0  read in
    real space projection operators read in
  non local Contribution for L=           0  read in
    real space projection operators read in
  non local Contribution for L=           1  read in
    real space projection operators read in
  non local Contribution for L=           1  read in
    real space projection operators read in
  non local Contribution for L=           2  read in
    real space projection operators read in
  non local Contribution for L=           2  read in
    real space projection operators read in
    PAW grid and wavefunctions read in

   number of l-projection  operators is LMAX  =           6
   number of lm-projection operators is LMMAX =          18

 POTCAR:    PAW C_GW 28Sep2005                    
   VRHFIN =C: s2p2                                                              
   LEXCH  = PE                                                                  
   EATOM  =   147.1560 eV,   10.8157 Ry                                         
                                                                                
   TITEL  = PAW C_GW 28Sep2005                                                  
   LULTRA =        F    use ultrasoft PP ?                                      
   IUNSCR =        0    unscreen: 0-lin 1-nonlin 2-no                           
   RPACOR =    0.000    partial core radius                                     
   POMASS =   12.011; ZVAL   =    4.000    mass and valenz                      
   RCORE  =    1.500    outmost cutoff radius                                   
   RWIGS  =    1.630; RWIGS  =    0.863    wigner-seitz radius (au A)           
   ENMAX  =  413.992; ENMIN  =  310.494 eV                                      
   ICORE  =        2    local potential                                         
   LCOR   =        T    correct aug charges                                     
   LPAW   =        T    paw PP                                                  
   EAUG   =  644.873                                                            
   DEXC   =    0.000                                                            
   RMAX   =    1.529    core radius for proj-oper                               
   RAUG   =    1.300    factor for augmentation sphere                          
   RDEP   =    1.501    radius for radial grids                                 
   RDEPT  =    1.300    core radius for aug-charge                              
                                                                                
   Atomic configuration                                                         
    4 entries                                                                   
     n  l   j            E        occ.                                          
     1  0  0.50      -273.3789   2.0000                                         
     2  0  0.50       -13.7508   2.0000                                         
     2  1  0.50        -5.2854   2.0000                                         
     3  2  1.50        -5.4423   0.0000                                         
   Description                                                                  
     l       E           TYP  RCUT    TYP  RCUT                                 
     0    -13.7508457     23  1.200                                             
     0     95.2407820     23  1.200                                             
     1     -5.2854382     23  1.500                                             
     1    108.8466080     23  1.500                                             
     2     -5.4423304      7  1.500                                             
  local pseudopotential read in
  kinetic energy density of atom read in
  atomic valenz-charges read in
  non local Contribution for L=           0  read in
    real space projection operators read in
  non local Contribution for L=           0  read in
    real space projection operators read in
  non local Contribution for L=           1  read in
    real space projection operators read in
  non local Contribution for L=           1  read in
    real space projection operators read in
    PAW grid and wavefunctions read in

   number of l-projection  operators is LMAX  =           4
   number of lm-projection operators is LMMAX =           8

 POTCAR:    PAW S_GW 19Mar2012                    
   VRHFIN =S : s2p4                                                             
   LEXCH  = PE                                                                  
   EATOM  =   276.8230 eV,   20.3459 Ry                                         
                                                                                
   TITEL  = PAW S_GW 19Mar2012                                                  
   LULTRA =        F    use ultrasoft PP ?                                      
   IUNSCR =        1    unscreen: 0-lin 1-nonlin 2-no                           
   RPACOR =    1.400    partial core radius                                     
   POMASS =   32.066; ZVAL   =    6.000    mass and valenz                      
   RCORE  =    1.900    outmost cutoff radius                                   
   RWIGS  =    1.900; RWIGS  =    1.005    wigner-seitz radius (au A)           
   ENMAX  =  258.689; ENMIN  =  194.016 eV                                      
   ICORE  =        3    local potential                                         
   LCOR   =        T    correct aug charges                                     
   LPAW   =        T    paw PP                                                  
   EAUG   =  488.319                                                            
   DEXC   =    0.000                                                            
   RMAX   =    1.942    core radius for proj-oper                               
   RAUG   =    1.300    factor for augmentation sphere                          
   RDEP   =    1.954    radius for radial grids                                 
   RDEPT  =    1.900    core radius for aug-charge                              
                                                                                
   Atomic configuration                                                         
    7 entries                                                                   
     n  l   j            E        occ.                                          
     1  0  0.50     -2405.8406   2.0000                                         
     2  0  0.50      -211.7007   2.0000                                         
     2  1  1.50      -156.4958   6.0000                                         
     3  0  0.50       -17.2562   2.0000                                         
     3  1  0.50        -7.0085   4.0000                                         
     3  2  1.50        -8.1635   0.0000                                         
     4  3  2.50        -1.3606   0.0000                                         
   Description                                                                  
     l       E           TYP  RCUT    TYP  RCUT                                 
     0    -17.2561639     23  1.700                                             
     0     88.4378690     23  1.900                                             
     1     -7.0085399     23  1.900                                             
     1     88.4378690     23  1.900                                             
     2    -10.8846608     23  1.900                                             
     2     54.4233040     23  1.900                                             
     3     27.2116520     23  1.800                                             
  local pseudopotential read in
  partial core-charges read in
  partial kinetic energy density read in
  kinetic energy density of atom read in
  atomic valenz-charges read in
  non local Contribution for L=           0  read in
    real space projection operators read in
  non local Contribution for L=           0  read in
    real space projection operators read in
  non local Contribution for L=           1  read in
    real space projection operators read in
  non local Contribution for L=           1  read in
    real space projection operators read in
  non local Contribution for L=           2  read in
    real space projection operators read in
  non local Contribution for L=           2  read in
    real space projection operators read in
    PAW grid and wavefunctions read in

   number of l-projection  operators is LMAX  =           6
   number of lm-projection operators is LMMAX =          18

 POTCAR:    PAW H_GW 21Apr2008                    
   VRHFIN =H: ultrasoft test                                                    
   LEXCH  = PE                                                                  
   EATOM  =    12.4884 eV,    0.9179 Ry                                         
                                                                                
   TITEL  = PAW H_GW 21Apr2008                                                  
   LULTRA =        F    use ultrasoft PP ?                                      
   IUNSCR =        0    unscreen: 0-lin 1-nonlin 2-no                           
   RPACOR =    0.000    partial core radius                                     
   POMASS =    1.000; ZVAL   =    1.000    mass and valenz                      
   RCORE  =    1.100    outmost cutoff radius                                   
   RWIGS  =    1.100; RWIGS  =    0.582    wigner-seitz radius (au A)           
   ENMAX  =  300.000; ENMIN  =  250.000 eV                                      
   RCLOC  =    0.701    cutoff for local pot                                    
   LCOR   =        T    correct aug charges                                     
   LPAW   =        T    paw PP                                                  
   EAUG   =  500.000                                                            
   RMAX   =    1.123    core radius for proj-oper                               
   RAUG   =    1.200    factor for augmentation sphere                          
   RDEP   =    1.112    radius for radial grids                                 
   RDEPT  =    1.100    core radius for aug-charge                              
                                                                                
   Atomic configuration                                                         
    3 entries                                                                   
     n  l   j            E        occ.                                          
     1  0  0.50        -6.4927   1.0000                                         
     2  1  0.50        -3.4015   0.0000                                         
     3  2  1.50        13.6058   0.0000                                         
   Description                                                                  
     l       E           TYP  RCUT    TYP  RCUT                                 
     0     -6.4927495     23  0.950                                             
     0      6.8029130     23  0.950                                             
     1     -4.0817478     23  1.100                                             
     1    108.8466080     23  1.100                                             
     2     81.6349560     23  1.100                                             
  local pseudopotential read in
  kinetic energy density of atom read in
  atomic valenz-charges read in
  non local Contribution for L=           0  read in
    real space projection operators read in
  non local Contribution for L=           0  read in
    real space projection operators read in
  non local Contribution for L=           1  read in
    real space projection operators read in
  non local Contribution for L=           1  read in
    real space projection operators read in
  non local Contribution for L=           2  read in
    real space projection operators read in
    PAW grid and wavefunctions read in

   number of l-projection  operators is LMAX  =           5
   number of lm-projection operators is LMMAX =          13

 Optimization of the real space projectors (new method)

 maximal supplied QI-value         = 18.90
 optimisation between [QCUT,QGAM] = [ 10.77, 21.73] = [ 32.49,132.25] Ry 
 Optimized for a Real-space Cutoff    1.60 Angstroem

   l    n(q)    QCUT    max X(q) W(low)/X(q) W(high)/X(q)  e(spline) 
   0     10    10.771    11.519    0.58E-04    0.59E-05    0.18E-06
   0     10    10.771     5.834    0.29E-04    0.42E-05    0.15E-06
   1     10    10.771    10.132    0.17E-04    0.63E-04    0.28E-06
   1     10    10.771     3.004    0.11E-04    0.44E-04    0.22E-06
   2      9    10.771     3.188    0.19E-03    0.85E-04    0.37E-06
   2      9    10.771     1.607    0.20E-04    0.14E-04    0.40E-06
 Optimization of the real space projectors (new method)

 maximal supplied QI-value         = 25.13
 optimisation between [QCUT,QGAM] = [ 10.81, 21.61] = [ 32.71,130.83] Ry 
 Optimized for a Real-space Cutoff    1.26 Angstroem

   l    n(q)    QCUT    max X(q) W(low)/X(q) W(high)/X(q)  e(spline) 
   0      8    10.807     6.744    0.14E-03    0.25E-03    0.15E-06
   0      8    10.807     2.789    0.17E-03    0.34E-03    0.18E-06
   1      8    10.807     2.977    0.14E-03    0.97E-04    0.55E-07
   1      8    10.807     2.397    0.19E-03    0.70E-04    0.28E-06
 Optimization of the real space projectors (new method)

 maximal supplied QI-value         = 19.84
 optimisation between [QCUT,QGAM] = [ 10.71, 21.63] = [ 32.15,130.99] Ry 
 Optimized for a Real-space Cutoff    1.42 Angstroem

   l    n(q)    QCUT    max X(q) W(low)/X(q) W(high)/X(q)  e(spline) 
   0      9    10.715     7.541    0.42E-04    0.39E-04    0.94E-07
   0      9    10.715     1.809    0.83E-04    0.74E-04    0.19E-06
   1      9    10.715     4.107    0.97E-05    0.62E-05    0.11E-06
   1      9    10.715     2.196    0.54E-05    0.24E-04    0.19E-06
   2      8    10.715     4.265    0.10E-03    0.23E-03    0.57E-06
   2      8    10.715     1.925    0.93E-04    0.18E-04    0.42E-06
 Optimization of the real space projectors (new method)

 maximal supplied QI-value         = 34.20
 optimisation between [QCUT,QGAM] = [ 10.60, 21.55] = [ 31.48,130.03] Ry 
 Optimized for a Real-space Cutoff    1.51 Angstroem

   l    n(q)    QCUT    max X(q) W(low)/X(q) W(high)/X(q)  e(spline) 
   0     10    10.603    26.161    0.94E-04    0.78E-04    0.97E-06
   0     10    10.603    15.773    0.86E-04    0.75E-04    0.95E-06
   1      9    10.603     3.022    0.64E-04    0.17E-03    0.10E-05
   1      9    10.603     2.445    0.31E-04    0.10E-03    0.83E-06
   2      9    10.603     6.097    0.15E-03    0.49E-03    0.94E-06
  PAW Al_GW 19Mar2012                   :
 energy of atom  1       EATOM=  -53.5387
 kinetic energy error for atom=    0.0004 (will be added to EATOM!!)
  PAW C_GW 28Sep2005                    :
 energy of atom  2       EATOM= -147.1560
 kinetic energy error for atom=    0.0116 (will be added to EATOM!!)
  PAW S_GW 19Mar2012                    :
 energy of atom  3       EATOM= -276.8230
 kinetic energy error for atom=    0.0041 (will be added to EATOM!!)
  PAW H_GW 21Apr2008                    :
 energy of atom  4       EATOM=  -12.4884
 kinetic energy error for atom=    0.0187 (will be added to EATOM!!)


 POSCAR: Al   C    S    H                        
  positions in direct lattice
  velocities in cartesian coordinates
 exchange correlation table for  LEXCH =        8
   RHO(1)=    0.500       N(1)  =     2000
   RHO(2)=  100.500       N(2)  =     4000

 VTST: version 3.2, (02/03/18)

 CHAIN: initializing optimizer
 
 OPT: Using VASP QUASI-newton optimizer
 CHAIN: Read ICHAIN            0
 CHAIN: Running the NEB
 NEB:          SPRING     -5.000000
 NEB:          LCLIMB      F
 NEB:     LTANGENTOLD      F
 NEB:           LDNEB      F
 NEB:        LDNEBORG      F
 NEB:        LNEBCELL      F
 NEB:          EFIRST      0.000000
 NEB:           ELAST      0.000000

 POSCAR: Al   C    S    H                        
  positions in direct lattice
  No initial velocities read in

 POSCAR: Al   C    S    H                        
  positions in direct lattice
  No initial velocities read in



--------------------------------------------------------------------------------------------------------


 ion  position               nearest neighbor table
   1  0.432  0.874  0.252-   9 1.97  10 1.97   7 2.50
   2  0.932  0.877  0.238-  10 1.95   9 1.95   8 2.45
   3  0.448  0.625  0.300-  12 2.03  11 2.11  13 2.29
   4  0.932  0.623  0.258-  12 1.95  11 2.04
   5  0.436  0.379  0.248-  12 1.93  11 2.03
   6  0.918  0.372  0.263-  12 1.93  11 2.03
   7  0.432  0.119  0.232-  10 1.94   9 1.94   1 2.50
   8  0.930  0.119  0.246-  10 1.94   9 1.94   2 2.45
   9  0.182  0.999  0.243-   7 1.94   8 1.94   2 1.95   1 1.97
  10  0.681  0.998  0.236-   7 1.94   8 1.94   2 1.95   1 1.97
  11  0.179  0.493  0.289-  15 1.12   5 2.03   6 2.03   4 2.04   3 2.11
  12  0.682  0.501  0.251-   5 1.93   6 1.93   4 1.95   3 2.03
  13  0.511  0.640  0.450-  14 1.36   3 2.29
  14  0.327  0.712  0.469-  13 1.36
  15  0.173  0.479  0.363-  11 1.12


IMPORTANT INFORMATION: All symmetrisations will be switched off!
NOSYMM: (Re-)initialisation of all symmetry stuff for point group C_1.



 KPOINTS: Automatic mesh                          

Automatic generation of k-mesh.
Space group operators:
 irot       det(A)        alpha          n_x          n_y          n_z        tau_x        tau_y        tau_z
    1     1.000000     0.000000     1.000000     0.000000     0.000000     0.000000     0.000000     0.000000
 
 Subroutine IBZKPT returns following result:
 ===========================================
 
 Found      8 irreducible k-points:
 
 Following reciprocal coordinates:
            Coordinates               Weight
  0.000000  0.000000  0.000000      1.000000
  0.200000  0.000000  0.000000      2.000000
  0.400000  0.000000  0.000000      2.000000
  0.000000  0.333333  0.000000      2.000000
  0.200000  0.333333  0.000000      2.000000
  0.400000  0.333333  0.000000      2.000000
 -0.400000  0.333333  0.000000      2.000000
 -0.200000  0.333333  0.000000      2.000000
 
 Following cartesian coordinates:
            Coordinates               Weight
  0.000000  0.000000  0.000000      1.000000
  0.033227  0.000000  0.000000      2.000000
  0.066454  0.000000  0.000000      2.000000
  0.000000  0.032873  0.000000      2.000000
  0.033227  0.032873  0.000000      2.000000
  0.066454  0.032873  0.000000      2.000000
 -0.066454  0.032873  0.000000      2.000000
 -0.033227  0.032873  0.000000      2.000000
 


--------------------------------------------------------------------------------------------------------




 Dimension of arrays:
   k-points           NKPTS =      8   k-points in BZ     NKDIM =      8   number of bands    NBANDS=     32
   number of dos      NEDOS =    301   number of ions     NIONS =     15
   non local maximal  LDIM  =      6   non local SUM 2l+1 LMDIM =     18
   total plane-waves  NPLWV = 317520
   max r-space proj   IRMAX =   6009   max aug-charges    IRDMAX=  13696
   dimension x,y,z NGX =    42 NGY =   70 NGZ =  108
   dimension x,y,z NGXF=    84 NGYF=  140 NGZF=  216
   support grid    NGXF=    84 NGYF=  140 NGZF=  216
   ions per type =               8   4   1   2
   NGX,Y,Z   is equivalent  to a cutoff of  11.60, 11.48, 11.97 a.u.
   NGXF,Y,Z  is equivalent  to a cutoff of  23.20, 22.95, 23.94 a.u.

 SYSTEM =  Al2C                                    
 POSCAR =  Al   C    S    H                        

 Startparameter for this run:
   NWRITE =      2    write-flag & timer
   PREC   = accura    normal or accurate (medium, high low for compatibility)
   ISTART =      0    job   : 0-new  1-cont  2-samecut
   ICHARG =      2    charge: 1-file 2-atom 10-const
   ISPIN  =      1    spin polarized calculation?
   LNONCOLLINEAR =      F non collinear calculations
   LSORBIT =      F    spin-orbit coupling
   INIWAV =      1    electr: 0-lowe 1-rand  2-diag
   LASPH  =      F    aspherical Exc in radial PAW
   METAGGA=      F    non-selfconsistent MetaGGA calc.

 Electronic Relaxation 1
   ENCUT  =  450.0 eV  33.07 Ry    5.75 a.u.  10.41 17.54 25.95*2*pi/ulx,y,z
   ENINI  =  450.0     initial cutoff
   ENAUG  =  644.9 eV  augmentation charge cutoff
   NELM   =    300;   NELMIN=  2; NELMDL= -7     # of ELM steps 
   EDIFF  = 0.1E-05   stopping-criterion for ELM
   LREAL  =      T    real-space projection
   NLSPLINE    = F    spline interpolate recip. space projectors
   LCOMPAT=      F    compatible to vasp.4.4
   GGA_COMPAT  = T    GGA compatible to vasp.4.4-vasp.4.6
   LMAXPAW     = -100 max onsite density
   LMAXMIX     =    2 max onsite mixed and CHGCAR
   VOSKOWN=      0    Vosko Wilk Nusair interpolation
   ROPT   =   -0.00020  -0.00020  -0.00020  -0.00020
 Ionic relaxation
   EDIFFG = -.1E-01   stopping-criterion for IOM
   NSW    =    999    number of steps for IOM
   NBLOCK =      1;   KBLOCK =    999    inner block; outer block 
   IBRION =      1    ionic relax: 0-MD 1-quasi-New 2-CG
   NFREE  =      0    steps in history (QN), initial steepest desc. (CG)
   ISIF   =      2    stress and relaxation
   IWAVPR =     11    prediction:  0-non 1-charg 2-wave 3-comb
   ISYM   =      0    0-nonsym 1-usesym 2-fastsym
   LCORR  =      T    Harris-Foulkes like correction to forces

   POTIM  = 0.3500    time-step for ionic-motion
   TEIN   =    0.0    initial temperature
   TEBEG  =    0.0;   TEEND  =   0.0 temperature during run
   SMASS  =  -3.00    Nose mass-parameter (am)
   estimated Nose-frequenzy (Omega)   =  0.10E-29 period in steps =****** mass=  -0.828E-27a.u.
   SCALEE = 1.0000    scale energy and forces
   NPACO  =    256;   APACO  = 16.0  distance and # of slots for P.C.
   PSTRESS=    0.0 pullay stress

  Mass of Ions in am
   POMASS =  26.98 12.01 32.07  1.00
  Ionic Valenz
   ZVAL   =   3.00  4.00  6.00  1.00
  Atomic Wigner-Seitz radii
   RWIGS  =  -1.00 -1.00 -1.00 -1.00
  virtual crystal weights 
   VCA    =   1.00  1.00  1.00  1.00
   NELECT =      48.0000    total number of electrons
   NUPDOWN=      -1.0000    fix difference up-down

 DOS related values:
   EMIN   =  10.00;   EMAX   =-10.00  energy-range for DOS
   EFERMI =   0.00
   ISMEAR =     0;   SIGMA  =   0.05  broadening in eV -4-tet -1-fermi 0-gaus

 Electronic relaxation 2 (details)
   IALGO  =     38    algorithm
   LDIAG  =      T    sub-space diagonalisation (order eigenvalues)
   LSUBROT=      F    optimize rotation matrix (better conditioning)
   TURBO    =      0    0=normal 1=particle mesh
   IRESTART =      0    0=no restart 2=restart with 2 vectors
   NREBOOT  =      0    no. of reboots
   NMIN     =      0    reboot dimension
   EREF     =   0.00    reference energy to select bands
   IMIX   =      4    mixing-type and parameters
     AMIX     =   0.40;   BMIX     =  1.00
     AMIX_MAG =   1.60;   BMIX_MAG =  1.00
     AMIN     =   0.10
     WC   =   100.;   INIMIX=   1;  MIXPRE=   1;  MAXMIX= -45

 Intra band minimization:
   WEIMIN = 0.0010     energy-eigenvalue tresh-hold
   EBREAK =  0.78E-08  absolut break condition
   DEPER  =   0.30     relativ break condition  

   TIME   =   0.40     timestep for ELM

  volume/ion in A,a.u.               =      61.03       411.88
  Fermi-wavevector in a.u.,A,eV,Ry     =   0.612725  1.157883  5.108069  0.375432
  Thomas-Fermi vector in A             =   1.669117

 Write flags
   LWAVE        =      F    write WAVECAR
   LDOWNSAMPLE  =      F    k-point downsampling of WAVECAR
   LCHARG       =      F    write CHGCAR
   LVTOT        =      F    write LOCPOT, total local potential
   LVHAR        =      F    write LOCPOT, Hartree potential only
   LELF         =      F    write electronic localiz. function (ELF)
   LORBIT       =      0    0 simple, 1 ext, 2 COOP (PROOUT), +10 PAW based schemes


 Dipole corrections
   LMONO  =      F    monopole corrections only (constant potential shift)
   LDIPOL =      F    correct potential (dipole corrections)
   IDIPOL =      0    1-x, 2-y, 3-z, 4-all directions 
   EPSILON=  1.0000000 bulk dielectric constant

 Exchange correlation treatment:
   GGA     =    PE    GGA type
   LEXCH   =     8    internal setting for exchange type
   VOSKOWN=      0    Vosko Wilk Nusair interpolation
   LHFCALC =     F    Hartree Fock is set to
   LHFONE  =     F    Hartree Fock one center treatment
   AEXX    =    0.0000 exact exchange contribution

 Linear response parameters
   LEPSILON=     F    determine dielectric tensor
   LRPA    =     F    only Hartree local field effects (RPA)
   LNABLA  =     F    use nabla operator in PAW spheres
   LVEL    =     F    velocity operator in full k-point grid
   LINTERFAST=   F  fast interpolation
   KINTER  =     0    interpolate to denser k-point grid
   CSHIFT  =0.1000    complex shift for real part using Kramers Kronig
   OMEGAMAX=  -1.0    maximum frequency
   DEG_THRESHOLD= 0.2000000E-02 threshold for treating states as degnerate
   RTIME   =   -0.100 relaxation time in fs
  (WPLASMAI=    0.000 imaginary part of plasma frequency in eV, 0.658/RTIME)
   DFIELD  = 0.0000000 0.0000000 0.0000000 field for delta impulse in time

 Orbital magnetization related:
   ORBITALMAG=     F  switch on orbital magnetization
   LCHIMAG   =     F  perturbation theory with respect to B field
   DQ        =  0.001000  dq finite difference perturbation B field
   LLRAUG    =     F  two centre corrections for induced B field



--------------------------------------------------------------------------------------------------------


 quasi-Newton-method for relaxation of ions
   using selective dynamics as specified on POSCAR
 charge density and potential will be updated during run
 non-spin polarized calculation
 Variant of blocked Davidson
 Davidson routine will perform the subspace rotation
 perform sub-space diagonalisation
    after iterative eigenvector-optimisation
 modified Broyden-mixing scheme, WC =      100.0
 initial mixing is a Kerker type mixing with AMIX =  0.4000 and BMIX =      1.0000
 Hartree-type preconditioning will be used
 using additional bands            8
 real space projection scheme for non local part
 use partial core corrections
 calculate Harris-corrections to forces   (improved forces if not selfconsistent)
 use gradient corrections 
 use of overlap-Matrix (Vanderbilt PP)
 Gauss-broadening in eV      SIGMA  =   0.05


--------------------------------------------------------------------------------------------------------


  energy-cutoff  :      450.00
  volume of cell :      915.52
      direct lattice vectors                 reciprocal lattice vectors
     6.019200000  0.000000000  0.000000000     0.166135035  0.000000000  0.000000000
     0.000000000 10.140000000  0.000000000     0.000000000  0.098619329  0.000000000
     0.000000000  0.000000000 15.000000000     0.000000000  0.000000000  0.066666667

  length of vectors
     6.019200000 10.140000000 15.000000000     0.166135035  0.098619329  0.066666667



 k-points in units of 2pi/SCALE and weight: Automatic mesh                          
   0.00000000  0.00000000  0.00000000       0.067
   0.03322701  0.00000000  0.00000000       0.133
   0.06645401  0.00000000  0.00000000       0.133
   0.00000000  0.03287311  0.00000000       0.133
   0.03322701  0.03287311  0.00000000       0.133
   0.06645401  0.03287311  0.00000000       0.133
  -0.06645401  0.03287311  0.00000000       0.133
  -0.03322701  0.03287311  0.00000000       0.133

 k-points in reciprocal lattice and weights: Automatic mesh                          
   0.00000000  0.00000000  0.00000000       0.067
   0.20000000  0.00000000  0.00000000       0.133
   0.40000000  0.00000000  0.00000000       0.133
   0.00000000  0.33333333  0.00000000       0.133
   0.20000000  0.33333333  0.00000000       0.133
   0.40000000  0.33333333  0.00000000       0.133
  -0.40000000  0.33333333  0.00000000       0.133
  -0.20000000  0.33333333  0.00000000       0.133

 position of ions in fractional coordinates (direct lattice) 
   0.43172156  0.87434963  0.25229077
   0.93237151  0.87707805  0.23788623
   0.44842976  0.62531576  0.30011984
   0.93171770  0.62258650  0.25801646
   0.43563587  0.37933035  0.24761218
   0.91785830  0.37237425  0.26329847
   0.43187027  0.11915089  0.23165056
   0.92977045  0.11872949  0.24640997
   0.18199951  0.99923876  0.24316898
   0.68097443  0.99809586  0.23560084
   0.17923905  0.49313906  0.28944227
   0.68225835  0.50056146  0.25121993
   0.51103674  0.63977775  0.45042771
   0.32721708  0.71209502  0.46942845
   0.17251782  0.47902331  0.36332583

 position of ions in cartesian coordinates  (Angst):
   2.59861843  8.86590521  3.78436150
   5.61213062  8.89357144  3.56829339
   2.69918840  6.34070178  4.50179754
   5.60819516  6.31302708  3.87024697
   2.62217941  3.84640971  3.71418265
   5.52477265  3.77587494  3.94947709
   2.59951350  1.20819003  3.47475846
   5.59647430  1.20391698  3.69614957
   1.09549144 10.13228101  3.64753470
   4.09892129 10.12069205  3.53401264
   1.07887570  5.00043008  4.34163408
   4.10664947  5.07569325  3.76829888
   3.07603234  6.48734642  6.75641572
   1.96958505  7.22064348  7.04142677
   1.03841928  4.85729635  5.44988745



--------------------------------------------------------------------------------------------------------


 k-point  1 :   0.0000 0.0000 0.0000  plane waves:   19845
 k-point  2 :   0.2000 0.0000 0.0000  plane waves:   19863
 k-point  3 :   0.4000 0.0000 0.0000  plane waves:   19851
 k-point  4 :   0.0000 0.3333 0.0000  plane waves:   19883
 k-point  5 :   0.2000 0.3333 0.0000  plane waves:   19830
 k-point  6 :   0.4000 0.3333 0.0000  plane waves:   19821
 k-point  7 :  -0.4000 0.3333 0.0000  plane waves:   19821
 k-point  8 :  -0.2000 0.3333 0.0000  plane waves:   19830

 maximum and minimum number of plane-waves per node :     19883    19821

 maximum number of plane-waves:     19883
 maximum index in each direction: 
   IXMAX=   10   IYMAX=   17   IZMAX=   25
   IXMIN=  -10   IYMIN=  -17   IZMIN=  -25


 serial   3D FFT for wavefunctions
 parallel 3D FFT for charge:
    minimum data exchange during FFTs selected (reduces bandwidth)


 total amount of memory used by VASP MPI-rank0   231908. kBytes
=======================================================================

   base      :      30000. kBytes
   nonlr-proj:      11404. kBytes
   fftplans  :      44247. kBytes
   grid      :     104852. kBytes
   one-center:        233. kBytes
   wavefun   :      41172. kBytes

     INWAV:  cpu time    0.0000: real time    0.0008
 Broyden mixing: mesh for mixing (old mesh)
   NGX = 21   NGY = 35   NGZ = 51
  (NGX  = 84   NGY  =140   NGZ  =216)
  gives a total of  37485 points

 initial charge density was supplied:
 charge density of overlapping atoms calculated
 number of electron      48.0000000 magnetization 
 keeping initial charge density in first step


--------------------------------------------------------------------------------------------------------


 Maximum index for non-local projection operator         5792
 Maximum index for augmentation-charges         6559 (set IRDMAX)


--------------------------------------------------------------------------------------------------------


 First call to EWALD:  gamma=   0.183
 Maximum number of real-space cells 4x 3x 2
 Maximum number of reciprocal cells 2x 3x 4

    FEWALD:  cpu time    0.0030: real time    0.0030


--------------------------------------- Iteration      1(   1)  ---------------------------------------


    POTLOK:  cpu time    2.4745: real time    2.4781
    SETDIJ:  cpu time    0.0596: real time    0.0597
     EDDAV:  cpu time   29.2937: real time   29.3304
       DOS:  cpu time    0.0015: real time    0.0014
    --------------------------------------------
      LOOP:  cpu time   31.8292: real time   31.8697

 eigenvalue-minimisations  :   512
 total energy-change (2. order) : 0.3043234E+03  (-0.1342088E+04)
 number of electron      48.0000000 magnetization 
 augmentation part       48.0000000 magnetization 

 Free energy of the ion-electron system (eV)
  ---------------------------------------------------
  alpha Z        PSCENC =        14.13034224
  Ewald energy   TEWEN  =      1509.86359173
  -Hartree energ DENC   =     -2522.28180845
  -exchange      EXHF   =         0.00000000
  -V(xc)+E(xc)   XCENC  =      -148.47695414
  PAW double counting   =      1187.55623386     -928.91038649
  entropy T*S    EENTRO =        -0.01217722
  eigenvalues    EBANDS =      -126.18729683
  atomic energy  EATOM  =      1318.64189276
  Solvation  Ediel_sol  =         0.00000000
  ---------------------------------------------------
  free energy    TOTEN  =       304.32343747 eV

  energy without entropy =      304.33561469  energy(sigma->0) =      304.32952608


--------------------------------------------------------------------------------------------------------




--------------------------------------- Iteration      1(   2)  ---------------------------------------


     EDDAV:  cpu time   39.6041: real time   39.6541
       DOS:  cpu time    0.0009: real time    0.0009
    --------------------------------------------
      LOOP:  cpu time   39.6050: real time   39.6550

 eigenvalue-minimisations  :   744
 total energy-change (2. order) :-0.3107218E+03  (-0.2922042E+03)
 number of electron      48.0000000 magnetization 
 augmentation part       48.0000000 magnetization 

 Free energy of the ion-electron system (eV)
  ---------------------------------------------------
  alpha Z        PSCENC =        14.13034224
  Ewald energy   TEWEN  =      1509.86359173
  -Hartree energ DENC   =     -2522.28180845
  -exchange      EXHF   =         0.00000000
  -V(xc)+E(xc)   XCENC  =      -148.47695414
  PAW double counting   =      1187.55623386     -928.91038649
  entropy T*S    EENTRO =        -0.00020642
  eigenvalues    EBANDS =      -436.92108720
  atomic energy  EATOM  =      1318.64189276
  Solvation  Ediel_sol  =         0.00000000
  ---------------------------------------------------
  free energy    TOTEN  =        -6.39838209 eV

  energy without entropy =       -6.39817567  energy(sigma->0) =       -6.39827888


--------------------------------------------------------------------------------------------------------




--------------------------------------- Iteration      1(   3)  ---------------------------------------


     EDDAV:  cpu time   43.7699: real time   43.8556
       DOS:  cpu time    0.0005: real time    0.0005
    --------------------------------------------
      LOOP:  cpu time   43.7704: real time   43.8561

 eigenvalue-minimisations  :   832
 total energy-change (2. order) :-0.8149880E+02  (-0.8017305E+02)
 number of electron      48.0000000 magnetization 
 augmentation part       48.0000000 magnetization 

 Free energy of the ion-electron system (eV)
  ---------------------------------------------------
  alpha Z        PSCENC =        14.13034224
  Ewald energy   TEWEN  =      1509.86359173
  -Hartree energ DENC   =     -2522.28180845
  -exchange      EXHF   =         0.00000000
  -V(xc)+E(xc)   XCENC  =      -148.47695414
  PAW double counting   =      1187.55623386     -928.91038649
  entropy T*S    EENTRO =        -0.00000000
  eigenvalues    EBANDS =      -518.42009270
  atomic energy  EATOM  =      1318.64189276
  Solvation  Ediel_sol  =         0.00000000
  ---------------------------------------------------
  free energy    TOTEN  =       -87.89718117 eV

  energy without entropy =      -87.89718117  energy(sigma->0) =      -87.89718117


--------------------------------------------------------------------------------------------------------




--------------------------------------- Iteration      1(   4)  ---------------------------------------


     EDDAV:  cpu time   36.2249: real time   36.2783
       DOS:  cpu time    0.0005: real time    0.0005
    --------------------------------------------
      LOOP:  cpu time   36.2254: real time   36.2789

 eigenvalue-minimisations  :   672
 total energy-change (2. order) :-0.3120144E+01  (-0.3111059E+01)
 number of electron      48.0000000 magnetization 
 augmentation part       48.0000000 magnetization 

 Free energy of the ion-electron system (eV)
  ---------------------------------------------------
  alpha Z        PSCENC =        14.13034224
  Ewald energy   TEWEN  =      1509.86359173
  -Hartree energ DENC   =     -2522.28180845
  -exchange      EXHF   =         0.00000000
  -V(xc)+E(xc)   XCENC  =      -148.47695414
  PAW double counting   =      1187.55623386     -928.91038649
  entropy T*S    EENTRO =        -0.00000000
  eigenvalues    EBANDS =      -521.54023689
  atomic energy  EATOM  =      1318.64189276
  Solvation  Ediel_sol  =         0.00000000
  ---------------------------------------------------
  free energy    TOTEN  =       -91.01732536 eV

  energy without entropy =      -91.01732536  energy(sigma->0) =      -91.01732536


--------------------------------------------------------------------------------------------------------




--------------------------------------- Iteration      1(   5)  ---------------------------------------


     EDDAV:  cpu time   42.7717: real time   42.8153
       DOS:  cpu time    0.0004: real time    0.0004
    --------------------------------------------
      LOOP:  cpu time   42.7721: real time   42.8158

 eigenvalue-minimisations  :   824
 total energy-change (2. order) :-0.1448609E+00  (-0.1448273E+00)
 number of electron      48.0000000 magnetization 
 augmentation part       48.0000000 magnetization 

 Free energy of the ion-electron system (eV)
  ---------------------------------------------------
  alpha Z        PSCENC =        14.13034224
  Ewald energy   TEWEN  =      1509.86359173
  -Hartree energ DENC   =     -2522.28180845
  -exchange      EXHF   =         0.00000000
  -V(xc)+E(xc)   XCENC  =      -148.47695414
  PAW double counting   =      1187.55623386     -928.91038649
  entropy T*S    EENTRO =        -0.00000000
  eigenvalues    EBANDS =      -521.68509781
  atomic energy  EATOM  =      1318.64189276
  Solvation  Ediel_sol  =         0.00000000
  ---------------------------------------------------
  free energy    TOTEN  =       -91.16218628 eV

  energy without entropy =      -91.16218628  energy(sigma->0) =      -91.16218628


--------------------------------------------------------------------------------------------------------




--------------------------------------- Iteration      1(   6)  ---------------------------------------


     EDDAV:  cpu time   39.6104: real time   39.6615
       DOS:  cpu time    0.0005: real time    0.0005
    --------------------------------------------
      LOOP:  cpu time   39.6109: real time   39.6620

 eigenvalue-minimisations  :   752
 total energy-change (2. order) :-0.2249297E-02  (-0.2248955E-02)
 number of electron      48.0000000 magnetization 
 augmentation part       48.0000000 magnetization 

 Free energy of the ion-electron system (eV)
  ---------------------------------------------------
  alpha Z        PSCENC =        14.13034224
  Ewald energy   TEWEN  =      1509.86359173
  -Hartree energ DENC   =     -2522.28180845
  -exchange      EXHF   =         0.00000000
  -V(xc)+E(xc)   XCENC  =      -148.47695414
  PAW double counting   =      1187.55623386     -928.91038649
  entropy T*S    EENTRO =        -0.00000000
  eigenvalues    EBANDS =      -521.68734711
  atomic energy  EATOM  =      1318.64189276
  Solvation  Ediel_sol  =         0.00000000
  ---------------------------------------------------
  free energy    TOTEN  =       -91.16443558 eV

  energy without entropy =      -91.16443558  energy(sigma->0) =      -91.16443558


--------------------------------------------------------------------------------------------------------




--------------------------------------- Iteration      1(   7)  ---------------------------------------


     EDDAV:  cpu time   41.7386: real time   41.7906
       DOS:  cpu time    0.0005: real time    0.0005
    CHARGE:  cpu time    2.0717: real time    2.0735
    MIXING:  cpu time    0.0532: real time    0.0533
    --------------------------------------------
      LOOP:  cpu time   43.8640: real time   43.9179

 eigenvalue-minimisations  :   800
 total energy-change (2. order) :-0.1215504E-03  (-0.1215461E-03)
 number of electron      47.9999997 magnetization 
 augmentation part       -0.4187897 magnetization 

 Broyden mixing:
  rms(total) = 0.18677E+01    rms(broyden)= 0.18671E+01
  rms(prec ) = 0.24184E+01
  weight for this iteration     100.00

 Free energy of the ion-electron system (eV)
  ---------------------------------------------------
  alpha Z        PSCENC =        14.13034224
  Ewald energy   TEWEN  =      1509.86359173
  -Hartree energ DENC   =     -2522.28180845
  -exchange      EXHF   =         0.00000000
  -V(xc)+E(xc)   XCENC  =      -148.47695414
  PAW double counting   =      1187.55623386     -928.91038649
  entropy T*S    EENTRO =        -0.00000000
  eigenvalues    EBANDS =      -521.68746866
  atomic energy  EATOM  =      1318.64189276
  Solvation  Ediel_sol  =         0.00000000
  ---------------------------------------------------
  free energy    TOTEN  =       -91.16455713 eV

  energy without entropy =      -91.16455713  energy(sigma->0) =      -91.16455713


--------------------------------------------------------------------------------------------------------




--------------------------------------- Iteration      1(   8)  ---------------------------------------


    POTLOK:  cpu time    2.1170: real time    2.1195
    SETDIJ:  cpu time    0.0640: real time    0.0640
     EDDAV:  cpu time   33.3285: real time   33.4234
       DOS:  cpu time    0.0005: real time    0.0005
    CHARGE:  cpu time    2.0733: real time    2.0881
    MIXING:  cpu time    0.0478: real time    0.0481
    --------------------------------------------
      LOOP:  cpu time   37.6311: real time   37.7436

 eigenvalue-minimisations  :   608
 total energy-change (2. order) : 0.1753617E+02  (-0.7176418E+01)
 number of electron      47.9999998 magnetization 
 augmentation part       -0.7192399 magnetization 

 Broyden mixing:
  rms(total) = 0.55754E+00    rms(broyden)= 0.55707E+00
  rms(prec ) = 0.67831E+00
  weight for this iteration     100.00

 eigenvalues of (default mixing * dielectric matrix)
  average eigenvalue GAMMA=   0.9587
  0.9587

 Free energy of the ion-electron system (eV)
  ---------------------------------------------------
  alpha Z        PSCENC =        14.13034224
  Ewald energy   TEWEN  =      1509.86359173
  -Hartree energ DENC   =     -2615.96089510
  -exchange      EXHF   =         0.00000000
  -V(xc)+E(xc)   XCENC  =      -143.04755258
  PAW double counting   =      1538.65718733    -1281.04056102
  entropy T*S    EENTRO =        -0.00000000
  eigenvalues    EBANDS =      -414.87239355
  atomic energy  EATOM  =      1318.64189276
  Solvation  Ediel_sol  =         0.00000000
  ---------------------------------------------------
  free energy    TOTEN  =       -73.62838820 eV

  energy without entropy =      -73.62838820  energy(sigma->0) =      -73.62838820


--------------------------------------------------------------------------------------------------------




--------------------------------------- Iteration      1(   9)  ---------------------------------------


    POTLOK:  cpu time    2.1604: real time    2.1642
    SETDIJ:  cpu time    0.0559: real time    0.0565
     EDDAV:  cpu time   35.3243: real time   35.4008
       DOS:  cpu time    0.0006: real time    0.0006
    CHARGE:  cpu time    2.0753: real time    2.0778
    MIXING:  cpu time    0.0485: real time    0.0487
    --------------------------------------------
      LOOP:  cpu time   39.6649: real time   39.7486

 eigenvalue-minimisations  :   648
 total energy-change (2. order) : 0.3398546E+00  (-0.5070034E+00)
 number of electron      47.9999999 magnetization 
 augmentation part       -0.7478454 magnetization 

 Broyden mixing:
  rms(total) = 0.37394E+00    rms(broyden)= 0.37387E+00
  rms(prec ) = 0.45062E+00
  weight for this iteration     100.00

 eigenvalues of (default mixing * dielectric matrix)
  average eigenvalue GAMMA=   1.6997
  1.1080  2.2914

 Free energy of the ion-electron system (eV)
  ---------------------------------------------------
  alpha Z        PSCENC =        14.13034224
  Ewald energy   TEWEN  =      1509.86359173
  -Hartree energ DENC   =     -2636.21099824
  -exchange      EXHF   =         0.00000000
  -V(xc)+E(xc)   XCENC  =      -142.02957826
  PAW double counting   =      1643.30578758    -1385.79568323
  entropy T*S    EENTRO =        -0.00000000
  eigenvalues    EBANDS =      -395.19388818
  atomic energy  EATOM  =      1318.64189276
  Solvation  Ediel_sol  =         0.00000000
  ---------------------------------------------------
  free energy    TOTEN  =       -73.28853362 eV

  energy without entropy =      -73.28853362  energy(sigma->0) =      -73.28853362


--------------------------------------------------------------------------------------------------------




--------------------------------------- Iteration      1(  10)  ---------------------------------------


    POTLOK:  cpu time    2.1873: real time    2.1922
    SETDIJ:  cpu time    0.0518: real time    0.0520
     EDDAV:  cpu time   37.5224: real time   37.6068
       DOS:  cpu time    0.0005: real time    0.0005
    CHARGE:  cpu time    2.0710: real time    2.0735
    MIXING:  cpu time    0.0493: real time    0.0493
    --------------------------------------------
      LOOP:  cpu time   41.8823: real time   41.9741

 eigenvalue-minimisations  :   704
 total energy-change (2. order) : 0.5181841E+00  (-0.1348429E+00)
 number of electron      47.9999999 magnetization 
 augmentation part       -0.7253574 magnetization 

 Broyden mixing:
  rms(total) = 0.83518E-01    rms(broyden)= 0.83492E-01
  rms(prec ) = 0.12899E+00
  weight for this iteration     100.00

 eigenvalues of (default mixing * dielectric matrix)
  average eigenvalue GAMMA=   1.4358
  2.3679  0.9903  0.9493

 Free energy of the ion-electron system (eV)
  ---------------------------------------------------
  alpha Z        PSCENC =        14.13034224
  Ewald energy   TEWEN  =      1509.86359173
  -Hartree energ DENC   =     -2661.98071079
  -exchange      EXHF   =         0.00000000
  -V(xc)+E(xc)   XCENC  =      -140.81988305
  PAW double counting   =      1772.58622888    -1515.12931616
  entropy T*S    EENTRO =        -0.00000000
  eigenvalues    EBANDS =      -370.06249514
  atomic energy  EATOM  =      1318.64189276
  Solvation  Ediel_sol  =         0.00000000
  ---------------------------------------------------
  free energy    TOTEN  =       -72.77034953 eV

  energy without entropy =      -72.77034953  energy(sigma->0) =      -72.77034953


--------------------------------------------------------------------------------------------------------




--------------------------------------- Iteration      1(  11)  ---------------------------------------


    POTLOK:  cpu time    2.1893: real time    2.1959
    SETDIJ:  cpu time    0.0675: real time    0.0684
     EDDAV:  cpu time   38.4545: real time   38.4988
       DOS:  cpu time    0.0004: real time    0.0004
    CHARGE:  cpu time    2.0748: real time    2.0770
    MIXING:  cpu time    0.0501: real time    0.0501
    --------------------------------------------
      LOOP:  cpu time   42.8367: real time   42.8907

 eigenvalue-minimisations  :   728
 total energy-change (2. order) : 0.3481280E-01  (-0.1210743E-01)
 number of electron      47.9999999 magnetization 
 augmentation part       -0.7348381 magnetization 

 Broyden mixing:
  rms(total) = 0.44739E-01    rms(broyden)= 0.44729E-01
  rms(prec ) = 0.79434E-01
  weight for this iteration     100.00

 eigenvalues of (default mixing * dielectric matrix)
  average eigenvalue GAMMA=   1.5539
  2.1982  1.8861  1.0657  1.0657

 Free energy of the ion-electron system (eV)
  ---------------------------------------------------
  alpha Z        PSCENC =        14.13034224
  Ewald energy   TEWEN  =      1509.86359173
  -Hartree energ DENC   =     -2667.98913160
  -exchange      EXHF   =         0.00000000
  -V(xc)+E(xc)   XCENC  =      -140.58772994
  PAW double counting   =      1772.69529508    -1515.24687281
  entropy T*S    EENTRO =        -0.00000000
  eigenvalues    EBANDS =      -364.24292419
  atomic energy  EATOM  =      1318.64189276
  Solvation  Ediel_sol  =         0.00000000
  ---------------------------------------------------
  free energy    TOTEN  =       -72.73553673 eV

  energy without entropy =      -72.73553673  energy(sigma->0) =      -72.73553673


--------------------------------------------------------------------------------------------------------




--------------------------------------- Iteration      1(  12)  ---------------------------------------


    POTLOK:  cpu time    2.2268: real time    2.2300
    SETDIJ:  cpu time    0.0730: real time    0.0730
     EDDAV:  cpu time   39.5849: real time   39.6412
       DOS:  cpu time    0.0006: real time    0.0006
    CHARGE:  cpu time    2.0626: real time    2.0649
    MIXING:  cpu time    0.0534: real time    0.0534
    --------------------------------------------
      LOOP:  cpu time   44.0012: real time   44.0630

 eigenvalue-minimisations  :   752
 total energy-change (2. order) : 0.4245005E-02  (-0.1150858E-01)
 number of electron      47.9999999 magnetization 
 augmentation part       -0.7422467 magnetization 

 Broyden mixing:
  rms(total) = 0.37855E-01    rms(broyden)= 0.37839E-01
  rms(prec ) = 0.61285E-01
  weight for this iteration     100.00

 eigenvalues of (default mixing * dielectric matrix)
  average eigenvalue GAMMA=   1.3484
  2.3765  1.3845  1.1416  1.1416  0.6981

 Free energy of the ion-electron system (eV)
  ---------------------------------------------------
  alpha Z        PSCENC =        14.13034224
  Ewald energy   TEWEN  =      1509.86359173
  -Hartree energ DENC   =     -2674.54224544
  -exchange      EXHF   =         0.00000000
  -V(xc)+E(xc)   XCENC  =      -140.43818327
  PAW double counting   =      1761.35224372    -1503.88231941
  entropy T*S    EENTRO =        -0.00000000
  eigenvalues    EBANDS =      -357.85661407
  atomic energy  EATOM  =      1318.64189276
  Solvation  Ediel_sol  =         0.00000000
  ---------------------------------------------------
  free energy    TOTEN  =       -72.73129173 eV

  energy without entropy =      -72.73129173  energy(sigma->0) =      -72.73129173


--------------------------------------------------------------------------------------------------------




--------------------------------------- Iteration      1(  13)  ---------------------------------------


    POTLOK:  cpu time    2.2068: real time    2.2093
    SETDIJ:  cpu time    0.0784: real time    0.0785
     EDDAV:  cpu time   38.1793: real time   38.2168
       DOS:  cpu time    0.0005: real time    0.0005
    CHARGE:  cpu time    2.0719: real time    2.0762
    MIXING:  cpu time    0.0552: real time    0.0554
    --------------------------------------------
      LOOP:  cpu time   42.5922: real time   42.6368

 eigenvalue-minimisations  :   720
 total energy-change (2. order) : 0.4782589E-02  (-0.2326155E-02)
 number of electron      47.9999999 magnetization 
 augmentation part       -0.7404843 magnetization 

 Broyden mixing:
  rms(total) = 0.18627E-01    rms(broyden)= 0.18625E-01
  rms(prec ) = 0.42480E-01
  weight for this iteration     100.00

 eigenvalues of (default mixing * dielectric matrix)
  average eigenvalue GAMMA=   1.4599
  2.2928  2.2928  1.0134  1.0134  1.0736  1.0736

 Free energy of the ion-electron system (eV)
  ---------------------------------------------------
  alpha Z        PSCENC =        14.13034224
  Ewald energy   TEWEN  =      1509.86359173
  -Hartree energ DENC   =     -2675.47876044
  -exchange      EXHF   =         0.00000000
  -V(xc)+E(xc)   XCENC  =      -140.42887501
  PAW double counting   =      1761.70524794    -1504.22939188
  entropy T*S    EENTRO =        -0.00000000
  eigenvalues    EBANDS =      -356.93055648
  atomic energy  EATOM  =      1318.64189276
  Solvation  Ediel_sol  =         0.00000000
  ---------------------------------------------------
  free energy    TOTEN  =       -72.72650914 eV

  energy without entropy =      -72.72650914  energy(sigma->0) =      -72.72650914


--------------------------------------------------------------------------------------------------------




--------------------------------------- Iteration      1(  14)  ---------------------------------------


    POTLOK:  cpu time    2.2319: real time    2.2362
    SETDIJ:  cpu time    0.0508: real time    0.0508
     EDDAV:  cpu time   36.1270: real time   36.1776
       DOS:  cpu time    0.0006: real time    0.0006
    CHARGE:  cpu time    2.0825: real time    2.0843
    MIXING:  cpu time    0.0576: real time    0.0576
    --------------------------------------------
      LOOP:  cpu time   40.5504: real time   40.6072

 eigenvalue-minimisations  :   672
 total energy-change (2. order) : 0.3293245E-02  (-0.2075652E-02)
 number of electron      47.9999999 magnetization 
 augmentation part       -0.7396467 magnetization 

 Broyden mixing:
  rms(total) = 0.10393E-01    rms(broyden)= 0.10389E-01
  rms(prec ) = 0.23487E-01
  weight for this iteration     100.00

 eigenvalues of (default mixing * dielectric matrix)
  average eigenvalue GAMMA=   1.5152
  2.9497  2.6316  1.0643  1.0643  1.0326  1.0326  0.8315

 Free energy of the ion-electron system (eV)
  ---------------------------------------------------
  alpha Z        PSCENC =        14.13034224
  Ewald energy   TEWEN  =      1509.86359173
  -Hartree energ DENC   =     -2681.91893479
  -exchange      EXHF   =         0.00000000
  -V(xc)+E(xc)   XCENC  =      -140.29035798
  PAW double counting   =      1754.91945206    -1497.42828277
  entropy T*S    EENTRO =        -0.00000000
  eigenvalues    EBANDS =      -350.64091915
  atomic energy  EATOM  =      1318.64189276
  Solvation  Ediel_sol  =         0.00000000
  ---------------------------------------------------
  free energy    TOTEN  =       -72.72321589 eV

  energy without entropy =      -72.72321589  energy(sigma->0) =      -72.72321589


--------------------------------------------------------------------------------------------------------




--------------------------------------- Iteration      1(  15)  ---------------------------------------


    POTLOK:  cpu time    2.2676: real time    2.2721
    SETDIJ:  cpu time    0.0579: real time    0.0579
     EDDAV:  cpu time   38.9600: real time   39.0256
       DOS:  cpu time    0.0007: real time    0.0007
    CHARGE:  cpu time    2.0606: real time    2.0628
    MIXING:  cpu time    0.0570: real time    0.0570
    --------------------------------------------
      LOOP:  cpu time   43.4038: real time   43.4762

 eigenvalue-minimisations  :   736
 total energy-change (2. order) :-0.1231962E-02  (-0.2645689E-03)
 number of electron      47.9999999 magnetization 
 augmentation part       -0.7397296 magnetization 

 Broyden mixing:
  rms(total) = 0.82714E-02    rms(broyden)= 0.82704E-02
  rms(prec ) = 0.16557E-01
  weight for this iteration     100.00

 eigenvalues of (default mixing * dielectric matrix)
  average eigenvalue GAMMA=   1.6694
  3.7714  2.4827  1.8622  1.1098  1.1098  1.0695  1.0695  0.8800

 Free energy of the ion-electron system (eV)
  ---------------------------------------------------
  alpha Z        PSCENC =        14.13034224
  Ewald energy   TEWEN  =      1509.86359173
  -Hartree energ DENC   =     -2684.38644476
  -exchange      EXHF   =         0.00000000
  -V(xc)+E(xc)   XCENC  =      -140.26314915
  PAW double counting   =      1750.77451835    -1493.27359610
  entropy T*S    EENTRO =        -0.00000000
  eigenvalues    EBANDS =      -348.21160292
  atomic energy  EATOM  =      1318.64189276
  Solvation  Ediel_sol  =         0.00000000
  ---------------------------------------------------
  free energy    TOTEN  =       -72.72444785 eV

  energy without entropy =      -72.72444785  energy(sigma->0) =      -72.72444785


--------------------------------------------------------------------------------------------------------




--------------------------------------- Iteration      1(  16)  ---------------------------------------


    POTLOK:  cpu time    2.2431: real time    2.2461
    SETDIJ:  cpu time    0.0606: real time    0.0606
     EDDAV:  cpu time   33.1015: real time   33.1862
       DOS:  cpu time    0.0005: real time    0.0005
    CHARGE:  cpu time    2.0920: real time    2.1000
    MIXING:  cpu time    0.0515: real time    0.0518
    --------------------------------------------
      LOOP:  cpu time   37.5492: real time   37.6453

 eigenvalue-minimisations  :   608
 total energy-change (2. order) :-0.3440291E-02  (-0.3650470E-03)
 number of electron      47.9999999 magnetization 
 augmentation part       -0.7397077 magnetization 

 Broyden mixing:
  rms(total) = 0.64170E-02    rms(broyden)= 0.64152E-02
  rms(prec ) = 0.10752E-01
  weight for this iteration     100.00

 eigenvalues of (default mixing * dielectric matrix)
  average eigenvalue GAMMA=   1.7176
  4.3431  2.7660  2.2692  1.0921  1.0921  1.0398  1.0398  0.9080  0.9080

 Free energy of the ion-electron system (eV)
  ---------------------------------------------------
  alpha Z        PSCENC =        14.13034224
  Ewald energy   TEWEN  =      1509.86359173
  -Hartree energ DENC   =     -2686.59988389
  -exchange      EXHF   =         0.00000000
  -V(xc)+E(xc)   XCENC  =      -140.24794906
  PAW double counting   =      1751.04456521    -1493.53953920
  entropy T*S    EENTRO =        -0.00000000
  eigenvalues    EBANDS =      -346.02090792
  atomic energy  EATOM  =      1318.64189276
  Solvation  Ediel_sol  =         0.00000000
  ---------------------------------------------------
  free energy    TOTEN  =       -72.72788815 eV

  energy without entropy =      -72.72788815  energy(sigma->0) =      -72.72788815


--------------------------------------------------------------------------------------------------------




--------------------------------------- Iteration      1(  17)  ---------------------------------------


    POTLOK:  cpu time    2.1786: real time    2.1889
    SETDIJ:  cpu time    0.0644: real time    0.0650
     EDDAV:  cpu time   35.3022: real time   35.4036
       DOS:  cpu time    0.0006: real time    0.0006
    CHARGE:  cpu time    2.0829: real time    2.0865
    MIXING:  cpu time    0.0617: real time    0.0617
    --------------------------------------------
      LOOP:  cpu time   39.6904: real time   39.8063

 eigenvalue-minimisations  :   656
 total energy-change (2. order) :-0.1293416E-02  (-0.9494897E-04)
 number of electron      47.9999999 magnetization 
 augmentation part       -0.7400150 magnetization 

 Broyden mixing:
  rms(total) = 0.28345E-02    rms(broyden)= 0.28341E-02
  rms(prec ) = 0.60344E-02
  weight for this iteration     100.00

 eigenvalues of (default mixing * dielectric matrix)
  average eigenvalue GAMMA=   1.7602
  4.9256  2.8986  2.2307  1.1386  1.1386  1.2644  1.1021  1.1021  0.9426  0.8586

 Free energy of the ion-electron system (eV)
  ---------------------------------------------------
  alpha Z        PSCENC =        14.13034224
  Ewald energy   TEWEN  =      1509.86359173
  -Hartree energ DENC   =     -2687.38019012
  -exchange      EXHF   =         0.00000000
  -V(xc)+E(xc)   XCENC  =      -140.24313494
  PAW double counting   =      1751.60718762    -1494.10403901
  entropy T*S    EENTRO =        -0.00000000
  eigenvalues    EBANDS =      -345.24483185
  atomic energy  EATOM  =      1318.64189276
  Solvation  Ediel_sol  =         0.00000000
  ---------------------------------------------------
  free energy    TOTEN  =       -72.72918156 eV

  energy without entropy =      -72.72918156  energy(sigma->0) =      -72.72918156


--------------------------------------------------------------------------------------------------------




--------------------------------------- Iteration      1(  18)  ---------------------------------------


    POTLOK:  cpu time    2.1652: real time    2.1689
    SETDIJ:  cpu time    0.0667: real time    0.0668
     EDDAV:  cpu time   36.8745: real time   36.9191
       DOS:  cpu time    0.0005: real time    0.0005
    CHARGE:  cpu time    2.0695: real time    2.0715
    MIXING:  cpu time    0.0638: real time    0.0639
    --------------------------------------------
      LOOP:  cpu time   41.2402: real time   41.2908

 eigenvalue-minimisations  :   688
 total energy-change (2. order) :-0.1280267E-02  (-0.9306181E-04)
 number of electron      47.9999999 magnetization 
 augmentation part       -0.7398596 magnetization 

 Broyden mixing:
  rms(total) = 0.38142E-02    rms(broyden)= 0.38136E-02
  rms(prec ) = 0.56205E-02
  weight for this iteration     100.00

 eigenvalues of (default mixing * dielectric matrix)
  average eigenvalue GAMMA=   1.8588
  5.5733  3.3367  2.4742  1.7898  1.1112  1.1112  1.0622  1.0622  1.0637  0.9737
  0.8882

 Free energy of the ion-electron system (eV)
  ---------------------------------------------------
  alpha Z        PSCENC =        14.13034224
  Ewald energy   TEWEN  =      1509.86359173
  -Hartree energ DENC   =     -2687.98104743
  -exchange      EXHF   =         0.00000000
  -V(xc)+E(xc)   XCENC  =      -140.24314695
  PAW double counting   =      1751.84123830    -1494.33853433
  entropy T*S    EENTRO =        -0.00000000
  eigenvalues    EBANDS =      -344.64479815
  atomic energy  EATOM  =      1318.64189276
  Solvation  Ediel_sol  =         0.00000000
  ---------------------------------------------------
  free energy    TOTEN  =       -72.73046183 eV

  energy without entropy =      -72.73046183  energy(sigma->0) =      -72.73046183


--------------------------------------------------------------------------------------------------------




--------------------------------------- Iteration      1(  19)  ---------------------------------------


    POTLOK:  cpu time    2.1532: real time    2.1547
    SETDIJ:  cpu time    0.0636: real time    0.0637
     EDDAV:  cpu time   38.1703: real time   38.2341
       DOS:  cpu time    0.0006: real time    0.0006
    CHARGE:  cpu time    2.0739: real time    2.0812
    MIXING:  cpu time    0.0713: real time    0.0713
    --------------------------------------------
      LOOP:  cpu time   42.5328: real time   42.6056

 eigenvalue-minimisations  :   720
 total energy-change (2. order) :-0.1308874E-02  (-0.5893947E-04)
 number of electron      47.9999999 magnetization 
 augmentation part       -0.7399775 magnetization 

 Broyden mixing:
  rms(total) = 0.16641E-02    rms(broyden)= 0.16633E-02
  rms(prec ) = 0.25805E-02
  weight for this iteration     100.00

 eigenvalues of (default mixing * dielectric matrix)
  average eigenvalue GAMMA=   1.9333
  6.4007  3.6989  2.5282  2.0570  1.1022  1.1022  1.3236  1.0659  1.0659  0.9133
  0.9133  1.0284

 Free energy of the ion-electron system (eV)
  ---------------------------------------------------
  alpha Z        PSCENC =        14.13034224
  Ewald energy   TEWEN  =      1509.86359173
  -Hartree energ DENC   =     -2688.29435547
  -exchange      EXHF   =         0.00000000
  -V(xc)+E(xc)   XCENC  =      -140.24543188
  PAW double counting   =      1752.10978778    -1494.60691444
  entropy T*S    EENTRO =        -0.00000000
  eigenvalues    EBANDS =      -344.33068342
  atomic energy  EATOM  =      1318.64189276
  Solvation  Ediel_sol  =         0.00000000
  ---------------------------------------------------
  free energy    TOTEN  =       -72.73177070 eV

  energy without entropy =      -72.73177070  energy(sigma->0) =      -72.73177070


--------------------------------------------------------------------------------------------------------




--------------------------------------- Iteration      1(  20)  ---------------------------------------


    POTLOK:  cpu time    2.1580: real time    2.1642
    SETDIJ:  cpu time    0.0564: real time    0.0564
     EDDAV:  cpu time   32.6699: real time   32.7870
       DOS:  cpu time    0.0007: real time    0.0007
    CHARGE:  cpu time    2.0927: real time    2.1001
    MIXING:  cpu time    0.0740: real time    0.0740
    --------------------------------------------
      LOOP:  cpu time   37.0516: real time   37.1823

 eigenvalue-minimisations  :   592
 total energy-change (2. order) :-0.8997293E-03  (-0.1606180E-04)
 number of electron      47.9999999 magnetization 
 augmentation part       -0.7400768 magnetization 

 Broyden mixing:
  rms(total) = 0.10263E-02    rms(broyden)= 0.10262E-02
  rms(prec ) = 0.15003E-02
  weight for this iteration     100.00

 eigenvalues of (default mixing * dielectric matrix)
  average eigenvalue GAMMA=   2.0430
  7.2577  4.2380  2.5077  2.5077  1.0963  1.0963  1.4700  1.4542  1.0515  1.0515
  0.8715  0.9786  0.9786

 Free energy of the ion-electron system (eV)
  ---------------------------------------------------
  alpha Z        PSCENC =        14.13034224
  Ewald energy   TEWEN  =      1509.86359173
  -Hartree energ DENC   =     -2688.48735616
  -exchange      EXHF   =         0.00000000
  -V(xc)+E(xc)   XCENC  =      -140.24344951
  PAW double counting   =      1752.04367186    -1494.54105498
  entropy T*S    EENTRO =        -0.00000000
  eigenvalues    EBANDS =      -344.14030838
  atomic energy  EATOM  =      1318.64189276
  Solvation  Ediel_sol  =         0.00000000
  ---------------------------------------------------
  free energy    TOTEN  =       -72.73267043 eV

  energy without entropy =      -72.73267043  energy(sigma->0) =      -72.73267043


--------------------------------------------------------------------------------------------------------




--------------------------------------- Iteration      1(  21)  ---------------------------------------


    POTLOK:  cpu time    2.0750: real time    2.0760
    SETDIJ:  cpu time    0.0514: real time    0.0514
     EDDAV:  cpu time   32.2359: real time   32.3254
       DOS:  cpu time    0.0007: real time    0.0007
    CHARGE:  cpu time    2.0880: real time    2.0993
    MIXING:  cpu time    0.0709: real time    0.0709
    --------------------------------------------
      LOOP:  cpu time   36.5219: real time   36.6237

 eigenvalue-minimisations  :   584
 total energy-change (2. order) :-0.6104549E-03  (-0.1154709E-04)
 number of electron      47.9999999 magnetization 
 augmentation part       -0.7400866 magnetization 

 Broyden mixing:
  rms(total) = 0.52997E-03    rms(broyden)= 0.52982E-03
  rms(prec ) = 0.74417E-03
  weight for this iteration     100.00

 eigenvalues of (default mixing * dielectric matrix)
  average eigenvalue GAMMA=   2.0747
  7.5859  4.5842  2.6362  2.6362  1.7091  1.7091  1.0919  1.0919  1.0520  1.0520
  1.0566  1.0566  0.8924  0.8924

 Free energy of the ion-electron system (eV)
  ---------------------------------------------------
  alpha Z        PSCENC =        14.13034224
  Ewald energy   TEWEN  =      1509.86359173
  -Hartree energ DENC   =     -2688.52495677
  -exchange      EXHF   =         0.00000000
  -V(xc)+E(xc)   XCENC  =      -140.24474606
  PAW double counting   =      1751.88357376    -1494.38087516
  entropy T*S    EENTRO =        -0.00000000
  eigenvalues    EBANDS =      -344.10210339
  atomic energy  EATOM  =      1318.64189276
  Solvation  Ediel_sol  =         0.00000000
  ---------------------------------------------------
  free energy    TOTEN  =       -72.73328089 eV

  energy without entropy =      -72.73328089  energy(sigma->0) =      -72.73328089


--------------------------------------------------------------------------------------------------------




--------------------------------------- Iteration      1(  22)  ---------------------------------------


    POTLOK:  cpu time    2.1425: real time    2.1519
    SETDIJ:  cpu time    0.0639: real time    0.0639
     EDDAV:  cpu time   34.4634: real time   34.5948
       DOS:  cpu time    0.0006: real time    0.0006
    CHARGE:  cpu time    2.1090: real time    2.1172
    MIXING:  cpu time    0.0840: real time    0.0841
    --------------------------------------------
      LOOP:  cpu time   38.8634: real time   39.0125

 eigenvalue-minimisations  :   640
 total energy-change (2. order) :-0.2011080E-03  (-0.3091379E-05)
 number of electron      47.9999999 magnetization 
 augmentation part       -0.7400202 magnetization 

 Broyden mixing:
  rms(total) = 0.40862E-03    rms(broyden)= 0.40853E-03
  rms(prec ) = 0.54293E-03
  weight for this iteration     100.00

 eigenvalues of (default mixing * dielectric matrix)
  average eigenvalue GAMMA=   2.1109
  8.2708  4.9134  3.1570  2.5022  2.1165  1.0903  1.0903  1.3088  1.3088  1.0476
  1.0476  1.0216  1.0216  0.8834  0.8834

 Free energy of the ion-electron system (eV)
  ---------------------------------------------------
  alpha Z        PSCENC =        14.13034224
  Ewald energy   TEWEN  =      1509.86359173
  -Hartree energ DENC   =     -2688.53036013
  -exchange      EXHF   =         0.00000000
  -V(xc)+E(xc)   XCENC  =      -140.24551951
  PAW double counting   =      1751.81842557    -1494.31549548
  entropy T*S    EENTRO =        -0.00000000
  eigenvalues    EBANDS =      -344.09635917
  atomic energy  EATOM  =      1318.64189276
  Solvation  Ediel_sol  =         0.00000000
  ---------------------------------------------------
  free energy    TOTEN  =       -72.73348200 eV

  energy without entropy =      -72.73348200  energy(sigma->0) =      -72.73348200


--------------------------------------------------------------------------------------------------------




--------------------------------------- Iteration      1(  23)  ---------------------------------------


    POTLOK:  cpu time    2.0350: real time    2.0468
    SETDIJ:  cpu time    0.0607: real time    0.0607
     EDDAV:  cpu time   30.2229: real time   30.3279
       DOS:  cpu time    0.0005: real time    0.0005
    CHARGE:  cpu time    2.0866: real time    2.0934
    MIXING:  cpu time    0.0796: real time    0.0801
    --------------------------------------------
      LOOP:  cpu time   34.4853: real time   34.6093

 eigenvalue-minimisations  :   536
 total energy-change (2. order) :-0.6354991E-04  (-0.6794380E-06)
 number of electron      47.9999999 magnetization 
 augmentation part       -0.7400165 magnetization 

 Broyden mixing:
  rms(total) = 0.22806E-03    rms(broyden)= 0.22805E-03
  rms(prec ) = 0.30099E-03
  weight for this iteration     100.00

 eigenvalues of (default mixing * dielectric matrix)
  average eigenvalue GAMMA=   2.1499
  8.4842  5.3522  3.3420  2.5597  2.3467  1.0924  1.0924  1.4933  1.4933  1.0829
  1.0829  1.1505  1.0622  0.9443  0.9443  0.8754

 Free energy of the ion-electron system (eV)
  ---------------------------------------------------
  alpha Z        PSCENC =        14.13034224
  Ewald energy   TEWEN  =      1509.86359173
  -Hartree energ DENC   =     -2688.53645789
  -exchange      EXHF   =         0.00000000
  -V(xc)+E(xc)   XCENC  =      -140.24546524
  PAW double counting   =      1751.81288679    -1494.30986052
  entropy T*S    EENTRO =        -0.00000000
  eigenvalues    EBANDS =      -344.09047543
  atomic energy  EATOM  =      1318.64189276
  Solvation  Ediel_sol  =         0.00000000
  ---------------------------------------------------
  free energy    TOTEN  =       -72.73354555 eV

  energy without entropy =      -72.73354555  energy(sigma->0) =      -72.73354555


--------------------------------------------------------------------------------------------------------




--------------------------------------- Iteration      1(  24)  ---------------------------------------


    POTLOK:  cpu time    2.1684: real time    2.1763
    SETDIJ:  cpu time    0.0599: real time    0.0602
     EDDAV:  cpu time   28.8913: real time   29.0046
       DOS:  cpu time    0.0007: real time    0.0007
    CHARGE:  cpu time    2.1378: real time    2.1432
    MIXING:  cpu time    0.0923: real time    0.0923
    --------------------------------------------
      LOOP:  cpu time   33.3504: real time   33.4774

 eigenvalue-minimisations  :   504
 total energy-change (2. order) :-0.2870223E-04  (-0.4981531E-06)
 number of electron      47.9999999 magnetization 
 augmentation part       -0.7400466 magnetization 

 Broyden mixing:
  rms(total) = 0.79819E-04    rms(broyden)= 0.79752E-04
  rms(prec ) = 0.11611E-03
  weight for this iteration     100.00

 eigenvalues of (default mixing * dielectric matrix)
  average eigenvalue GAMMA=   2.1332
  8.5156  5.6417  3.3819  2.7579  2.4603  1.8323  1.0900  1.0900  1.5010  1.0717
  1.0717  1.0758  1.0758  0.9628  0.9628  0.9059  0.8675

 Free energy of the ion-electron system (eV)
  ---------------------------------------------------
  alpha Z        PSCENC =        14.13034224
  Ewald energy   TEWEN  =      1509.86359173
  -Hartree energ DENC   =     -2688.53868460
  -exchange      EXHF   =         0.00000000
  -V(xc)+E(xc)   XCENC  =      -140.24543514
  PAW double counting   =      1751.82221704    -1494.31915245
  entropy T*S    EENTRO =        -0.00000000
  eigenvalues    EBANDS =      -344.08834583
  atomic energy  EATOM  =      1318.64189276
  Solvation  Ediel_sol  =         0.00000000
  ---------------------------------------------------
  free energy    TOTEN  =       -72.73357425 eV

  energy without entropy =      -72.73357425  energy(sigma->0) =      -72.73357425


--------------------------------------------------------------------------------------------------------




--------------------------------------- Iteration      1(  25)  ---------------------------------------


    POTLOK:  cpu time    2.1284: real time    2.1287
    SETDIJ:  cpu time    0.0586: real time    0.0586
     EDDAV:  cpu time   25.1348: real time   25.1546
       DOS:  cpu time    0.0006: real time    0.0006
    CHARGE:  cpu time    2.0823: real time    2.0885
    MIXING:  cpu time    0.0962: real time    0.0967
    --------------------------------------------
      LOOP:  cpu time   29.5008: real time   29.5277

 eigenvalue-minimisations  :   416
 total energy-change (2. order) :-0.5576272E-05  (-0.6876234E-07)
 number of electron      47.9999999 magnetization 
 augmentation part       -0.7400629 magnetization 

 Broyden mixing:
  rms(total) = 0.99675E-04    rms(broyden)= 0.99655E-04
  rms(prec ) = 0.12869E-03
  weight for this iteration     100.00

 eigenvalues of (default mixing * dielectric matrix)
  average eigenvalue GAMMA=   2.1354
  8.6213  5.7844  3.4590  3.1233  2.4513  1.9351  1.0921  1.0921  1.4413  1.1917
  1.1917  1.0792  1.0792  1.1415  0.9811  0.9811  0.8930  0.8981

 Free energy of the ion-electron system (eV)
  ---------------------------------------------------
  alpha Z        PSCENC =        14.13034224
  Ewald energy   TEWEN  =      1509.86359173
  -Hartree energ DENC   =     -2688.54101788
  -exchange      EXHF   =         0.00000000
  -V(xc)+E(xc)   XCENC  =      -140.24531958
  PAW double counting   =      1751.83249347    -1494.32944641
  entropy T*S    EENTRO =        -0.00000000
  eigenvalues    EBANDS =      -344.08611615
  atomic energy  EATOM  =      1318.64189276
  Solvation  Ediel_sol  =         0.00000000
  ---------------------------------------------------
  free energy    TOTEN  =       -72.73357982 eV

  energy without entropy =      -72.73357982  energy(sigma->0) =      -72.73357982


--------------------------------------------------------------------------------------------------------




--------------------------------------- Iteration      1(  26)  ---------------------------------------


    POTLOK:  cpu time    2.1560: real time    2.1641
    SETDIJ:  cpu time    0.0642: real time    0.0648
     EDDAV:  cpu time   22.6742: real time   22.7602
       DOS:  cpu time    0.0006: real time    0.0006
    CHARGE:  cpu time    2.0720: real time    2.0781
    MIXING:  cpu time    0.0746: real time    0.0747
    --------------------------------------------
      LOOP:  cpu time   27.0414: real time   27.1424

 eigenvalue-minimisations  :   360
 total energy-change (2. order) :-0.3361203E-05  (-0.6712672E-07)
 number of electron      47.9999999 magnetization 
 augmentation part       -0.7400621 magnetization 

 Broyden mixing:
  rms(total) = 0.77390E-04    rms(broyden)= 0.77385E-04
  rms(prec ) = 0.98506E-04
  weight for this iteration     100.00

 eigenvalues of (default mixing * dielectric matrix)
  average eigenvalue GAMMA=   2.1090
  8.5949  5.9350  3.4129  3.3446  2.2951  2.2951  1.5236  1.5236  1.0910  1.0910
  1.0945  1.0945  1.0449  1.0449  1.0136  1.0136  0.8661  0.8960  0.8960

 Free energy of the ion-electron system (eV)
  ---------------------------------------------------
  alpha Z        PSCENC =        14.13034224
  Ewald energy   TEWEN  =      1509.86359173
  -Hartree energ DENC   =     -2688.54092803
  -exchange      EXHF   =         0.00000000
  -V(xc)+E(xc)   XCENC  =      -140.24536520
  PAW double counting   =      1751.83517480    -1494.33212132
  entropy T*S    EENTRO =        -0.00000000
  eigenvalues    EBANDS =      -344.08617016
  atomic energy  EATOM  =      1318.64189276
  Solvation  Ediel_sol  =         0.00000000
  ---------------------------------------------------
  free energy    TOTEN  =       -72.73358319 eV

  energy without entropy =      -72.73358319  energy(sigma->0) =      -72.73358319


--------------------------------------------------------------------------------------------------------




--------------------------------------- Iteration      1(  27)  ---------------------------------------


    POTLOK:  cpu time    2.0864: real time    2.0933
    SETDIJ:  cpu time    0.0551: real time    0.0554
     EDDAV:  cpu time   25.4570: real time   25.5131
       DOS:  cpu time    0.0005: real time    0.0005
    --------------------------------------------
      LOOP:  cpu time   27.5989: real time   27.6623

 eigenvalue-minimisations  :   424
 total energy-change (2. order) :-0.8486852E-06  (-0.2894774E-07)
 number of electron      47.9999999 magnetization 
 augmentation part       -0.7400621 magnetization 

 Free energy of the ion-electron system (eV)
  ---------------------------------------------------
  alpha Z        PSCENC =        14.13034224
  Ewald energy   TEWEN  =      1509.86359173
  -Hartree energ DENC   =     -2688.54130728
  -exchange      EXHF   =         0.00000000
  -V(xc)+E(xc)   XCENC  =      -140.24540461
  PAW double counting   =      1751.83166978    -1494.32861270
  entropy T*S    EENTRO =        -0.00000000
  eigenvalues    EBANDS =      -344.08575596
  atomic energy  EATOM  =      1318.64189276
  Solvation  Ediel_sol  =         0.00000000
  ---------------------------------------------------
  free energy    TOTEN  =       -72.73358403 eV

  energy without entropy =      -72.73358403  energy(sigma->0) =      -72.73358403


--------------------------------------------------------------------------------------------------------




 average (electrostatic) potential at core
  the test charge radii are     1.0406  0.6991  1.0339  0.5883
  (the norm of the test charge is              1.0000)
       1 -59.2045       2 -59.4262       3 -59.3832       4 -59.8960       5 -59.8027
       6 -59.7864       7 -59.4025       8 -59.3704       9 -55.2677      10 -55.2359
      11 -56.0160      12 -55.6563      13 -96.4493      14 -38.0629      15 -38.1620



 E-fermi :  -2.0701     XC(G=0):  -3.2189     alpha+bet : -2.6874


 k-point     1 :       0.0000    0.0000    0.0000
  band No.  band energies     occupation 
      1     -15.1986      2.00000
      2     -14.6640      2.00000
      3     -13.8159      2.00000
      4     -12.7651      2.00000
      5     -11.6898      2.00000
      6      -8.9927      2.00000
      7      -8.8903      2.00000
      8      -8.6532      2.00000
      9      -7.6187      2.00000
     10      -7.3461      2.00000
     11      -6.7559      2.00000
     12      -6.2616      2.00000
     13      -5.8874      2.00000
     14      -5.2872      2.00000
     15      -5.0853      2.00000
     16      -4.7594      2.00000
     17      -4.3514      2.00000
     18      -3.9972      2.00000
     19      -3.9185      2.00000
     20      -3.3636      2.00000
     21      -3.2042      2.00000
     22      -2.9545      2.00000
     23      -2.5217      2.00000
     24      -2.3323      2.00000
     25      -1.6230      0.00000
     26      -1.1591      0.00000
     27      -0.4206      0.00000
     28      -0.0960      0.00000
     29      -0.0105      0.00000
     30       0.4556      0.00000
     31       0.6059      0.00000
     32       0.8108      0.00000

 k-point     2 :       0.2000    0.0000    0.0000
  band No.  band energies     occupation 
      1     -15.1661      2.00000
      2     -14.6250      2.00000
      3     -13.6919      2.00000
      4     -12.9695      2.00000
      5     -12.0699      2.00000
      6      -8.7535      2.00000
      7      -8.6711      2.00000
      8      -8.0917      2.00000
      9      -7.5063      2.00000
     10      -7.3116      2.00000
     11      -6.6796      2.00000
     12      -6.6003      2.00000
     13      -6.1434      2.00000
     14      -5.3508      2.00000
     15      -5.0140      2.00000
     16      -4.6517      2.00000
     17      -4.3992      2.00000
     18      -4.0962      2.00000
     19      -3.7398      2.00000
     20      -3.6766      2.00000
     21      -3.6206      2.00000
     22      -3.4140      2.00000
     23      -2.8066      2.00000
     24      -2.5143      2.00000
     25      -1.5288      0.00000
     26      -0.4593      0.00000
     27      -0.3324      0.00000
     28       0.0101      0.00000
     29       0.2368      0.00000
     30       0.7007      0.00000
     31       0.7545      0.00000
     32       0.9116      0.00000

 k-point     3 :       0.4000    0.0000    0.0000
  band No.  band energies     occupation 
      1     -15.1160      2.00000
      2     -14.5309      2.00000
      3     -13.3598      2.00000
      4     -13.2666      2.00000
      5     -12.7416      2.00000
      6      -8.3582      2.00000
      7      -8.2616      2.00000
      8      -7.6918      2.00000
      9      -7.3052      2.00000
     10      -6.8648      2.00000
     11      -6.6956      2.00000
     12      -6.3507      2.00000
     13      -5.9399      2.00000
     14      -5.8305      2.00000
     15      -5.3574      2.00000
     16      -5.0926      2.00000
     17      -5.0159      2.00000
     18      -4.4493      2.00000
     19      -4.2436      2.00000
     20      -3.8276      2.00000
     21      -3.6914      2.00000
     22      -3.4998      2.00000
     23      -3.0087      2.00000
     24      -2.5402      2.00000
     25      -1.2027      0.00000
     26      -0.7068      0.00000
     27      -0.1782      0.00000
     28       0.6029      0.00000
     29       0.8370      0.00000
     30       1.1916      0.00000
     31       1.2755      0.00000
     32       1.3360      0.00000

 k-point     4 :       0.0000    0.3333    0.0000
  band No.  band energies     occupation 
      1     -15.1978      2.00000
      2     -14.6634      2.00000
      3     -13.8194      2.00000
      4     -12.7670      2.00000
      5     -11.6907      2.00000
      6      -8.9562      2.00000
      7      -8.7056      2.00000
      8      -8.6297      2.00000
      9      -7.9357      2.00000
     10      -7.4647      2.00000
     11      -7.1578      2.00000
     12      -5.7637      2.00000
     13      -5.4390      2.00000
     14      -5.2810      2.00000
     15      -4.9637      2.00000
     16      -4.7861      2.00000
     17      -4.2862      2.00000
     18      -4.0287      2.00000
     19      -3.9043      2.00000
     20      -3.6851      2.00000
     21      -3.3493      2.00000
     22      -3.0663      2.00000
     23      -2.9548      2.00000
     24      -2.3296      2.00000
     25      -1.4137      0.00000
     26      -0.7886      0.00000
     27      -0.5899      0.00000
     28      -0.1401      0.00000
     29       0.3744      0.00000
     30       0.4638      0.00000
     31       0.6181      0.00000
     32       0.7581      0.00000

 k-point     5 :       0.2000    0.3333    0.0000
  band No.  band energies     occupation 
      1     -15.1656      2.00000
      2     -14.6243      2.00000
      3     -13.6942      2.00000
      4     -12.9716      2.00000
      5     -12.0717      2.00000
      6      -8.6770      2.00000
      7      -8.4798      2.00000
      8      -8.1224      2.00000
      9      -7.8314      2.00000
     10      -7.3002      2.00000
     11      -7.1705      2.00000
     12      -6.3912      2.00000
     13      -5.7919      2.00000
     14      -5.2950      2.00000
     15      -4.7943      2.00000
     16      -4.6500      2.00000
     17      -4.3462      2.00000
     18      -3.9687      2.00000
     19      -3.7927      2.00000
     20      -3.6951      2.00000
     21      -3.6333      2.00000
     22      -3.5266      2.00000
     23      -2.9909      2.00000
     24      -2.7900      2.00000
     25      -1.2288      0.00000
     26      -0.7912      0.00000
     27      -0.3547      0.00000
     28      -0.0726      0.00000
     29       0.3778      0.00000
     30       0.6574      0.00000
     31       0.7606      0.00000
     32       0.9538      0.00000

 k-point     6 :       0.4000    0.3333    0.0000
  band No.  band energies     occupation 
      1     -15.1158      2.00000
      2     -14.5304      2.00000
      3     -13.3371      2.00000
      4     -13.2909      2.00000
      5     -12.7461      2.00000
      6      -8.3260      2.00000
      7      -8.0936      2.00000
      8      -7.6088      2.00000
      9      -7.3149      2.00000
     10      -7.0189      2.00000
     11      -6.8385      2.00000
     12      -6.6487      2.00000
     13      -6.4571      2.00000
     14      -5.4938      2.00000
     15      -5.2361      2.00000
     16      -4.8615      2.00000
     17      -4.5019      2.00000
     18      -4.2603      2.00000
     19      -4.1923      2.00000
     20      -3.8465      2.00000
     21      -3.6647      2.00000
     22      -3.5208      2.00000
     23      -3.3195      2.00000
     24      -2.8753      2.00000
     25      -1.0144      0.00000
     26      -0.7939      0.00000
     27      -0.1977      0.00000
     28       0.5523      0.00000
     29       0.6093      0.00000
     30       0.8090      0.00000
     31       1.0633      0.00000
     32       1.3476      0.00000

 k-point     7 :      -0.4000    0.3333    0.0000
  band No.  band energies     occupation 
      1     -15.1158      2.00000
      2     -14.5303      2.00000
      3     -13.3435      2.00000
      4     -13.2841      2.00000
      5     -12.7466      2.00000
      6      -8.3502      2.00000
      7      -8.0771      2.00000
      8      -7.5480      2.00000
      9      -7.2955      2.00000
     10      -7.1135      2.00000
     11      -6.8397      2.00000
     12      -6.6794      2.00000
     13      -6.4086      2.00000
     14      -5.5123      2.00000
     15      -5.2179      2.00000
     16      -4.8381      2.00000
     17      -4.5077      2.00000
     18      -4.2982      2.00000
     19      -4.1510      2.00000
     20      -3.8541      2.00000
     21      -3.6457      2.00000
     22      -3.5496      2.00000
     23      -3.3035      2.00000
     24      -2.8840      2.00000
     25      -1.2170      0.00000
     26      -0.4999      0.00000
     27      -0.1777      0.00000
     28       0.4604      0.00000
     29       0.6312      0.00000
     30       0.7405      0.00000
     31       1.0001      0.00000
     32       1.3316      0.00000

 k-point     8 :      -0.2000    0.3333    0.0000
  band No.  band energies     occupation 
      1     -15.1656      2.00000
      2     -14.6242      2.00000
      3     -13.6947      2.00000
      4     -12.9711      2.00000
      5     -12.0718      2.00000
      6      -8.6881      2.00000
      7      -8.4885      2.00000
      8      -8.1146      2.00000
      9      -7.7480      2.00000
     10      -7.4092      2.00000
     11      -7.1305      2.00000
     12      -6.4133      2.00000
     13      -5.7956      2.00000
     14      -5.2809      2.00000
     15      -4.7743      2.00000
     16      -4.6815      2.00000
     17      -4.3001      2.00000
     18      -3.9904      2.00000
     19      -3.7740      2.00000
     20      -3.6952      2.00000
     21      -3.6255      2.00000
     22      -3.5073      2.00000
     23      -3.0267      2.00000
     24      -2.7950      2.00000
     25      -1.4041      0.00000
     26      -0.5302      0.00000
     27      -0.3572      0.00000
     28      -0.1024      0.00000
     29       0.3567      0.00000
     30       0.5929      0.00000
     31       0.8076      0.00000
     32       0.9424      0.00000


--------------------------------------------------------------------------------------------------------


 soft charge-density along one line, spin component           1
         0         1         2         3         4         5         6         7         8         9
 total charge-density along one line

 pseudopotential strength for first ion, spin component:           1
  7.448 -17.450  -0.003   0.000   0.000   0.016  -0.000  -0.000
-17.450  50.480   0.008  -0.000  -0.000  -0.038   0.001   0.000
 -0.003   0.008   1.742   0.000  -0.000  -6.878  -0.002   0.000
  0.000  -0.000   0.000   1.745   0.000  -0.002  -6.895  -0.001
  0.000  -0.000  -0.000   0.000   1.743   0.000  -0.001  -6.881
  0.016  -0.038  -6.878  -0.002   0.000  29.276   0.010  -0.000
 -0.000   0.001  -0.002  -6.895  -0.001   0.010  29.348   0.002
 -0.000   0.000   0.000  -0.001  -6.881  -0.000   0.002  29.288
 -0.000   0.000   0.000   0.000  -0.002  -0.000  -0.000   0.007
  0.003  -0.003  -0.000  -0.002   0.000   0.000   0.006  -0.000
  0.009  -0.011   0.001  -0.000  -0.000  -0.002  -0.000   0.000
  0.001  -0.001   0.000  -0.000  -0.000  -0.000   0.000  -0.000
  0.002  -0.002   0.001   0.000  -0.000  -0.003  -0.000   0.000
  0.000  -0.000  -0.000  -0.000   0.007   0.000   0.000  -0.028
 -0.010   0.017   0.001   0.007  -0.000  -0.003  -0.028   0.000
 -0.036   0.064  -0.002   0.000   0.000   0.010  -0.000  -0.000
 -0.002   0.004  -0.000   0.000   0.000   0.000  -0.000  -0.001
 -0.006   0.011  -0.004  -0.000   0.000   0.017   0.001  -0.000
 total augmentation occupancy for first ion, spin component:           1
  1.400   0.017  -0.070   0.018   0.001   0.004  -0.000  -0.000  -0.002  -0.029  -0.087  -0.004  -0.028  -0.000  -0.001  -0.005
  0.017   0.000   0.009  -0.001  -0.000   0.000  -0.000  -0.000  -0.000  -0.001  -0.002  -0.000   0.000  -0.000  -0.000  -0.000
 -0.070   0.009   1.298  -0.132  -0.003   0.018  -0.002  -0.000  -0.001   0.004  -0.075  -0.007   0.050  -0.000  -0.000  -0.003
  0.018  -0.001  -0.132   0.400  -0.026  -0.002   0.005  -0.000  -0.008   0.052  -0.003   0.001  -0.018  -0.000   0.001   0.000
  0.001  -0.000  -0.003  -0.026   1.080  -0.000  -0.000   0.017   0.221  -0.007   0.002  -0.032  -0.000   0.007  -0.000   0.000
  0.004   0.000   0.018  -0.002  -0.000   0.000  -0.000  -0.000  -0.000  -0.000  -0.001  -0.000   0.000  -0.000  -0.000  -0.000
 -0.000  -0.000  -0.002   0.005  -0.000  -0.000   0.000  -0.000  -0.000   0.001   0.000   0.000  -0.000  -0.000   0.000   0.000
 -0.000  -0.000  -0.000  -0.000   0.017  -0.000  -0.000   0.000   0.004  -0.000   0.000  -0.001  -0.000   0.000  -0.000   0.000
 -0.002  -0.000  -0.001  -0.008   0.221  -0.000  -0.000   0.004   0.063  -0.002   0.000  -0.007   0.000   0.002  -0.000   0.000
 -0.029  -0.001   0.004   0.052  -0.007  -0.000   0.001  -0.000  -0.002   0.011  -0.001   0.000   0.004  -0.000   0.000   0.000
 -0.087  -0.002  -0.075  -0.003   0.002  -0.001   0.000   0.000   0.000  -0.001   0.013  -0.000  -0.004   0.000   0.000   0.001
 -0.004  -0.000  -0.007   0.001  -0.032  -0.000   0.000  -0.001  -0.007   0.000  -0.000   0.020  -0.001  -0.000   0.000   0.000
 -0.028   0.000   0.050  -0.018  -0.000   0.000  -0.000  -0.000   0.000   0.004  -0.004  -0.001   0.038   0.000   0.000  -0.000
 -0.000  -0.000  -0.000  -0.000   0.007  -0.000  -0.000   0.000   0.002  -0.000   0.000  -0.000   0.000   0.000  -0.000   0.000
 -0.001  -0.000  -0.000   0.001  -0.000  -0.000   0.000  -0.000  -0.000   0.000   0.000   0.000   0.000  -0.000   0.000   0.000
 -0.005  -0.000  -0.003   0.000   0.000  -0.000   0.000   0.000   0.000   0.000   0.001   0.000  -0.000   0.000   0.000   0.000
 -0.000  -0.000  -0.000   0.000  -0.001  -0.000   0.000  -0.000  -0.000   0.000   0.000   0.000  -0.000  -0.000   0.000   0.000
 -0.001   0.000   0.000  -0.000  -0.000  -0.000  -0.000  -0.000   0.000   0.000  -0.000  -0.000   0.001   0.000   0.000  -0.000


------------------------ aborting loop because EDIFF is reached ----------------------------------------


    CHARGE:  cpu time    2.0794: real time    2.0870
    FORLOC:  cpu time    0.3173: real time    0.3185
    FORNL :  cpu time    9.1007: real time    9.1386
    STRESS:  cpu time   27.4801: real time   27.5986
    FORCOR:  cpu time    2.2011: real time    2.2106
    FORHAR:  cpu time    0.8147: real time    0.8177
    MIXING:  cpu time    0.0913: real time    0.0918
    OFIELD:  cpu time    0.0001: real time    0.0001

  FORCE on cell =-STRESS in cart. coord.  units (eV):
  Direction    XX          YY          ZZ          XY          YZ          ZX
  --------------------------------------------------------------------------------------
  Alpha Z    14.13034    14.13034    14.13034
  Ewald    2473.28253  2059.88752 -3023.30795    -6.94818    64.51903     6.10294
  Hartree  2512.58432  2216.43215 -2040.47177     4.22925    37.19792     5.64449
  E(xc)    -153.82815  -154.92277  -154.46524    -0.08722     0.08588    -0.03131
  Local   -5480.59551 -4781.05988  4580.10129    -4.91065   -99.60681   -15.39998
  n-local   195.42320   207.53785   169.32831     0.42038     0.23583     0.52766
  augment   -24.03246   -25.09970   -22.75285    -0.52669     0.14891    -0.22475
  Kinetic   464.22244   460.43682   476.76456     8.15426    -2.40801     3.68918
  Fock        0.00000     0.00000     0.00000     0.00000     0.00000     0.00000
  -------------------------------------------------------------------------------------
  Total       1.18670    -2.65767    -0.67331     0.33115     0.17276     0.30824
  in kB       2.07674    -4.65097    -1.17831     0.57951     0.30233     0.53943
  external pressure =       -1.25 kB  Pullay stress =        0.00 kB


 VOLUME and BASIS-vectors are now :
 -----------------------------------------------------------------------------
  energy-cutoff  :      450.00
  volume of cell :      915.52
      direct lattice vectors                 reciprocal lattice vectors
     6.019200000  0.000000000  0.000000000     0.166135035  0.000000000  0.000000000
     0.000000000 10.140000000  0.000000000     0.000000000  0.098619329  0.000000000
     0.000000000  0.000000000 15.000000000     0.000000000  0.000000000  0.066666667

  length of vectors
     6.019200000 10.140000000 15.000000000     0.166135035  0.098619329  0.066666667


 FORCES acting on ions
    electron-ion (+dipol)            ewald-force                    non-local-force                 convergence-correction
 -----------------------------------------------------------------------------------------------
   0.119E+01 0.362E+02 0.156E+02   -.119E+01 -.347E+02 -.155E+02   -.100E-01 -.154E+01 -.315E-01   -.104E-03 0.603E-04 -.165E-05
   -.123E+01 0.438E+02 0.334E+02   0.122E+01 -.404E+02 -.329E+02   0.815E-03 -.341E+01 -.478E+00   0.109E-03 0.445E-04 -.103E-04
   0.496E+01 -.387E+02 0.607E+01   -.401E+01 0.387E+02 -.612E+01   -.962E+00 0.855E-02 0.527E-01   0.144E-03 0.634E-04 0.101E-03
   -.821E+01 -.466E+02 0.359E+02   0.664E+01 0.452E+02 -.359E+02   0.156E+01 0.139E+01 -.369E-02   -.135E-03 0.749E-04 -.250E-04
   0.597E+01 0.551E+02 0.455E+02   -.435E+01 -.534E+02 -.444E+02   -.163E+01 -.177E+01 -.101E+01   0.130E-03 -.111E-03 -.697E-04
   -.333E+01 0.579E+02 0.150E+02   0.181E+01 -.561E+02 -.153E+02   0.151E+01 -.175E+01 0.259E+00   -.125E-03 -.114E-03 -.463E-04
   0.741E+00 -.524E+02 0.363E+02   -.696E+00 0.486E+02 -.353E+02   -.515E-01 0.380E+01 -.953E+00   -.113E-03 0.252E-05 -.340E-04
   -.488E+00 -.512E+02 0.106E+02   0.391E+00 0.477E+02 -.107E+02   0.900E-01 0.350E+01 0.556E-01   0.113E-03 0.412E-05 -.251E-04
   0.783E-01 -.742E+01 0.238E+02   0.258E+00 0.716E+01 -.237E+02   -.344E+00 0.257E+00 -.931E-01   0.123E-04 0.438E-04 -.384E-04
   0.493E-01 -.635E+01 0.412E+02   -.363E+00 0.603E+01 -.418E+02   0.306E+00 0.316E+00 0.620E+00   -.108E-04 0.399E-04 -.833E-04
   0.523E+01 0.133E+02 0.161E+02   -.417E+01 -.120E+02 -.210E+02   -.107E+01 -.134E+01 0.499E+01   -.125E-04 -.601E-04 -.201E-04
   -.794E+00 0.740E+01 0.651E+02   0.211E+00 -.673E+01 -.661E+02   0.577E+00 -.667E+00 0.107E+01   -.324E-04 -.174E-05 -.219E-03
   -.400E+02 -.220E+00 -.230E+03   0.465E+02 -.428E+01 0.232E+03   -.647E+01 0.452E+01 -.148E+01   0.262E-03 -.731E-04 0.612E-03
   0.329E+02 -.269E+02 -.448E+02   -.362E+02 0.292E+02 0.457E+02   0.338E+01 -.224E+01 -.923E+00   0.703E-04 -.433E-04 0.792E-04
   0.592E+01 0.143E+02 -.665E+02   -.603E+01 -.149E+02 0.714E+02   0.882E-01 0.551E+00 -.489E+01   -.529E-05 -.282E-04 0.204E-03
 -----------------------------------------------------------------------------------------------
   0.301E+01 -.164E+01 0.282E+01   0.000E+00 -.320E-13 0.426E-13   -.301E+01 0.164E+01 -.282E+01   0.303E-03 -.975E-04 0.424E-03


 POSITION                                       TOTAL-FORCE (eV/Angst)
 -----------------------------------------------------------------------------------
      2.59862      8.86591      3.78436        -0.008214     -0.005757     -0.012542
      5.61213      8.89357      3.56829        -0.007253     -0.004171      0.015439
      2.69919      6.34070      4.50180        -0.007077     -0.002922     -0.002557
      5.60820      6.31303      3.87025        -0.008142     -0.001291      0.019428
      2.62218      3.84641      3.71418        -0.005738     -0.005505      0.011004
      5.52477      3.77587      3.94948        -0.007007     -0.003716     -0.020612
      2.59951      1.20819      3.47476        -0.006160     -0.003316      0.007608
      5.59647      1.20392      3.69615        -0.007455     -0.002431     -0.021727
      1.09549     10.13228      3.64753        -0.008026     -0.003004     -0.001228
      4.09892     10.12069      3.53401        -0.007700     -0.004501     -0.004552
      1.07888      5.00043      4.34163        -0.007305     -0.005986      0.014580
      4.10665      5.07569      3.76830        -0.007339     -0.002694     -0.004958
      3.07603      6.48735      6.75642         0.050039      0.025915     -0.013596
      1.96959      7.22064      7.04143         0.065342      0.045871      0.005458
      1.03842      4.85730      5.44989        -0.027967     -0.026492      0.008254
 -----------------------------------------------------------------------------------
    total drift:                                0.000937      0.001229      0.002831


--------------------------------------------------------------------------------------------------------



  FREE ENERGIE OF THE ION-ELECTRON SYSTEM (eV)
  ---------------------------------------------------
  free  energy   TOTEN  =       -72.73358403 eV

  energy  without entropy=      -72.73358403  energy(sigma->0) =      -72.73358403



--------------------------------------------------------------------------------------------------------


    POTLOK:  cpu time    2.1934: real time    2.2014


--------------------------------------------------------------------------------------------------------


 NEB: the previous image is higher in energy: T
 NEB: the next image is higher in energy    : F
 NEB: only prev energy greater

 NEB: Tangent
 ----------------------------------------------
     -0.07112     -0.04640     -0.10513
     -0.06266     -0.03523      0.12957
     -0.06041     -0.02505     -0.02321
     -0.06780     -0.01128      0.16373
     -0.04784     -0.04622      0.09253
     -0.05691     -0.03040     -0.17603
     -0.05414     -0.02876      0.06424
     -0.06386     -0.01857     -0.18481
     -0.06257     -0.02486     -0.01082
     -0.06307     -0.03765     -0.03651
     -0.06173     -0.04763      0.10684
     -0.06060     -0.02286     -0.04097
      0.41225      0.21339     -0.11294
      0.55151      0.38467      0.04545
     -0.23281     -0.22406      0.08516

 NEB: forces: par spring, perp REAL, dneb     0.000573    0.003082    0.000000
 NEB: distance to prev, next image, angle between     0.526411    0.526297  162.002063
 NEB: projections on to tangent (spring, REAL)    -0.000573    0.119408

 stress matrix after NEB project (eV)
      1.18670      0.33115      0.30824
      0.33115     -2.65767      0.17276
      0.30824      0.17276     -0.67331
  FORCES: max atom, RMS     0.002002    0.000809
  FORCE total and by dimension    0.003134    0.001963
  Stress total and by dimension    3.064936    2.657668
 Quasi-Newton relaxation of ions (Broydens 2nd method)
  g(Force)  = 0.105E-03   g(Stress)= 0.000E+00

 Reset! Starting new Quasi-Newton update for ions 


--------------------------------------------------------------------------------------------------------


    WAVPRE:  cpu time   71.2934: real time   72.2607
    FEWALD:  cpu time    0.0027: real time    0.0027
    ORTHCH:  cpu time    3.3918: real time    3.4053
     LOOP+:  cpu time 1154.7474: real time 1158.3457


--------------------------------------- Iteration      2(   1)  ---------------------------------------


    POTLOK:  cpu time    2.6364: real time    2.6378
    SETDIJ:  cpu time    0.0562: real time    0.0562
     EDDAV:  cpu time   33.2872: real time   33.2938
       DOS:  cpu time    0.0005: real time    0.0006
    CHARGE:  cpu time    1.9607: real time    1.9610
    MIXING:  cpu time    0.0480: real time    0.0480
    --------------------------------------------
      LOOP:  cpu time   37.9891: real time   37.9974

 eigenvalue-minimisations  :   600
 total energy-change (2. order) : 0.1074086E-05  (-0.1618021E-05)
 number of electron      47.9999999 magnetization 
 augmentation part       -0.7400482 magnetization 

 Broyden mixing:
  rms(total) = 0.92310E-04    rms(broyden)= 0.92191E-04
  rms(prec ) = 0.10847E-03
  weight for this iteration     100.00

 Free energy of the ion-electron system (eV)
  ---------------------------------------------------
  alpha Z        PSCENC =        14.13034224
  Ewald energy   TEWEN  =      1509.86775935
  -Hartree energ DENC   =     -2688.54527604
  -exchange      EXHF   =         0.00000000
  -V(xc)+E(xc)   XCENC  =      -140.24527410
  PAW double counting   =      1751.83242412    -1494.32937070
  entropy T*S    EENTRO =        -0.00000000
  eigenvalues    EBANDS =      -344.08607973
  atomic energy  EATOM  =      1318.64189276
  Solvation  Ediel_sol  =         0.00000000
  ---------------------------------------------------
  free energy    TOTEN  =       -72.73358211 eV

  energy without entropy =      -72.73358211  energy(sigma->0) =      -72.73358211


--------------------------------------------------------------------------------------------------------




--------------------------------------- Iteration      2(   2)  ---------------------------------------


    POTLOK:  cpu time    2.0820: real time    2.0823
    SETDIJ:  cpu time    0.0681: real time    0.0681
     EDDAV:  cpu time   28.4650: real time   28.4723
       DOS:  cpu time    0.0006: real time    0.0006
    --------------------------------------------
      LOOP:  cpu time   30.6156: real time   30.6233

 eigenvalue-minimisations  :   488
 total energy-change (2. order) :-0.1286330E-06  (-0.5939361E-07)
 number of electron      47.9999999 magnetization 
 augmentation part       -0.7400482 magnetization 

 Free energy of the ion-electron system (eV)
  ---------------------------------------------------
  alpha Z        PSCENC =        14.13034224
  Ewald energy   TEWEN  =      1509.86775935
  -Hartree energ DENC   =     -2688.54614426
  -exchange      EXHF   =         0.00000000
  -V(xc)+E(xc)   XCENC  =      -140.24522445
  PAW double counting   =      1751.83547934    -1494.33242549
  entropy T*S    EENTRO =        -0.00000000
  eigenvalues    EBANDS =      -344.08526173
  atomic energy  EATOM  =      1318.64189276
  Solvation  Ediel_sol  =         0.00000000
  ---------------------------------------------------
  free energy    TOTEN  =       -72.73358224 eV

  energy without entropy =      -72.73358224  energy(sigma->0) =      -72.73358224


--------------------------------------------------------------------------------------------------------




 average (electrostatic) potential at core
  the test charge radii are     1.0406  0.6991  1.0339  0.5883
  (the norm of the test charge is              1.0000)
       1 -59.2045       2 -59.4262       3 -59.3832       4 -59.8960       5 -59.8027
       6 -59.7864       7 -59.4025       8 -59.3704       9 -55.2678      10 -55.2358
      11 -56.0158      12 -55.6562      13 -96.4494      14 -38.0626      15 -38.1631



 E-fermi :  -2.0701     XC(G=0):  -3.2214     alpha+bet : -2.6874


 k-point     1 :       0.0000    0.0000    0.0000
  band No.  band energies     occupation 
      1     -15.1986      2.00000
      2     -14.6642      2.00000
      3     -13.8159      2.00000
      4     -12.7652      2.00000
      5     -11.6897      2.00000
      6      -8.9926      2.00000
      7      -8.8903      2.00000
      8      -8.6532      2.00000
      9      -7.6188      2.00000
     10      -7.3461      2.00000
     11      -6.7558      2.00000
     12      -6.2615      2.00000
     13      -5.8874      2.00000
     14      -5.2872      2.00000
     15      -5.0852      2.00000
     16      -4.7594      2.00000
     17      -4.3514      2.00000
     18      -3.9972      2.00000
     19      -3.9186      2.00000
     20      -3.3636      2.00000
     21      -3.2041      2.00000
     22      -2.9545      2.00000
     23      -2.5217      2.00000
     24      -2.3323      2.00000
     25      -1.6230      0.00000
     26      -1.1591      0.00000
     27      -0.4206      0.00000
     28      -0.0960      0.00000
     29      -0.0105      0.00000
     30       0.4556      0.00000
     31       0.6058      0.00000
     32       0.8109      0.00000

 k-point     2 :       0.2000    0.0000    0.0000
  band No.  band energies     occupation 
      1     -15.1662      2.00000
      2     -14.6251      2.00000
      3     -13.6919      2.00000
      4     -12.9696      2.00000
      5     -12.0698      2.00000
      6      -8.7535      2.00000
      7      -8.6711      2.00000
      8      -8.0917      2.00000
      9      -7.5063      2.00000
     10      -7.3116      2.00000
     11      -6.6795      2.00000
     12      -6.6002      2.00000
     13      -6.1434      2.00000
     14      -5.3507      2.00000
     15      -5.0141      2.00000
     16      -4.6517      2.00000
     17      -4.3991      2.00000
     18      -4.0961      2.00000
     19      -3.7397      2.00000
     20      -3.6766      2.00000
     21      -3.6206      2.00000
     22      -3.4140      2.00000
     23      -2.8066      2.00000
     24      -2.5143      2.00000
     25      -1.5288      0.00000
     26      -0.4593      0.00000
     27      -0.3324      0.00000
     28       0.0101      0.00000
     29       0.2368      0.00000
     30       0.7007      0.00000
     31       0.7545      0.00000
     32       0.9115      0.00000

 k-point     3 :       0.4000    0.0000    0.0000
  band No.  band energies     occupation 
      1     -15.1160      2.00000
      2     -14.5312      2.00000
      3     -13.3598      2.00000
      4     -13.2666      2.00000
      5     -12.7416      2.00000
      6      -8.3583      2.00000
      7      -8.2618      2.00000
      8      -7.6918      2.00000
      9      -7.3052      2.00000
     10      -6.8648      2.00000
     11      -6.6956      2.00000
     12      -6.3507      2.00000
     13      -5.9399      2.00000
     14      -5.8304      2.00000
     15      -5.3573      2.00000
     16      -5.0926      2.00000
     17      -5.0158      2.00000
     18      -4.4492      2.00000
     19      -4.2436      2.00000
     20      -3.8275      2.00000
     21      -3.6914      2.00000
     22      -3.4998      2.00000
     23      -3.0086      2.00000
     24      -2.5402      2.00000
     25      -1.2026      0.00000
     26      -0.7068      0.00000
     27      -0.1782      0.00000
     28       0.6029      0.00000
     29       0.8370      0.00000
     30       1.1916      0.00000
     31       1.2755      0.00000
     32       1.3360      0.00000

 k-point     4 :       0.0000    0.3333    0.0000
  band No.  band energies     occupation 
      1     -15.1978      2.00000
      2     -14.6635      2.00000
      3     -13.8194      2.00000
      4     -12.7671      2.00000
      5     -11.6906      2.00000
      6      -8.9561      2.00000
      7      -8.7055      2.00000
      8      -8.6297      2.00000
      9      -7.9357      2.00000
     10      -7.4648      2.00000
     11      -7.1579      2.00000
     12      -5.7636      2.00000
     13      -5.4391      2.00000
     14      -5.2809      2.00000
     15      -4.9637      2.00000
     16      -4.7861      2.00000
     17      -4.2862      2.00000
     18      -4.0287      2.00000
     19      -3.9044      2.00000
     20      -3.6851      2.00000
     21      -3.3492      2.00000
     22      -3.0663      2.00000
     23      -2.9547      2.00000
     24      -2.3296      2.00000
     25      -1.4137      0.00000
     26      -0.7886      0.00000
     27      -0.5899      0.00000
     28      -0.1401      0.00000
     29       0.3744      0.00000
     30       0.4638      0.00000
     31       0.6182      0.00000
     32       0.7581      0.00000

 k-point     5 :       0.2000    0.3333    0.0000
  band No.  band energies     occupation 
      1     -15.1656      2.00000
      2     -14.6245      2.00000
      3     -13.6942      2.00000
      4     -12.9717      2.00000
      5     -12.0716      2.00000
      6      -8.6770      2.00000
      7      -8.4798      2.00000
      8      -8.1224      2.00000
      9      -7.8314      2.00000
     10      -7.3002      2.00000
     11      -7.1706      2.00000
     12      -6.3911      2.00000
     13      -5.7919      2.00000
     14      -5.2950      2.00000
     15      -4.7943      2.00000
     16      -4.6500      2.00000
     17      -4.3462      2.00000
     18      -3.9687      2.00000
     19      -3.7927      2.00000
     20      -3.6951      2.00000
     21      -3.6333      2.00000
     22      -3.5266      2.00000
     23      -2.9908      2.00000
     24      -2.7900      2.00000
     25      -1.2287      0.00000
     26      -0.7912      0.00000
     27      -0.3547      0.00000
     28      -0.0726      0.00000
     29       0.3779      0.00000
     30       0.6574      0.00000
     31       0.7606      0.00000
     32       0.9538      0.00000

 k-point     6 :       0.4000    0.3333    0.0000
  band No.  band energies     occupation 
      1     -15.1158      2.00000
      2     -14.5307      2.00000
      3     -13.3371      2.00000
      4     -13.2909      2.00000
      5     -12.7461      2.00000
      6      -8.3263      2.00000
      7      -8.0936      2.00000
      8      -7.6088      2.00000
      9      -7.3149      2.00000
     10      -7.0189      2.00000
     11      -6.8385      2.00000
     12      -6.6487      2.00000
     13      -6.4571      2.00000
     14      -5.4937      2.00000
     15      -5.2361      2.00000
     16      -4.8615      2.00000
     17      -4.5019      2.00000
     18      -4.2602      2.00000
     19      -4.1923      2.00000
     20      -3.8465      2.00000
     21      -3.6647      2.00000
     22      -3.5208      2.00000
     23      -3.3195      2.00000
     24      -2.8753      2.00000
     25      -1.0144      0.00000
     26      -0.7939      0.00000
     27      -0.1977      0.00000
     28       0.5523      0.00000
     29       0.6094      0.00000
     30       0.8090      0.00000
     31       1.0634      0.00000
     32       1.3475      0.00000

 k-point     7 :      -0.4000    0.3333    0.0000
  band No.  band energies     occupation 
      1     -15.1158      2.00000
      2     -14.5305      2.00000
      3     -13.3435      2.00000
      4     -13.2841      2.00000
      5     -12.7465      2.00000
      6      -8.3505      2.00000
      7      -8.0771      2.00000
      8      -7.5479      2.00000
      9      -7.2954      2.00000
     10      -7.1134      2.00000
     11      -6.8396      2.00000
     12      -6.6794      2.00000
     13      -6.4085      2.00000
     14      -5.5122      2.00000
     15      -5.2179      2.00000
     16      -4.8380      2.00000
     17      -4.5077      2.00000
     18      -4.2982      2.00000
     19      -4.1510      2.00000
     20      -3.8541      2.00000
     21      -3.6457      2.00000
     22      -3.5495      2.00000
     23      -3.3034      2.00000
     24      -2.8840      2.00000
     25      -1.2170      0.00000
     26      -0.4999      0.00000
     27      -0.1777      0.00000
     28       0.4604      0.00000
     29       0.6313      0.00000
     30       0.7405      0.00000
     31       1.0001      0.00000
     32       1.3316      0.00000

 k-point     8 :      -0.2000    0.3333    0.0000
  band No.  band energies     occupation 
      1     -15.1656      2.00000
      2     -14.6243      2.00000
      3     -13.6946      2.00000
      4     -12.9712      2.00000
      5     -12.0718      2.00000
      6      -8.6881      2.00000
      7      -8.4884      2.00000
      8      -8.1146      2.00000
      9      -7.7480      2.00000
     10      -7.4092      2.00000
     11      -7.1305      2.00000
     12      -6.4133      2.00000
     13      -5.7955      2.00000
     14      -5.2809      2.00000
     15      -4.7742      2.00000
     16      -4.6815      2.00000
     17      -4.3001      2.00000
     18      -3.9904      2.00000
     19      -3.7740      2.00000
     20      -3.6951      2.00000
     21      -3.6255      2.00000
     22      -3.5073      2.00000
     23      -3.0267      2.00000
     24      -2.7950      2.00000
     25      -1.4041      0.00000
     26      -0.5302      0.00000
     27      -0.3572      0.00000
     28      -0.1024      0.00000
     29       0.3567      0.00000
     30       0.5930      0.00000
     31       0.8076      0.00000
     32       0.9424      0.00000


--------------------------------------------------------------------------------------------------------


 soft charge-density along one line, spin component           1
         0         1         2         3         4         5         6         7         8         9
 total charge-density along one line

 pseudopotential strength for first ion, spin component:           1
  7.448 -17.450  -0.003   0.000   0.000   0.016  -0.000  -0.000
-17.450  50.480   0.008  -0.000  -0.000  -0.038   0.001   0.000
 -0.003   0.008   1.742   0.000  -0.000  -6.878  -0.002   0.000
  0.000  -0.000   0.000   1.745   0.000  -0.002  -6.895  -0.001
  0.000  -0.000  -0.000   0.000   1.743   0.000  -0.001  -6.881
  0.016  -0.038  -6.878  -0.002   0.000  29.276   0.010  -0.000
 -0.000   0.001  -0.002  -6.895  -0.001   0.010  29.348   0.002
 -0.000   0.000   0.000  -0.001  -6.881  -0.000   0.002  29.288
 -0.000   0.000   0.000   0.000  -0.002  -0.000  -0.000   0.007
  0.003  -0.003  -0.000  -0.002   0.000   0.000   0.006  -0.000
  0.009  -0.011   0.001  -0.000  -0.000  -0.002  -0.000   0.000
  0.001  -0.001   0.000  -0.000  -0.000  -0.000   0.000  -0.000
  0.002  -0.002   0.001   0.000  -0.000  -0.003  -0.000   0.000
  0.000  -0.000  -0.000  -0.000   0.007   0.000   0.000  -0.028
 -0.010   0.017   0.001   0.007  -0.000  -0.003  -0.028   0.000
 -0.036   0.064  -0.002   0.000   0.000   0.010  -0.000  -0.000
 -0.002   0.004  -0.000   0.000   0.000   0.000  -0.000  -0.001
 -0.006   0.011  -0.004  -0.000   0.000   0.017   0.001  -0.000
 total augmentation occupancy for first ion, spin component:           1
  1.400   0.017  -0.070   0.018   0.001   0.004  -0.000  -0.000  -0.002  -0.029  -0.087  -0.004  -0.028  -0.000  -0.001  -0.005
  0.017   0.000   0.009  -0.001  -0.000   0.000  -0.000  -0.000  -0.000  -0.001  -0.002  -0.000   0.000  -0.000  -0.000  -0.000
 -0.070   0.009   1.298  -0.132  -0.003   0.018  -0.002  -0.000  -0.001   0.004  -0.075  -0.007   0.050  -0.000  -0.000  -0.003
  0.018  -0.001  -0.132   0.400  -0.026  -0.002   0.005  -0.000  -0.008   0.052  -0.003   0.001  -0.018  -0.000   0.001   0.000
  0.001  -0.000  -0.003  -0.026   1.080  -0.000  -0.000   0.017   0.221  -0.007   0.002  -0.032  -0.000   0.007  -0.000   0.000
  0.004   0.000   0.018  -0.002  -0.000   0.000  -0.000  -0.000  -0.000  -0.000  -0.001  -0.000   0.000  -0.000  -0.000  -0.000
 -0.000  -0.000  -0.002   0.005  -0.000  -0.000   0.000  -0.000  -0.000   0.001   0.000   0.000  -0.000  -0.000   0.000   0.000
 -0.000  -0.000  -0.000  -0.000   0.017  -0.000  -0.000   0.000   0.004  -0.000   0.000  -0.001  -0.000   0.000  -0.000   0.000
 -0.002  -0.000  -0.001  -0.008   0.221  -0.000  -0.000   0.004   0.063  -0.002   0.000  -0.007   0.000   0.002  -0.000   0.000
 -0.029  -0.001   0.004   0.052  -0.007  -0.000   0.001  -0.000  -0.002   0.011  -0.001   0.000   0.004  -0.000   0.000   0.000
 -0.087  -0.002  -0.075  -0.003   0.002  -0.001   0.000   0.000   0.000  -0.001   0.013  -0.000  -0.004   0.000   0.000   0.001
 -0.004  -0.000  -0.007   0.001  -0.032  -0.000   0.000  -0.001  -0.007   0.000  -0.000   0.020  -0.001  -0.000   0.000   0.000
 -0.028   0.000   0.050  -0.018  -0.000   0.000  -0.000  -0.000   0.000   0.004  -0.004  -0.001   0.038   0.000   0.000  -0.000
 -0.000  -0.000  -0.000  -0.000   0.007  -0.000  -0.000   0.000   0.002  -0.000   0.000  -0.000   0.000   0.000  -0.000   0.000
 -0.001  -0.000  -0.000   0.001  -0.000  -0.000   0.000  -0.000  -0.000   0.000   0.000   0.000   0.000  -0.000   0.000   0.000
 -0.005  -0.000  -0.003   0.000   0.000  -0.000   0.000   0.000   0.000   0.000   0.001   0.000  -0.000   0.000   0.000   0.000
 -0.000  -0.000  -0.000   0.000  -0.001  -0.000   0.000  -0.000  -0.000   0.000   0.000   0.000  -0.000  -0.000   0.000   0.000
 -0.001   0.000   0.000  -0.000  -0.000  -0.000  -0.000  -0.000   0.000   0.000  -0.000  -0.000   0.001   0.000   0.000  -0.000


------------------------ aborting loop because EDIFF is reached ----------------------------------------


    CHARGE:  cpu time    2.0702: real time    2.0706
    FORLOC:  cpu time    0.3255: real time    0.3256
    FORNL :  cpu time    9.2402: real time    9.2429
    STRESS:  cpu time   28.0513: real time   28.0563
    FORCOR:  cpu time    2.1989: real time    2.1991
    FORHAR:  cpu time    0.8587: real time    0.8589
    MIXING:  cpu time    0.0504: real time    0.0504
    OFIELD:  cpu time    0.0001: real time    0.0001

  FORCE on cell =-STRESS in cart. coord.  units (eV):
  Direction    XX          YY          ZZ          XY          YZ          ZX
  --------------------------------------------------------------------------------------
  Alpha Z    14.13034    14.13034    14.13034
  Ewald    2473.28097  2059.88426 -3023.29897    -6.94514    64.51889     6.10305
  Hartree  2512.58554  2216.43217 -2040.46967     4.23006    37.19866     5.64478
  E(xc)    -153.82823  -154.92289  -154.46541    -0.08723     0.08588    -0.03132
  Local   -5480.59494 -4781.05722  4580.09294    -4.91430   -99.60775   -15.40048
  n-local   195.42112   207.53610   169.32692     0.42068     0.23579     0.52776
  augment   -24.03244   -25.09976   -22.75294    -0.52670     0.14892    -0.22475
  Kinetic   464.22338   460.43904   476.76683     8.15403    -2.40807     3.68923
  Fock        0.00000     0.00000     0.00000     0.00000     0.00000     0.00000
  -------------------------------------------------------------------------------------
  Total       1.18574    -2.65796    -0.66996     0.33139     0.17232     0.30827
  in kB       2.07506    -4.65147    -1.17244     0.57994     0.30157     0.53948
  external pressure =       -1.25 kB  Pullay stress =        0.00 kB


 VOLUME and BASIS-vectors are now :
 -----------------------------------------------------------------------------
  energy-cutoff  :      450.00
  volume of cell :      915.52
      direct lattice vectors                 reciprocal lattice vectors
     6.019200000  0.000000000  0.000000000     0.166135035  0.000000000  0.000000000
     0.000000000 10.140000000  0.000000000     0.000000000  0.098619329  0.000000000
     0.000000000  0.000000000 15.000000000     0.000000000  0.000000000  0.066666667

  length of vectors
     6.019200000 10.140000000 15.000000000     0.166135035  0.098619329  0.066666667


 FORCES acting on ions
    electron-ion (+dipol)            ewald-force                    non-local-force                 convergence-correction
 -----------------------------------------------------------------------------------------------
   0.119E+01 0.362E+02 0.156E+02   -.119E+01 -.347E+02 -.155E+02   -.105E-01 -.154E+01 -.316E-01   0.162E-04 -.485E-05 -.140E-04
   -.123E+01 0.438E+02 0.334E+02   0.122E+01 -.404E+02 -.329E+02   0.349E-03 -.342E+01 -.478E+00   -.589E-04 -.838E-04 -.321E-05
   0.496E+01 -.387E+02 0.607E+01   -.401E+01 0.387E+02 -.612E+01   -.962E+00 0.847E-02 0.526E-01   0.852E-04 0.127E-03 -.618E-04
   -.821E+01 -.466E+02 0.359E+02   0.664E+01 0.452E+02 -.359E+02   0.156E+01 0.139E+01 -.381E-02   -.198E-04 0.453E-04 -.123E-03
   0.597E+01 0.551E+02 0.455E+02   -.435E+01 -.534E+02 -.444E+02   -.163E+01 -.177E+01 -.101E+01   0.377E-04 -.260E-04 -.169E-03
   -.333E+01 0.579E+02 0.150E+02   0.181E+01 -.561E+02 -.153E+02   0.151E+01 -.175E+01 0.259E+00   -.632E-04 -.177E-04 -.177E-03
   0.743E+00 -.524E+02 0.363E+02   -.697E+00 0.486E+02 -.353E+02   -.522E-01 0.380E+01 -.953E+00   0.514E-05 -.227E-04 -.164E-04
   -.487E+00 -.512E+02 0.106E+02   0.390E+00 0.477E+02 -.107E+02   0.895E-01 0.350E+01 0.557E-01   -.555E-04 0.477E-04 -.279E-04
   0.744E-01 -.742E+01 0.238E+02   0.261E+00 0.716E+01 -.237E+02   -.343E+00 0.257E+00 -.931E-01   0.584E-03 -.489E-05 -.749E-04
   0.492E-01 -.635E+01 0.412E+02   -.363E+00 0.603E+01 -.418E+02   0.306E+00 0.316E+00 0.620E+00   0.466E-05 -.529E-04 0.702E-04
   0.523E+01 0.133E+02 0.161E+02   -.417E+01 -.120E+02 -.210E+02   -.107E+01 -.134E+01 0.499E+01   -.580E-04 0.328E-03 -.206E-02
   -.795E+00 0.740E+01 0.651E+02   0.211E+00 -.673E+01 -.661E+02   0.577E+00 -.667E+00 0.107E+01   0.561E-04 0.161E-04 -.148E-03
   -.400E+02 -.223E+00 -.230E+03   0.465E+02 -.428E+01 0.232E+03   -.647E+01 0.453E+01 -.148E+01   0.255E-04 0.273E-03 0.253E-03
   0.329E+02 -.269E+02 -.448E+02   -.362E+02 0.292E+02 0.457E+02   0.338E+01 -.224E+01 -.923E+00   0.106E-03 -.340E-04 0.147E-04
   0.592E+01 0.143E+02 -.665E+02   -.603E+01 -.149E+02 0.714E+02   0.883E-01 0.551E+00 -.489E+01   -.232E-04 -.183E-04 0.275E-03
 -----------------------------------------------------------------------------------------------
   0.302E+01 -.164E+01 0.283E+01   0.355E-14 0.142E-13 -.568E-13   -.302E+01 0.164E+01 -.282E+01   0.642E-03 0.573E-03 -.226E-02


 POSITION                                       TOTAL-FORCE (eV/Angst)
 -----------------------------------------------------------------------------------
      2.59863      8.86590      3.78436        -0.008418     -0.005512     -0.012615
      5.61214      8.89357      3.56829        -0.007376     -0.004192      0.015343
      2.69919      6.34070      4.50181        -0.007077     -0.002998     -0.002609
      5.60819      6.31303      3.87024        -0.008064     -0.001409      0.019443
      2.62218      3.84641      3.71418        -0.005742     -0.005420      0.011044
      5.52477      3.77587      3.94949        -0.006980     -0.003655     -0.020645
      2.59952      1.20819      3.47476        -0.006439     -0.003488      0.007565
      5.59648      1.20391      3.69616        -0.007578     -0.002290     -0.021805
      1.09547     10.13228      3.64754        -0.007198     -0.002978     -0.001264
      4.09892     10.12069      3.53401        -0.007400     -0.004539     -0.004581
      1.07888      5.00042      4.34169        -0.007291     -0.005532      0.011499
      4.10665      5.07569      3.76830        -0.007215     -0.002686     -0.004997
      3.07605      6.48736      6.75641         0.048921      0.026046     -0.013384
      1.96956      7.22063      7.04143         0.065904      0.045557      0.005280
      1.03842      4.85731      5.44982        -0.028047     -0.026905      0.011727
 -----------------------------------------------------------------------------------
    total drift:                                0.000516      0.000916      0.003691


--------------------------------------------------------------------------------------------------------



  FREE ENERGIE OF THE ION-ELECTRON SYSTEM (eV)
  ---------------------------------------------------
  free  energy   TOTEN  =       -72.73358224 eV

  energy  without entropy=      -72.73358224  energy(sigma->0) =      -72.73358224

 d Force =-0.2232207E-05[-0.248E-05,-0.199E-05]  d Energy =-0.1794139E-05-0.438E-06
 d Force =-0.4167616E-02[-0.417E-02,-0.417E-02]  d Ewald  =-0.4167616E-02-0.321E-10


--------------------------------------------------------------------------------------------------------


    POTLOK:  cpu time    2.1984: real time    2.1987


--------------------------------------------------------------------------------------------------------


 NEB: the previous image is higher in energy: T
 NEB: the next image is higher in energy    : F
 NEB: only prev energy greater

 NEB: Tangent
 ----------------------------------------------
     -0.07116     -0.04644     -0.10530
     -0.06269     -0.03528      0.12961
     -0.06047     -0.02505     -0.02354
     -0.06782     -0.01137      0.16376
     -0.04795     -0.04629      0.09251
     -0.05681     -0.03048     -0.17612
     -0.05419     -0.02880      0.06430
     -0.06387     -0.01858     -0.18497
     -0.06268     -0.02494     -0.01082
     -0.06316     -0.03771     -0.03644
     -0.06175     -0.04770      0.10735
     -0.06069     -0.02298     -0.04134
      0.41191      0.21299     -0.11321
      0.55166      0.38513      0.04585
     -0.23206     -0.22341      0.08549

 NEB: forces: par spring, perp REAL, dneb     0.000671    0.002337    0.000000
 NEB: distance to prev, next image, angle between     0.525901    0.526035  162.055590
 NEB: projections on to tangent (spring, REAL)     0.000671    0.119160

 stress matrix after NEB project (eV)
      1.18574      0.33139      0.30827
      0.33139     -2.65796      0.17232
      0.30827      0.17232     -0.66996
  FORCES: max atom, RMS     0.001745    0.000628
  FORCE total and by dimension    0.002431    0.001598
  Stress total and by dimension    3.064090    2.657958
 Quasi-Newton relaxation of ions (Broydens 2nd method)
  g(Force)  = 0.890E-04   g(Stress)= 0.000E+00

 retain information from N=  1 steps
 eigenvalues of (default step * inverse Hessian matrix)
  average eigenvalue of G=   1.9086
 eigenvalue spectrum of G is  1.9086


--------------------------------------------------------------------------------------------------------


    WAVPRE:  cpu time   35.9091: real time   37.0867
    FEWALD:  cpu time    0.0028: real time    0.0028
    ORTHCH:  cpu time    3.5134: real time    3.5299
     LOOP+:  cpu time  153.1569: real time  155.9017


--------------------------------------- Iteration      3(   1)  ---------------------------------------


    POTLOK:  cpu time    2.3215: real time    2.3237
    SETDIJ:  cpu time    0.0492: real time    0.0492
     EDDAV:  cpu time   33.3828: real time   33.4138
       DOS:  cpu time    0.0005: real time    0.0005
    CHARGE:  cpu time    2.0658: real time    2.0700
    MIXING:  cpu time    0.0515: real time    0.0515
    --------------------------------------------
      LOOP:  cpu time   37.8714: real time   37.9088

 eigenvalue-minimisations  :   600
 total energy-change (2. order) :-0.4668290E-05  (-0.2595615E-05)
 number of electron      47.9999999 magnetization 
 augmentation part       -0.7400616 magnetization 

 Broyden mixing:
  rms(total) = 0.95224E-04    rms(broyden)= 0.95066E-04
  rms(prec ) = 0.11304E-03
  weight for this iteration     100.00

 Free energy of the ion-electron system (eV)
  ---------------------------------------------------
  alpha Z        PSCENC =        14.13034224
  Ewald energy   TEWEN  =      1509.86061214
  -Hartree energ DENC   =     -2688.54157449
  -exchange      EXHF   =         0.00000000
  -V(xc)+E(xc)   XCENC  =      -140.24531981
  PAW double counting   =      1751.83697349    -1494.33392054
  entropy T*S    EENTRO =        -0.00000000
  eigenvalues    EBANDS =      -344.08259256
  atomic energy  EATOM  =      1318.64189276
  Solvation  Ediel_sol  =         0.00000000
  ---------------------------------------------------
  free energy    TOTEN  =       -72.73358678 eV

  energy without entropy =      -72.73358678  energy(sigma->0) =      -72.73358678


--------------------------------------------------------------------------------------------------------




--------------------------------------- Iteration      3(   2)  ---------------------------------------


    POTLOK:  cpu time    2.4823: real time    2.4857
    SETDIJ:  cpu time    0.0631: real time    0.0631
     EDDAV:  cpu time   28.3376: real time   28.3806
       DOS:  cpu time    0.0005: real time    0.0005
    --------------------------------------------
      LOOP:  cpu time   30.8836: real time   30.9299

 eigenvalue-minimisations  :   480
 total energy-change (2. order) :-0.1670912E-06  (-0.1173546E-06)
 number of electron      47.9999999 magnetization 
 augmentation part       -0.7400616 magnetization 

 Free energy of the ion-electron system (eV)
  ---------------------------------------------------
  alpha Z        PSCENC =        14.13034224
  Ewald energy   TEWEN  =      1509.86061214
  -Hartree energ DENC   =     -2688.54076921
  -exchange      EXHF   =         0.00000000
  -V(xc)+E(xc)   XCENC  =      -140.24537211
  PAW double counting   =      1751.83231436    -1494.32925557
  entropy T*S    EENTRO =        -0.00000000
  eigenvalues    EBANDS =      -344.08335155
  atomic energy  EATOM  =      1318.64189276
  Solvation  Ediel_sol  =         0.00000000
  ---------------------------------------------------
  free energy    TOTEN  =       -72.73358695 eV

  energy without entropy =      -72.73358695  energy(sigma->0) =      -72.73358695


--------------------------------------------------------------------------------------------------------




 average (electrostatic) potential at core
  the test charge radii are     1.0406  0.6991  1.0339  0.5883
  (the norm of the test charge is              1.0000)
       1 -59.2045       2 -59.4262       3 -59.3832       4 -59.8960       5 -59.8027
       6 -59.7864       7 -59.4025       8 -59.3704       9 -55.2678      10 -55.2358
      11 -56.0156      12 -55.6561      13 -96.4496      14 -38.0631      15 -38.1612



 E-fermi :  -2.0701     XC(G=0):  -3.2229     alpha+bet : -2.6874


 k-point     1 :       0.0000    0.0000    0.0000
  band No.  band energies     occupation 
      1     -15.1986      2.00000
      2     -14.6639      2.00000
      3     -13.8159      2.00000
      4     -12.7649      2.00000
      5     -11.6897      2.00000
      6      -8.9926      2.00000
      7      -8.8903      2.00000
      8      -8.6532      2.00000
      9      -7.6185      2.00000
     10      -7.3461      2.00000
     11      -6.7558      2.00000
     12      -6.2615      2.00000
     13      -5.8874      2.00000
     14      -5.2872      2.00000
     15      -5.0852      2.00000
     16      -4.7594      2.00000
     17      -4.3514      2.00000
     18      -3.9971      2.00000
     19      -3.9186      2.00000
     20      -3.3635      2.00000
     21      -3.2041      2.00000
     22      -2.9545      2.00000
     23      -2.5216      2.00000
     24      -2.3323      2.00000
     25      -1.6230      0.00000
     26      -1.1590      0.00000
     27      -0.4206      0.00000
     28      -0.0960      0.00000
     29      -0.0105      0.00000
     30       0.4556      0.00000
     31       0.6058      0.00000
     32       0.8109      0.00000

 k-point     2 :       0.2000    0.0000    0.0000
  band No.  band energies     occupation 
      1     -15.1662      2.00000
      2     -14.6248      2.00000
      3     -13.6919      2.00000
      4     -12.9694      2.00000
      5     -12.0698      2.00000
      6      -8.7534      2.00000
      7      -8.6709      2.00000
      8      -8.0917      2.00000
      9      -7.5063      2.00000
     10      -7.3115      2.00000
     11      -6.6795      2.00000
     12      -6.6002      2.00000
     13      -6.1434      2.00000
     14      -5.3507      2.00000
     15      -5.0141      2.00000
     16      -4.6517      2.00000
     17      -4.3991      2.00000
     18      -4.0961      2.00000
     19      -3.7397      2.00000
     20      -3.6766      2.00000
     21      -3.6206      2.00000
     22      -3.4140      2.00000
     23      -2.8066      2.00000
     24      -2.5142      2.00000
     25      -1.5288      0.00000
     26      -0.4592      0.00000
     27      -0.3324      0.00000
     28       0.0101      0.00000
     29       0.2368      0.00000
     30       0.7007      0.00000
     31       0.7545      0.00000
     32       0.9115      0.00000

 k-point     3 :       0.4000    0.0000    0.0000
  band No.  band energies     occupation 
      1     -15.1161      2.00000
      2     -14.5307      2.00000
      3     -13.3598      2.00000
      4     -13.2666      2.00000
      5     -12.7416      2.00000
      6      -8.3582      2.00000
      7      -8.2613      2.00000
      8      -7.6918      2.00000
      9      -7.3053      2.00000
     10      -6.8648      2.00000
     11      -6.6956      2.00000
     12      -6.3507      2.00000
     13      -5.9399      2.00000
     14      -5.8304      2.00000
     15      -5.3573      2.00000
     16      -5.0926      2.00000
     17      -5.0158      2.00000
     18      -4.4492      2.00000
     19      -4.2436      2.00000
     20      -3.8275      2.00000
     21      -3.6914      2.00000
     22      -3.4998      2.00000
     23      -3.0086      2.00000
     24      -2.5401      2.00000
     25      -1.2026      0.00000
     26      -0.7067      0.00000
     27      -0.1781      0.00000
     28       0.6029      0.00000
     29       0.8370      0.00000
     30       1.1916      0.00000
     31       1.2756      0.00000
     32       1.3359      0.00000

 k-point     4 :       0.0000    0.3333    0.0000
  band No.  band energies     occupation 
      1     -15.1978      2.00000
      2     -14.6633      2.00000
      3     -13.8194      2.00000
      4     -12.7668      2.00000
      5     -11.6906      2.00000
      6      -8.9561      2.00000
      7      -8.7055      2.00000
      8      -8.6297      2.00000
      9      -7.9356      2.00000
     10      -7.4646      2.00000
     11      -7.1578      2.00000
     12      -5.7636      2.00000
     13      -5.4391      2.00000
     14      -5.2809      2.00000
     15      -4.9636      2.00000
     16      -4.7861      2.00000
     17      -4.2862      2.00000
     18      -4.0287      2.00000
     19      -3.9043      2.00000
     20      -3.6850      2.00000
     21      -3.3492      2.00000
     22      -3.0663      2.00000
     23      -2.9548      2.00000
     24      -2.3296      2.00000
     25      -1.4136      0.00000
     26      -0.7886      0.00000
     27      -0.5899      0.00000
     28      -0.1401      0.00000
     29       0.3743      0.00000
     30       0.4639      0.00000
     31       0.6182      0.00000
     32       0.7581      0.00000

 k-point     5 :       0.2000    0.3333    0.0000
  band No.  band energies     occupation 
      1     -15.1656      2.00000
      2     -14.6242      2.00000
      3     -13.6942      2.00000
      4     -12.9715      2.00000
      5     -12.0716      2.00000
      6      -8.6768      2.00000
      7      -8.4798      2.00000
      8      -8.1224      2.00000
      9      -7.8313      2.00000
     10      -7.3002      2.00000
     11      -7.1704      2.00000
     12      -6.3911      2.00000
     13      -5.7919      2.00000
     14      -5.2950      2.00000
     15      -4.7943      2.00000
     16      -4.6500      2.00000
     17      -4.3462      2.00000
     18      -3.9687      2.00000
     19      -3.7926      2.00000
     20      -3.6951      2.00000
     21      -3.6333      2.00000
     22      -3.5266      2.00000
     23      -2.9908      2.00000
     24      -2.7900      2.00000
     25      -1.2287      0.00000
     26      -0.7912      0.00000
     27      -0.3547      0.00000
     28      -0.0726      0.00000
     29       0.3779      0.00000
     30       0.6574      0.00000
     31       0.7606      0.00000
     32       0.9537      0.00000

 k-point     6 :       0.4000    0.3333    0.0000
  band No.  band energies     occupation 
      1     -15.1159      2.00000
      2     -14.5301      2.00000
      3     -13.3370      2.00000
      4     -13.2908      2.00000
      5     -12.7461      2.00000
      6      -8.3258      2.00000
      7      -8.0936      2.00000
      8      -7.6089      2.00000
      9      -7.3148      2.00000
     10      -7.0189      2.00000
     11      -6.8385      2.00000
     12      -6.6487      2.00000
     13      -6.4571      2.00000
     14      -5.4937      2.00000
     15      -5.2361      2.00000
     16      -4.8615      2.00000
     17      -4.5019      2.00000
     18      -4.2602      2.00000
     19      -4.1923      2.00000
     20      -3.8465      2.00000
     21      -3.6647      2.00000
     22      -3.5208      2.00000
     23      -3.3194      2.00000
     24      -2.8752      2.00000
     25      -1.0143      0.00000
     26      -0.7939      0.00000
     27      -0.1977      0.00000
     28       0.5523      0.00000
     29       0.6094      0.00000
     30       0.8090      0.00000
     31       1.0634      0.00000
     32       1.3475      0.00000

 k-point     7 :      -0.4000    0.3333    0.0000
  band No.  band energies     occupation 
      1     -15.1159      2.00000
      2     -14.5300      2.00000
      3     -13.3435      2.00000
      4     -13.2840      2.00000
      5     -12.7465      2.00000
      6      -8.3500      2.00000
      7      -8.0771      2.00000
      8      -7.5480      2.00000
      9      -7.2954      2.00000
     10      -7.1135      2.00000
     11      -6.8396      2.00000
     12      -6.6793      2.00000
     13      -6.4085      2.00000
     14      -5.5123      2.00000
     15      -5.2179      2.00000
     16      -4.8381      2.00000
     17      -4.5076      2.00000
     18      -4.2982      2.00000
     19      -4.1510      2.00000
     20      -3.8541      2.00000
     21      -3.6457      2.00000
     22      -3.5495      2.00000
     23      -3.3034      2.00000
     24      -2.8840      2.00000
     25      -1.2170      0.00000
     26      -0.4999      0.00000
     27      -0.1776      0.00000
     28       0.4604      0.00000
     29       0.6313      0.00000
     30       0.7405      0.00000
     31       1.0001      0.00000
     32       1.3316      0.00000

 k-point     8 :      -0.2000    0.3333    0.0000
  band No.  band energies     occupation 
      1     -15.1657      2.00000
      2     -14.6240      2.00000
      3     -13.6946      2.00000
      4     -12.9710      2.00000
      5     -12.0718      2.00000
      6      -8.6879      2.00000
      7      -8.4884      2.00000
      8      -8.1146      2.00000
      9      -7.7480      2.00000
     10      -7.4092      2.00000
     11      -7.1304      2.00000
     12      -6.4132      2.00000
     13      -5.7955      2.00000
     14      -5.2810      2.00000
     15      -4.7742      2.00000
     16      -4.6815      2.00000
     17      -4.3001      2.00000
     18      -3.9904      2.00000
     19      -3.7740      2.00000
     20      -3.6951      2.00000
     21      -3.6255      2.00000
     22      -3.5073      2.00000
     23      -3.0266      2.00000
     24      -2.7950      2.00000
     25      -1.4041      0.00000
     26      -0.5302      0.00000
     27      -0.3572      0.00000
     28      -0.1023      0.00000
     29       0.3568      0.00000
     30       0.5930      0.00000
     31       0.8077      0.00000
     32       0.9423      0.00000


--------------------------------------------------------------------------------------------------------


 soft charge-density along one line, spin component           1
         0         1         2         3         4         5         6         7         8         9
 total charge-density along one line

 pseudopotential strength for first ion, spin component:           1
  7.448 -17.450  -0.003   0.000   0.000   0.016  -0.000  -0.000
-17.450  50.480   0.008  -0.000  -0.000  -0.038   0.001   0.000
 -0.003   0.008   1.742   0.000  -0.000  -6.878  -0.002   0.000
  0.000  -0.000   0.000   1.745   0.000  -0.002  -6.895  -0.001
  0.000  -0.000  -0.000   0.000   1.743   0.000  -0.001  -6.881
  0.016  -0.038  -6.878  -0.002   0.000  29.276   0.010  -0.000
 -0.000   0.001  -0.002  -6.895  -0.001   0.010  29.348   0.002
 -0.000   0.000   0.000  -0.001  -6.881  -0.000   0.002  29.288
 -0.000   0.000   0.000   0.000  -0.002  -0.000  -0.000   0.007
  0.003  -0.003  -0.000  -0.002   0.000   0.000   0.006  -0.000
  0.009  -0.011   0.001  -0.000  -0.000  -0.002  -0.000   0.000
  0.001  -0.001   0.000  -0.000  -0.000  -0.000   0.000  -0.000
  0.002  -0.002   0.001   0.000  -0.000  -0.003  -0.000   0.000
  0.000  -0.000  -0.000  -0.000   0.007   0.000   0.000  -0.028
 -0.010   0.017   0.001   0.007  -0.000  -0.003  -0.028   0.000
 -0.036   0.064  -0.002   0.000   0.000   0.010  -0.000  -0.000
 -0.002   0.004  -0.000   0.000   0.000   0.000  -0.000  -0.001
 -0.006   0.011  -0.004  -0.000   0.000   0.017   0.001  -0.000
 total augmentation occupancy for first ion, spin component:           1
  1.400   0.017  -0.070   0.018   0.001   0.004  -0.000  -0.000  -0.002  -0.029  -0.087  -0.004  -0.028  -0.000  -0.001  -0.005
  0.017   0.000   0.009  -0.001  -0.000   0.000  -0.000  -0.000  -0.000  -0.001  -0.002  -0.000   0.000  -0.000  -0.000  -0.000
 -0.070   0.009   1.298  -0.132  -0.003   0.018  -0.002  -0.000  -0.001   0.004  -0.075  -0.007   0.050  -0.000  -0.000  -0.003
  0.018  -0.001  -0.132   0.400  -0.026  -0.002   0.005  -0.000  -0.008   0.052  -0.003   0.001  -0.018  -0.000   0.001   0.000
  0.001  -0.000  -0.003  -0.026   1.080  -0.000  -0.000   0.017   0.221  -0.007   0.002  -0.032  -0.000   0.007  -0.000   0.000
  0.004   0.000   0.018  -0.002  -0.000   0.000  -0.000  -0.000  -0.000  -0.000  -0.001  -0.000   0.000  -0.000  -0.000  -0.000
 -0.000  -0.000  -0.002   0.005  -0.000  -0.000   0.000  -0.000  -0.000   0.001   0.000   0.000  -0.000  -0.000   0.000   0.000
 -0.000  -0.000  -0.000  -0.000   0.017  -0.000  -0.000   0.000   0.004  -0.000   0.000  -0.001  -0.000   0.000  -0.000   0.000
 -0.002  -0.000  -0.001  -0.008   0.221  -0.000  -0.000   0.004   0.063  -0.002   0.000  -0.007   0.000   0.002  -0.000   0.000
 -0.029  -0.001   0.004   0.052  -0.007  -0.000   0.001  -0.000  -0.002   0.011  -0.001   0.000   0.004  -0.000   0.000   0.000
 -0.087  -0.002  -0.075  -0.003   0.002  -0.001   0.000   0.000   0.000  -0.001   0.013  -0.000  -0.004   0.000   0.000   0.001
 -0.004  -0.000  -0.007   0.001  -0.032  -0.000   0.000  -0.001  -0.007   0.000  -0.000   0.020  -0.001  -0.000   0.000   0.000
 -0.028   0.000   0.050  -0.018  -0.000   0.000  -0.000  -0.000   0.000   0.004  -0.004  -0.001   0.038   0.000   0.000  -0.000
 -0.000  -0.000  -0.000  -0.000   0.007  -0.000  -0.000   0.000   0.002  -0.000   0.000  -0.000   0.000   0.000  -0.000   0.000
 -0.001  -0.000  -0.000   0.001  -0.000  -0.000   0.000  -0.000  -0.000   0.000   0.000   0.000   0.000  -0.000   0.000   0.000
 -0.005  -0.000  -0.003   0.000   0.000  -0.000   0.000   0.000   0.000   0.000   0.001   0.000  -0.000   0.000   0.000   0.000
 -0.000  -0.000  -0.000   0.000  -0.001  -0.000   0.000  -0.000  -0.000   0.000   0.000   0.000  -0.000  -0.000   0.000   0.000
 -0.001   0.000   0.000  -0.000  -0.000  -0.000  -0.000  -0.000   0.000   0.000  -0.000  -0.000   0.001   0.000   0.000  -0.000


------------------------ aborting loop because EDIFF is reached ----------------------------------------


    CHARGE:  cpu time    2.1603: real time    2.1620
    FORLOC:  cpu time    0.3700: real time    0.3704
    FORNL :  cpu time    9.3446: real time    9.3581
    STRESS:  cpu time   28.2837: real time   28.2964
    FORCOR:  cpu time    2.2771: real time    2.2773
    FORHAR:  cpu time    0.8795: real time    0.8802
    MIXING:  cpu time    0.0462: real time    0.0462
    OFIELD:  cpu time    0.0000: real time    0.0000

  FORCE on cell =-STRESS in cart. coord.  units (eV):
  Direction    XX          YY          ZZ          XY          YZ          ZX
  --------------------------------------------------------------------------------------
  Alpha Z    14.13034    14.13034    14.13034
  Ewald    2473.28282  2059.88343 -3023.30714    -6.94842    64.51953     6.10034
  Hartree  2512.57922  2216.42966 -2040.46982     4.22900    37.19682     5.64324
  E(xc)    -153.82819  -154.92281  -154.46526    -0.08718     0.08587    -0.03131
  Local   -5480.58970 -4781.05462  4580.09778    -4.90979   -99.60585   -15.39635
  n-local   195.42431   207.53872   169.32942     0.42000     0.23585     0.52758
  augment   -24.03266   -25.09999   -22.75309    -0.52665     0.14892    -0.22474
  Kinetic   464.22072   460.43693   476.76388     8.15384    -2.40831     3.68954
  Fock        0.00000     0.00000     0.00000     0.00000     0.00000     0.00000
  -------------------------------------------------------------------------------------
  Total       1.18687    -2.65834    -0.67388     0.33080     0.17282     0.30831
  in kB       2.07704    -4.65215    -1.17931     0.57890     0.30245     0.53955
  external pressure =       -1.25 kB  Pullay stress =        0.00 kB


 VOLUME and BASIS-vectors are now :
 -----------------------------------------------------------------------------
  energy-cutoff  :      450.00
  volume of cell :      915.52
      direct lattice vectors                 reciprocal lattice vectors
     6.019200000  0.000000000  0.000000000     0.166135035  0.000000000  0.000000000
     0.000000000 10.140000000  0.000000000     0.000000000  0.098619329  0.000000000
     0.000000000  0.000000000 15.000000000     0.000000000  0.000000000  0.066666667

  length of vectors
     6.019200000 10.140000000 15.000000000     0.166135035  0.098619329  0.066666667


 FORCES acting on ions
    electron-ion (+dipol)            ewald-force                    non-local-force                 convergence-correction
 -----------------------------------------------------------------------------------------------
   0.119E+01 0.362E+02 0.156E+02   -.119E+01 -.347E+02 -.155E+02   -.104E-01 -.154E+01 -.316E-01   0.257E-05 -.661E-06 0.855E-04
   -.123E+01 0.438E+02 0.334E+02   0.122E+01 -.404E+02 -.329E+02   0.543E-03 -.342E+01 -.478E+00   0.125E-04 0.264E-04 0.890E-04
   0.496E+01 -.387E+02 0.606E+01   -.401E+01 0.387E+02 -.612E+01   -.962E+00 0.847E-02 0.528E-01   -.218E-03 -.241E-03 0.231E-03
   -.821E+01 -.466E+02 0.359E+02   0.664E+01 0.452E+02 -.359E+02   0.156E+01 0.139E+01 -.367E-02   0.153E-03 -.143E-03 0.311E-03
   0.597E+01 0.551E+02 0.455E+02   -.435E+01 -.534E+02 -.444E+02   -.163E+01 -.177E+01 -.101E+01   -.159E-03 0.759E-04 0.312E-03
   -.333E+01 0.579E+02 0.150E+02   0.181E+01 -.561E+02 -.153E+02   0.151E+01 -.175E+01 0.260E+00   0.189E-03 0.990E-04 0.296E-03
   0.742E+00 -.524E+02 0.363E+02   -.697E+00 0.486E+02 -.353E+02   -.519E-01 0.380E+01 -.953E+00   0.421E-05 0.533E-04 0.789E-04
   -.488E+00 -.512E+02 0.106E+02   0.390E+00 0.477E+02 -.107E+02   0.898E-01 0.350E+01 0.558E-01   0.789E-05 0.306E-04 0.784E-04
   0.767E-01 -.742E+01 0.238E+02   0.260E+00 0.716E+01 -.237E+02   -.344E+00 0.257E+00 -.931E-01   -.230E-03 0.875E-04 0.630E-04
   0.491E-01 -.635E+01 0.412E+02   -.363E+00 0.603E+01 -.418E+02   0.306E+00 0.316E+00 0.620E+00   0.391E-04 0.123E-03 0.345E-03
   0.522E+01 0.133E+02 0.161E+02   -.417E+01 -.120E+02 -.210E+02   -.107E+01 -.134E+01 0.500E+01   -.135E-04 -.212E-03 0.244E-02
   -.795E+00 0.740E+01 0.651E+02   0.211E+00 -.673E+01 -.661E+02   0.577E+00 -.667E+00 0.107E+01   0.242E-04 -.693E-04 0.395E-03
   -.400E+02 -.223E+00 -.230E+03   0.465E+02 -.428E+01 0.232E+03   -.647E+01 0.453E+01 -.148E+01   0.121E-04 -.605E-03 -.622E-04
   0.329E+02 -.269E+02 -.448E+02   -.362E+02 0.292E+02 0.457E+02   0.338E+01 -.224E+01 -.923E+00   -.139E-03 -.180E-04 0.410E-04
   0.592E+01 0.143E+02 -.665E+02   -.603E+01 -.149E+02 0.714E+02   0.883E-01 0.551E+00 -.489E+01   0.504E-04 0.901E-04 -.435E-03
 -----------------------------------------------------------------------------------------------
   0.302E+01 -.164E+01 0.282E+01   0.888E-14 -.178E-14 -.853E-13   -.301E+01 0.164E+01 -.282E+01   -.264E-03 -.704E-03 0.427E-02


 POSITION                                       TOTAL-FORCE (eV/Angst)
 -----------------------------------------------------------------------------------
      2.59863      8.86590      3.78436        -0.008379     -0.005573     -0.012487
      5.61214      8.89357      3.56829        -0.007348     -0.004246      0.015454
      2.69920      6.34070      4.50182        -0.007112     -0.002938     -0.002667
      5.60819      6.31303      3.87024        -0.008093     -0.001302      0.019408
      2.62218      3.84641      3.71418        -0.005652     -0.005504      0.011018
      5.52475      3.77587      3.94951        -0.006912     -0.003650     -0.020639
      2.59952      1.20819      3.47475        -0.006352     -0.003362      0.007694
      5.59648      1.20391      3.69617        -0.007533     -0.002202     -0.021660
      1.09549     10.13228      3.64754        -0.007602     -0.002980     -0.001193
      4.09892     10.12069      3.53399        -0.007638     -0.004489     -0.004489
      1.07888      5.00043      4.34162        -0.007421     -0.005854      0.014709
      4.10665      5.07570      3.76829        -0.007304     -0.002655     -0.004914
      3.07606      6.48740      6.75642         0.050239      0.024919     -0.013621
      1.96959      7.22063      7.04142         0.064938      0.046207      0.005632
      1.03839      4.85728      5.44991        -0.027831     -0.026372      0.007756
 -----------------------------------------------------------------------------------
    total drift:                                0.000573      0.000529      0.002002


--------------------------------------------------------------------------------------------------------



  FREE ENERGIE OF THE ION-ELECTRON SYSTEM (eV)
  ---------------------------------------------------
  free  energy   TOTEN  =       -72.73358695 eV

  energy  without entropy=      -72.73358695  energy(sigma->0) =      -72.73358695

 d Force = 0.4509762E-05[ 0.416E-05, 0.486E-05]  d Energy = 0.4706748E-05-0.197E-06
 d Force = 0.7147211E-02[ 0.715E-02, 0.715E-02]  d Ewald  = 0.7147211E-02 0.747E-10


--------------------------------------------------------------------------------------------------------


    POTLOK:  cpu time    2.1468: real time    2.1472


--------------------------------------------------------------------------------------------------------


 NEB: the previous image is higher in energy: T
 NEB: the next image is higher in energy    : F
 NEB: only prev energy greater

 NEB: Tangent
 ----------------------------------------------
     -0.07125     -0.04649     -0.10556
     -0.06279     -0.03536      0.12966
     -0.06056     -0.02503     -0.02402
     -0.06785     -0.01152      0.16384
     -0.04813     -0.04639      0.09251
     -0.05672     -0.03054     -0.17621
     -0.05429     -0.02888      0.06437
     -0.06393     -0.01864     -0.18524
     -0.06275     -0.02503     -0.01083
     -0.06322     -0.03778     -0.03636
     -0.06181     -0.04778      0.10786
     -0.06072     -0.02318     -0.04194
      0.41130      0.21244     -0.11355
      0.55198      0.38575      0.04641
     -0.23098     -0.22249      0.08621

 NEB: forces: par spring, perp REAL, dneb     0.001815    0.003593    0.000000
 NEB: distance to prev, next image, angle between     0.525263    0.525626  162.136848
 NEB: projections on to tangent (spring, REAL)     0.001815    0.119076

 stress matrix after NEB project (eV)
      1.18687      0.33080      0.30831
      0.33080     -2.65834      0.17282
      0.30831      0.17282     -0.67388
  FORCES: max atom, RMS     0.002484    0.001039
  FORCE total and by dimension    0.004025    0.002353
  Stress total and by dimension    3.065656    2.658341
 Quasi-Newton relaxation of ions (Broydens 2nd method)
  g(Force)  = 0.728E-04   g(Stress)= 0.000E+00

 retain information from N=  2 steps
 eigenvalues of (default step * inverse Hessian matrix)
  average eigenvalue of G=   2.7219
 eigenvalue spectrum of G is  2.7219  2.7219


--------------------------------------------------------------------------------------------------------


    WAVPRE:  cpu time   37.8528: real time   38.4571
    FEWALD:  cpu time    0.0029: real time    0.0029
    ORTHCH:  cpu time    3.4649: real time    3.4931
     LOOP+:  cpu time  155.6909: real time  158.4706


--------------------------------------- Iteration      4(   1)  ---------------------------------------


    POTLOK:  cpu time    2.4124: real time    2.4190
    SETDIJ:  cpu time    0.0579: real time    0.0583
     EDDAV:  cpu time   32.7698: real time   32.8816
       DOS:  cpu time    0.0005: real time    0.0005
    CHARGE:  cpu time    1.9001: real time    1.9091
    MIXING:  cpu time    0.0531: real time    0.0531
    --------------------------------------------
      LOOP:  cpu time   37.1940: real time   37.3216

 eigenvalue-minimisations  :   592
 total energy-change (2. order) :-0.1622845E-04  (-0.3174475E-05)
 number of electron      47.9999999 magnetization 
 augmentation part       -0.7400594 magnetization 

 Broyden mixing:
  rms(total) = 0.11696E-03    rms(broyden)= 0.11684E-03
  rms(prec ) = 0.12777E-03
  weight for this iteration     100.00

 Free energy of the ion-electron system (eV)
  ---------------------------------------------------
  alpha Z        PSCENC =        14.13034224
  Ewald energy   TEWEN  =      1509.86198578
  -Hartree energ DENC   =     -2688.54159815
  -exchange      EXHF   =         0.00000000
  -V(xc)+E(xc)   XCENC  =      -140.24542946
  PAW double counting   =      1751.83072036    -1494.32765533
  entropy T*S    EENTRO =        -0.00000000
  eigenvalues    EBANDS =      -344.08386121
  atomic energy  EATOM  =      1318.64189276
  Solvation  Ediel_sol  =         0.00000000
  ---------------------------------------------------
  free energy    TOTEN  =       -72.73360301 eV

  energy without entropy =      -72.73360301  energy(sigma->0) =      -72.73360301


--------------------------------------------------------------------------------------------------------




--------------------------------------- Iteration      4(   2)  ---------------------------------------


    POTLOK:  cpu time    2.2162: real time    2.2245
    SETDIJ:  cpu time    0.0554: real time    0.0554
     EDDAV:  cpu time   27.8668: real time   27.9950
       DOS:  cpu time    0.0005: real time    0.0005
    --------------------------------------------
      LOOP:  cpu time   30.1389: real time   30.2754

 eigenvalue-minimisations  :   480
 total energy-change (2. order) :-0.1883282E-06  (-0.1688516E-06)
 number of electron      47.9999999 magnetization 
 augmentation part       -0.7400594 magnetization 

 Free energy of the ion-electron system (eV)
  ---------------------------------------------------
  alpha Z        PSCENC =        14.13034224
  Ewald energy   TEWEN  =      1509.86198578
  -Hartree energ DENC   =     -2688.54148384
  -exchange      EXHF   =         0.00000000
  -V(xc)+E(xc)   XCENC  =      -140.24544325
  PAW double counting   =      1751.82824749    -1494.32517282
  entropy T*S    EENTRO =        -0.00000000
  eigenvalues    EBANDS =      -344.08397155
  atomic energy  EATOM  =      1318.64189276
  Solvation  Ediel_sol  =         0.00000000
  ---------------------------------------------------
  free energy    TOTEN  =       -72.73360320 eV

  energy without entropy =      -72.73360320  energy(sigma->0) =      -72.73360320


--------------------------------------------------------------------------------------------------------




 average (electrostatic) potential at core
  the test charge radii are     1.0406  0.6991  1.0339  0.5883
  (the norm of the test charge is              1.0000)
       1 -59.2044       2 -59.4262       3 -59.3832       4 -59.8960       5 -59.8027
       6 -59.7864       7 -59.4025       8 -59.3704       9 -55.2677      10 -55.2358
      11 -56.0160      12 -55.6561      13 -96.4495      14 -38.0624      15 -38.1624



 E-fermi :  -2.0701     XC(G=0):  -3.2239     alpha+bet : -2.6874


 k-point     1 :       0.0000    0.0000    0.0000
  band No.  band energies     occupation 
      1     -15.1985      2.00000
      2     -14.6641      2.00000
      3     -13.8158      2.00000
      4     -12.7651      2.00000
      5     -11.6897      2.00000
      6      -8.9926      2.00000
      7      -8.8903      2.00000
      8      -8.6531      2.00000
      9      -7.6186      2.00000
     10      -7.3461      2.00000
     11      -6.7558      2.00000
     12      -6.2615      2.00000
     13      -5.8874      2.00000
     14      -5.2872      2.00000
     15      -5.0852      2.00000
     16      -4.7594      2.00000
     17      -4.3514      2.00000
     18      -3.9971      2.00000
     19      -3.9186      2.00000
     20      -3.3636      2.00000
     21      -3.2041      2.00000
     22      -2.9545      2.00000
     23      -2.5216      2.00000
     24      -2.3323      2.00000
     25      -1.6229      0.00000
     26      -1.1590      0.00000
     27      -0.4206      0.00000
     28      -0.0960      0.00000
     29      -0.0105      0.00000
     30       0.4556      0.00000
     31       0.6057      0.00000
     32       0.8109      0.00000

 k-point     2 :       0.2000    0.0000    0.0000
  band No.  band energies     occupation 
      1     -15.1661      2.00000
      2     -14.6250      2.00000
      3     -13.6919      2.00000
      4     -12.9695      2.00000
      5     -12.0698      2.00000
      6      -8.7534      2.00000
      7      -8.6710      2.00000
      8      -8.0917      2.00000
      9      -7.5063      2.00000
     10      -7.3116      2.00000
     11      -6.6795      2.00000
     12      -6.6002      2.00000
     13      -6.1434      2.00000
     14      -5.3507      2.00000
     15      -5.0141      2.00000
     16      -4.6517      2.00000
     17      -4.3992      2.00000
     18      -4.0961      2.00000
     19      -3.7398      2.00000
     20      -3.6766      2.00000
     21      -3.6206      2.00000
     22      -3.4140      2.00000
     23      -2.8065      2.00000
     24      -2.5142      2.00000
     25      -1.5288      0.00000
     26      -0.4592      0.00000
     27      -0.3324      0.00000
     28       0.0101      0.00000
     29       0.2368      0.00000
     30       0.7007      0.00000
     31       0.7545      0.00000
     32       0.9115      0.00000

 k-point     3 :       0.4000    0.0000    0.0000
  band No.  band energies     occupation 
      1     -15.1159      2.00000
      2     -14.5310      2.00000
      3     -13.3598      2.00000
      4     -13.2666      2.00000
      5     -12.7416      2.00000
      6      -8.3582      2.00000
      7      -8.2616      2.00000
      8      -7.6917      2.00000
      9      -7.3052      2.00000
     10      -6.8648      2.00000
     11      -6.6956      2.00000
     12      -6.3507      2.00000
     13      -5.9399      2.00000
     14      -5.8304      2.00000
     15      -5.3573      2.00000
     16      -5.0926      2.00000
     17      -5.0158      2.00000
     18      -4.4492      2.00000
     19      -4.2436      2.00000
     20      -3.8275      2.00000
     21      -3.6914      2.00000
     22      -3.4998      2.00000
     23      -3.0086      2.00000
     24      -2.5401      2.00000
     25      -1.2026      0.00000
     26      -0.7067      0.00000
     27      -0.1781      0.00000
     28       0.6030      0.00000
     29       0.8370      0.00000
     30       1.1916      0.00000
     31       1.2756      0.00000
     32       1.3359      0.00000

 k-point     4 :       0.0000    0.3333    0.0000
  band No.  band energies     occupation 
      1     -15.1977      2.00000
      2     -14.6634      2.00000
      3     -13.8193      2.00000
      4     -12.7670      2.00000
      5     -11.6906      2.00000
      6      -8.9561      2.00000
      7      -8.7055      2.00000
      8      -8.6296      2.00000
      9      -7.9356      2.00000
     10      -7.4647      2.00000
     11      -7.1578      2.00000
     12      -5.7636      2.00000
     13      -5.4391      2.00000
     14      -5.2809      2.00000
     15      -4.9636      2.00000
     16      -4.7861      2.00000
     17      -4.2862      2.00000
     18      -4.0286      2.00000
     19      -3.9044      2.00000
     20      -3.6851      2.00000
     21      -3.3493      2.00000
     22      -3.0662      2.00000
     23      -2.9547      2.00000
     24      -2.3296      2.00000
     25      -1.4136      0.00000
     26      -0.7886      0.00000
     27      -0.5899      0.00000
     28      -0.1401      0.00000
     29       0.3743      0.00000
     30       0.4639      0.00000
     31       0.6182      0.00000
     32       0.7581      0.00000

 k-point     5 :       0.2000    0.3333    0.0000
  band No.  band energies     occupation 
      1     -15.1655      2.00000
      2     -14.6244      2.00000
      3     -13.6942      2.00000
      4     -12.9716      2.00000
      5     -12.0716      2.00000
      6      -8.6769      2.00000
      7      -8.4798      2.00000
      8      -8.1223      2.00000
      9      -7.8313      2.00000
     10      -7.3002      2.00000
     11      -7.1705      2.00000
     12      -6.3911      2.00000
     13      -5.7919      2.00000
     14      -5.2950      2.00000
     15      -4.7943      2.00000
     16      -4.6500      2.00000
     17      -4.3462      2.00000
     18      -3.9687      2.00000
     19      -3.7926      2.00000
     20      -3.6951      2.00000
     21      -3.6333      2.00000
     22      -3.5266      2.00000
     23      -2.9908      2.00000
     24      -2.7900      2.00000
     25      -1.2287      0.00000
     26      -0.7912      0.00000
     27      -0.3547      0.00000
     28      -0.0726      0.00000
     29       0.3779      0.00000
     30       0.6574      0.00000
     31       0.7606      0.00000
     32       0.9537      0.00000

 k-point     6 :       0.4000    0.3333    0.0000
  band No.  band energies     occupation 
      1     -15.1157      2.00000
      2     -14.5305      2.00000
      3     -13.3370      2.00000
      4     -13.2909      2.00000
      5     -12.7461      2.00000
      6      -8.3260      2.00000
      7      -8.0936      2.00000
      8      -7.6088      2.00000
      9      -7.3148      2.00000
     10      -7.0189      2.00000
     11      -6.8385      2.00000
     12      -6.6487      2.00000
     13      -6.4571      2.00000
     14      -5.4937      2.00000
     15      -5.2361      2.00000
     16      -4.8615      2.00000
     17      -4.5019      2.00000
     18      -4.2602      2.00000
     19      -4.1923      2.00000
     20      -3.8465      2.00000
     21      -3.6647      2.00000
     22      -3.5208      2.00000
     23      -3.3195      2.00000
     24      -2.8752      2.00000
     25      -1.0143      0.00000
     26      -0.7939      0.00000
     27      -0.1977      0.00000
     28       0.5523      0.00000
     29       0.6094      0.00000
     30       0.8090      0.00000
     31       1.0634      0.00000
     32       1.3475      0.00000

 k-point     7 :      -0.4000    0.3333    0.0000
  band No.  band energies     occupation 
      1     -15.1157      2.00000
      2     -14.5304      2.00000
      3     -13.3435      2.00000
      4     -13.2841      2.00000
      5     -12.7465      2.00000
      6      -8.3502      2.00000
      7      -8.0771      2.00000
      8      -7.5479      2.00000
      9      -7.2954      2.00000
     10      -7.1134      2.00000
     11      -6.8396      2.00000
     12      -6.6794      2.00000
     13      -6.4085      2.00000
     14      -5.5123      2.00000
     15      -5.2179      2.00000
     16      -4.8381      2.00000
     17      -4.5077      2.00000
     18      -4.2982      2.00000
     19      -4.1510      2.00000
     20      -3.8541      2.00000
     21      -3.6457      2.00000
     22      -3.5495      2.00000
     23      -3.3034      2.00000
     24      -2.8840      2.00000
     25      -1.2170      0.00000
     26      -0.4999      0.00000
     27      -0.1776      0.00000
     28       0.4604      0.00000
     29       0.6313      0.00000
     30       0.7405      0.00000
     31       1.0001      0.00000
     32       1.3316      0.00000

 k-point     8 :      -0.2000    0.3333    0.0000
  band No.  band energies     occupation 
      1     -15.1655      2.00000
      2     -14.6242      2.00000
      3     -13.6946      2.00000
      4     -12.9711      2.00000
      5     -12.0718      2.00000
      6      -8.6880      2.00000
      7      -8.4884      2.00000
      8      -8.1146      2.00000
      9      -7.7480      2.00000
     10      -7.4091      2.00000
     11      -7.1305      2.00000
     12      -6.4133      2.00000
     13      -5.7955      2.00000
     14      -5.2810      2.00000
     15      -4.7742      2.00000
     16      -4.6815      2.00000
     17      -4.3001      2.00000
     18      -3.9904      2.00000
     19      -3.7740      2.00000
     20      -3.6951      2.00000
     21      -3.6255      2.00000
     22      -3.5073      2.00000
     23      -3.0266      2.00000
     24      -2.7949      2.00000
     25      -1.4041      0.00000
     26      -0.5302      0.00000
     27      -0.3572      0.00000
     28      -0.1023      0.00000
     29       0.3568      0.00000
     30       0.5930      0.00000
     31       0.8077      0.00000
     32       0.9423      0.00000


--------------------------------------------------------------------------------------------------------


 soft charge-density along one line, spin component           1
         0         1         2         3         4         5         6         7         8         9
 total charge-density along one line

 pseudopotential strength for first ion, spin component:           1
  7.448 -17.450  -0.003   0.000   0.000   0.016  -0.000  -0.000
-17.450  50.480   0.008  -0.000  -0.000  -0.038   0.001   0.000
 -0.003   0.008   1.742   0.000  -0.000  -6.878  -0.002   0.000
  0.000  -0.000   0.000   1.745   0.000  -0.002  -6.895  -0.001
  0.000  -0.000  -0.000   0.000   1.743   0.000  -0.001  -6.881
  0.016  -0.038  -6.878  -0.002   0.000  29.276   0.010  -0.000
 -0.000   0.001  -0.002  -6.895  -0.001   0.010  29.348   0.002
 -0.000   0.000   0.000  -0.001  -6.881  -0.000   0.002  29.288
 -0.000   0.000   0.000   0.000  -0.002  -0.000  -0.000   0.007
  0.003  -0.003  -0.000  -0.002   0.000   0.000   0.006  -0.000
  0.009  -0.011   0.001  -0.000  -0.000  -0.002  -0.000   0.000
  0.001  -0.001   0.000  -0.000  -0.000  -0.000   0.000  -0.000
  0.002  -0.002   0.001   0.000  -0.000  -0.003  -0.000   0.000
  0.000  -0.000  -0.000  -0.000   0.007   0.000   0.000  -0.028
 -0.010   0.017   0.001   0.007  -0.000  -0.003  -0.028   0.000
 -0.036   0.064  -0.002   0.000   0.000   0.010  -0.000  -0.000
 -0.002   0.004  -0.000   0.000   0.000   0.000  -0.000  -0.001
 -0.006   0.011  -0.004  -0.000   0.000   0.017   0.001  -0.000
 total augmentation occupancy for first ion, spin component:           1
  1.400   0.017  -0.070   0.018   0.001   0.004  -0.000  -0.000  -0.002  -0.029  -0.087  -0.004  -0.028  -0.000  -0.001  -0.005
  0.017   0.000   0.009  -0.001  -0.000   0.000  -0.000  -0.000  -0.000  -0.001  -0.002  -0.000   0.000  -0.000  -0.000  -0.000
 -0.070   0.009   1.298  -0.132  -0.003   0.018  -0.002  -0.000  -0.001   0.004  -0.075  -0.007   0.050  -0.000  -0.000  -0.003
  0.018  -0.001  -0.132   0.400  -0.026  -0.002   0.005  -0.000  -0.008   0.052  -0.003   0.001  -0.018  -0.000   0.001   0.000
  0.001  -0.000  -0.003  -0.026   1.080  -0.000  -0.000   0.017   0.221  -0.007   0.002  -0.032  -0.000   0.007  -0.000   0.000
  0.004   0.000   0.018  -0.002  -0.000   0.000  -0.000  -0.000  -0.000  -0.000  -0.001  -0.000   0.000  -0.000  -0.000  -0.000
 -0.000  -0.000  -0.002   0.005  -0.000  -0.000   0.000  -0.000  -0.000   0.001   0.000   0.000  -0.000  -0.000   0.000   0.000
 -0.000  -0.000  -0.000  -0.000   0.017  -0.000  -0.000   0.000   0.004  -0.000   0.000  -0.001  -0.000   0.000  -0.000   0.000
 -0.002  -0.000  -0.001  -0.008   0.221  -0.000  -0.000   0.004   0.063  -0.002   0.000  -0.007   0.000   0.002  -0.000   0.000
 -0.029  -0.001   0.004   0.052  -0.007  -0.000   0.001  -0.000  -0.002   0.011  -0.001   0.000   0.004  -0.000   0.000   0.000
 -0.087  -0.002  -0.075  -0.003   0.002  -0.001   0.000   0.000   0.000  -0.001   0.013  -0.000  -0.004   0.000   0.000   0.001
 -0.004  -0.000  -0.007   0.001  -0.032  -0.000   0.000  -0.001  -0.007   0.000  -0.000   0.020  -0.001  -0.000   0.000   0.000
 -0.028   0.000   0.050  -0.018  -0.000   0.000  -0.000  -0.000   0.000   0.004  -0.004  -0.001   0.038   0.000   0.000  -0.000
 -0.000  -0.000  -0.000  -0.000   0.007  -0.000  -0.000   0.000   0.002  -0.000   0.000  -0.000   0.000   0.000  -0.000   0.000
 -0.001  -0.000  -0.000   0.001  -0.000  -0.000   0.000  -0.000  -0.000   0.000   0.000   0.000   0.000  -0.000   0.000   0.000
 -0.005  -0.000  -0.003   0.000   0.000  -0.000   0.000   0.000   0.000   0.000   0.001   0.000  -0.000   0.000   0.000   0.000
 -0.000  -0.000  -0.000   0.000  -0.001  -0.000   0.000  -0.000  -0.000   0.000   0.000   0.000  -0.000  -0.000   0.000   0.000
 -0.001   0.000   0.000  -0.000  -0.000  -0.000  -0.000  -0.000   0.000   0.000  -0.000  -0.000   0.001   0.000   0.000  -0.000


------------------------ aborting loop because EDIFF is reached ----------------------------------------


    CHARGE:  cpu time    2.0584: real time    2.0691
    FORLOC:  cpu time    0.3146: real time    0.3149
    FORNL :  cpu time    9.2672: real time    9.3128
    STRESS:  cpu time   28.0109: real time   28.1342
    FORCOR:  cpu time    2.2380: real time    2.2484
    FORHAR:  cpu time    0.8267: real time    0.8317
    MIXING:  cpu time    0.0436: real time    0.0437
    OFIELD:  cpu time    0.0000: real time    0.0000

  FORCE on cell =-STRESS in cart. coord.  units (eV):
  Direction    XX          YY          ZZ          XY          YZ          ZX
  --------------------------------------------------------------------------------------
  Alpha Z    14.13034    14.13034    14.13034
  Ewald    2473.28410  2059.88343 -3023.30704    -6.94715    64.51751     6.09913
  Hartree  2512.58433  2216.43357 -2040.47530     4.22856    37.19622     5.64238
  E(xc)    -153.82802  -154.92270  -154.46522    -0.08721     0.08588    -0.03134
  Local   -5480.59538 -4781.05860  4580.10491    -4.91001   -99.60375   -15.39459
  n-local   195.42209   207.53718   169.32861     0.42051     0.23567     0.52784
  augment   -24.03247   -25.09990   -22.75305    -0.52668     0.14895    -0.22474
  Kinetic   464.22043   460.43804   476.76477     8.15336    -2.40803     3.68977
  Fock        0.00000     0.00000     0.00000     0.00000     0.00000     0.00000
  -------------------------------------------------------------------------------------
  Total       1.18544    -2.65865    -0.67199     0.33137     0.17245     0.30845
  in kB       2.07454    -4.65268    -1.17599     0.57990     0.30180     0.53979
  external pressure =       -1.25 kB  Pullay stress =        0.00 kB


 VOLUME and BASIS-vectors are now :
 -----------------------------------------------------------------------------
  energy-cutoff  :      450.00
  volume of cell :      915.52
      direct lattice vectors                 reciprocal lattice vectors
     6.019200000  0.000000000  0.000000000     0.166135035  0.000000000  0.000000000
     0.000000000 10.140000000  0.000000000     0.000000000  0.098619329  0.000000000
     0.000000000  0.000000000 15.000000000     0.000000000  0.000000000  0.066666667

  length of vectors
     6.019200000 10.140000000 15.000000000     0.166135035  0.098619329  0.066666667


 FORCES acting on ions
    electron-ion (+dipol)            ewald-force                    non-local-force                 convergence-correction
 -----------------------------------------------------------------------------------------------
   0.119E+01 0.362E+02 0.156E+02   -.119E+01 -.347E+02 -.156E+02   -.104E-01 -.154E+01 -.316E-01   -.135E-04 0.858E-05 0.785E-04
   -.123E+01 0.438E+02 0.334E+02   0.122E+01 -.404E+02 -.329E+02   0.405E-03 -.341E+01 -.478E+00   0.130E-04 0.372E-04 0.609E-04
   0.497E+01 -.387E+02 0.606E+01   -.401E+01 0.387E+02 -.612E+01   -.962E+00 0.846E-02 0.527E-01   -.502E-04 -.455E-04 0.894E-04
   -.821E+01 -.466E+02 0.359E+02   0.664E+01 0.452E+02 -.359E+02   0.156E+01 0.139E+01 -.374E-02   -.262E-05 -.523E-04 -.278E-04
   0.597E+01 0.551E+02 0.455E+02   -.435E+01 -.534E+02 -.444E+02   -.163E+01 -.177E+01 -.101E+01   0.318E-04 -.660E-05 -.340E-04
   -.333E+01 0.579E+02 0.150E+02   0.181E+01 -.561E+02 -.153E+02   0.151E+01 -.175E+01 0.260E+00   -.629E-04 -.249E-04 -.553E-04
   0.743E+00 -.524E+02 0.363E+02   -.697E+00 0.486E+02 -.353E+02   -.520E-01 0.380E+01 -.953E+00   -.127E-04 0.679E-04 0.575E-04
   -.487E+00 -.512E+02 0.106E+02   0.390E+00 0.477E+02 -.107E+02   0.897E-01 0.350E+01 0.559E-01   -.141E-05 0.360E-04 0.556E-04
   0.768E-01 -.742E+01 0.238E+02   0.260E+00 0.716E+01 -.237E+02   -.344E+00 0.257E+00 -.930E-01   -.105E-03 0.169E-03 -.338E-04
   0.481E-01 -.635E+01 0.412E+02   -.362E+00 0.603E+01 -.419E+02   0.306E+00 0.316E+00 0.620E+00   0.172E-03 0.202E-03 0.572E-03
   0.522E+01 0.133E+02 0.161E+02   -.416E+01 -.120E+02 -.210E+02   -.107E+01 -.134E+01 0.499E+01   0.219E-03 0.206E-03 -.678E-03
   -.794E+00 0.740E+01 0.651E+02   0.210E+00 -.673E+01 -.661E+02   0.577E+00 -.667E+00 0.107E+01   0.160E-03 -.146E-03 -.832E-05
   -.400E+02 -.227E+00 -.230E+03   0.465E+02 -.427E+01 0.232E+03   -.647E+01 0.453E+01 -.148E+01   -.102E-02 -.265E-03 0.570E-03
   0.329E+02 -.269E+02 -.448E+02   -.362E+02 0.292E+02 0.457E+02   0.338E+01 -.224E+01 -.923E+00   -.415E-04 -.189E-03 0.202E-04
   0.592E+01 0.143E+02 -.665E+02   -.604E+01 -.149E+02 0.714E+02   0.886E-01 0.551E+00 -.489E+01   0.899E-04 0.556E-04 0.197E-03
 -----------------------------------------------------------------------------------------------
   0.302E+01 -.164E+01 0.282E+01   -.444E-14 0.302E-13 -.711E-13   -.302E+01 0.164E+01 -.282E+01   -.620E-03 0.521E-04 0.864E-03


 POSITION                                       TOTAL-FORCE (eV/Angst)
 -----------------------------------------------------------------------------------
      2.59863      8.86589      3.78434        -0.008322     -0.005645     -0.012525
      5.61215      8.89357      3.56830        -0.007357     -0.004217      0.015338
      2.69920      6.34070      4.50183        -0.007148     -0.002918     -0.002715
      5.60818      6.31302      3.87025        -0.007934     -0.001321      0.019366
      2.62217      3.84641      3.71420        -0.005723     -0.005577      0.011009
      5.52472      3.77586      3.94952        -0.006665     -0.003644     -0.020743
      2.59952      1.20819      3.47476        -0.006286     -0.003358      0.007632
      5.59648      1.20390      3.69618        -0.007512     -0.002274     -0.021777
      1.09549     10.13228      3.64754        -0.007471     -0.002966     -0.001226
      4.09891     10.12068      3.53397        -0.007281     -0.004503     -0.004501
      1.07887      5.00042      4.34167        -0.007425     -0.005772      0.013413
      4.10663      5.07570      3.76829        -0.007133     -0.002704     -0.004900
      3.07617      6.48745      6.75640         0.047607      0.026046     -0.013180
      1.96963      7.22068      7.04142         0.066328      0.045376      0.005272
      1.03832      4.85725      5.44987        -0.027679     -0.026524      0.009537
 -----------------------------------------------------------------------------------
    total drift:                               -0.000432      0.000824      0.002927


--------------------------------------------------------------------------------------------------------



  FREE ENERGIE OF THE ION-ELECTRON SYSTEM (eV)
  ---------------------------------------------------
  free  energy   TOTEN  =       -72.73360320 eV

  energy  without entropy=      -72.73360320  energy(sigma->0) =      -72.73360320

 d Force = 0.1606337E-04[ 0.159E-04, 0.163E-04]  d Energy = 0.1624969E-04-0.186E-06
 d Force =-0.1373642E-02[-0.137E-02,-0.137E-02]  d Ewald  =-0.1373642E-02-0.427E-11


--------------------------------------------------------------------------------------------------------


    POTLOK:  cpu time    2.2337: real time    2.2426


--------------------------------------------------------------------------------------------------------


 NEB: the previous image is higher in energy: T
 NEB: the next image is higher in energy    : F
 NEB: only prev energy greater

 NEB: Tangent
 ----------------------------------------------
     -0.07141     -0.04659     -0.10601
     -0.06294     -0.03553      0.12976
     -0.06066     -0.02500     -0.02488
     -0.06789     -0.01176      0.16402
     -0.04843     -0.04658      0.09251
     -0.05660     -0.03067     -0.17626
     -0.05446     -0.02900      0.06450
     -0.06403     -0.01872     -0.18569
     -0.06290     -0.02521     -0.01090
     -0.06337     -0.03791     -0.03622
     -0.06194     -0.04795      0.10889
     -0.06081     -0.02345     -0.04302
      0.41044      0.21137     -0.11411
      0.55240      0.38692      0.04743
     -0.22908     -0.22079      0.08721

 NEB: forces: par spring, perp REAL, dneb     0.003354    0.002236    0.000000
 NEB: distance to prev, next image, angle between     0.524251    0.524922  162.272004
 NEB: projections on to tangent (spring, REAL)     0.003354    0.118576

 stress matrix after NEB project (eV)
      1.18544      0.33137      0.30845
      0.33137     -2.65865      0.17245
      0.30845      0.17245     -0.67199
  FORCES: max atom, RMS     0.002801    0.001041
  FORCE total and by dimension    0.004031    0.002680
  Stress total and by dimension    3.065061    2.658646
 Quasi-Newton relaxation of ions (Broydens 2nd method)
  g(Force)  = 0.472E-04   g(Stress)= 0.000E+00

 retain information from N=  3 steps
 eigenvalues of (default step * inverse Hessian matrix)
  average eigenvalue of G=   5.9495
 eigenvalue spectrum of G is  2.0450  7.9018  7.9018


--------------------------------------------------------------------------------------------------------


    WAVPRE:  cpu time   94.7811: real time   96.0834
    FEWALD:  cpu time    0.0026: real time    0.0026
    ORTHCH:  cpu time    3.4393: real time    3.4505
     LOOP+:  cpu time  210.6751: real time  214.3484


--------------------------------------- Iteration      5(   1)  ---------------------------------------


    POTLOK:  cpu time    2.4223: real time    2.4241
    SETDIJ:  cpu time    0.0681: real time    0.0681
     EDDAV:  cpu time   30.9345: real time   30.9474
       DOS:  cpu time    0.0007: real time    0.0007
    CHARGE:  cpu time    2.0345: real time    2.0349
    MIXING:  cpu time    0.0447: real time    0.0447
    --------------------------------------------
      LOOP:  cpu time   35.5048: real time   35.5198

 eigenvalue-minimisations  :   544
 total energy-change (2. order) :-0.3310029E-04  (-0.7734268E-05)
 number of electron      47.9999999 magnetization 
 augmentation part       -0.7400620 magnetization 

 Broyden mixing:
  rms(total) = 0.20455E-03    rms(broyden)= 0.20435E-03
  rms(prec ) = 0.22571E-03
  weight for this iteration     100.00

 Free energy of the ion-electron system (eV)
  ---------------------------------------------------
  alpha Z        PSCENC =        14.13034224
  Ewald energy   TEWEN  =      1509.86954814
  -Hartree energ DENC   =     -2688.54525727
  -exchange      EXHF   =         0.00000000
  -V(xc)+E(xc)   XCENC  =      -140.24517366
  PAW double counting   =      1751.82719662    -1494.32411686
  entropy T*S    EENTRO =        -0.00000000
  eigenvalues    EBANDS =      -344.08806807
  atomic energy  EATOM  =      1318.64189276
  Solvation  Ediel_sol  =         0.00000000
  ---------------------------------------------------
  free energy    TOTEN  =       -72.73363611 eV

  energy without entropy =      -72.73363611  energy(sigma->0) =      -72.73363611


--------------------------------------------------------------------------------------------------------




--------------------------------------- Iteration      5(   2)  ---------------------------------------


    POTLOK:  cpu time    2.1354: real time    2.1371
    SETDIJ:  cpu time    0.0618: real time    0.0619
     EDDAV:  cpu time   33.4016: real time   33.4157
       DOS:  cpu time    0.0006: real time    0.0006
    --------------------------------------------
      LOOP:  cpu time   35.5995: real time   35.6153

 eigenvalue-minimisations  :   600
 total energy-change (2. order) :-0.3568634E-06  (-0.3715246E-06)
 number of electron      47.9999999 magnetization 
 augmentation part       -0.7400620 magnetization 

 Free energy of the ion-electron system (eV)
  ---------------------------------------------------
  alpha Z        PSCENC =        14.13034224
  Ewald energy   TEWEN  =      1509.86954814
  -Hartree energ DENC   =     -2688.54628400
  -exchange      EXHF   =         0.00000000
  -V(xc)+E(xc)   XCENC  =      -140.24509137
  PAW double counting   =      1751.83779834    -1494.33473484
  entropy T*S    EENTRO =        -0.00000000
  eigenvalues    EBANDS =      -344.08710773
  atomic energy  EATOM  =      1318.64189276
  Solvation  Ediel_sol  =         0.00000000
  ---------------------------------------------------
  free energy    TOTEN  =       -72.73363647 eV

  energy without entropy =      -72.73363647  energy(sigma->0) =      -72.73363647


--------------------------------------------------------------------------------------------------------




 average (electrostatic) potential at core
  the test charge radii are     1.0406  0.6991  1.0339  0.5883
  (the norm of the test charge is              1.0000)
       1 -59.2045       2 -59.4261       3 -59.3832       4 -59.8960       5 -59.8027
       6 -59.7864       7 -59.4025       8 -59.3704       9 -55.2677      10 -55.2358
      11 -56.0159      12 -55.6561      13 -96.4497      14 -38.0637      15 -38.1633



 E-fermi :  -2.0702     XC(G=0):  -3.2249     alpha+bet : -2.6874


 k-point     1 :       0.0000    0.0000    0.0000
  band No.  band energies     occupation 
      1     -15.1989      2.00000
      2     -14.6644      2.00000
      3     -13.8158      2.00000
      4     -12.7653      2.00000
      5     -11.6897      2.00000
      6      -8.9925      2.00000
      7      -8.8903      2.00000
      8      -8.6531      2.00000
      9      -7.6188      2.00000
     10      -7.3464      2.00000
     11      -6.7558      2.00000
     12      -6.2615      2.00000
     13      -5.8874      2.00000
     14      -5.2872      2.00000
     15      -5.0852      2.00000
     16      -4.7594      2.00000
     17      -4.3514      2.00000
     18      -3.9972      2.00000
     19      -3.9188      2.00000
     20      -3.3636      2.00000
     21      -3.2041      2.00000
     22      -2.9545      2.00000
     23      -2.5216      2.00000
     24      -2.3322      2.00000
     25      -1.6230      0.00000
     26      -1.1590      0.00000
     27      -0.4206      0.00000
     28      -0.0960      0.00000
     29      -0.0105      0.00000
     30       0.4556      0.00000
     31       0.6058      0.00000
     32       0.8110      0.00000

 k-point     2 :       0.2000    0.0000    0.0000
  band No.  band energies     occupation 
      1     -15.1665      2.00000
      2     -14.6254      2.00000
      3     -13.6919      2.00000
      4     -12.9696      2.00000
      5     -12.0698      2.00000
      6      -8.7535      2.00000
      7      -8.6710      2.00000
      8      -8.0916      2.00000
      9      -7.5065      2.00000
     10      -7.3118      2.00000
     11      -6.6795      2.00000
     12      -6.6003      2.00000
     13      -6.1434      2.00000
     14      -5.3507      2.00000
     15      -5.0141      2.00000
     16      -4.6517      2.00000
     17      -4.3992      2.00000
     18      -4.0961      2.00000
     19      -3.7398      2.00000
     20      -3.6766      2.00000
     21      -3.6206      2.00000
     22      -3.4141      2.00000
     23      -2.8065      2.00000
     24      -2.5142      2.00000
     25      -1.5288      0.00000
     26      -0.4592      0.00000
     27      -0.3324      0.00000
     28       0.0101      0.00000
     29       0.2368      0.00000
     30       0.7007      0.00000
     31       0.7545      0.00000
     32       0.9115      0.00000

 k-point     3 :       0.4000    0.0000    0.0000
  band No.  band energies     occupation 
      1     -15.1164      2.00000
      2     -14.5313      2.00000
      3     -13.3598      2.00000
      4     -13.2666      2.00000
      5     -12.7415      2.00000
      6      -8.3583      2.00000
      7      -8.2618      2.00000
      8      -7.6919      2.00000
      9      -7.3054      2.00000
     10      -6.8648      2.00000
     11      -6.6956      2.00000
     12      -6.3507      2.00000
     13      -5.9399      2.00000
     14      -5.8304      2.00000
     15      -5.3573      2.00000
     16      -5.0926      2.00000
     17      -5.0158      2.00000
     18      -4.4492      2.00000
     19      -4.2436      2.00000
     20      -3.8275      2.00000
     21      -3.6915      2.00000
     22      -3.4998      2.00000
     23      -3.0087      2.00000
     24      -2.5401      2.00000
     25      -1.2026      0.00000
     26      -0.7067      0.00000
     27      -0.1781      0.00000
     28       0.6030      0.00000
     29       0.8370      0.00000
     30       1.1916      0.00000
     31       1.2755      0.00000
     32       1.3359      0.00000

 k-point     4 :       0.0000    0.3333    0.0000
  band No.  band energies     occupation 
      1     -15.1981      2.00000
      2     -14.6638      2.00000
      3     -13.8193      2.00000
      4     -12.7672      2.00000
      5     -11.6906      2.00000
      6      -8.9560      2.00000
      7      -8.7054      2.00000
      8      -8.6297      2.00000
      9      -7.9357      2.00000
     10      -7.4649      2.00000
     11      -7.1580      2.00000
     12      -5.7637      2.00000
     13      -5.4392      2.00000
     14      -5.2809      2.00000
     15      -4.9636      2.00000
     16      -4.7861      2.00000
     17      -4.2862      2.00000
     18      -4.0287      2.00000
     19      -3.9045      2.00000
     20      -3.6851      2.00000
     21      -3.3493      2.00000
     22      -3.0662      2.00000
     23      -2.9547      2.00000
     24      -2.3295      2.00000
     25      -1.4136      0.00000
     26      -0.7886      0.00000
     27      -0.5899      0.00000
     28      -0.1400      0.00000
     29       0.3744      0.00000
     30       0.4638      0.00000
     31       0.6183      0.00000
     32       0.7581      0.00000

 k-point     5 :       0.2000    0.3333    0.0000
  band No.  band energies     occupation 
      1     -15.1659      2.00000
      2     -14.6247      2.00000
      3     -13.6941      2.00000
      4     -12.9717      2.00000
      5     -12.0716      2.00000
      6      -8.6769      2.00000
      7      -8.4798      2.00000
      8      -8.1223      2.00000
      9      -7.8314      2.00000
     10      -7.3005      2.00000
     11      -7.1706      2.00000
     12      -6.3911      2.00000
     13      -5.7919      2.00000
     14      -5.2951      2.00000
     15      -4.7943      2.00000
     16      -4.6500      2.00000
     17      -4.3462      2.00000
     18      -3.9687      2.00000
     19      -3.7927      2.00000
     20      -3.6951      2.00000
     21      -3.6334      2.00000
     22      -3.5266      2.00000
     23      -2.9908      2.00000
     24      -2.7899      2.00000
     25      -1.2287      0.00000
     26      -0.7912      0.00000
     27      -0.3547      0.00000
     28      -0.0726      0.00000
     29       0.3778      0.00000
     30       0.6574      0.00000
     31       0.7607      0.00000
     32       0.9537      0.00000

 k-point     6 :       0.4000    0.3333    0.0000
  band No.  band energies     occupation 
      1     -15.1162      2.00000
      2     -14.5308      2.00000
      3     -13.3370      2.00000
      4     -13.2909      2.00000
      5     -12.7460      2.00000
      6      -8.3263      2.00000
      7      -8.0937      2.00000
      8      -7.6090      2.00000
      9      -7.3148      2.00000
     10      -7.0190      2.00000
     11      -6.8384      2.00000
     12      -6.6487      2.00000
     13      -6.4571      2.00000
     14      -5.4937      2.00000
     15      -5.2360      2.00000
     16      -4.8616      2.00000
     17      -4.5020      2.00000
     18      -4.2602      2.00000
     19      -4.1923      2.00000
     20      -3.8465      2.00000
     21      -3.6648      2.00000
     22      -3.5208      2.00000
     23      -3.3195      2.00000
     24      -2.8752      2.00000
     25      -1.0144      0.00000
     26      -0.7939      0.00000
     27      -0.1977      0.00000
     28       0.5523      0.00000
     29       0.6094      0.00000
     30       0.8090      0.00000
     31       1.0634      0.00000
     32       1.3475      0.00000

 k-point     7 :      -0.4000    0.3333    0.0000
  band No.  band energies     occupation 
      1     -15.1162      2.00000
      2     -14.5307      2.00000
      3     -13.3435      2.00000
      4     -13.2841      2.00000
      5     -12.7465      2.00000
      6      -8.3504      2.00000
      7      -8.0772      2.00000
      8      -7.5481      2.00000
      9      -7.2954      2.00000
     10      -7.1135      2.00000
     11      -6.8396      2.00000
     12      -6.6794      2.00000
     13      -6.4085      2.00000
     14      -5.5123      2.00000
     15      -5.2179      2.00000
     16      -4.8381      2.00000
     17      -4.5077      2.00000
     18      -4.2982      2.00000
     19      -4.1510      2.00000
     20      -3.8541      2.00000
     21      -3.6458      2.00000
     22      -3.5495      2.00000
     23      -3.3034      2.00000
     24      -2.8840      2.00000
     25      -1.2170      0.00000
     26      -0.4999      0.00000
     27      -0.1776      0.00000
     28       0.4604      0.00000
     29       0.6313      0.00000
     30       0.7405      0.00000
     31       1.0001      0.00000
     32       1.3316      0.00000

 k-point     8 :      -0.2000    0.3333    0.0000
  band No.  band energies     occupation 
      1     -15.1660      2.00000
      2     -14.6246      2.00000
      3     -13.6946      2.00000
      4     -12.9712      2.00000
      5     -12.0717      2.00000
      6      -8.6881      2.00000
      7      -8.4885      2.00000
      8      -8.1145      2.00000
      9      -7.7480      2.00000
     10      -7.4094      2.00000
     11      -7.1306      2.00000
     12      -6.4133      2.00000
     13      -5.7955      2.00000
     14      -5.2810      2.00000
     15      -4.7742      2.00000
     16      -4.6815      2.00000
     17      -4.3001      2.00000
     18      -3.9904      2.00000
     19      -3.7740      2.00000
     20      -3.6951      2.00000
     21      -3.6255      2.00000
     22      -3.5073      2.00000
     23      -3.0266      2.00000
     24      -2.7949      2.00000
     25      -1.4041      0.00000
     26      -0.5302      0.00000
     27      -0.3572      0.00000
     28      -0.1023      0.00000
     29       0.3568      0.00000
     30       0.5930      0.00000
     31       0.8077      0.00000
     32       0.9423      0.00000


--------------------------------------------------------------------------------------------------------


 soft charge-density along one line, spin component           1
         0         1         2         3         4         5         6         7         8         9
 total charge-density along one line

 pseudopotential strength for first ion, spin component:           1
  7.448 -17.450  -0.003   0.000   0.000   0.016  -0.000  -0.000
-17.450  50.480   0.008  -0.000  -0.000  -0.038   0.001   0.000
 -0.003   0.008   1.742   0.000  -0.000  -6.878  -0.002   0.000
  0.000  -0.000   0.000   1.745   0.000  -0.002  -6.895  -0.001
  0.000  -0.000  -0.000   0.000   1.743   0.000  -0.001  -6.881
  0.016  -0.038  -6.878  -0.002   0.000  29.276   0.010  -0.000
 -0.000   0.001  -0.002  -6.895  -0.001   0.010  29.348   0.002
 -0.000   0.000   0.000  -0.001  -6.881  -0.000   0.002  29.288
 -0.000   0.000   0.000   0.000  -0.002  -0.000  -0.000   0.007
  0.003  -0.003  -0.000  -0.002   0.000   0.000   0.006  -0.000
  0.009  -0.011   0.001  -0.000  -0.000  -0.002  -0.000   0.000
  0.001  -0.001   0.000  -0.000  -0.000  -0.000   0.000  -0.000
  0.002  -0.002   0.001   0.000  -0.000  -0.003  -0.000   0.000
  0.000  -0.000  -0.000  -0.000   0.007   0.000   0.000  -0.028
 -0.010   0.017   0.001   0.007  -0.000  -0.003  -0.028   0.000
 -0.036   0.064  -0.002   0.000   0.000   0.010  -0.000  -0.000
 -0.002   0.004  -0.000   0.000   0.000   0.000  -0.000  -0.001
 -0.006   0.011  -0.004  -0.000   0.000   0.017   0.001  -0.000
 total augmentation occupancy for first ion, spin component:           1
  1.400   0.017  -0.070   0.018   0.001   0.004  -0.000  -0.000  -0.002  -0.029  -0.087  -0.004  -0.028  -0.000  -0.001  -0.005
  0.017   0.000   0.009  -0.001  -0.000   0.000  -0.000  -0.000  -0.000  -0.001  -0.002  -0.000   0.000  -0.000  -0.000  -0.000
 -0.070   0.009   1.298  -0.132  -0.003   0.018  -0.002  -0.000  -0.001   0.004  -0.075  -0.007   0.050  -0.000  -0.000  -0.003
  0.018  -0.001  -0.132   0.400  -0.026  -0.002   0.005  -0.000  -0.008   0.052  -0.003   0.001  -0.018  -0.000   0.001   0.000
  0.001  -0.000  -0.003  -0.026   1.080  -0.000  -0.000   0.017   0.221  -0.007   0.002  -0.032  -0.000   0.007  -0.000   0.000
  0.004   0.000   0.018  -0.002  -0.000   0.000  -0.000  -0.000  -0.000  -0.000  -0.001  -0.000   0.000  -0.000  -0.000  -0.000
 -0.000  -0.000  -0.002   0.005  -0.000  -0.000   0.000  -0.000  -0.000   0.001   0.000   0.000  -0.000  -0.000   0.000   0.000
 -0.000  -0.000  -0.000  -0.000   0.017  -0.000  -0.000   0.000   0.004  -0.000   0.000  -0.001  -0.000   0.000  -0.000   0.000
 -0.002  -0.000  -0.001  -0.008   0.221  -0.000  -0.000   0.004   0.063  -0.002   0.000  -0.007   0.000   0.002  -0.000   0.000
 -0.029  -0.001   0.004   0.052  -0.007  -0.000   0.001  -0.000  -0.002   0.011  -0.001   0.000   0.004  -0.000   0.000   0.000
 -0.087  -0.002  -0.075  -0.003   0.002  -0.001   0.000   0.000   0.000  -0.001   0.013  -0.000  -0.004   0.000   0.000   0.001
 -0.004  -0.000  -0.007   0.001  -0.032  -0.000   0.000  -0.001  -0.007   0.000  -0.000   0.020  -0.001  -0.000   0.000   0.000
 -0.028   0.000   0.050  -0.018  -0.000   0.000  -0.000  -0.000   0.000   0.004  -0.004  -0.001   0.038   0.000   0.000  -0.000
 -0.000  -0.000  -0.000  -0.000   0.007  -0.000  -0.000   0.000   0.002  -0.000   0.000  -0.000   0.000   0.000  -0.000   0.000
 -0.001  -0.000  -0.000   0.001  -0.000  -0.000   0.000  -0.000  -0.000   0.000   0.000   0.000   0.000  -0.000   0.000   0.000
 -0.005  -0.000  -0.003   0.000   0.000  -0.000   0.000   0.000   0.000   0.000   0.001   0.000  -0.000   0.000   0.000   0.000
 -0.000  -0.000  -0.000   0.000  -0.001  -0.000   0.000  -0.000  -0.000   0.000   0.000   0.000  -0.000  -0.000   0.000   0.000
 -0.001   0.000   0.000  -0.000  -0.000  -0.000  -0.000  -0.000   0.000   0.000  -0.000  -0.000   0.001   0.000   0.000  -0.000


------------------------ aborting loop because EDIFF is reached ----------------------------------------


    CHARGE:  cpu time    2.0845: real time    2.0850
    FORLOC:  cpu time    0.3211: real time    0.3212
    FORNL :  cpu time    9.3256: real time    9.3294
    STRESS:  cpu time   28.3858: real time   28.3965
    FORCOR:  cpu time    2.2492: real time    2.2496
    FORHAR:  cpu time    0.8192: real time    0.8192
    MIXING:  cpu time    0.0484: real time    0.0484
    OFIELD:  cpu time    0.0000: real time    0.0000

  FORCE on cell =-STRESS in cart. coord.  units (eV):
  Direction    XX          YY          ZZ          XY          YZ          ZX
  --------------------------------------------------------------------------------------
  Alpha Z    14.13034    14.13034    14.13034
  Ewald    2473.28236  2059.89368 -3023.30800    -6.95108    64.51814     6.09432
  Hartree  2512.58428  2216.44096 -2040.47680     4.22855    37.19557     5.64149
  E(xc)    -153.82843  -154.92305  -154.46560    -0.08716     0.08585    -0.03134
  Local   -5480.59429 -4781.07678  4580.10783    -4.90641   -99.60381   -15.38982
  n-local   195.42260   207.53716   169.32771     0.41935     0.23612     0.52739
  augment   -24.03270   -25.10006   -22.75317    -0.52660     0.14897    -0.22470
  Kinetic   464.22427   460.44104   476.76921     8.15278    -2.40829     3.69058
  Fock        0.00000     0.00000     0.00000     0.00000     0.00000     0.00000
  -------------------------------------------------------------------------------------
  Total       1.18843    -2.65670    -0.66848     0.32943     0.17256     0.30793
  in kB       2.07978    -4.64928    -1.16985     0.57651     0.30199     0.53888
  external pressure =       -1.25 kB  Pullay stress =        0.00 kB


 VOLUME and BASIS-vectors are now :
 -----------------------------------------------------------------------------
  energy-cutoff  :      450.00
  volume of cell :      915.52
      direct lattice vectors                 reciprocal lattice vectors
     6.019200000  0.000000000  0.000000000     0.166135035  0.000000000  0.000000000
     0.000000000 10.140000000  0.000000000     0.000000000  0.098619329  0.000000000
     0.000000000  0.000000000 15.000000000     0.000000000  0.000000000  0.066666667

  length of vectors
     6.019200000 10.140000000 15.000000000     0.166135035  0.098619329  0.066666667


 FORCES acting on ions
    electron-ion (+dipol)            ewald-force                    non-local-force                 convergence-correction
 -----------------------------------------------------------------------------------------------
   0.119E+01 0.362E+02 0.156E+02   -.119E+01 -.347E+02 -.156E+02   -.105E-01 -.154E+01 -.318E-01   -.381E-04 0.939E-04 0.319E-04
   -.123E+01 0.438E+02 0.334E+02   0.122E+01 -.404E+02 -.329E+02   0.357E-03 -.341E+01 -.478E+00   0.312E-04 0.947E-05 0.154E-04
   0.497E+01 -.387E+02 0.606E+01   -.401E+01 0.387E+02 -.612E+01   -.963E+00 0.824E-02 0.527E-01   -.386E-04 -.177E-03 -.173E-03
   -.821E+01 -.466E+02 0.359E+02   0.664E+01 0.452E+02 -.359E+02   0.156E+01 0.139E+01 -.374E-02   -.972E-05 -.128E-03 -.205E-03
   0.597E+01 0.551E+02 0.455E+02   -.435E+01 -.534E+02 -.444E+02   -.163E+01 -.177E+01 -.101E+01   0.466E-04 0.693E-04 -.118E-03
   -.333E+01 0.579E+02 0.150E+02   0.181E+01 -.561E+02 -.153E+02   0.151E+01 -.175E+01 0.259E+00   -.123E-03 0.450E-07 -.148E-03
   0.743E+00 -.524E+02 0.363E+02   -.697E+00 0.486E+02 -.353E+02   -.521E-01 0.380E+01 -.953E+00   -.334E-04 0.273E-04 0.709E-04
   -.487E+00 -.512E+02 0.106E+02   0.390E+00 0.477E+02 -.107E+02   0.896E-01 0.350E+01 0.559E-01   0.410E-05 0.854E-04 0.993E-04
   0.747E-01 -.742E+01 0.238E+02   0.261E+00 0.716E+01 -.237E+02   -.344E+00 0.257E+00 -.930E-01   0.368E-03 0.224E-03 -.405E-04
   0.496E-01 -.635E+01 0.412E+02   -.363E+00 0.603E+01 -.419E+02   0.306E+00 0.316E+00 0.621E+00   -.136E-03 0.296E-03 0.721E-03
   0.522E+01 0.133E+02 0.161E+02   -.416E+01 -.120E+02 -.210E+02   -.107E+01 -.134E+01 0.499E+01   0.587E-03 0.538E-03 -.213E-02
   -.793E+00 0.740E+01 0.651E+02   0.209E+00 -.673E+01 -.661E+02   0.577E+00 -.667E+00 0.107E+01   0.130E-03 -.111E-03 -.136E-03
   -.400E+02 -.220E+00 -.230E+03   0.465E+02 -.428E+01 0.232E+03   -.647E+01 0.452E+01 -.149E+01   -.735E-03 -.194E-02 0.977E-04
   0.329E+02 -.269E+02 -.448E+02   -.362E+02 0.292E+02 0.457E+02   0.338E+01 -.224E+01 -.924E+00   -.447E-03 -.112E-03 0.992E-04
   0.592E+01 0.143E+02 -.665E+02   -.604E+01 -.149E+02 0.714E+02   0.891E-01 0.552E+00 -.489E+01   0.181E-03 0.803E-04 0.316E-03
 -----------------------------------------------------------------------------------------------
   0.301E+01 -.164E+01 0.283E+01   0.000E+00 -.178E-14 -.142E-13   -.301E+01 0.164E+01 -.282E+01   -.212E-03 -.105E-02 -.150E-02


 POSITION                                       TOTAL-FORCE (eV/Angst)
 -----------------------------------------------------------------------------------
      2.59862      8.86587      3.78432        -0.008413     -0.005316     -0.012547
      5.61214      8.89356      3.56833        -0.007419     -0.004099      0.015257
      2.69919      6.34070      4.50185        -0.007347     -0.002979     -0.002795
      5.60817      6.31303      3.87029        -0.007862     -0.001415      0.019378
      2.62216      3.84640      3.71423        -0.005868     -0.005327      0.011094
      5.52470      3.77585      3.94950        -0.006600     -0.003516     -0.020784
      2.59952      1.20819      3.47477        -0.006408     -0.003505      0.007630
      5.59647      1.20389      3.69616        -0.007573     -0.002152     -0.021866
      1.09547     10.13227      3.64755        -0.007134     -0.002900     -0.001205
      4.09891     10.12067      3.53393        -0.007459     -0.004433     -0.004295
      1.07885      5.00040      4.34174        -0.007256     -0.005408      0.010887
      4.10662      5.07570      3.76829        -0.007182     -0.002739     -0.004912
      3.07624      6.48758      6.75639         0.050674      0.023388     -0.013926
      1.96982      7.22075      7.04141         0.063477      0.047035      0.005938
      1.03820      4.85716      5.44983        -0.027631     -0.026634      0.012147
 -----------------------------------------------------------------------------------
    total drift:                                0.000251     -0.000077      0.002962


--------------------------------------------------------------------------------------------------------



  FREE ENERGIE OF THE ION-ELECTRON SYSTEM (eV)
  ---------------------------------------------------
  free  energy   TOTEN  =       -72.73363647 eV

  energy  without entropy=      -72.73363647  energy(sigma->0) =      -72.73363647

 d Force = 0.3295644E-04[ 0.325E-04, 0.334E-04]  d Energy = 0.3326883E-04-0.312E-06
 d Force =-0.7562358E-02[-0.756E-02,-0.756E-02]  d Ewald  =-0.7562358E-02 0.211E-10


--------------------------------------------------------------------------------------------------------


    POTLOK:  cpu time    2.2363: real time    2.2370


--------------------------------------------------------------------------------------------------------


 NEB: the previous image is higher in energy: T
 NEB: the next image is higher in energy    : F
 NEB: only prev energy greater

 NEB: Tangent
 ----------------------------------------------
     -0.07154     -0.04669     -0.10643
     -0.06309     -0.03573      0.12989
     -0.06066     -0.02500     -0.02566
     -0.06791     -0.01195      0.16427
     -0.04869     -0.04677      0.09254
     -0.05657     -0.03081     -0.17610
     -0.05460     -0.02911      0.06460
     -0.06412     -0.01882     -0.18608
     -0.06306     -0.02539     -0.01107
     -0.06350     -0.03804     -0.03618
     -0.06207     -0.04813      0.10969
     -0.06095     -0.02362     -0.04396
      0.40957      0.21055     -0.11443
      0.55297      0.38787      0.04826
     -0.22742     -0.21922      0.08794

 NEB: forces: par spring, perp REAL, dneb     0.004024    0.004647    0.000000
 NEB: distance to prev, next image, angle between     0.523559    0.524364  162.389794
 NEB: projections on to tangent (spring, REAL)     0.004024    0.118402

 stress matrix after NEB project (eV)
      1.18843      0.32943      0.30793
      0.32943     -2.65670      0.17256
      0.30793      0.17256     -0.66848
  FORCES: max atom, RMS     0.003979    0.001587
  FORCE total and by dimension    0.006147    0.003827
  Stress total and by dimension    3.063259    2.656704
 Quasi-Newton relaxation of ions (Broydens 2nd method)
  g(Force)  = 0.285E-04   g(Stress)= 0.000E+00

 retain information from N=  3 steps
 eigenvalues of (default step * inverse Hessian matrix)
  average eigenvalue of G=   5.6054
 eigenvalue spectrum of G is  3.4836  6.6663  6.6663


--------------------------------------------------------------------------------------------------------


    WAVPRE:  cpu time   65.1353: real time   66.7673
    FEWALD:  cpu time    0.0025: real time    0.0025
    ORTHCH:  cpu time    3.4884: real time    3.4888
     LOOP+:  cpu time  185.3293: real time  188.9428


--------------------------------------- Iteration      6(   1)  ---------------------------------------


    POTLOK:  cpu time    2.5697: real time    2.5805
    SETDIJ:  cpu time    0.0545: real time    0.0548
     EDDAV:  cpu time   30.2449: real time   30.3720
       DOS:  cpu time    0.0006: real time    0.0006
    CHARGE:  cpu time    2.0976: real time    2.1000
    MIXING:  cpu time    0.0532: real time    0.0531
    --------------------------------------------
      LOOP:  cpu time   35.0204: real time   35.1610

 eigenvalue-minimisations  :   528
 total energy-change (2. order) :-0.3693647E-04  (-0.1046683E-04)
 number of electron      47.9999999 magnetization 
 augmentation part       -0.7400529 magnetization 

 Broyden mixing:
  rms(total) = 0.25622E-03    rms(broyden)= 0.25604E-03
  rms(prec ) = 0.28330E-03
  weight for this iteration     100.00

 Free energy of the ion-electron system (eV)
  ---------------------------------------------------
  alpha Z        PSCENC =        14.13034224
  Ewald energy   TEWEN  =      1509.86095249
  -Hartree energ DENC   =     -2688.54430847
  -exchange      EXHF   =         0.00000000
  -V(xc)+E(xc)   XCENC  =      -140.24549540
  PAW double counting   =      1751.84351178    -1494.34046826
  entropy T*S    EENTRO =        -0.00000000
  eigenvalues    EBANDS =      -344.08010018
  atomic energy  EATOM  =      1318.64189276
  Solvation  Ediel_sol  =         0.00000000
  ---------------------------------------------------
  free energy    TOTEN  =       -72.73367304 eV

  energy without entropy =      -72.73367304  energy(sigma->0) =      -72.73367304


--------------------------------------------------------------------------------------------------------




--------------------------------------- Iteration      6(   2)  ---------------------------------------


    POTLOK:  cpu time    2.2128: real time    2.2132
    SETDIJ:  cpu time    0.0596: real time    0.0596
     EDDAV:  cpu time   35.2915: real time   35.3064
       DOS:  cpu time    0.0007: real time    0.0007
    --------------------------------------------
      LOOP:  cpu time   37.5647: real time   37.5799

 eigenvalue-minimisations  :   640
 total energy-change (2. order) :-0.5268259E-06  (-0.6320263E-06)
 number of electron      47.9999999 magnetization 
 augmentation part       -0.7400529 magnetization 

 Free energy of the ion-electron system (eV)
  ---------------------------------------------------
  alpha Z        PSCENC =        14.13034224
  Ewald energy   TEWEN  =      1509.86095249
  -Hartree energ DENC   =     -2688.54260794
  -exchange      EXHF   =         0.00000000
  -V(xc)+E(xc)   XCENC  =      -140.24561937
  PAW double counting   =      1751.82684424    -1494.32377314
  entropy T*S    EENTRO =        -0.00000000
  eigenvalues    EBANDS =      -344.08170486
  atomic energy  EATOM  =      1318.64189276
  Solvation  Ediel_sol  =         0.00000000
  ---------------------------------------------------
  free energy    TOTEN  =       -72.73367357 eV

  energy without entropy =      -72.73367357  energy(sigma->0) =      -72.73367357


--------------------------------------------------------------------------------------------------------




 average (electrostatic) potential at core
  the test charge radii are     1.0406  0.6991  1.0339  0.5883
  (the norm of the test charge is              1.0000)
       1 -59.2044       2 -59.4261       3 -59.3831       4 -59.8960       5 -59.8027
       6 -59.7864       7 -59.4025       8 -59.3703       9 -55.2678      10 -55.2358
      11 -56.0158      12 -55.6562      13 -96.4495      14 -38.0616      15 -38.1617



 E-fermi :  -2.0701     XC(G=0):  -3.2256     alpha+bet : -2.6874


 k-point     1 :       0.0000    0.0000    0.0000
  band No.  band energies     occupation 
      1     -15.1982      2.00000
      2     -14.6639      2.00000
      3     -13.8158      2.00000
      4     -12.7650      2.00000
      5     -11.6897      2.00000
      6      -8.9925      2.00000
      7      -8.8902      2.00000
      8      -8.6531      2.00000
      9      -7.6185      2.00000
     10      -7.3460      2.00000
     11      -6.7558      2.00000
     12      -6.2615      2.00000
     13      -5.8874      2.00000
     14      -5.2872      2.00000
     15      -5.0852      2.00000
     16      -4.7594      2.00000
     17      -4.3514      2.00000
     18      -3.9970      2.00000
     19      -3.9187      2.00000
     20      -3.3636      2.00000
     21      -3.2041      2.00000
     22      -2.9545      2.00000
     23      -2.5216      2.00000
     24      -2.3322      2.00000
     25      -1.6230      0.00000
     26      -1.1590      0.00000
     27      -0.4205      0.00000
     28      -0.0959      0.00000
     29      -0.0105      0.00000
     30       0.4555      0.00000
     31       0.6057      0.00000
     32       0.8110      0.00000

 k-point     2 :       0.2000    0.0000    0.0000
  band No.  band energies     occupation 
      1     -15.1658      2.00000
      2     -14.6249      2.00000
      3     -13.6919      2.00000
      4     -12.9694      2.00000
      5     -12.0698      2.00000
      6      -8.7534      2.00000
      7      -8.6708      2.00000
      8      -8.0916      2.00000
      9      -7.5061      2.00000
     10      -7.3115      2.00000
     11      -6.6795      2.00000
     12      -6.6002      2.00000
     13      -6.1434      2.00000
     14      -5.3507      2.00000
     15      -5.0141      2.00000
     16      -4.6517      2.00000
     17      -4.3991      2.00000
     18      -4.0961      2.00000
     19      -3.7397      2.00000
     20      -3.6766      2.00000
     21      -3.6206      2.00000
     22      -3.4140      2.00000
     23      -2.8065      2.00000
     24      -2.5142      2.00000
     25      -1.5287      0.00000
     26      -0.4591      0.00000
     27      -0.3324      0.00000
     28       0.0101      0.00000
     29       0.2368      0.00000
     30       0.7007      0.00000
     31       0.7545      0.00000
     32       0.9114      0.00000

 k-point     3 :       0.4000    0.0000    0.0000
  band No.  band energies     occupation 
      1     -15.1156      2.00000
      2     -14.5308      2.00000
      3     -13.3597      2.00000
      4     -13.2666      2.00000
      5     -12.7416      2.00000
      6      -8.3581      2.00000
      7      -8.2614      2.00000
      8      -7.6916      2.00000
      9      -7.3050      2.00000
     10      -6.8648      2.00000
     11      -6.6956      2.00000
     12      -6.3507      2.00000
     13      -5.9399      2.00000
     14      -5.8304      2.00000
     15      -5.3574      2.00000
     16      -5.0926      2.00000
     17      -5.0158      2.00000
     18      -4.4492      2.00000
     19      -4.2436      2.00000
     20      -3.8275      2.00000
     21      -3.6914      2.00000
     22      -3.4998      2.00000
     23      -3.0086      2.00000
     24      -2.5401      2.00000
     25      -1.2025      0.00000
     26      -0.7066      0.00000
     27      -0.1781      0.00000
     28       0.6030      0.00000
     29       0.8370      0.00000
     30       1.1916      0.00000
     31       1.2755      0.00000
     32       1.3358      0.00000

 k-point     4 :       0.0000    0.3333    0.0000
  band No.  band energies     occupation 
      1     -15.1975      2.00000
      2     -14.6633      2.00000
      3     -13.8193      2.00000
      4     -12.7669      2.00000
      5     -11.6906      2.00000
      6      -8.9560      2.00000
      7      -8.7054      2.00000
      8      -8.6296      2.00000
      9      -7.9356      2.00000
     10      -7.4647      2.00000
     11      -7.1576      2.00000
     12      -5.7636      2.00000
     13      -5.4392      2.00000
     14      -5.2809      2.00000
     15      -4.9636      2.00000
     16      -4.7861      2.00000
     17      -4.2862      2.00000
     18      -4.0285      2.00000
     19      -3.9044      2.00000
     20      -3.6851      2.00000
     21      -3.3493      2.00000
     22      -3.0662      2.00000
     23      -2.9547      2.00000
     24      -2.3295      2.00000
     25      -1.4136      0.00000
     26      -0.7885      0.00000
     27      -0.5899      0.00000
     28      -0.1400      0.00000
     29       0.3743      0.00000
     30       0.4639      0.00000
     31       0.6183      0.00000
     32       0.7581      0.00000

 k-point     5 :       0.2000    0.3333    0.0000
  band No.  band energies     occupation 
      1     -15.1652      2.00000
      2     -14.6242      2.00000
      3     -13.6941      2.00000
      4     -12.9715      2.00000
      5     -12.0716      2.00000
      6      -8.6767      2.00000
      7      -8.4798      2.00000
      8      -8.1223      2.00000
      9      -7.8312      2.00000
     10      -7.3002      2.00000
     11      -7.1702      2.00000
     12      -6.3911      2.00000
     13      -5.7919      2.00000
     14      -5.2951      2.00000
     15      -4.7943      2.00000
     16      -4.6500      2.00000
     17      -4.3461      2.00000
     18      -3.9687      2.00000
     19      -3.7926      2.00000
     20      -3.6951      2.00000
     21      -3.6334      2.00000
     22      -3.5266      2.00000
     23      -2.9907      2.00000
     24      -2.7899      2.00000
     25      -1.2287      0.00000
     26      -0.7911      0.00000
     27      -0.3547      0.00000
     28      -0.0726      0.00000
     29       0.3778      0.00000
     30       0.6575      0.00000
     31       0.7607      0.00000
     32       0.9536      0.00000

 k-point     6 :       0.4000    0.3333    0.0000
  band No.  band energies     occupation 
      1     -15.1154      2.00000
      2     -14.5303      2.00000
      3     -13.3370      2.00000
      4     -13.2908      2.00000
      5     -12.7460      2.00000
      6      -8.3258      2.00000
      7      -8.0936      2.00000
      8      -7.6087      2.00000
      9      -7.3148      2.00000
     10      -7.0188      2.00000
     11      -6.8384      2.00000
     12      -6.6487      2.00000
     13      -6.4571      2.00000
     14      -5.4938      2.00000
     15      -5.2361      2.00000
     16      -4.8616      2.00000
     17      -4.5019      2.00000
     18      -4.2602      2.00000
     19      -4.1922      2.00000
     20      -3.8464      2.00000
     21      -3.6647      2.00000
     22      -3.5207      2.00000
     23      -3.3195      2.00000
     24      -2.8751      2.00000
     25      -1.0142      0.00000
     26      -0.7938      0.00000
     27      -0.1977      0.00000
     28       0.5523      0.00000
     29       0.6094      0.00000
     30       0.8091      0.00000
     31       1.0634      0.00000
     32       1.3474      0.00000

 k-point     7 :      -0.4000    0.3333    0.0000
  band No.  band energies     occupation 
      1     -15.1155      2.00000
      2     -14.5302      2.00000
      3     -13.3434      2.00000
      4     -13.2840      2.00000
      5     -12.7465      2.00000
      6      -8.3500      2.00000
      7      -8.0771      2.00000
      8      -7.5478      2.00000
      9      -7.2954      2.00000
     10      -7.1133      2.00000
     11      -6.8396      2.00000
     12      -6.6794      2.00000
     13      -6.4085      2.00000
     14      -5.5124      2.00000
     15      -5.2179      2.00000
     16      -4.8381      2.00000
     17      -4.5077      2.00000
     18      -4.2982      2.00000
     19      -4.1510      2.00000
     20      -3.8540      2.00000
     21      -3.6457      2.00000
     22      -3.5495      2.00000
     23      -3.3034      2.00000
     24      -2.8839      2.00000
     25      -1.2169      0.00000
     26      -0.4998      0.00000
     27      -0.1776      0.00000
     28       0.4604      0.00000
     29       0.6313      0.00000
     30       0.7406      0.00000
     31       1.0001      0.00000
     32       1.3317      0.00000

 k-point     8 :      -0.2000    0.3333    0.0000
  band No.  band energies     occupation 
      1     -15.1653      2.00000
      2     -14.6240      2.00000
      3     -13.6946      2.00000
      4     -12.9710      2.00000
      5     -12.0718      2.00000
      6      -8.6879      2.00000
      7      -8.4884      2.00000
      8      -8.1145      2.00000
      9      -7.7480      2.00000
     10      -7.4090      2.00000
     11      -7.1303      2.00000
     12      -6.4133      2.00000
     13      -5.7955      2.00000
     14      -5.2810      2.00000
     15      -4.7742      2.00000
     16      -4.6815      2.00000
     17      -4.3000      2.00000
     18      -3.9904      2.00000
     19      -3.7740      2.00000
     20      -3.6951      2.00000
     21      -3.6256      2.00000
     22      -3.5073      2.00000
     23      -3.0266      2.00000
     24      -2.7949      2.00000
     25      -1.4040      0.00000
     26      -0.5301      0.00000
     27      -0.3572      0.00000
     28      -0.1023      0.00000
     29       0.3567      0.00000
     30       0.5930      0.00000
     31       0.8077      0.00000
     32       0.9423      0.00000


--------------------------------------------------------------------------------------------------------


 soft charge-density along one line, spin component           1
         0         1         2         3         4         5         6         7         8         9
 total charge-density along one line

 pseudopotential strength for first ion, spin component:           1
  7.448 -17.450  -0.003   0.000   0.000   0.016  -0.000  -0.000
-17.450  50.480   0.008  -0.000  -0.000  -0.038   0.001   0.000
 -0.003   0.008   1.742   0.000  -0.000  -6.878  -0.002   0.000
  0.000  -0.000   0.000   1.745   0.000  -0.002  -6.895  -0.001
  0.000  -0.000  -0.000   0.000   1.743   0.000  -0.001  -6.881
  0.016  -0.038  -6.878  -0.002   0.000  29.276   0.010  -0.000
 -0.000   0.001  -0.002  -6.895  -0.001   0.010  29.348   0.002
 -0.000   0.000   0.000  -0.001  -6.881  -0.000   0.002  29.288
 -0.000   0.000   0.000   0.000  -0.002  -0.000  -0.000   0.007
  0.003  -0.003  -0.000  -0.002   0.000   0.000   0.006  -0.000
  0.009  -0.011   0.001  -0.000  -0.000  -0.002  -0.000   0.000
  0.001  -0.001   0.000  -0.000  -0.000  -0.000   0.000  -0.000
  0.002  -0.002   0.001   0.000  -0.000  -0.003  -0.000   0.000
  0.000  -0.000  -0.000  -0.000   0.007   0.000   0.000  -0.028
 -0.010   0.017   0.001   0.007  -0.000  -0.003  -0.028   0.000
 -0.036   0.064  -0.002   0.000   0.000   0.010  -0.000  -0.000
 -0.002   0.004  -0.000   0.000   0.000   0.000  -0.000  -0.001
 -0.006   0.011  -0.004  -0.000   0.000   0.017   0.001  -0.000
 total augmentation occupancy for first ion, spin component:           1
  1.400   0.017  -0.070   0.018   0.001   0.004  -0.000  -0.000  -0.002  -0.029  -0.087  -0.004  -0.028  -0.000  -0.001  -0.005
  0.017   0.000   0.009  -0.001  -0.000   0.000  -0.000  -0.000  -0.000  -0.001  -0.002  -0.000   0.000  -0.000  -0.000  -0.000
 -0.070   0.009   1.298  -0.132  -0.003   0.018  -0.002  -0.000  -0.001   0.004  -0.075  -0.007   0.050  -0.000  -0.000  -0.003
  0.018  -0.001  -0.132   0.400  -0.026  -0.002   0.005  -0.000  -0.008   0.052  -0.003   0.001  -0.018  -0.000   0.001   0.000
  0.001  -0.000  -0.003  -0.026   1.080  -0.000  -0.000   0.017   0.221  -0.007   0.002  -0.032  -0.000   0.007  -0.000   0.000
  0.004   0.000   0.018  -0.002  -0.000   0.000  -0.000  -0.000  -0.000  -0.000  -0.001  -0.000   0.000  -0.000  -0.000  -0.000
 -0.000  -0.000  -0.002   0.005  -0.000  -0.000   0.000  -0.000  -0.000   0.001   0.000   0.000  -0.000  -0.000   0.000   0.000
 -0.000  -0.000  -0.000  -0.000   0.017  -0.000  -0.000   0.000   0.004  -0.000   0.000  -0.001  -0.000   0.000  -0.000   0.000
 -0.002  -0.000  -0.001  -0.008   0.221  -0.000  -0.000   0.004   0.063  -0.002   0.000  -0.007   0.000   0.002  -0.000   0.000
 -0.029  -0.001   0.004   0.052  -0.007  -0.000   0.001  -0.000  -0.002   0.011  -0.001   0.000   0.004  -0.000   0.000   0.000
 -0.087  -0.002  -0.075  -0.003   0.002  -0.001   0.000   0.000   0.000  -0.001   0.013  -0.000  -0.004   0.000   0.000   0.001
 -0.004  -0.000  -0.007   0.001  -0.032  -0.000   0.000  -0.001  -0.007   0.000  -0.000   0.020  -0.001  -0.000   0.000   0.000
 -0.028   0.000   0.050  -0.018  -0.000   0.000  -0.000  -0.000   0.000   0.004  -0.004  -0.001   0.038   0.000   0.000  -0.000
 -0.000  -0.000  -0.000  -0.000   0.007  -0.000  -0.000   0.000   0.002  -0.000   0.000  -0.000   0.000   0.000  -0.000   0.000
 -0.001  -0.000  -0.000   0.001  -0.000  -0.000   0.000  -0.000  -0.000   0.000   0.000   0.000   0.000  -0.000   0.000   0.000
 -0.005  -0.000  -0.003   0.000   0.000  -0.000   0.000   0.000   0.000   0.000   0.001   0.000  -0.000   0.000   0.000   0.000
 -0.000  -0.000  -0.000   0.000  -0.001  -0.000   0.000  -0.000  -0.000   0.000   0.000   0.000  -0.000  -0.000   0.000   0.000
 -0.001   0.000   0.000  -0.000  -0.000  -0.000  -0.000  -0.000   0.000   0.000  -0.000  -0.000   0.001   0.000   0.000  -0.000


------------------------ aborting loop because EDIFF is reached ----------------------------------------


    CHARGE:  cpu time    2.1029: real time    2.1033
    FORLOC:  cpu time    0.3202: real time    0.3204
    FORNL :  cpu time    9.2786: real time    9.2832
    STRESS:  cpu time   28.3608: real time   28.3710
    FORCOR:  cpu time    2.2418: real time    2.2423
    FORHAR:  cpu time    0.8605: real time    0.8606
    MIXING:  cpu time    0.0444: real time    0.0444
    OFIELD:  cpu time    0.0000: real time    0.0000

  FORCE on cell =-STRESS in cart. coord.  units (eV):
  Direction    XX          YY          ZZ          XY          YZ          ZX
  --------------------------------------------------------------------------------------
  Alpha Z    14.13034    14.13034    14.13034
  Ewald    2473.29104  2059.90234 -3023.33393    -6.95318    64.51485     6.09376
  Hartree  2512.59181  2216.44886 -2040.49946     4.22489    37.19295     5.63820
  E(xc)    -153.82788  -154.92253  -154.46511    -0.08723     0.08587    -0.03140
  Local   -5480.61036 -4781.09184  4580.15544    -4.89973   -99.59788   -15.38580
  n-local   195.42257   207.53763   169.32939     0.42054     0.23553     0.52830
  augment   -24.03242   -25.09974   -22.75294    -0.52666     0.14904    -0.22472
  Kinetic   464.21699   460.43355   476.76302     8.15245    -2.40770     3.69050
  Fock        0.00000     0.00000     0.00000     0.00000     0.00000     0.00000
  -------------------------------------------------------------------------------------
  Total       1.18210    -2.66139    -0.67324     0.33109     0.17265     0.30884
  in kB       2.06870    -4.65749    -1.17818     0.57942     0.30214     0.54047
  external pressure =       -1.26 kB  Pullay stress =        0.00 kB


 VOLUME and BASIS-vectors are now :
 -----------------------------------------------------------------------------
  energy-cutoff  :      450.00
  volume of cell :      915.52
      direct lattice vectors                 reciprocal lattice vectors
     6.019200000  0.000000000  0.000000000     0.166135035  0.000000000  0.000000000
     0.000000000 10.140000000  0.000000000     0.000000000  0.098619329  0.000000000
     0.000000000  0.000000000 15.000000000     0.000000000  0.000000000  0.066666667

  length of vectors
     6.019200000 10.140000000 15.000000000     0.166135035  0.098619329  0.066666667


 FORCES acting on ions
    electron-ion (+dipol)            ewald-force                    non-local-force                 convergence-correction
 -----------------------------------------------------------------------------------------------
   0.119E+01 0.362E+02 0.156E+02   -.119E+01 -.347E+02 -.156E+02   -.103E-01 -.154E+01 -.319E-01   -.387E-04 -.654E-04 0.216E-03
   -.123E+01 0.438E+02 0.334E+02   0.122E+01 -.404E+02 -.329E+02   0.524E-03 -.341E+01 -.478E+00   0.426E-04 0.413E-05 0.102E-03
   0.497E+01 -.387E+02 0.606E+01   -.402E+01 0.387E+02 -.612E+01   -.963E+00 0.842E-02 0.524E-01   -.558E-03 -.167E-03 0.476E-03
   -.821E+01 -.466E+02 0.359E+02   0.664E+01 0.452E+02 -.358E+02   0.156E+01 0.139E+01 -.346E-02   0.328E-03 -.149E-03 0.209E-03
   0.597E+01 0.551E+02 0.455E+02   -.435E+01 -.534E+02 -.444E+02   -.163E+01 -.177E+01 -.101E+01   -.288E-03 0.669E-04 0.277E-03
   -.333E+01 0.579E+02 0.150E+02   0.181E+01 -.561E+02 -.153E+02   0.151E+01 -.175E+01 0.260E+00   0.263E-03 0.358E-04 0.320E-03
   0.743E+00 -.524E+02 0.363E+02   -.697E+00 0.486E+02 -.353E+02   -.519E-01 0.380E+01 -.953E+00   -.201E-04 0.112E-03 0.124E-03
   -.488E+00 -.512E+02 0.106E+02   0.391E+00 0.477E+02 -.107E+02   0.898E-01 0.350E+01 0.557E-01   0.122E-04 0.833E-04 0.200E-03
   0.767E-01 -.742E+01 0.238E+02   0.260E+00 0.716E+01 -.237E+02   -.344E+00 0.257E+00 -.930E-01   -.154E-03 0.148E-03 0.649E-04
   0.488E-01 -.635E+01 0.412E+02   -.363E+00 0.603E+01 -.419E+02   0.306E+00 0.316E+00 0.621E+00   0.180E-03 0.243E-03 0.726E-03
   0.521E+01 0.133E+02 0.160E+02   -.415E+01 -.120E+02 -.210E+02   -.107E+01 -.134E+01 0.500E+01   0.454E-03 0.199E-03 0.207E-02
   -.792E+00 0.740E+01 0.651E+02   0.208E+00 -.673E+01 -.661E+02   0.577E+00 -.667E+00 0.107E+01   0.250E-03 -.525E-04 0.961E-04
   -.400E+02 -.228E+00 -.230E+03   0.465E+02 -.427E+01 0.232E+03   -.647E+01 0.453E+01 -.148E+01   -.406E-02 -.672E-04 0.156E-02
   0.329E+02 -.269E+02 -.448E+02   -.362E+02 0.292E+02 0.457E+02   0.338E+01 -.224E+01 -.923E+00   0.508E-05 -.542E-03 -.296E-04
   0.592E+01 0.143E+02 -.665E+02   -.604E+01 -.149E+02 0.714E+02   0.894E-01 0.552E+00 -.489E+01   0.240E-03 0.251E-03 -.273E-03
 -----------------------------------------------------------------------------------------------
   0.302E+01 -.164E+01 0.281E+01   0.711E-14 0.551E-13 0.853E-13   -.302E+01 0.164E+01 -.281E+01   -.335E-02 0.994E-04 0.613E-02


 POSITION                                       TOTAL-FORCE (eV/Angst)
 -----------------------------------------------------------------------------------
      2.59861      8.86586      3.78429        -0.008334     -0.005549     -0.012488
      5.61213      8.89355      3.56836        -0.007308     -0.004181      0.015252
      2.69918      6.34069      4.50187        -0.007099     -0.003035     -0.002950
      5.60816      6.31302      3.87033        -0.008122     -0.001380      0.019223
      2.62214      3.84640      3.71426        -0.005502     -0.005523      0.010933
      5.52468      3.77585      3.94947        -0.006680     -0.003580     -0.020922
      2.59951      1.20818      3.47479        -0.006305     -0.003404      0.007648
      5.59645      1.20388      3.69613        -0.007435     -0.002246     -0.021878
      1.09547     10.13227      3.64755        -0.007524     -0.002979     -0.001212
      4.09890     10.12066      3.53391        -0.007336     -0.004492     -0.004256
      1.07883      5.00040      4.34169        -0.007268     -0.005864      0.014532
      4.10660      5.07571      3.76829        -0.007133     -0.002893     -0.004889
      3.07647      6.48761      6.75635         0.046159      0.026773     -0.012766
      1.96991      7.22091      7.04142         0.067208      0.044547      0.005089
      1.03807      4.85705      5.44991        -0.027321     -0.026195      0.008682
 -----------------------------------------------------------------------------------
    total drift:                               -0.000355      0.000968      0.003026


--------------------------------------------------------------------------------------------------------



  FREE ENERGIE OF THE ION-ELECTRON SYSTEM (eV)
  ---------------------------------------------------
  free  energy   TOTEN  =       -72.73367357 eV

  energy  without entropy=      -72.73367357  energy(sigma->0) =      -72.73367357

 d Force = 0.3673088E-04[ 0.359E-04, 0.375E-04]  d Energy = 0.3710644E-04-0.376E-06
 d Force = 0.8595644E-02[ 0.859E-02, 0.860E-02]  d Ewald  = 0.8595644E-02 0.516E-10


--------------------------------------------------------------------------------------------------------


    POTLOK:  cpu time    2.2679: real time    2.2714


--------------------------------------------------------------------------------------------------------


 NEB: the previous image is higher in energy: T
 NEB: the next image is higher in energy    : F
 NEB: only prev energy greater

 NEB: Tangent
 ----------------------------------------------
     -0.07169     -0.04678     -0.10686
     -0.06326     -0.03590      0.13004
     -0.06070     -0.02499     -0.02640
     -0.06792     -0.01216      0.16452
     -0.04898     -0.04694      0.09257
     -0.05656     -0.03088     -0.17589
     -0.05476     -0.02923      0.06471
     -0.06422     -0.01893     -0.18645
     -0.06319     -0.02557     -0.01127
     -0.06361     -0.03816     -0.03616
     -0.06219     -0.04826      0.11027
     -0.06101     -0.02384     -0.04481
      0.40896      0.20950     -0.11479
      0.55335      0.38894      0.04909
     -0.22579     -0.21765      0.08878

 NEB: forces: par spring, perp REAL, dneb     0.005018    0.004692    0.000000
 NEB: distance to prev, next image, angle between     0.522856    0.523860  162.499843
 NEB: projections on to tangent (spring, REAL)     0.005018    0.118126

 stress matrix after NEB project (eV)
      1.18210      0.33109      0.30884
      0.33109     -2.66139      0.17265
      0.30884      0.17265     -0.67324
  FORCES: max atom, RMS     0.004676    0.001774
  FORCE total and by dimension    0.006869    0.004620
  Stress total and by dimension    3.066470    2.661393
 Quasi-Newton relaxation of ions (Broydens 2nd method)
  g(Force)  = 0.206E-04   g(Stress)= 0.000E+00

 retain information from N=  2 steps
 eigenvalues of (default step * inverse Hessian matrix)
  average eigenvalue of G=   5.5641
 eigenvalue spectrum of G is  5.5641  5.5641


--------------------------------------------------------------------------------------------------------


  
 reached required accuracy - stopping structural energy minimisation
     LOOP+:  cpu time  181.1086: real time  184.9999
    4ORBIT:  cpu time    0.0000: real time    0.0000

 total amount of memory used by VASP MPI-rank0   231908. kBytes
=======================================================================

   base      :      30000. kBytes
   nonlr-proj:      11404. kBytes
   fftplans  :      44247. kBytes
   grid      :     104852. kBytes
   one-center:        233. kBytes
   wavefun   :      41172. kBytes

  
  
 General timing and accounting informations for this job:
 ========================================================
  
                  Total CPU time used (sec):     2048.291
                            User time (sec):     1810.285
                          System time (sec):      238.006
                         Elapsed time (sec):     2074.654
  
                   Maximum memory used (kb):      294156.
                   Average memory used (kb):           0.
  
                          Minor page faults:      7127603
                          Major page faults:            6
                 Voluntary context switches:         1577
