Al   C    S    H                        
   1.0000000000000000     
     6.0191999999999997    0.0000000000000000    0.0000000000000000
     0.0000000000000000   10.1400000000000006    0.0000000000000000
     0.0000000000000000    0.0000000000000000   15.0000000000000000
   Al   C    S    H 
     8     4     1     2
Selective dynamics
Direct
  0.4317215631218099  0.8743496262338192  0.2522907667792761   T   T   T
  0.9323715138895964  0.8770780514735210  0.2378862257875370   T   T   T
  0.4484297585658624  0.6253157574292124  0.3001198357091515   T   T   T
  0.9317176968030452  0.6225864966912592  0.2580164648966098   T   T   T
  0.4356358667515973  0.3793303457231598  0.2476121767745020   T   T   T
  0.9178582954419163  0.3723742543449738  0.2632984725545670   T   T   T
  0.4318702651718084  0.1191508906853993  0.2316505641734229   T   T   T
  0.9297704509902032  0.1187294850864400  0.2464099715616206   T   T   T
  0.1819995076708591  0.9992387584218461  0.2431689800690431   T   T   T
  0.6809744300192909  0.9980958627904960  0.2356008427525172   T   T   T
  0.1792390516992370  0.4931390609260616  0.2894422719869361   T   T   T
  0.6822583517408137  0.5005614648816863  0.2512199251411539   T   T   T
  0.5110367395160750  0.6397777532674684  0.4504277147648543   T   T   T
  0.3272170809349448  0.7120950179424406  0.4694284510926537   T   T   T
  0.1725178228879272  0.4790233089687386  0.3633258299738650   T   T   T

  0.00000000E+00  0.00000000E+00  0.00000000E+00
  0.00000000E+00  0.00000000E+00  0.00000000E+00
  0.00000000E+00  0.00000000E+00  0.00000000E+00
  0.00000000E+00  0.00000000E+00  0.00000000E+00
  0.00000000E+00  0.00000000E+00  0.00000000E+00
  0.00000000E+00  0.00000000E+00  0.00000000E+00
  0.00000000E+00  0.00000000E+00  0.00000000E+00
  0.00000000E+00  0.00000000E+00  0.00000000E+00
  0.00000000E+00  0.00000000E+00  0.00000000E+00
  0.00000000E+00  0.00000000E+00  0.00000000E+00
  0.00000000E+00  0.00000000E+00  0.00000000E+00
  0.00000000E+00  0.00000000E+00  0.00000000E+00
  0.00000000E+00  0.00000000E+00  0.00000000E+00
  0.00000000E+00  0.00000000E+00  0.00000000E+00
  0.00000000E+00  0.00000000E+00  0.00000000E+00
