Al2C                                    
           1
     6.019200    0.000000    0.000000
     0.000000   10.140000    0.000000
     0.000000    0.000000   15.000000
   Al   C    S    H 
   8   4   1   2
Direct configuration=     1
   0.43172156  0.87434963  0.25229077
   0.93237151  0.87707805  0.23788623
   0.44842976  0.62531576  0.30011984
   0.93171770  0.62258650  0.25801646
   0.43563587  0.37933035  0.24761218
   0.91785830  0.37237425  0.26329847
   0.43187027  0.11915089  0.23165056
   0.92977045  0.11872949  0.24640997
   0.18199951  0.99923876  0.24316898
   0.68097443  0.99809586  0.23560084
   0.17923905  0.49313906  0.28944227
   0.68225835  0.50056146  0.25121993
   0.51103674  0.63977775  0.45042771
   0.32721708  0.71209502  0.46942845
   0.17251782  0.47902331  0.36332583
Direct configuration=     2
   0.43172335  0.87434899  0.25229093
   0.93237300  0.87707824  0.23788598
   0.44843072  0.62531604  0.30012035
   0.93171766  0.62258670  0.25801598
   0.43563587  0.37933048  0.24761196
   0.91785729  0.37237403  0.26329961
   0.43187215  0.11915134  0.23165034
   0.92977162  0.11872881  0.24641098
   0.18199660  0.99923869  0.24316914
   0.68097368  0.99809592  0.23560046
   0.17923962  0.49313816  0.28944624
   0.68225797  0.50056163  0.25121983
   0.51103998  0.63977879  0.45042761
   0.32721243  0.71209408  0.46942846
   0.17251763  0.47902461  0.36332141
Direct configuration=     3
   0.43172349  0.87434894  0.25229040
   0.93237349  0.87707817  0.23788593
   0.44843155  0.62531587  0.30012103
   0.93171740  0.62258636  0.25801613
   0.43563530  0.37933085  0.24761227
   0.91785494  0.37237378  0.26330046
   0.43187198  0.11915092  0.23165014
   0.92977153  0.11872831  0.24641140
   0.18199876  0.99923856  0.24316921
   0.68097447  0.99809552  0.23559946
   0.17923987  0.49313883  0.28944161
   0.68225774  0.50056184  0.25121946
   0.51104105  0.63978333  0.45042773
   0.32721751  0.71209365  0.46942788
   0.17251242  0.47902218  0.36332747
Direct configuration=     4
   0.43172340  0.87434824  0.25228951
   0.93237409  0.87707757  0.23788677
   0.44843224  0.62531570  0.30012221
   0.93171592  0.62258629  0.25801697
   0.43563468  0.37933085  0.24761317
   0.91785037  0.37237317  0.26330135
   0.43187195  0.11915065  0.23165047
   0.92977112  0.11872775  0.24641203
   0.18199865  0.99923819  0.24316954
   0.68097322  0.99809483  0.23559770
   0.17923855  0.49313815  0.28944458
   0.68225588  0.50056237  0.25121911
   0.51106001  0.63978770  0.45042674
   0.32722425  0.71209839  0.46942801
   0.17250081  0.47901837  0.36332481
Direct configuration=     5
   0.43172234  0.87434615  0.25228774
   0.93237322  0.87707652  0.23788882
   0.44843085  0.62531537  0.30012342
   0.93171408  0.62258645  0.25801938
   0.43563282  0.37932952  0.24761510
   0.91784674  0.37237220  0.26329988
   0.43187180  0.11915040  0.23165147
   0.92976947  0.11872673  0.24641065
   0.18199629  0.99923764  0.24316982
   0.68097297  0.99809364  0.23559546
   0.17923487  0.49313631  0.28944933
   0.68225370  0.50056260  0.25121920
   0.51107145  0.63980078  0.45042620
   0.32725667  0.71210550  0.46942718
   0.17248161  0.47900959  0.36332183
Direct configuration=     6
   0.43172027  0.87434541  0.25228575
   0.93237165  0.87707597  0.23789088
   0.44842763  0.62531467  0.30012462
   0.93171236  0.62258622  0.25802216
   0.43562975  0.37932924  0.24761752
   0.91784312  0.37237173  0.26329782
   0.43187050  0.11914942  0.23165257
   0.92976704  0.11872619  0.24640867
   0.18199640  0.99923736  0.24317019
   0.68097121  0.99809266  0.23559369
   0.17923223  0.49313607  0.28944597
   0.68225092  0.50056268  0.25121943
   0.51110882  0.63980359  0.45042327
   0.32727113  0.71212082  0.46942813
   0.17245966  0.47899854  0.36332733
