 vasp.5.4.4.18Apr17-6-g9f103f2a35 (build Dec  6 2019 17:49:40) complex           
 executed on             LinuxGNU date 2021.08.05  13:47:16
 running on    4 total cores
 distrk:  each k-point on    4 cores,    1 groups
 distr:  one band on NCORES_PER_BAND=   1 cores,    4 groups


--------------------------------------------------------------------------------------------------------


 INCAR:
 POTCAR:    PAW Al_GW 19Mar2012                   
 POTCAR:    PAW C_GW 28Sep2005                    
 POTCAR:    PAW Al_GW 19Mar2012                   
   VRHFIN =Al: s2p1                                                             
   LEXCH  = PE                                                                  
   EATOM  =    53.5387 eV,    3.9350 Ry                                         
                                                                                
   TITEL  = PAW Al_GW 19Mar2012                                                 
   LULTRA =        F    use ultrasoft PP ?                                      
   IUNSCR =        1    unscreen: 0-lin 1-nonlin 2-no                           
   RPACOR =    1.500    partial core radius                                     
   POMASS =   26.982; ZVAL   =    3.000    mass and valenz                      
   RCORE  =    2.000    outmost cutoff radius                                   
   RWIGS  =    2.000; RWIGS  =    1.058    wigner-seitz radius (au A)           
   ENMAX  =  240.300; ENMIN  =  180.225 eV                                      
   ICORE  =        3    local potential                                         
   LCOR   =        T    correct aug charges                                     
   LPAW   =        T    paw PP                                                  
   EAUG   =  482.059                                                            
   DEXC   =    0.000                                                            
   RMAX   =    2.051    core radius for proj-oper                               
   RAUG   =    1.300    factor for augmentation sphere                          
   RDEP   =    2.096    radius for radial grids                                 
   RDEPT  =    1.856    core radius for aug-charge                              
                                                                                
   Atomic configuration                                                         
    7 entries                                                                   
     n  l   j            E        occ.                                          
     1  0  0.50     -1511.1048   2.0000                                         
     2  0  0.50      -108.1629   2.0000                                         
     2  1  1.50       -69.6402   6.0000                                         
     3  0  0.50        -7.7528   2.0000                                         
     3  1  1.50        -2.7121   1.0000                                         
     3  2  2.50        -2.7212   0.0000                                         
     4  3  2.50        -2.7212   0.0000                                         
   Description                                                                  
     l       E           TYP  RCUT    TYP  RCUT                                 
     0     -7.7528455     23  1.900                                             
     0     68.0291300     23  1.900                                             
     1     -2.7120682     23  1.900                                             
     1     68.0291300     23  1.900                                             
     2     -1.3605826     23  1.900                                             
     2     81.6349560     23  1.900                                             
     3     74.8320430     23  2.000                                             
  local pseudopotential read in
  partial core-charges read in
  partial kinetic energy density read in
  kinetic energy density of atom read in
  atomic valenz-charges read in
  non local Contribution for L=           0  read in
    real space projection operators read in
  non local Contribution for L=           0  read in
    real space projection operators read in
  non local Contribution for L=           1  read in
    real space projection operators read in
  non local Contribution for L=           1  read in
    real space projection operators read in
  non local Contribution for L=           2  read in
    real space projection operators read in
  non local Contribution for L=           2  read in
    real space projection operators read in
    PAW grid and wavefunctions read in

   number of l-projection  operators is LMAX  =           6
   number of lm-projection operators is LMMAX =          18

 POTCAR:    PAW C_GW 28Sep2005                    
   VRHFIN =C: s2p2                                                              
   LEXCH  = PE                                                                  
   EATOM  =   147.1560 eV,   10.8157 Ry                                         
                                                                                
   TITEL  = PAW C_GW 28Sep2005                                                  
   LULTRA =        F    use ultrasoft PP ?                                      
   IUNSCR =        0    unscreen: 0-lin 1-nonlin 2-no                           
   RPACOR =    0.000    partial core radius                                     
   POMASS =   12.011; ZVAL   =    4.000    mass and valenz                      
   RCORE  =    1.500    outmost cutoff radius                                   
   RWIGS  =    1.630; RWIGS  =    0.863    wigner-seitz radius (au A)           
   ENMAX  =  413.992; ENMIN  =  310.494 eV                                      
   ICORE  =        2    local potential                                         
   LCOR   =        T    correct aug charges                                     
   LPAW   =        T    paw PP                                                  
   EAUG   =  644.873                                                            
   DEXC   =    0.000                                                            
   RMAX   =    1.529    core radius for proj-oper                               
   RAUG   =    1.300    factor for augmentation sphere                          
   RDEP   =    1.501    radius for radial grids                                 
   RDEPT  =    1.300    core radius for aug-charge                              
                                                                                
   Atomic configuration                                                         
    4 entries                                                                   
     n  l   j            E        occ.                                          
     1  0  0.50      -273.3789   2.0000                                         
     2  0  0.50       -13.7508   2.0000                                         
     2  1  0.50        -5.2854   2.0000                                         
     3  2  1.50        -5.4423   0.0000                                         
   Description                                                                  
     l       E           TYP  RCUT    TYP  RCUT                                 
     0    -13.7508457     23  1.200                                             
     0     95.2407820     23  1.200                                             
     1     -5.2854382     23  1.500                                             
     1    108.8466080     23  1.500                                             
     2     -5.4423304      7  1.500                                             
  local pseudopotential read in
  kinetic energy density of atom read in
  atomic valenz-charges read in
  non local Contribution for L=           0  read in
    real space projection operators read in
  non local Contribution for L=           0  read in
    real space projection operators read in
  non local Contribution for L=           1  read in
    real space projection operators read in
  non local Contribution for L=           1  read in
    real space projection operators read in
    PAW grid and wavefunctions read in

   number of l-projection  operators is LMAX  =           4
   number of lm-projection operators is LMMAX =           8

 Optimization of the real space projectors (new method)

 maximal supplied QI-value         = 18.90
 optimisation between [QCUT,QGAM] = [ 10.77, 21.73] = [ 32.49,132.25] Ry 
 Optimized for a Real-space Cutoff    1.60 Angstroem

   l    n(q)    QCUT    max X(q) W(low)/X(q) W(high)/X(q)  e(spline) 
   0     10    10.771    11.519    0.58E-04    0.59E-05    0.18E-06
   0     10    10.771     5.834    0.29E-04    0.42E-05    0.15E-06
   1     10    10.771    10.132    0.17E-04    0.63E-04    0.28E-06
   1     10    10.771     3.004    0.11E-04    0.44E-04    0.22E-06
   2      9    10.771     3.188    0.19E-03    0.85E-04    0.37E-06
   2      9    10.771     1.607    0.20E-04    0.14E-04    0.40E-06
 Optimization of the real space projectors (new method)

 maximal supplied QI-value         = 25.13
 optimisation between [QCUT,QGAM] = [ 10.81, 21.61] = [ 32.71,130.83] Ry 
 Optimized for a Real-space Cutoff    1.26 Angstroem

   l    n(q)    QCUT    max X(q) W(low)/X(q) W(high)/X(q)  e(spline) 
   0      8    10.807     6.744    0.14E-03    0.25E-03    0.15E-06
   0      8    10.807     2.789    0.17E-03    0.34E-03    0.18E-06
   1      8    10.807     2.977    0.14E-03    0.97E-04    0.55E-07
   1      8    10.807     2.397    0.19E-03    0.70E-04    0.28E-06
  PAW Al_GW 19Mar2012                   :
 energy of atom  1       EATOM=  -53.5387
 kinetic energy error for atom=    0.0004 (will be added to EATOM!!)
  PAW C_GW 28Sep2005                    :
 energy of atom  2       EATOM= -147.1560
 kinetic energy error for atom=    0.0116 (will be added to EATOM!!)


 POSCAR: Al2C                                    
  positions in direct lattice
  velocities in cartesian coordinates
 exchange correlation table for  LEXCH =        8
   RHO(1)=    0.500       N(1)  =     2000
   RHO(2)=  100.500       N(2)  =     4000

 VTST: version 3.2, (02/03/18)

 CHAIN: initializing optimizer
 
 OPT: Using VASP Conjugate-Gradient optimizer
 CHAIN: Read ICHAIN            0

 POSCAR: Al2C                                    
  positions in direct lattice
  velocities in cartesian coordinates



--------------------------------------------------------------------------------------------------------


 ion  position               nearest neighbor table
   1  0.421  0.856  0.267-  10 1.94   9 1.94   7 2.46
   2  0.921  0.856  0.267-   9 1.94  10 1.94   8 2.46
   3  0.421  0.598  0.267-  12 1.94  11 1.94   5 2.46
   4  0.921  0.598  0.267-  11 1.94  12 1.94   6 2.46
   5  0.421  0.356  0.267-  12 1.94  11 1.94   3 2.46
   6  0.921  0.356  0.267-  11 1.94  12 1.94   4 2.46
   7  0.421  0.098  0.267-  10 1.94   9 1.94   1 2.46
   8  0.921  0.098  0.267-   9 1.94  10 1.94   2 2.46
   9  0.171  0.977  0.267-   2 1.94   8 1.94   1 1.94   7 1.94
  10  0.671  0.977  0.267-   1 1.94   7 1.94   2 1.94   8 1.94
  11  0.171  0.477  0.267-   6 1.94   4 1.94   5 1.94   3 1.94
  12  0.671  0.477  0.267-   5 1.94   3 1.94   6 1.94   4 1.94


IMPORTANT INFORMATION: All symmetrisations will be switched off!
NOSYMM: (Re-)initialisation of all symmetry stuff for point group C_1.



 KPOINTS: Automatic mesh                          

Automatic generation of k-mesh.
Space group operators:
 irot       det(A)        alpha          n_x          n_y          n_z        tau_x        tau_y        tau_z
    1     1.000000     0.000000     1.000000     0.000000     0.000000     0.000000     0.000000     0.000000
 
 Subroutine IBZKPT returns following result:
 ===========================================
 
 Found      8 irreducible k-points:
 
 Following reciprocal coordinates:
            Coordinates               Weight
  0.000000  0.000000  0.000000      1.000000
  0.200000  0.000000  0.000000      2.000000
  0.400000  0.000000  0.000000      2.000000
  0.000000  0.333333  0.000000      2.000000
  0.200000  0.333333  0.000000      2.000000
  0.400000  0.333333  0.000000      2.000000
 -0.400000  0.333333  0.000000      2.000000
 -0.200000  0.333333  0.000000      2.000000
 
 Following cartesian coordinates:
            Coordinates               Weight
  0.000000  0.000000  0.000000      1.000000
  0.033227  0.000000  0.000000      2.000000
  0.066454  0.000000  0.000000      2.000000
  0.000000  0.032873  0.000000      2.000000
  0.033227  0.032873  0.000000      2.000000
  0.066454  0.032873  0.000000      2.000000
 -0.066454  0.032873  0.000000      2.000000
 -0.033227  0.032873  0.000000      2.000000
 
 
 Subroutine IBZKPT_HF returns following result:
 ==============================================
 
 Found     15 k-points in 1st BZ
 the following     15 k-points will be used (e.g. in the exchange kernel)
 Following reciprocal coordinates:   # in IRBZ
  0.000000  0.000000  0.000000    0.06666667   1 t-inv F
  0.200000  0.000000  0.000000    0.06666667   2 t-inv F
  0.400000  0.000000  0.000000    0.06666667   3 t-inv F
  0.000000  0.333333  0.000000    0.06666667   4 t-inv F
  0.200000  0.333333  0.000000    0.06666667   5 t-inv F
  0.400000  0.333333  0.000000    0.06666667   6 t-inv F
 -0.400000  0.333333  0.000000    0.06666667   7 t-inv F
 -0.200000  0.333333  0.000000    0.06666667   8 t-inv F
 -0.200000 -0.000000 -0.000000    0.06666667   2 t-inv T
 -0.400000 -0.000000 -0.000000    0.06666667   3 t-inv T
 -0.000000 -0.333333 -0.000000    0.06666667   4 t-inv T
 -0.200000 -0.333333 -0.000000    0.06666667   5 t-inv T
 -0.400000 -0.333333 -0.000000    0.06666667   6 t-inv T
  0.400000 -0.333333 -0.000000    0.06666667   7 t-inv T
  0.200000 -0.333333 -0.000000    0.06666667   8 t-inv T


--------------------------------------------------------------------------------------------------------




 Dimension of arrays:
   k-points           NKPTS =      8   k-points in BZ     NKDIM =     15   number of bands    NBANDS=     28
   number of dos      NEDOS =    301   number of ions     NIONS =     12
   non local maximal  LDIM  =      6   non local SUM 2l+1 LMDIM =     18
   total plane-waves  NPLWV = 317520
   max r-space proj   IRMAX =   6009   max aug-charges    IRDMAX=  13696
   dimension x,y,z NGX =    42 NGY =   70 NGZ =  108
   dimension x,y,z NGXF=    84 NGYF=  140 NGZF=  216
   support grid    NGXF=    84 NGYF=  140 NGZF=  216
   ions per type =               8   4
   NGX,Y,Z   is equivalent  to a cutoff of  11.60, 11.48, 11.97 a.u.
   NGXF,Y,Z  is equivalent  to a cutoff of  23.20, 22.95, 23.94 a.u.

 SYSTEM =  Al2C                                    
 POSCAR =  Al2C                                    

 Startparameter for this run:
   NWRITE =      2    write-flag & timer
   PREC   = accura    normal or accurate (medium, high low for compatibility)
   ISTART =      0    job   : 0-new  1-cont  2-samecut
   ICHARG =      2    charge: 1-file 2-atom 10-const
   ISPIN  =      1    spin polarized calculation?
   LNONCOLLINEAR =      F non collinear calculations
   LSORBIT =      F    spin-orbit coupling
   INIWAV =      1    electr: 0-lowe 1-rand  2-diag
   LASPH  =      F    aspherical Exc in radial PAW
   METAGGA=      F    non-selfconsistent MetaGGA calc.

 Electronic Relaxation 1
   ENCUT  =  450.0 eV  33.07 Ry    5.75 a.u.  10.41 17.54 25.95*2*pi/ulx,y,z
   ENINI  =  450.0     initial cutoff
   ENAUG  =  644.9 eV  augmentation charge cutoff
   NELM   =    300;   NELMIN=  2; NELMDL= -7     # of ELM steps 
   EDIFF  = 0.1E-04   stopping-criterion for ELM
   LREAL  =      T    real-space projection
   NLSPLINE    = F    spline interpolate recip. space projectors
   LCOMPAT=      F    compatible to vasp.4.4
   GGA_COMPAT  = T    GGA compatible to vasp.4.4-vasp.4.6
   LMAXPAW     = -100 max onsite density
   LMAXMIX     =    2 max onsite mixed and CHGCAR
   VOSKOWN=      0    Vosko Wilk Nusair interpolation
   ROPT   =   -0.00020  -0.00020
 Ionic relaxation
   EDIFFG = -.1E-01   stopping-criterion for IOM
   NSW    =    400    number of steps for IOM
   NBLOCK =      1;   KBLOCK =    400    inner block; outer block 
   IBRION =      2    ionic relax: 0-MD 1-quasi-New 2-CG
   NFREE  =      1    steps in history (QN), initial steepest desc. (CG)
   ISIF   =      2    stress and relaxation
   IWAVPR =     11    prediction:  0-non 1-charg 2-wave 3-comb
   ISYM   =      0    0-nonsym 1-usesym 2-fastsym
   LCORR  =      T    Harris-Foulkes like correction to forces

   POTIM  = 0.3500    time-step for ionic-motion
   TEIN   =    0.0    initial temperature
   TEBEG  =    0.0;   TEEND  =   0.0 temperature during run
   SMASS  =  -3.00    Nose mass-parameter (am)
   estimated Nose-frequenzy (Omega)   =  0.10E-29 period in steps =****** mass=  -0.828E-27a.u.
   SCALEE = 1.0000    scale energy and forces
   NPACO  =    256;   APACO  = 16.0  distance and # of slots for P.C.
   PSTRESS=    0.0 pullay stress

  Mass of Ions in am
   POMASS =  26.98 12.01
  Ionic Valenz
   ZVAL   =   3.00  4.00
  Atomic Wigner-Seitz radii
   RWIGS  =  -1.00 -1.00
  virtual crystal weights 
   VCA    =   1.00  1.00
   NELECT =      40.0000    total number of electrons
   NUPDOWN=      -1.0000    fix difference up-down

 DOS related values:
   EMIN   =  10.00;   EMAX   =-10.00  energy-range for DOS
   EFERMI =   0.00
   ISMEAR =     0;   SIGMA  =   0.05  broadening in eV -4-tet -1-fermi 0-gaus

 Electronic relaxation 2 (details)
   IALGO  =     53    algorithm
   LDIAG  =      T    sub-space diagonalisation (order eigenvalues)
   LSUBROT=      F    optimize rotation matrix (better conditioning)
   TURBO    =      0    0=normal 1=particle mesh
   IRESTART =      0    0=no restart 2=restart with 2 vectors
   NREBOOT  =      0    no. of reboots
   NMIN     =      0    reboot dimension
   EREF     =   0.00    reference energy to select bands
   IMIX   =      4    mixing-type and parameters
     AMIX     =   0.40;   BMIX     =  1.00
     AMIX_MAG =   1.60;   BMIX_MAG =  1.00
     AMIN     =   0.10
     WC   =   100.;   INIMIX=   1;  MIXPRE=   1;  MAXMIX= -45

 Intra band minimization:
   WEIMIN = 0.0010     energy-eigenvalue tresh-hold
   EBREAK =  0.89E-07  absolut break condition
   DEPER  =   0.30     relativ break condition  

   TIME   =   0.40     timestep for ELM

  volume/ion in A,a.u.               =      76.29       514.85
  Fermi-wavevector in a.u.,A,eV,Ry     =   0.576597  1.089610  4.523444  0.332464
  Thomas-Fermi vector in A             =   1.619161

 Write flags
   LWAVE        =      F    write WAVECAR
   LDOWNSAMPLE  =      F    k-point downsampling of WAVECAR
   LCHARG       =      T    write CHGCAR
   LVTOT        =      F    write LOCPOT, total local potential
   LVHAR        =      F    write LOCPOT, Hartree potential only
   LELF         =      F    write electronic localiz. function (ELF)
   LORBIT       =      0    0 simple, 1 ext, 2 COOP (PROOUT), +10 PAW based schemes


 Dipole corrections
   LMONO  =      F    monopole corrections only (constant potential shift)
   LDIPOL =      F    correct potential (dipole corrections)
   IDIPOL =      0    1-x, 2-y, 3-z, 4-all directions 
   EPSILON=  1.0000000 bulk dielectric constant

 Exchange correlation treatment:
   GGA     =    PE    GGA type
   LEXCH   =     8    internal setting for exchange type
   VOSKOWN=      0    Vosko Wilk Nusair interpolation
   EXXOEP  =     0    0=HF, 1=EXX-LHF (local Hartree Fock) 2=EXX OEP
   LHFCALC =     T    Hartree Fock is set to
   LSYMGRAD=     F    symmetrize gradient (conserves proper symmetry)
   PRECFOCK=normal    Normal, Fast or Accurate (Low or Medium for compatibility)
   LRHFCALC=     F    long range Hartree Fock
   LRSCOR  =     F    long range correlation only (use DFT for short range part)
   LTHOMAS =     F    Thomas Fermi screening in HF
   LMODELHF=     F    short range full HF, long range fraction AEXX
   ENCUT4O =  -1.0   cutoff for four orbital integrals eV
   LMAXFOCK=     4    L truncation for augmentation on plane wave grid
   LMAXFOCKAE=  -1    L truncation for all-electron charge restoration on plane wave grid
   NMAXFOCKAE=   1    number of basis functions for all-electron charge restoration
   LFOCKAEDFT=     F  apply the AE augmentation even for DFT
   NKREDX  =     1    reduce k-point grid by
   NKREDY  =     1    reduce k-point grid by
   NKREDZ  =     1    reduce k-point grid by
   SHIFTRED=     F    shift reduced grid of Gamma
   HFKIDENT=     F    idential grid for each k-point
   ODDONLY =     F    use only odd q-grid points
   EVENONLY=     F    use only even q-grid points
   HFALPHA =   -1.0000 decay constant for conv. correction
   MCALPHA =    0.0000 extent of test-charge in conv. correction in multipole expansion
   AEXX    =    0.2500 exact exchange contribution
   HFSCREEN=    0.2000 screening length (either q_TF or 0.3 A-1)
   HFSCREENC=   0.2000 screening length for correlation (either q_TF or 0.3 A-1)
   HFRCUT  =    0.0000 spherical cutoff for potential kernel
   ALDAX   =    0.7500 LDA exchange part
   AGGAX   =    0.7500 GGA exchange part
   ALDAC   =    1.0000 LDA correlation
   AGGAC   =    1.0000 GGA correlation
   ENCUTFOCK=  -1.0 apply spherical cutoff to Coloumb kernel
   NBANDSGWLOW=     1    first orbital included in HF term
   NBLOCK_FOCK=    64    blocking factor in FOCK_ACC
 Linear response parameters
   LEPSILON=     F    determine dielectric tensor
   LRPA    =     F    only Hartree local field effects (RPA)
   LNABLA  =     F    use nabla operator in PAW spheres
   LVEL    =     F    velocity operator in full k-point grid
   LINTERFAST=   F  fast interpolation
   KINTER  =     0    interpolate to denser k-point grid
   CSHIFT  =0.1000    complex shift for real part using Kramers Kronig
   OMEGAMAX=  -1.0    maximum frequency
   DEG_THRESHOLD= 0.2000000E-02 threshold for treating states as degnerate
   RTIME   =   -0.100 relaxation time in fs
  (WPLASMAI=    0.000 imaginary part of plasma frequency in eV, 0.658/RTIME)
   DFIELD  = 0.0000000 0.0000000 0.0000000 field for delta impulse in time

 Orbital magnetization related:
   ORBITALMAG=     F  switch on orbital magnetization
   LCHIMAG   =     F  perturbation theory with respect to B field
   DQ        =  0.001000  dq finite difference perturbation B field
   LLRAUG    =     F  two centre corrections for induced B field



--------------------------------------------------------------------------------------------------------


 conjugate gradient relaxation of ions
   using selective dynamics as specified on POSCAR
 charge density and potential will be updated during run
 non-spin polarized calculation
 Conjugate gradient for all bands (Freysoldt, et al. PRB 79, 241103 (2009))
 perform sub-space diagonalisation
    before iterative eigenvector-optimisation
 modified Broyden-mixing scheme, WC =      100.0
 initial mixing is a Kerker type mixing with AMIX =  0.4000 and BMIX =      1.0000
 Hartree-type preconditioning will be used
 using additional bands            8
 real space projection scheme for non local part
 use partial core corrections
 no Harris-corrections to forces 
 use gradient corrections 
 use of overlap-Matrix (Vanderbilt PP)
 Gauss-broadening in eV      SIGMA  =   0.05


--------------------------------------------------------------------------------------------------------


  energy-cutoff  :      450.00
  volume of cell :      915.52
      direct lattice vectors                 reciprocal lattice vectors
     6.019200000  0.000000000  0.000000000     0.166135035  0.000000000  0.000000000
     0.000000000 10.140000000  0.000000000     0.000000000  0.098619329  0.000000000
     0.000000000  0.000000000 15.000000000     0.000000000  0.000000000  0.066666667

  length of vectors
     6.019200000 10.140000000 15.000000000     0.166135035  0.098619329  0.066666667



 k-points in units of 2pi/SCALE and weight: Automatic mesh                          
   0.00000000  0.00000000  0.00000000       0.067
   0.03322701  0.00000000  0.00000000       0.133
   0.06645401  0.00000000  0.00000000       0.133
   0.00000000  0.03287311  0.00000000       0.133
   0.03322701  0.03287311  0.00000000       0.133
   0.06645401  0.03287311  0.00000000       0.133
  -0.06645401  0.03287311  0.00000000       0.133
  -0.03322701  0.03287311  0.00000000       0.133

 k-points in reciprocal lattice and weights: Automatic mesh                          
   0.00000000  0.00000000  0.00000000       0.067
   0.20000000  0.00000000  0.00000000       0.133
   0.40000000  0.00000000  0.00000000       0.133
   0.00000000  0.33333333  0.00000000       0.133
   0.20000000  0.33333333  0.00000000       0.133
   0.40000000  0.33333333  0.00000000       0.133
  -0.40000000  0.33333333  0.00000000       0.133
  -0.20000000  0.33333333  0.00000000       0.133

 position of ions in fractional coordinates (direct lattice) 
   0.42089799  0.85573902  0.26666621
   0.92092518  0.85575554  0.26666541
   0.42089823  0.59791267  0.26666528
   0.92092857  0.59789748  0.26666538
   0.42089610  0.35573930  0.26666549
   0.92092746  0.35575563  0.26666463
   0.42089639  0.09791259  0.26666598
   0.92093067  0.09789719  0.26666605
   0.17089320  0.97681960  0.26667009
   0.67084194  0.97682226  0.26666973
   0.17089336  0.47682126  0.26666791
   0.67084177  0.47682096  0.26666785

 position of ions in cartesian coordinates  (Angst):
   2.53346921  8.67719368  3.99999312
   5.54323284  8.67736113  3.99998113
   2.53347061  6.06283449  3.99997927
   5.54325328  6.06268044  3.99998073
   2.53345780  3.60719648  3.99998230
   5.54324657  3.60736212  3.99996945
   2.53345957  0.99283364  3.99998970
   5.54326591  0.99267748  3.99999073
   1.02864036  9.90495074  4.00005130
   4.03793179  9.90497773  4.00004588
   1.02864129  4.83496757  4.00001865
   4.03793078  4.83496450  4.00001774



--------------------------------------------------------------------------------------------------------


 k-point  1 :   0.0000 0.0000 0.0000  plane waves:   19845
 k-point  2 :   0.2000 0.0000 0.0000  plane waves:   19863
 k-point  3 :   0.4000 0.0000 0.0000  plane waves:   19851
 k-point  4 :   0.0000 0.3333 0.0000  plane waves:   19883
 k-point  5 :   0.2000 0.3333 0.0000  plane waves:   19830
 k-point  6 :   0.4000 0.3333 0.0000  plane waves:   19821
 k-point  7 :  -0.4000 0.3333 0.0000  plane waves:   19821
 k-point  8 :  -0.2000 0.3333 0.0000  plane waves:   19830

 maximum and minimum number of plane-waves per node :     19883    19821

 maximum number of plane-waves:     19883
 maximum index in each direction: 
   IXMAX=   10   IYMAX=   17   IZMAX=   25
   IXMIN=  -10   IYMIN=  -17   IZMIN=  -25


 serial   3D FFT for wavefunctions
 parallel 3D FFT for charge:
    minimum data exchange during FFTs selected (reduces bandwidth)


 FFT grid for exact exchange (Hartree Fock) 
  NGX = 32; NGY = 54; NGZ = 80


 Radii for the augmentation spheres in the non-local exchange
 for species   1 augmentation radius   1.301 (default was   1.041)
       energy cutoff for augmentation   1800.0
 for species   2 augmentation radius   0.874 (default was   0.699)
       energy cutoff for augmentation   1800.0
 Maximum index for augmentation-charges in exchange         1402
  SETUP_FOCK is finished

 total amount of memory used by VASP MPI-rank0   167807. kBytes
=======================================================================

   base      :      30000. kBytes
   nonlr-proj:      12241. kBytes
   fftplans  :      22787. kBytes
   grid      :      48545. kBytes
   one-center:        186. kBytes
   HF        :        129. kBytes
   wavefun   :      53919. kBytes

     INWAV:  cpu time    0.0001: real time    0.0009
 Broyden mixing: mesh for mixing (old mesh)
   NGX = 21   NGY = 35   NGZ = 51
  (NGX  = 84   NGY  =140   NGZ  =216)
  gives a total of  37485 points

 initial charge density was supplied:
 charge density of overlapping atoms calculated
 number of electron      40.0000000 magnetization 
 keeping initial charge density in first step


--------------------------------------------------------------------------------------------------------


 Maximum index for non-local projection operator         5788
 Maximum index for augmentation-charges         3290 (set IRDMAX)


--------------------------------------------------------------------------------------------------------


 First call to EWALD:  gamma=   0.183
 Maximum number of real-space cells 4x 3x 2
 Maximum number of reciprocal cells 2x 3x 4

    FEWALD:  cpu time    0.0034: real time    0.0034


--------------------------------------- Iteration      1(   1)  ---------------------------------------


    POTLOK:  cpu time    8.2121: real time    8.2386
    SETDIJ:  cpu time    0.6052: real time    0.6092
    TRIAL :  cpu time   22.7424: real time   23.0390
    CORREC:  cpu time    0.0005: real time    0.0005
    --------------------------------------------
      LOOP:  cpu time   31.6210: real time   31.9484

 eigenvalue-minimisations  :   660
 total energy-change (2. order) : 0.4598984E+03  (-0.9325654E+03)
 number of electron      40.0000000 magnetization 
 augmentation part       40.0000000 magnetization 

 Free energy of the ion-electron system (eV)
  ---------------------------------------------------
  alpha Z        PSCENC =        10.51583519
  Ewald energy   TEWEN  =      1402.00459324
  -Hartree energ DENC   =     -2146.44372025
  -exchange      EXHF   =         0.00000000
  -V(xc)+E(xc)   XCENC  =      -128.97014028
  PAW double counting   =       924.35469532     -725.35270662
  entropy T*S    EENTRO =        -0.00638173
  eigenvalues    EBANDS =       118.32396054
  atomic energy  EATOM  =      1005.47226262
  ---------------------------------------------------
  free energy    TOTEN  =       459.89839804 eV

  energy without entropy =      459.90477977  energy(sigma->0) =      459.90158891
  exchange ACFDT corr.  =         0.00000000  see jH, gK, PRB 81, 115126


--------------------------------------------------------------------------------------------------------




--------------------------------------- Iteration      1(   2)  ---------------------------------------


    TRIAL :  cpu time   29.7664: real time   29.9265
    CORREC:  cpu time    0.0006: real time    0.0006
    --------------------------------------------
      LOOP:  cpu time   29.7674: real time   29.9284

 eigenvalue-minimisations  :   896
 total energy-change (2. order) :-0.2304672E+03  (-0.2186099E+03)
 number of electron      40.0000000 magnetization 
 augmentation part       40.0000000 magnetization 

 Free energy of the ion-electron system (eV)
  ---------------------------------------------------
  alpha Z        PSCENC =        10.51583519
  Ewald energy   TEWEN  =      1402.00459324
  -Hartree energ DENC   =     -2146.44372025
  -exchange      EXHF   =         0.00000000
  -V(xc)+E(xc)   XCENC  =      -128.97014028
  PAW double counting   =       924.35469532     -725.35270662
  entropy T*S    EENTRO =        -0.00814338
  eigenvalues    EBANDS =      -112.14150094
  atomic energy  EATOM  =      1005.47226262
  ---------------------------------------------------
  free energy    TOTEN  =       229.43117491 eV

  energy without entropy =      229.43931829  energy(sigma->0) =      229.43524660
  exchange ACFDT corr.  =         0.00000000  see jH, gK, PRB 81, 115126


--------------------------------------------------------------------------------------------------------




--------------------------------------- Iteration      1(   3)  ---------------------------------------


    TRIAL :  cpu time   29.7769: real time   29.9377
    CORREC:  cpu time    0.0006: real time    0.0006
    --------------------------------------------
      LOOP:  cpu time   29.7778: real time   29.9386

 eigenvalue-minimisations  :   896
 total energy-change (2. order) :-0.1162357E+03  (-0.1113185E+03)
 number of electron      40.0000000 magnetization 
 augmentation part       40.0000000 magnetization 

 Free energy of the ion-electron system (eV)
  ---------------------------------------------------
  alpha Z        PSCENC =        10.51583519
  Ewald energy   TEWEN  =      1402.00459324
  -Hartree energ DENC   =     -2146.44372025
  -exchange      EXHF   =         0.00000000
  -V(xc)+E(xc)   XCENC  =      -128.97014028
  PAW double counting   =       924.35469532     -725.35270662
  entropy T*S    EENTRO =        -0.01316968
  eigenvalues    EBANDS =      -228.37214711
  atomic energy  EATOM  =      1005.47226262
  ---------------------------------------------------
  free energy    TOTEN  =       113.19550244 eV

  energy without entropy =      113.20867212  energy(sigma->0) =      113.20208728
  exchange ACFDT corr.  =         0.00000000  see jH, gK, PRB 81, 115126


--------------------------------------------------------------------------------------------------------




--------------------------------------- Iteration      1(   4)  ---------------------------------------


    TRIAL :  cpu time   29.7961: real time   29.9815
    CORREC:  cpu time    0.0006: real time    0.0006
    --------------------------------------------
      LOOP:  cpu time   29.7970: real time   29.9829

 eigenvalue-minimisations  :   896
 total energy-change (2. order) :-0.6310854E+02  (-0.6135650E+02)
 number of electron      40.0000000 magnetization 
 augmentation part       40.0000000 magnetization 

 Free energy of the ion-electron system (eV)
  ---------------------------------------------------
  alpha Z        PSCENC =        10.51583519
  Ewald energy   TEWEN  =      1402.00459324
  -Hartree energ DENC   =     -2146.44372025
  -exchange      EXHF   =         0.00000000
  -V(xc)+E(xc)   XCENC  =      -128.97014028
  PAW double counting   =       924.35469532     -725.35270662
  entropy T*S    EENTRO =        -0.00213529
  eigenvalues    EBANDS =      -291.49171705
  atomic energy  EATOM  =      1005.47226262
  ---------------------------------------------------
  free energy    TOTEN  =        50.08696689 eV

  energy without entropy =       50.08910218  energy(sigma->0) =       50.08803454
  exchange ACFDT corr.  =         0.00000000  see jH, gK, PRB 81, 115126


--------------------------------------------------------------------------------------------------------




--------------------------------------- Iteration      1(   5)  ---------------------------------------


    TRIAL :  cpu time   29.7719: real time   29.9329
    CORREC:  cpu time    0.0006: real time    0.0006
    --------------------------------------------
      LOOP:  cpu time   29.7728: real time   29.9338

 eigenvalue-minimisations  :   896
 total energy-change (2. order) :-0.3355736E+02  (-0.3288232E+02)
 number of electron      40.0000000 magnetization 
 augmentation part       40.0000000 magnetization 

 Free energy of the ion-electron system (eV)
  ---------------------------------------------------
  alpha Z        PSCENC =        10.51583519
  Ewald energy   TEWEN  =      1402.00459324
  -Hartree energ DENC   =     -2146.44372025
  -exchange      EXHF   =         0.00000000
  -V(xc)+E(xc)   XCENC  =      -128.97014028
  PAW double counting   =       924.35469532     -725.35270662
  entropy T*S    EENTRO =        -0.00689799
  eigenvalues    EBANDS =      -325.04431227
  atomic energy  EATOM  =      1005.47226262
  ---------------------------------------------------
  free energy    TOTEN  =        16.52960897 eV

  energy without entropy =       16.53650696  energy(sigma->0) =       16.53305797
  exchange ACFDT corr.  =         0.00000000  see jH, gK, PRB 81, 115126


--------------------------------------------------------------------------------------------------------




--------------------------------------- Iteration      1(   6)  ---------------------------------------


    TRIAL :  cpu time   29.7175: real time   29.8756
    CORREC:  cpu time    0.0006: real time    0.0006
    --------------------------------------------
      LOOP:  cpu time   29.7183: real time   29.8768

 eigenvalue-minimisations  :   896
 total energy-change (2. order) :-0.1697289E+02  (-0.1666795E+02)
 number of electron      40.0000000 magnetization 
 augmentation part       40.0000000 magnetization 

 Free energy of the ion-electron system (eV)
  ---------------------------------------------------
  alpha Z        PSCENC =        10.51583519
  Ewald energy   TEWEN  =      1402.00459324
  -Hartree energ DENC   =     -2146.44372025
  -exchange      EXHF   =         0.00000000
  -V(xc)+E(xc)   XCENC  =      -128.97014028
  PAW double counting   =       924.35469532     -725.35270662
  entropy T*S    EENTRO =        -0.00015249
  eigenvalues    EBANDS =      -342.02394919
  atomic energy  EATOM  =      1005.47226262
  ---------------------------------------------------
  free energy    TOTEN  =        -0.44328245 eV

  energy without entropy =       -0.44312996  energy(sigma->0) =       -0.44320620
  exchange ACFDT corr.  =         0.00000000  see jH, gK, PRB 81, 115126


--------------------------------------------------------------------------------------------------------




--------------------------------------- Iteration      1(   7)  ---------------------------------------


    TRIAL :  cpu time   29.8365: real time   29.9972
    CORREC:  cpu time    0.0003: real time    0.0003
    CHARGE:  cpu time    1.3218: real time    1.3296
    --------------------------------------------
      LOOP:  cpu time   31.1590: real time   31.3276

 eigenvalue-minimisations  :   896
 total energy-change (2. order) :-0.8693947E+01  (-0.8251226E+01)
 number of electron      40.0000001 magnetization 
 augmentation part        0.1180727 magnetization 

 Free energy of the ion-electron system (eV)
  ---------------------------------------------------
  alpha Z        PSCENC =        10.51583519
  Ewald energy   TEWEN  =      1402.00459324
  -Hartree energ DENC   =     -2146.44372025
  -exchange      EXHF   =         0.00000000
  -V(xc)+E(xc)   XCENC  =      -128.97014028
  PAW double counting   =       924.35469532     -725.35270662
  entropy T*S    EENTRO =        -0.00000000
  eigenvalues    EBANDS =      -350.71804832
  atomic energy  EATOM  =      1005.47226262
  ---------------------------------------------------
  free energy    TOTEN  =        -9.13722909 eV

  energy without entropy =       -9.13722909  energy(sigma->0) =       -9.13722909
  exchange ACFDT corr.  =         0.00000000  see jH, gK, PRB 81, 115126


--------------------------------------------------------------------------------------------------------




--------------------------------------- Iteration      1(   8)  ---------------------------------------


    POTLOK:  cpu time    8.1990: real time    8.2241
    SETDIJ:  cpu time    0.6016: real time    0.6052
    TRIAL :  cpu time  458.3179: real time  460.0077
    CORREC:  cpu time    0.0005: real time    0.0005
    CHARGE:  cpu time    1.3321: real time    1.3361
    --------------------------------------------
      LOOP:  cpu time  468.4555: real time  470.1787

 eigenvalue-minimisations  :     0
 total energy-change (2. order) :-0.4110534E+02  (-0.2790367E+02)
 number of electron      40.0000001 magnetization 
 augmentation part       -0.1568115 magnetization 

 Free energy of the ion-electron system (eV)
  ---------------------------------------------------
  alpha Z        PSCENC =        10.51583519
  Ewald energy   TEWEN  =      1402.00459324
  -Hartree energ DENC   =     -2384.13602107
  -exchange      EXHF   =        66.50654641
  -V(xc)+E(xc)   XCENC  =      -119.67228423
  PAW double counting   =      1638.51795377    -1440.76528383
  entropy T*S    EENTRO =        -0.00000000
  eigenvalues    EBANDS =      -228.68617046
  atomic energy  EATOM  =      1005.47226262
  ---------------------------------------------------
  free energy    TOTEN  =       -50.24256835 eV

  energy without entropy =      -50.24256835  energy(sigma->0) =      -50.24256835
  exchange ACFDT corr.  =        -0.00000000  see jH, gK, PRB 81, 115126


--------------------------------------------------------------------------------------------------------




--------------------------------------- Iteration      1(   9)  ---------------------------------------


    POTLOK:  cpu time    8.2164: real time    8.2294
    SETDIJ:  cpu time    0.6193: real time    0.6205
    TRIAL :  cpu time  456.1994: real time  458.2183
    CORREC:  cpu time    0.0005: real time    0.0005
    CHARGE:  cpu time    1.3160: real time    1.3224
    --------------------------------------------
      LOOP:  cpu time  466.3527: real time  468.3928

 eigenvalue-minimisations  :     0
 total energy-change (2. order) :-0.1337067E+02  (-0.3997529E+01)
 number of electron      40.0000001 magnetization 
 augmentation part       -0.1843089 magnetization 

 Free energy of the ion-electron system (eV)
  ---------------------------------------------------
  alpha Z        PSCENC =        10.51583519
  Ewald energy   TEWEN  =      1402.00459324
  -Hartree energ DENC   =     -2271.99195172
  -exchange      EXHF   =        61.90196169
  -V(xc)+E(xc)   XCENC  =      -124.44300705
  PAW double counting   =      1417.70695173    -1219.27563294
  entropy T*S    EENTRO =        -0.00000000
  eigenvalues    EBANDS =      -345.50425304
  atomic energy  EATOM  =      1005.47226262
  ---------------------------------------------------
  free energy    TOTEN  =       -63.61324028 eV

  energy without entropy =      -63.61324028  energy(sigma->0) =      -63.61324028
  exchange ACFDT corr.  =        -0.10856525  see jH, gK, PRB 81, 115126


--------------------------------------------------------------------------------------------------------




--------------------------------------- Iteration      1(  10)  ---------------------------------------


    POTLOK:  cpu time    8.2108: real time    8.2403
    SETDIJ:  cpu time    0.6083: real time    0.6097
    TRIAL :  cpu time  457.1182: real time  459.2630
    CORREC:  cpu time    0.0004: real time    0.0004
    CHARGE:  cpu time    1.3187: real time    1.3256
    --------------------------------------------
      LOOP:  cpu time  467.2573: real time  469.4405

 eigenvalue-minimisations  :     0
 total energy-change (2. order) :-0.2034113E+01  (-0.3737401E+01)
 number of electron      40.0000001 magnetization 
 augmentation part       -0.1098531 magnetization 

 Free energy of the ion-electron system (eV)
  ---------------------------------------------------
  alpha Z        PSCENC =        10.51583519
  Ewald energy   TEWEN  =      1402.00459324
  -Hartree energ DENC   =     -2271.09437765
  -exchange      EXHF   =        61.75946910
  -V(xc)+E(xc)   XCENC  =      -124.89962215
  PAW double counting   =      1407.15095318    -1208.66821561
  entropy T*S    EENTRO =        -0.00000000
  eigenvalues    EBANDS =      -347.88825082
  atomic energy  EATOM  =      1005.47226262
  ---------------------------------------------------
  free energy    TOTEN  =       -65.64735291 eV

  energy without entropy =      -65.64735291  energy(sigma->0) =      -65.64735291
  exchange ACFDT corr.  =        -0.00000000  see jH, gK, PRB 81, 115126


--------------------------------------------------------------------------------------------------------




--------------------------------------- Iteration      1(  11)  ---------------------------------------


    POTLOK:  cpu time    8.2303: real time    8.2435
    SETDIJ:  cpu time    0.6092: real time    0.6117
    TRIAL :  cpu time  456.7833: real time  458.1510
    CORREC:  cpu time    0.0003: real time    0.0003
    CHARGE:  cpu time    1.2968: real time    1.3008
    --------------------------------------------
      LOOP:  cpu time  466.9205: real time  468.3088

 eigenvalue-minimisations  :     0
 total energy-change (2. order) :-0.2126797E+01  (-0.8432752E+00)
 number of electron      40.0000001 magnetization 
 augmentation part       -0.0690100 magnetization 

 Free energy of the ion-electron system (eV)
  ---------------------------------------------------
  alpha Z        PSCENC =        10.51583519
  Ewald energy   TEWEN  =      1402.00459324
  -Hartree energ DENC   =     -2308.57533556
  -exchange      EXHF   =        63.25442801
  -V(xc)+E(xc)   XCENC  =      -123.62403441
  PAW double counting   =      1465.97195662    -1267.69844322
  entropy T*S    EENTRO =        -0.00000000
  eigenvalues    EBANDS =      -315.09541251
  atomic energy  EATOM  =      1005.47226262
  ---------------------------------------------------
  free energy    TOTEN  =       -67.77415002 eV

  energy without entropy =      -67.77415002  energy(sigma->0) =      -67.77415002
  exchange ACFDT corr.  =        -0.00000000  see jH, gK, PRB 81, 115126


--------------------------------------------------------------------------------------------------------




--------------------------------------- Iteration      1(  12)  ---------------------------------------


    POTLOK:  cpu time    8.2374: real time    8.2495
    SETDIJ:  cpu time    0.6010: real time    0.6031
    TRIAL :  cpu time  458.0173: real time  459.3140
    CORREC:  cpu time    0.0003: real time    0.0003
    CHARGE:  cpu time    1.3033: real time    1.3085
    --------------------------------------------
      LOOP:  cpu time  468.1604: real time  469.4772

 eigenvalue-minimisations  :     0
 total energy-change (2. order) :-0.4173607E+00  (-0.5318186E+00)
 number of electron      40.0000001 magnetization 
 augmentation part       -0.0834689 magnetization 

 Free energy of the ion-electron system (eV)
  ---------------------------------------------------
  alpha Z        PSCENC =        10.51583519
  Ewald energy   TEWEN  =      1402.00459324
  -Hartree energ DENC   =     -2326.90755492
  -exchange      EXHF   =        64.05083591
  -V(xc)+E(xc)   XCENC  =      -122.93253641
  PAW double counting   =      1492.66581350    -1294.50723375
  entropy T*S    EENTRO =        -0.00000000
  eigenvalues    EBANDS =      -298.55352609
  atomic energy  EATOM  =      1005.47226262
  ---------------------------------------------------
  free energy    TOTEN  =       -68.19151071 eV

  energy without entropy =      -68.19151071  energy(sigma->0) =      -68.19151071
  exchange ACFDT corr.  =        -0.00000000  see jH, gK, PRB 81, 115126


--------------------------------------------------------------------------------------------------------




--------------------------------------- Iteration      1(  13)  ---------------------------------------


    POTLOK:  cpu time    8.2375: real time    8.2484
    SETDIJ:  cpu time    0.6032: real time    0.6050
    TRIAL :  cpu time  458.8152: real time  460.0573
    CORREC:  cpu time    0.0005: real time    0.0005
    CHARGE:  cpu time    1.3180: real time    1.3214
    --------------------------------------------
      LOOP:  cpu time  468.9750: real time  470.2342

 eigenvalue-minimisations  :     0
 total energy-change (2. order) :-0.3894191E+00  (-0.2841211E+00)
 number of electron      40.0000001 magnetization 
 augmentation part       -0.1059956 magnetization 

 Free energy of the ion-electron system (eV)
  ---------------------------------------------------
  alpha Z        PSCENC =        10.51583519
  Ewald energy   TEWEN  =      1402.00459324
  -Hartree energ DENC   =     -2322.00644541
  -exchange      EXHF   =        63.94567888
  -V(xc)+E(xc)   XCENC  =      -123.08139485
  PAW double counting   =      1481.98238766    -1283.79810777
  entropy T*S    EENTRO =        -0.00000000
  eigenvalues    EBANDS =      -303.61573936
  atomic energy  EATOM  =      1005.47226262
  ---------------------------------------------------
  free energy    TOTEN  =       -68.58092980 eV

  energy without entropy =      -68.58092980  energy(sigma->0) =      -68.58092980
  exchange ACFDT corr.  =        -0.00000000  see jH, gK, PRB 81, 115126


--------------------------------------------------------------------------------------------------------




--------------------------------------- Iteration      1(  14)  ---------------------------------------


    POTLOK:  cpu time    8.2417: real time    8.2520
    SETDIJ:  cpu time    0.6024: real time    0.6035
    TRIAL :  cpu time  456.1154: real time  457.3065
    CORREC:  cpu time    0.0004: real time    0.0004
    CHARGE:  cpu time    1.3206: real time    1.3249
    --------------------------------------------
      LOOP:  cpu time  466.2815: real time  467.4891

 eigenvalue-minimisations  :     0
 total energy-change (2. order) :-0.1769806E+00  (-0.1006301E+00)
 number of electron      40.0000001 magnetization 
 augmentation part       -0.1084179 magnetization 

 Free energy of the ion-electron system (eV)
  ---------------------------------------------------
  alpha Z        PSCENC =        10.51583519
  Ewald energy   TEWEN  =      1402.00459324
  -Hartree energ DENC   =     -2314.17776794
  -exchange      EXHF   =        63.69467439
  -V(xc)+E(xc)   XCENC  =      -123.35083015
  PAW double counting   =      1469.21068513    -1270.97603036
  entropy T*S    EENTRO =        -0.00000000
  eigenvalues    EBANDS =      -311.15133254
  atomic energy  EATOM  =      1005.47226262
  ---------------------------------------------------
  free energy    TOTEN  =       -68.75791042 eV

  energy without entropy =      -68.75791042  energy(sigma->0) =      -68.75791042
  exchange ACFDT corr.  =        -0.00000000  see jH, gK, PRB 81, 115126


--------------------------------------------------------------------------------------------------------




--------------------------------------- Iteration      1(  15)  ---------------------------------------


    POTLOK:  cpu time    8.2318: real time    8.2441
    SETDIJ:  cpu time    0.6085: real time    0.6099
    TRIAL :  cpu time  454.7975: real time  456.0108
    CORREC:  cpu time    0.0004: real time    0.0004
    CHARGE:  cpu time    1.3204: real time    1.3256
    --------------------------------------------
      LOOP:  cpu time  464.9593: real time  466.1924

 eigenvalue-minimisations  :     0
 total energy-change (2. order) :-0.7432337E-01  (-0.5826289E-01)
 number of electron      40.0000001 magnetization 
 augmentation part       -0.1010718 magnetization 

 Free energy of the ion-electron system (eV)
  ---------------------------------------------------
  alpha Z        PSCENC =        10.51583519
  Ewald energy   TEWEN  =      1402.00459324
  -Hartree energ DENC   =     -2314.00448186
  -exchange      EXHF   =        63.69978356
  -V(xc)+E(xc)   XCENC  =      -123.35687806
  PAW double counting   =      1470.21292090    -1271.97177182
  entropy T*S    EENTRO =        -0.00000000
  eigenvalues    EBANDS =      -311.40449756
  atomic energy  EATOM  =      1005.47226262
  ---------------------------------------------------
  free energy    TOTEN  =       -68.83223379 eV

  energy without entropy =      -68.83223379  energy(sigma->0) =      -68.83223379
  exchange ACFDT corr.  =        -0.00000000  see jH, gK, PRB 81, 115126


--------------------------------------------------------------------------------------------------------




--------------------------------------- Iteration      1(  16)  ---------------------------------------


    POTLOK:  cpu time    8.2076: real time    8.2208
    SETDIJ:  cpu time    0.6051: real time    0.6069
    TRIAL :  cpu time  451.8774: real time  453.3623
    CORREC:  cpu time    0.0004: real time    0.0004
    CHARGE:  cpu time    1.3237: real time    1.3270
    --------------------------------------------
      LOOP:  cpu time  462.0148: real time  463.5187

 eigenvalue-minimisations  :     0
 total energy-change (2. order) :-0.4184157E-01  (-0.2342119E-01)
 number of electron      40.0000001 magnetization 
 augmentation part       -0.0957338 magnetization 

 Free energy of the ion-electron system (eV)
  ---------------------------------------------------
  alpha Z        PSCENC =        10.51583519
  Ewald energy   TEWEN  =      1402.00459324
  -Hartree energ DENC   =     -2316.40874507
  -exchange      EXHF   =        63.78859109
  -V(xc)+E(xc)   XCENC  =      -123.27091075
  PAW double counting   =      1475.34789865    -1277.12100570
  entropy T*S    EENTRO =        -0.00000000
  eigenvalues    EBANDS =      -309.20259463
  atomic energy  EATOM  =      1005.47226262
  ---------------------------------------------------
  free energy    TOTEN  =       -68.87407536 eV

  energy without entropy =      -68.87407536  energy(sigma->0) =      -68.87407536
  exchange ACFDT corr.  =        -0.00000000  see jH, gK, PRB 81, 115126


--------------------------------------------------------------------------------------------------------




--------------------------------------- Iteration      1(  17)  ---------------------------------------


    POTLOK:  cpu time    8.2167: real time    8.2258
    SETDIJ:  cpu time    0.6067: real time    0.6085
    TRIAL :  cpu time  453.9803: real time  454.9438
    CORREC:  cpu time    0.0004: real time    0.0004
    CHARGE:  cpu time    1.3191: real time    1.3223
    --------------------------------------------
      LOOP:  cpu time  464.1243: real time  465.1027

 eigenvalue-minimisations  :     0
 total energy-change (2. order) :-0.1725473E-01  (-0.1155034E-01)
 number of electron      40.0000001 magnetization 
 augmentation part       -0.0948728 magnetization 

 Free energy of the ion-electron system (eV)
  ---------------------------------------------------
  alpha Z        PSCENC =        10.51583519
  Ewald energy   TEWEN  =      1402.00459324
  -Hartree energ DENC   =     -2317.33292783
  -exchange      EXHF   =        63.82183296
  -V(xc)+E(xc)   XCENC  =      -123.23571649
  PAW double counting   =      1477.54140606    -1279.32370292
  entropy T*S    EENTRO =        -0.00000000
  eigenvalues    EBANDS =      -308.35491291
  atomic energy  EATOM  =      1005.47226262
  ---------------------------------------------------
  free energy    TOTEN  =       -68.89133009 eV

  energy without entropy =      -68.89133009  energy(sigma->0) =      -68.89133009
  exchange ACFDT corr.  =        -0.00000000  see jH, gK, PRB 81, 115126


--------------------------------------------------------------------------------------------------------




--------------------------------------- Iteration      1(  18)  ---------------------------------------


    POTLOK:  cpu time    8.1889: real time    8.1964
    SETDIJ:  cpu time    0.6117: real time    0.6127
    TRIAL :  cpu time  453.6724: real time  455.1971
    CORREC:  cpu time    0.0005: real time    0.0005
    CHARGE:  cpu time    1.3159: real time    1.3206
    --------------------------------------------
      LOOP:  cpu time  463.7903: real time  465.3290

 eigenvalue-minimisations  :     0
 total energy-change (2. order) :-0.8939010E-02  (-0.5508085E-02)
 number of electron      40.0000001 magnetization 
 augmentation part       -0.0960583 magnetization 

 Free energy of the ion-electron system (eV)
  ---------------------------------------------------
  alpha Z        PSCENC =        10.51583519
  Ewald energy   TEWEN  =      1402.00459324
  -Hartree energ DENC   =     -2316.72751359
  -exchange      EXHF   =        63.79969086
  -V(xc)+E(xc)   XCENC  =      -123.25584340
  PAW double counting   =      1476.66628911    -1278.44906938
  entropy T*S    EENTRO =        -0.00000000
  eigenvalues    EBANDS =      -308.92651374
  atomic energy  EATOM  =      1005.47226262
  ---------------------------------------------------
  free energy    TOTEN  =       -68.90026910 eV

  energy without entropy =      -68.90026910  energy(sigma->0) =      -68.90026910
  exchange ACFDT corr.  =        -0.00000000  see jH, gK, PRB 81, 115126


--------------------------------------------------------------------------------------------------------




--------------------------------------- Iteration      1(  19)  ---------------------------------------


    POTLOK:  cpu time    8.1466: real time    8.1683
    SETDIJ:  cpu time    0.6026: real time    0.6050
    TRIAL :  cpu time  454.9420: real time  456.7943
    CORREC:  cpu time    0.0003: real time    0.0003
    CHARGE:  cpu time    1.3255: real time    1.3332
    --------------------------------------------
      LOOP:  cpu time  465.0179: real time  466.9028

 eigenvalue-minimisations  :     0
 total energy-change (2. order) :-0.4160554E-02  (-0.2352365E-02)
 number of electron      40.0000001 magnetization 
 augmentation part       -0.0967070 magnetization 

 Free energy of the ion-electron system (eV)
  ---------------------------------------------------
  alpha Z        PSCENC =        10.51583519
  Ewald energy   TEWEN  =      1402.00459324
  -Hartree energ DENC   =     -2316.03273682
  -exchange      EXHF   =        63.77492474
  -V(xc)+E(xc)   XCENC  =      -123.28073942
  PAW double counting   =      1475.40213829    -1277.18248789
  entropy T*S    EENTRO =        -0.00000000
  eigenvalues    EBANDS =      -309.57821960
  atomic energy  EATOM  =      1005.47226262
  ---------------------------------------------------
  free energy    TOTEN  =       -68.90442965 eV

  energy without entropy =      -68.90442965  energy(sigma->0) =      -68.90442965
  exchange ACFDT corr.  =        -0.00000000  see jH, gK, PRB 81, 115126


--------------------------------------------------------------------------------------------------------




--------------------------------------- Iteration      1(  20)  ---------------------------------------


    POTLOK:  cpu time    8.1361: real time    8.1563
    SETDIJ:  cpu time    0.6032: real time    0.6039
    TRIAL :  cpu time  454.5389: real time  456.0987
    CORREC:  cpu time    0.0004: real time    0.0004
    CHARGE:  cpu time    1.3247: real time    1.3323
    --------------------------------------------
      LOOP:  cpu time  464.6045: real time  466.1935

 eigenvalue-minimisations  :     0
 total energy-change (2. order) :-0.1878270E-02  (-0.1154135E-02)
 number of electron      40.0000001 magnetization 
 augmentation part       -0.0966750 magnetization 

 Free energy of the ion-electron system (eV)
  ---------------------------------------------------
  alpha Z        PSCENC =        10.51583519
  Ewald energy   TEWEN  =      1402.00459324
  -Hartree energ DENC   =     -2315.91060815
  -exchange      EXHF   =        63.77145728
  -V(xc)+E(xc)   XCENC  =      -123.28514739
  PAW double counting   =      1475.17745013    -1276.95690643
  entropy T*S    EENTRO =        -0.00000000
  eigenvalues    EBANDS =      -309.69524441
  atomic energy  EATOM  =      1005.47226262
  ---------------------------------------------------
  free energy    TOTEN  =       -68.90630792 eV

  energy without entropy =      -68.90630792  energy(sigma->0) =      -68.90630792
  exchange ACFDT corr.  =        -0.00000000  see jH, gK, PRB 81, 115126


--------------------------------------------------------------------------------------------------------




--------------------------------------- Iteration      1(  21)  ---------------------------------------


    POTLOK:  cpu time    8.1313: real time    8.1523
    SETDIJ:  cpu time    0.6086: real time    0.6094
    TRIAL :  cpu time  455.5100: real time  457.3991
    CORREC:  cpu time    0.0004: real time    0.0004
    CHARGE:  cpu time    1.3070: real time    1.3122
    --------------------------------------------
      LOOP:  cpu time  465.5581: real time  467.4752

 eigenvalue-minimisations  :     0
 total energy-change (2. order) :-0.9316466E-03  (-0.5316436E-03)
 number of electron      40.0000001 magnetization 
 augmentation part       -0.0964903 magnetization 

 Free energy of the ion-electron system (eV)
  ---------------------------------------------------
  alpha Z        PSCENC =        10.51583519
  Ewald energy   TEWEN  =      1402.00459324
  -Hartree energ DENC   =     -2316.03345715
  -exchange      EXHF   =        63.77684854
  -V(xc)+E(xc)   XCENC  =      -123.28021879
  PAW double counting   =      1475.45838922    -1277.23799918
  entropy T*S    EENTRO =        -0.00000000
  eigenvalues    EBANDS =      -309.58349325
  atomic energy  EATOM  =      1005.47226262
  ---------------------------------------------------
  free energy    TOTEN  =       -68.90723957 eV

  energy without entropy =      -68.90723957  energy(sigma->0) =      -68.90723957
  exchange ACFDT corr.  =        -0.00000000  see jH, gK, PRB 81, 115126


--------------------------------------------------------------------------------------------------------




--------------------------------------- Iteration      1(  22)  ---------------------------------------


    POTLOK:  cpu time    8.1247: real time    8.1448
    SETDIJ:  cpu time    0.6046: real time    0.6073
    TRIAL :  cpu time  455.8856: real time  457.3529
    CORREC:  cpu time    0.0005: real time    0.0005
    CHARGE:  cpu time    1.3495: real time    1.3545
    --------------------------------------------
      LOOP:  cpu time  465.9655: real time  467.4613

 eigenvalue-minimisations  :     0
 total energy-change (2. order) :-0.4321113E-03  (-0.2493124E-03)
 number of electron      40.0000001 magnetization 
 augmentation part       -0.0963991 magnetization 

 Free energy of the ion-electron system (eV)
  ---------------------------------------------------
  alpha Z        PSCENC =        10.51583519
  Ewald energy   TEWEN  =      1402.00459324
  -Hartree energ DENC   =     -2316.10668142
  -exchange      EXHF   =        63.78009271
  -V(xc)+E(xc)   XCENC  =      -123.27683349
  PAW double counting   =      1475.67413314    -1277.45397305
  entropy T*S    EENTRO =        -0.00000000
  eigenvalues    EBANDS =      -309.51710062
  atomic energy  EATOM  =      1005.47226262
  ---------------------------------------------------
  free energy    TOTEN  =       -68.90767168 eV

  energy without entropy =      -68.90767168  energy(sigma->0) =      -68.90767168
  exchange ACFDT corr.  =        -0.00000000  see jH, gK, PRB 81, 115126


--------------------------------------------------------------------------------------------------------




--------------------------------------- Iteration      1(  23)  ---------------------------------------


    POTLOK:  cpu time    8.1292: real time    8.1396
    SETDIJ:  cpu time    0.6110: real time    0.6125
    TRIAL :  cpu time  454.5573: real time  456.2032
    CORREC:  cpu time    0.0003: real time    0.0003
    CHARGE:  cpu time    1.3169: real time    1.3213
    --------------------------------------------
      LOOP:  cpu time  464.6154: real time  466.2782

 eigenvalue-minimisations  :     0
 total energy-change (2. order) :-0.2048658E-03  (-0.1175701E-03)
 number of electron      40.0000001 magnetization 
 augmentation part       -0.0964074 magnetization 

 Free energy of the ion-electron system (eV)
  ---------------------------------------------------
  alpha Z        PSCENC =        10.51583519
  Ewald energy   TEWEN  =      1402.00459324
  -Hartree energ DENC   =     -2316.08835850
  -exchange      EXHF   =        63.77966280
  -V(xc)+E(xc)   XCENC  =      -123.27687600
  PAW double counting   =      1475.70261791    -1277.48248337
  entropy T*S    EENTRO =        -0.00000000
  eigenvalues    EBANDS =      -309.53513043
  atomic energy  EATOM  =      1005.47226262
  ---------------------------------------------------
  free energy    TOTEN  =       -68.90787654 eV

  energy without entropy =      -68.90787654  energy(sigma->0) =      -68.90787654
  exchange ACFDT corr.  =        -0.00000000  see jH, gK, PRB 81, 115126


--------------------------------------------------------------------------------------------------------




--------------------------------------- Iteration      1(  24)  ---------------------------------------


    POTLOK:  cpu time    8.1308: real time    8.1466
    SETDIJ:  cpu time    0.6004: real time    0.6025
    TRIAL :  cpu time  453.3297: real time  454.9335
    CORREC:  cpu time    0.0005: real time    0.0005
    CHARGE:  cpu time    1.3186: real time    1.3228
    --------------------------------------------
      LOOP:  cpu time  463.3808: real time  465.0078

 eigenvalue-minimisations  :     0
 total energy-change (2. order) :-0.9629485E-04  (-0.5275421E-04)
 number of electron      40.0000001 magnetization 
 augmentation part       -0.0964286 magnetization 

 Free energy of the ion-electron system (eV)
  ---------------------------------------------------
  alpha Z        PSCENC =        10.51583519
  Ewald energy   TEWEN  =      1402.00459324
  -Hartree energ DENC   =     -2316.04141126
  -exchange      EXHF   =        63.77796790
  -V(xc)+E(xc)   XCENC  =      -123.27826979
  PAW double counting   =      1475.63982762    -1277.41966385
  entropy T*S    EENTRO =        -0.00000000
  eigenvalues    EBANDS =      -309.57911450
  atomic energy  EATOM  =      1005.47226262
  ---------------------------------------------------
  free energy    TOTEN  =       -68.90797284 eV

  energy without entropy =      -68.90797284  energy(sigma->0) =      -68.90797284
  exchange ACFDT corr.  =        -0.00000000  see jH, gK, PRB 81, 115126


--------------------------------------------------------------------------------------------------------




--------------------------------------- Iteration      1(  25)  ---------------------------------------


    POTLOK:  cpu time    8.1281: real time    8.1396
    SETDIJ:  cpu time    0.6027: real time    0.6043
    TRIAL :  cpu time  454.7224: real time  456.3575
    CORREC:  cpu time    0.0004: real time    0.0004
    CHARGE:  cpu time    1.3271: real time    1.3373
    --------------------------------------------
      LOOP:  cpu time  464.7815: real time  466.4407

 eigenvalue-minimisations  :     0
 total energy-change (2. order) :-0.4361881E-04  (-0.2359722E-04)
 number of electron      40.0000001 magnetization 
 augmentation part       -0.0964267 magnetization 

 Free energy of the ion-electron system (eV)
  ---------------------------------------------------
  alpha Z        PSCENC =        10.51583519
  Ewald energy   TEWEN  =      1402.00459324
  -Hartree energ DENC   =     -2316.01859051
  -exchange      EXHF   =        63.77710410
  -V(xc)+E(xc)   XCENC  =      -123.27900490
  PAW double counting   =      1475.60016624    -1277.38001572
  entropy T*S    EENTRO =        -0.00000000
  eigenvalues    EBANDS =      -309.60036672
  atomic energy  EATOM  =      1005.47226262
  ---------------------------------------------------
  free energy    TOTEN  =       -68.90801646 eV

  energy without entropy =      -68.90801646  energy(sigma->0) =      -68.90801646
  exchange ACFDT corr.  =        -0.00000000  see jH, gK, PRB 81, 115126


--------------------------------------------------------------------------------------------------------




--------------------------------------- Iteration      1(  26)  ---------------------------------------


    POTLOK:  cpu time    8.1129: real time    8.1375
    SETDIJ:  cpu time    0.6044: real time    0.6075
    TRIAL :  cpu time  454.5037: real time  456.0570
    CORREC:  cpu time    0.0003: real time    0.0003
    CHARGE:  cpu time    1.3292: real time    1.3329
    --------------------------------------------
      LOOP:  cpu time  464.5511: real time  466.1363

 eigenvalue-minimisations  :     0
 total energy-change (2. order) :-0.1986456E-04  (-0.1053951E-04)
 number of electron      40.0000001 magnetization 
 augmentation part       -0.0964159 magnetization 

 Free energy of the ion-electron system (eV)
  ---------------------------------------------------
  alpha Z        PSCENC =        10.51583519
  Ewald energy   TEWEN  =      1402.00459324
  -Hartree energ DENC   =     -2316.01874905
  -exchange      EXHF   =        63.77710514
  -V(xc)+E(xc)   XCENC  =      -123.27897063
  PAW double counting   =      1475.60181234    -1277.38170365
  entropy T*S    EENTRO =        -0.00000000
  eigenvalues    EBANDS =      -309.60022151
  atomic energy  EATOM  =      1005.47226262
  ---------------------------------------------------
  free energy    TOTEN  =       -68.90803632 eV

  energy without entropy =      -68.90803632  energy(sigma->0) =      -68.90803632
  exchange ACFDT corr.  =        -0.00000000  see jH, gK, PRB 81, 115126


--------------------------------------------------------------------------------------------------------




--------------------------------------- Iteration      1(  27)  ---------------------------------------


    POTLOK:  cpu time    8.1311: real time    8.1417
    SETDIJ:  cpu time    0.6087: real time    0.6101
    TRIAL :  cpu time  454.6047: real time  456.6005
    CORREC:  cpu time    0.0004: real time    0.0004
    EDDIAG:  cpu time  446.4832: real time  448.8316
    CHARGE:  cpu time    1.3195: real time    1.3269
    --------------------------------------------
      LOOP:  cpu time  911.1483: real time  915.5125

 eigenvalue-minimisations  :     0
 total energy-change (2. order) :-0.9066518E-05  (-0.4678192E-05)
 number of electron      40.0000001 magnetization 
 augmentation part       -0.0964091 magnetization 

 Free energy of the ion-electron system (eV)
  ---------------------------------------------------
  alpha Z        PSCENC =        10.51583519
  Ewald energy   TEWEN  =      1402.00459324
  -Hartree energ DENC   =     -2316.02357756
  -exchange      EXHF   =        63.77738374
  -V(xc)+E(xc)   XCENC  =      -123.27876511
  PAW double counting   =      1475.61599582    -1277.39590905
  entropy T*S    EENTRO =        -0.00000000
  eigenvalues    EBANDS =      -309.59578353
  atomic energy  EATOM  =      1005.47226262
  ---------------------------------------------------
  free energy    TOTEN  =       -68.90804539 eV

  energy without entropy =      -68.90804539  energy(sigma->0) =      -68.90804539
  exchange ACFDT corr.  =        -0.00000000  see jH, gK, PRB 81, 115126


--------------------------------------------------------------------------------------------------------


  average scaling for gradient   0.9612


 average (electrostatic) potential at core
  the test charge radii are     1.0406  0.6991
  (the norm of the test charge is              1.0000)
       1 -55.4307       2 -55.4313       3 -55.4309       4 -55.4315       5 -55.4307
       6 -55.4313       7 -55.4309       8 -55.4315       9 -51.5937      10 -51.5937
      11 -51.5938      12 -51.5938



 E-fermi :  -2.5309     XC(G=0):  -2.4140     alpha+bet : -2.4030


 k-point     1 :       0.0000    0.0000    0.0000
  band No.  band energies     occupation 
      1     -15.8666      2.00000
      2     -15.6891      2.00000
      3     -13.5242      2.00000
      4     -13.4491      2.00000
      5     -10.1747      2.00000
      6      -9.9385      2.00000
      7      -9.9068      2.00000
      8      -7.6088      2.00000
      9      -7.0703      2.00000
     10      -6.6355      2.00000
     11      -5.8116      2.00000
     12      -5.7862      2.00000
     13      -5.3561      2.00000
     14      -5.2961      2.00000
     15      -4.0053      2.00000
     16      -3.8023      2.00000
     17      -3.7814      2.00000
     18      -2.9530      2.00000
     19      -2.9056      2.00000
     20      -2.7510      2.00000
     21      -1.6652      0.00000
     22      -0.9192      0.00000
     23      -0.1884      0.00000
     24       0.4441      0.00000
     25       0.5634      0.00000
     26       0.6813      0.00000
     27       0.9503      0.00000
     28       1.5859      0.00000

 k-point     2 :       0.2000    0.0000    0.0000
  band No.  band energies     occupation 
      1     -15.7281      2.00000
      2     -15.5544      2.00000
      3     -13.9411      2.00000
      4     -13.8363      2.00000
      5      -9.7712      2.00000
      6      -9.5170      2.00000
      7      -9.2743      2.00000
      8      -7.4785      2.00000
      9      -7.4358      2.00000
     10      -6.9317      2.00000
     11      -6.0478      2.00000
     12      -5.6277      2.00000
     13      -5.2035      2.00000
     14      -4.5893      2.00000
     15      -4.5417      2.00000
     16      -4.5337      2.00000
     17      -4.4703      2.00000
     18      -3.4773      2.00000
     19      -3.2136      2.00000
     20      -2.9539      2.00000
     21      -1.5045      0.00000
     22      -0.0294      0.00000
     23       0.4463      0.00000
     24       0.5517      0.00000
     25       0.7141      0.00000
     26       0.7679      0.00000
     27       0.8637      0.00000
     28       1.6534      0.00000

 k-point     3 :       0.4000    0.0000    0.0000
  band No.  band energies     occupation 
      1     -15.3216      2.00000
      2     -15.1598      2.00000
      3     -14.6846      2.00000
      4     -14.5446      2.00000
      5      -9.2752      2.00000
      6      -8.4733      2.00000
      7      -8.0886      2.00000
      8      -7.8505      2.00000
      9      -7.1087      2.00000
     10      -6.7634      2.00000
     11      -6.5750      2.00000
     12      -6.1379      2.00000
     13      -5.8581      2.00000
     14      -5.5045      2.00000
     15      -5.1578      2.00000
     16      -4.7535      2.00000
     17      -4.4034      2.00000
     18      -4.0439      2.00000
     19      -3.5070      2.00000
     20      -3.0495      2.00000
     21      -1.0252      0.00000
     22      -0.2431      0.00000
     23       0.8647      0.00000
     24       1.0166      0.00000
     25       1.1726      0.00000
     26       1.4152      0.00000
     27       2.1018      0.00000
     28       2.6698      0.00000

 k-point     4 :       0.0000    0.3333    0.0000
  band No.  band energies     occupation 
      1     -15.8247      2.00000
      2     -15.7361      2.00000
      3     -13.5059      2.00000
      4     -13.4683      2.00000
      5     -10.1135      2.00000
      6      -9.9803      2.00000
      7      -9.6162      2.00000
      8      -8.7196      2.00000
      9      -6.4592      2.00000
     10      -6.0535      2.00000
     11      -5.6937      2.00000
     12      -5.6564      2.00000
     13      -5.4812      2.00000
     14      -5.0158      2.00000
     15      -4.3840      2.00000
     16      -3.9383      2.00000
     17      -3.7972      2.00000
     18      -3.7869      2.00000
     19      -2.8688      2.00000
     20      -2.7915      2.00000
     21      -1.2712      0.00000
     22      -0.3345      0.00000
     23      -0.3282      0.00000
     24      -0.0326      0.00000
     25       0.4449      0.00000
     26       0.8556      0.00000
     27       1.1150      0.00000
     28       1.2965      0.00000

 k-point     5 :       0.2000    0.3333    0.0000
  band No.  band energies     occupation 
      1     -15.6870      2.00000
      2     -15.6003      2.00000
      3     -13.9157      2.00000
      4     -13.8633      2.00000
      5      -9.4639      2.00000
      6      -9.4526      2.00000
      7      -9.3440      2.00000
      8      -8.5668      2.00000
      9      -7.1704      2.00000
     10      -6.5241      2.00000
     11      -5.5662      2.00000
     12      -5.5362      2.00000
     13      -5.3267      2.00000
     14      -4.5638      2.00000
     15      -4.5204      2.00000
     16      -4.3793      2.00000
     17      -4.3743      2.00000
     18      -3.8479      2.00000
     19      -3.4168      2.00000
     20      -3.2853      2.00000
     21      -1.1153      0.00000
     22      -0.1738      0.00000
     23       0.0316      0.00000
     24       0.5033      0.00000
     25       0.6403      0.00000
     26       1.0213      0.00000
     27       1.0396      0.00000
     28       1.6093      0.00000

 k-point     6 :       0.4000    0.3333    0.0000
  band No.  band energies     occupation 
      1     -15.2832      2.00000
      2     -15.2024      2.00000
      3     -14.6511      2.00000
      4     -14.5812      2.00000
      5      -8.9702      2.00000
      6      -8.2591      2.00000
      7      -8.1286      2.00000
      8      -8.0860      2.00000
      9      -7.8137      2.00000
     10      -7.2855      2.00000
     11      -6.2601      2.00000
     12      -6.1650      2.00000
     13      -5.0872      2.00000
     14      -5.0700      2.00000
     15      -4.8700      2.00000
     16      -4.6716      2.00000
     17      -4.3241      2.00000
     18      -4.1457      2.00000
     19      -3.7908      2.00000
     20      -3.7241      2.00000
     21      -0.6559      0.00000
     22       0.0605      0.00000
     23       0.2168      0.00000
     24       0.6895      0.00000
     25       1.2319      0.00000
     26       1.3799      0.00000
     27       1.4694      0.00000
     28       1.6642      0.00000

 k-point     7 :      -0.4000    0.3333    0.0000
  band No.  band energies     occupation 
      1     -15.2832      2.00000
      2     -15.2024      2.00000
      3     -14.6511      2.00000
      4     -14.5812      2.00000
      5      -8.9702      2.00000
      6      -8.2591      2.00000
      7      -8.1286      2.00000
      8      -8.0859      2.00000
      9      -7.8136      2.00000
     10      -7.2856      2.00000
     11      -6.2600      2.00000
     12      -6.1650      2.00000
     13      -5.0872      2.00000
     14      -5.0700      2.00000
     15      -4.8700      2.00000
     16      -4.6716      2.00000
     17      -4.3241      2.00000
     18      -4.1458      2.00000
     19      -3.7908      2.00000
     20      -3.7241      2.00000
     21      -0.6569      0.00000
     22       0.0617      0.00000
     23       0.2165      0.00000
     24       0.6927      0.00000
     25       1.2021      0.00000
     26       1.3276      0.00000
     27       1.5307      0.00000
     28       1.6862      0.00000

 k-point     8 :      -0.2000    0.3333    0.0000
  band No.  band energies     occupation 
      1     -15.6870      2.00000
      2     -15.6003      2.00000
      3     -13.9157      2.00000
      4     -13.8633      2.00000
      5      -9.4639      2.00000
      6      -9.4526      2.00000
      7      -9.3440      2.00000
      8      -8.5668      2.00000
      9      -7.1703      2.00000
     10      -6.5241      2.00000
     11      -5.5662      2.00000
     12      -5.5362      2.00000
     13      -5.3267      2.00000
     14      -4.5638      2.00000
     15      -4.5204      2.00000
     16      -4.3793      2.00000
     17      -4.3743      2.00000
     18      -3.8479      2.00000
     19      -3.4168      2.00000
     20      -3.2853      2.00000
     21      -1.1151      0.00000
     22      -0.1743      0.00000
     23       0.0361      0.00000
     24       0.5259      0.00000
     25       0.6426      0.00000
     26       0.9945      0.00000
     27       1.0232      0.00000
     28       1.5034      0.00000


--------------------------------------------------------------------------------------------------------


 soft charge-density along one line, spin component           1
         0         1         2         3         4         5         6         7         8         9
 total charge-density along one line

 pseudopotential strength for first ion, spin component:           1
  7.202 -16.932  -0.005  -0.000  -0.000   0.026   0.000   0.000
-16.932  49.383   0.012   0.000   0.000  -0.056  -0.000  -0.000
 -0.005   0.012   1.704   0.000  -0.000  -6.737  -0.000   0.000
 -0.000   0.000   0.000   1.709  -0.000  -0.000  -6.760   0.000
 -0.000   0.000  -0.000  -0.000   1.704   0.000   0.000  -6.739
  0.026  -0.056  -6.737  -0.000   0.000  28.540   0.000  -0.000
  0.000  -0.000  -0.000  -6.760   0.000   0.000  28.629  -0.000
  0.000  -0.000   0.000   0.000  -6.739  -0.000  -0.000  28.547
 -0.000   0.000  -0.000  -0.000  -0.004   0.000   0.000   0.011
  0.000  -0.000  -0.000  -0.004  -0.000   0.000   0.010   0.000
  0.010  -0.012   0.002  -0.000   0.000  -0.005   0.000  -0.000
 -0.000   0.000  -0.000  -0.000  -0.000   0.000   0.000   0.000
  0.001  -0.001   0.002   0.000  -0.000  -0.007  -0.000   0.000
  0.000  -0.000   0.000   0.000   0.017  -0.000  -0.000  -0.058
 -0.000   0.000   0.000   0.016   0.000  -0.000  -0.055  -0.000
 -0.041   0.071  -0.007   0.000  -0.000   0.024  -0.000   0.000
  0.000  -0.000   0.000   0.000   0.000  -0.000  -0.000  -0.000
 -0.003   0.005  -0.011  -0.000   0.000   0.039   0.000  -0.000
 total augmentation occupancy for first ion, spin component:           1
  1.391   0.033  -0.003  -0.000   0.000   0.005   0.000   0.000   0.000   0.000  -0.107   0.000  -0.027   0.000  -0.000  -0.005
  0.033   0.001   0.008   0.000   0.000   0.000   0.000   0.000   0.000   0.000  -0.003   0.000  -0.000   0.000  -0.000  -0.000
 -0.003   0.008   1.368   0.000   0.000   0.028   0.000   0.000   0.000   0.000  -0.077   0.000   0.069   0.000   0.000  -0.003
 -0.000   0.000   0.000   0.413   0.000   0.000   0.007   0.000   0.000   0.063  -0.000   0.000  -0.000  -0.000   0.002  -0.000
  0.000   0.000   0.000   0.000   1.202   0.000  -0.000   0.026   0.251  -0.000  -0.000   0.000  -0.000   0.008  -0.000  -0.000
  0.005   0.000   0.028   0.000   0.000   0.001   0.000   0.000   0.000   0.000  -0.002   0.000   0.001   0.000   0.000  -0.000
  0.000   0.000   0.000   0.007  -0.000   0.000   0.000  -0.000  -0.000   0.001  -0.000   0.000   0.000  -0.000   0.000  -0.000
  0.000   0.000   0.000   0.000   0.026   0.000  -0.000   0.001   0.005  -0.000  -0.000   0.000  -0.000   0.000  -0.000  -0.000
  0.000   0.000   0.000   0.000   0.251   0.000  -0.000   0.005   0.072  -0.000  -0.000  -0.000  -0.000   0.002  -0.000  -0.000
  0.000   0.000   0.000   0.063  -0.000   0.000   0.001  -0.000  -0.000   0.010  -0.000   0.000   0.000  -0.000   0.000  -0.000
 -0.107  -0.003  -0.077  -0.000  -0.000  -0.002  -0.000  -0.000  -0.000  -0.000   0.014   0.000  -0.004  -0.000   0.000   0.001
  0.000   0.000   0.000   0.000   0.000   0.000   0.000   0.000  -0.000   0.000   0.000   0.022  -0.000   0.000   0.000  -0.000
 -0.027  -0.000   0.069  -0.000  -0.000   0.001   0.000  -0.000  -0.000   0.000  -0.004  -0.000   0.047  -0.000  -0.000  -0.000
  0.000   0.000   0.000  -0.000   0.008   0.000  -0.000   0.000   0.002  -0.000  -0.000   0.000  -0.000   0.000  -0.000  -0.000
 -0.000  -0.000   0.000   0.002  -0.000   0.000   0.000  -0.000  -0.000   0.000   0.000   0.000  -0.000  -0.000   0.000  -0.000
 -0.005  -0.000  -0.003  -0.000  -0.000  -0.000  -0.000  -0.000  -0.000  -0.000   0.001  -0.000  -0.000  -0.000  -0.000   0.000
 -0.000  -0.000  -0.000   0.000   0.000  -0.000   0.000   0.000   0.000   0.000   0.000   0.001  -0.000   0.000   0.000  -0.000
 -0.001  -0.000   0.001  -0.000   0.000   0.000  -0.000   0.000  -0.000  -0.000  -0.000  -0.000   0.001  -0.000  -0.000  -0.000


------------------------ aborting loop because EDIFF is reached ----------------------------------------


    FORLOC:  cpu time    0.1427: real time    0.1430
    FORHF :  cpu time  684.6664: real time  686.1583
    FORNL :  cpu time    5.4050: real time    5.4170
    STRESS:  cpu time   16.3493: real time   16.3945
    FORCOR:  cpu time    8.1095: real time    8.1168
    OFIELD:  cpu time    0.0088: real time    0.0089

  FORCE on cell =-STRESS in cart. coord.  units (eV):
  Direction    XX          YY          ZZ          XY          YZ          ZX
  --------------------------------------------------------------------------------------
  Alpha Z    10.51584    10.51584    10.51584
  Ewald    2324.41649  2042.34504 -2964.75788    -0.00236     0.00070     0.00001
  Hartree  2247.87890  2054.11110 -1985.96495    -0.00005     0.00038     0.00013
  E(xc)     -97.72713   -98.35444   -96.17866     0.00003    -0.00002     0.00000
  Local   -4943.60505 -4468.73822  4590.83899     0.00206    -0.00212    -0.00033
  n-local   122.95865   134.43611    88.16635     0.00127    -0.00104    -0.00213
  augment    -4.34007    -4.94307    -2.45597     0.00004     0.00001    -0.00000
  Kinetic   369.72022   356.31094   387.71186     0.00023     0.00183     0.00090
  Fock      -29.17972   -29.06188   -28.36274    -0.00006    -0.00011    -0.00008
  -------------------------------------------------------------------------------------
  Total       0.63812    -3.37858    -0.48718     0.00116    -0.00036    -0.00151
  in kB       1.11673    -5.91258    -0.85257     0.00203    -0.00064    -0.00265
  external pressure =       -1.88 kB  Pullay stress =        0.00 kB


 VOLUME and BASIS-vectors are now :
 -----------------------------------------------------------------------------
  energy-cutoff  :      450.00
  volume of cell :      915.52
      direct lattice vectors                 reciprocal lattice vectors
     6.019200000  0.000000000  0.000000000     0.166135035  0.000000000  0.000000000
     0.000000000 10.140000000  0.000000000     0.000000000  0.098619329  0.000000000
     0.000000000  0.000000000 15.000000000     0.000000000  0.000000000  0.066666667

  length of vectors
     6.019200000 10.140000000 15.000000000     0.166135035  0.098619329  0.066666667


 FORCES acting on ions:
    Electron-Ion                     Ewald-Force                    Non-Local-Force
 -----------------------------------------------------------------------------------------------
   0.581E-02 0.509E+02 0.279E-02   -.269E-02 -.482E+02 -.263E-02   -.411E-02 -.303E+01 0.878E-04
   0.256E-01 0.509E+02 0.429E-02   -.222E-01 -.482E+02 -.395E-02   -.931E-02 -.303E+01 -.463E-04
   0.607E-02 -.509E+02 0.272E-02   -.327E-02 0.482E+02 -.271E-02   -.436E-02 0.303E+01 0.100E-03
   0.259E-01 -.509E+02 0.248E-02   -.225E-01 0.482E+02 -.244E-02   -.906E-02 0.303E+01 0.739E-04
   0.600E-02 0.509E+02 0.234E-02   -.279E-02 -.482E+02 -.233E-02   -.482E-02 -.303E+01 -.143E-04
   0.253E-01 0.509E+02 0.373E-02   -.222E-01 -.482E+02 -.375E-02   -.869E-02 -.303E+01 0.520E-04
   0.678E-02 -.509E+02 0.338E-02   -.341E-02 0.482E+02 -.304E-02   -.491E-02 0.303E+01 -.877E-05
   0.259E-01 -.509E+02 0.309E-02   -.224E-01 0.482E+02 -.282E-02   -.860E-02 0.303E+01 0.420E-04
   -.543E-02 -.743E-03 -.778E-02   0.101E-01 0.128E-02 0.794E-02   -.586E-02 -.138E-02 0.521E-03
   -.387E-01 -.363E-02 -.713E-02   0.407E-01 0.341E-02 0.707E-02   0.589E-02 0.407E-04 0.988E-03
   -.466E-02 -.271E-02 -.172E-02   0.978E-02 0.240E-02 0.440E-02   -.583E-02 0.546E-03 -.323E-02
   -.391E-01 -.154E-02 -.227E-02   0.410E-01 0.200E-02 0.426E-02   0.660E-02 -.143E-02 -.193E-02
 -----------------------------------------------------------------------------------------------
   0.442E-01 0.483E-02 0.597E-02   -.724E-14 0.302E-13 -.867E-18   -.531E-01 -.817E-02 -.336E-02


 POSITION                                       TOTAL-FORCE (eV/Angst)
 -----------------------------------------------------------------------------------
      2.53347      8.67719      3.99999         0.000034      0.005219      0.000035
      5.54323      8.67736      3.99998        -0.004490      0.002737      0.000087
      2.53347      6.06283      3.99998        -0.000503     -0.004958     -0.000100
      5.54325      6.06268      3.99998        -0.004213     -0.002612     -0.000094
      2.53346      3.60720      3.99998        -0.000532      0.005117     -0.000203
      5.54325      3.60736      3.99997        -0.004227      0.002721     -0.000168
      2.53346      0.99283      3.99999        -0.000454     -0.004972      0.000131
      5.54327      0.99268      3.99999        -0.003708     -0.002652      0.000109
      1.02864      9.90495      4.00005        -0.000576     -0.000596      0.000521
      4.03793      9.90498      4.00005         0.009034      0.000147      0.000788
      1.02864      4.83497      4.00002        -0.000063      0.000568     -0.000882
      4.03793      4.83496      4.00002         0.009699     -0.000718     -0.000224
 -----------------------------------------------------------------------------------
    total drift:                               -0.009469     -0.003586      0.002518


--------------------------------------------------------------------------------------------------------



  FREE ENERGIE OF THE ION-ELECTRON SYSTEM (eV)
  ---------------------------------------------------
  free  energy   TOTEN  =       -68.90804539 eV

  energy  without entropy=      -68.90804539  energy(sigma->0) =      -68.90804539



--------------------------------------------------------------------------------------------------------


    POTLOK:  cpu time    8.7680: real time    8.7795


--------------------------------------------------------------------------------------------------------


 stress matrix after NEB project (eV)
      0.63812      0.00116     -0.00151
      0.00116     -3.37858     -0.00036
     -0.00151     -0.00036     -0.48718
  FORCES: max atom, RMS     0.009728    0.005633
  FORCE total and by dimension    0.019515    0.009699
  Stress total and by dimension    3.472661    3.378582


--------------------------------------------------------------------------------------------------------


  
 reached required accuracy - stopping structural energy minimisation
     LOOP+:  cpu time10697.9608: real time10740.4834
    4ORBIT:  cpu time    0.0000: real time    0.0000

 total amount of memory used by VASP MPI-rank0   170471. kBytes
=======================================================================

   base      :      30000. kBytes
   nonlr-proj:      14905. kBytes
   fftplans  :      22787. kBytes
   grid      :      48545. kBytes
   one-center:        186. kBytes
   HF        :        129. kBytes
   wavefun   :      53919. kBytes

  
  
 General timing and accounting informations for this job:
 ========================================================
  
                  Total CPU time used (sec):    10750.421
                            User time (sec):    10639.833
                          System time (sec):      110.588
                         Elapsed time (sec):    10807.260
  
                   Maximum memory used (kb):      356800.
                   Average memory used (kb):           0.
  
                          Minor page faults:     11900434
                          Major page faults:          108
                 Voluntary context switches:         3391
